LOCATION,BUSAN,<not available>,<not available>,<not available>,<not available>,35.1,-129.03,-9,33
DESIGN CONDITIONS,0
TYPICAL/EXTREME PERIODS,0
GROUND TEMPERATURES,0
HOLIDAYS/DAYLIGHT SAVINGS,No,0,0,0
COMMENTS 1, NA
COMMENTS 2, NA
DATA PERIODS,1,1,Data,Sunday,1/1,12/31
2009,1,1,1,0,,-1.6,-12.2,44,101200,0,0,231,0,0,0,0,0,0,0,160,2,0,0,0,0,0,0,0,0,0,0,0,0,0
2009,1,1,2,0,,-2.1,-11.9,47,101230,0,0,229,0,0,0,0,0,0,0,290,2.4,0,0,0,0,0,0,0,0,0,0,0,0,0
2009,1,1,3,0,,-2.3,-11.5,49,101240,0,0,229,0,0,0,0,0,0,0,290,3.2,0,0,0,0,0,0,0,0,0,0,0,0,0
2009,1,1,4,0,,-2.7,-11.4,51,101210,0,0,227,0,0,0,0,0,0,0,290,2.8,0,0,0,0,0,0,0,0,0,0,0,0,0
2009,1,1,5,0,,-3.1,-11.3,53,101220,0,0,226,0,0,0,0,0,0,0,230,1.8,0,0,0,0,0,0,0,0,0,0,0,0,0
2009,1,1,6,0,,-3.4,-11.1,55,101240,0,0,225,0,0,0,0,0,0,0,180,1.6,0,0,0,0,0,0,0,0,0,0,0,0,0
2009,1,1,7,0,,-3.6,-12,52,101270,0,0,223,0,0,0,0,0,0,0,320,1.7,0,0,0,0,0,0,0,0,0,0,0,0,0
2009,1,1,8,0,,-3.8,-13.4,47,101310,0,0,222,22,9,13,1760,770,1542,0,20,1.7,0,0,0,0,0,0,0,0,0,0,0,0,0
2009,1,1,9,0,,-3.8,-15.4,40,101270,0,0,221,135,657,31,30620,62939,4842,0,340,6.4,0,0,0,0,0,0,0,0,0,0,0,0,0
2009,1,1,10,0,,-1.9,-15.7,34,101370,0,0,228,282,721,56,43157,70594,8393,0,110,3,0,0,0,0,0,0,0,0,0,0,0,0,0
2009,1,1,11,0,,-2,-16.5,32,101330,0,0,227,406,771,73,51189,76945,10675,0,290,6.2,0,0,0,0,0,0,0,0,0,0,0,0,0
2009,1,1,12,0,,-0.4,-16.3,29,101280,0,0,234,480,779,87,51724,76816,12588,0,320,3.3,0,0,0,0,0,0,0,0,0,0,0,0,0
2009,1,1,13,0,,0.7,-16.2,27,101200,0,0,236,496,754,98,46417,72939,14143,0,320,3.8,0,0,0,0,0,0,0,0,0,0,0,0,0
2009,1,1,14,0,,2.4,-15.6,25,101160,0,0,242,486,814,79,35812,73477,11559,0,90,2.6,0,0,0,0,0,0,0,0,0,0,0,0,0
2009,1,1,15,0,,3.1,-15,25,101180,0,0,245,408,815,63,19407,57879,8992,0,20,3,0,0,0,0,0,0,0,0,0,0,0,0,0
2009,1,1,16,0,,3,-15.1,25,101220,0,0,245,277,756,49,5008,0,5008,0,160,2.8,0,0,0,0,0,0,0,0,0,0,0,0,0
2009,1,1,17,0,,1.9,-15.6,26,101300,0,0,240,121,92,29,0,0,0,0,250,3.1,0,0,0,0,0,0,0,0,0,0,0,0,0
2009,1,1,18,0,,1,-15.5,28,101360,0,0,237,15,7,8,0,0,0,0,140,1.6,0,0,0,0,0,0,0,0,0,0,0,0,0
2009,1,1,19,0,,0.7,-17.1,25,101400,0,0,235,0,0,0,0,0,0,0,360,3.6,0,0,0,0,0,0,0,0,0,0,0,0,0
2009,1,1,20,0,,0.1,-15.8,29,101470,0,0,234,0,0,0,0,0,0,0,340,4.2,0,0,0,0,0,0,0,0,0,0,0,0,0
2009,1,1,21,0,,-0.4,-16.3,29,101490,0,0,234,0,0,0,0,0,0,0,340,6.4,0,0,0,0,0,0,0,0,0,0,0,0,0
2009,1,1,22,0,,-0.8,-15.4,32,101550,0,0,232,0,0,0,0,0,0,0,320,6.2,0,0,0,0,0,0,0,0,0,0,0,0,0
2009,1,1,23,0,,-0.8,-15.4,32,101570,0,0,232,0,0,0,0,0,0,0,360,5.7,0,0,0,0,0,0,0,0,0,0,0,0,0
2009,1,1,24,0,,-1,-15.2,33,101570,0,0,232,0,0,0,0,0,0,0,360,4.8,0,0,0,0,0,0,0,0,0,0,0,0,0
2009,1,2,1,0,,-1.2,-15,34,101510,0,0,231,0,0,0,0,0,0,0,290,5.5,0,0,0,0,0,0,0,0,0,0,0,0,0
2009,1,2,2,0,,-1.4,-15.2,34,101500,0,0,230,0,0,0,0,0,0,0,290,5.8,0,0,0,0,0,0,0,0,0,0,0,0,0
2009,1,2,3,0,,-1.7,-14.8,36,101520,0,0,229,0,0,0,0,0,0,0,340,7.9,0,0,0,0,0,0,0,0,0,0,0,0,0
2009,1,2,4,0,,-2.3,-14.4,39,101530,0,0,227,0,0,0,0,0,0,0,340,7.9,0,0,0,0,0,0,0,0,0,0,0,0,0
2009,1,2,5,0,,-2.3,-14.1,40,101560,0,0,227,0,0,0,0,0,0,0,340,7.1,0,0,0,0,0,0,0,0,0,0,0,0,0
2009,1,2,6,0,,-2.3,-13.7,41,101570,0,0,227,0,0,0,0,0,0,0,340,10.4,0,0,0,0,0,0,0,0,0,0,0,0,0
2009,1,2,7,0,,-2.4,-13.5,42,101690,0,0,227,0,0,0,0,0,0,0,340,6.4,0,0,0,0,0,0,0,0,0,0,0,0,0
2009,1,2,8,0,,-2.1,-13.3,42,101740,0,0,228,22,10,12,1890,899,1635,0,320,1.7,0,0,0,0,0,0,0,0,0,0,0,0,0
2009,1,2,9,0,,-0.8,-13,39,101770,0,0,233,136,667,30,30981,64006,4737,0,180,2.3,0,0,0,0,0,0,0,0,0,0,0,0,0
2009,1,2,10,0,,1.7,-12.8,33,101820,0,0,241,297,801,46,45742,78550,6992,0,180,3.7,0,0,0,0,0,0,0,0,0,0,0,0,0
2009,1,2,11,0,,2,-13,32,101760,0,0,242,423,838,61,52667,82604,9067,0,290,4.8,0,0,0,0,0,0,0,0,0,0,0,0,0
2009,1,2,12,0,,3.5,-12.4,30,101720,0,0,249,496,831,76,53298,82401,11178,0,340,5.6,0,0,0,0,0,0,0,0,0,0,0,0,0
2009,1,2,13,0,,4.7,-13.2,26,101700,0,0,253,509,793,89,46948,76305,13032,0,340,4.4,0,0,0,0,0,0,0,0,0,0,0,0,0
2009,1,2,14,0,,5.9,-13.1,24,101670,0,0,257,497,848,72,36482,77095,10860,0,290,5.1,0,0,0,0,0,0,0,0,0,0,0,0,0
2009,1,2,15,0,,6.6,-13.1,23,101650,0,0,260,411,821,63,19647,58706,8941,0,290,3.9,0,0,0,0,0,0,0,0,0,0,0,0,0
2009,1,2,16,0,,7.3,-12.5,23,101680,0,0,263,286,792,46,4794,0,4794,0,270,3,0,0,0,0,0,0,0,0,0,0,0,0,0
2009,1,2,17,0,,5.8,-12.2,26,101700,0,0,258,121,91,30,0,0,0,0,230,2,0,0,0,0,0,0,0,0,0,0,0,0,0
2009,1,2,18,0,,4.8,-12.6,27,101760,0,0,253,16,9,8,0,0,0,0,320,1.8,0,0,0,0,0,0,0,0,0,0,0,0,0
2009,1,2,19,0,,4.2,-13.1,27,101800,0,0,251,0,0,0,0,0,0,0,320,3.4,0,0,0,0,0,0,0,0,0,0,0,0,0
2009,1,2,20,0,,4.2,-13.6,26,101830,0,0,250,0,0,0,0,0,0,0,320,2.6,0,0,0,0,0,0,0,0,0,0,0,0,0
2009,1,2,21,0,,3.9,-13.9,26,101830,0,0,249,0,0,0,0,0,0,0,340,5.2,0,0,0,0,0,0,0,0,0,0,0,0,0
2009,1,2,22,0,,3.3,-13.9,27,101840,0,0,247,0,0,0,0,0,0,0,360,4,0,0,0,0,0,0,0,0,0,0,0,0,0
2009,1,2,23,0,,2.9,-13.4,29,101840,0,0,245,0,0,0,0,0,0,0,340,6.8,0,0,0,0,0,0,0,0,0,0,0,0,0
2009,1,2,24,0,,2.4,-13.8,29,101800,0,0,243,0,0,0,0,0,0,0,340,7.4,0,0,0,0,0,0,0,0,0,0,0,0,0
2009,1,3,1,0,,2.2,-14.4,28,101800,0,0,242,0,0,0,0,0,0,0,360,4.8,0,0,0,0,0,0,0,0,0,0,0,0,0
2009,1,3,2,0,,2.1,-14.1,29,101800,0,0,242,0,0,0,0,0,0,0,340,4.8,0,0,0,0,0,0,0,0,0,0,0,0,0
2009,1,3,3,0,,1.8,-13.9,30,101810,0,0,241,0,0,0,0,0,0,0,360,5.8,0,0,0,0,0,0,0,0,0,0,0,0,0
2009,1,3,4,0,,0.9,-13.9,32,101840,0,0,238,0,0,0,0,0,0,0,340,6.3,0,0,0,0,0,0,0,0,0,0,0,0,0
2009,1,3,5,0,,1.1,-14.5,30,101840,0,0,238,0,0,0,0,0,0,0,360,1.9,0,0,0,0,0,0,0,0,0,0,0,0,0
2009,1,3,6,0,,1.6,-15.8,26,101850,0,0,239,0,0,0,0,0,0,0,340,1.8,0,0,0,0,0,0,0,0,0,0,0,0,0
2009,1,3,7,0,,1.7,-13.6,31,101900,0,0,241,0,0,0,0,0,0,0,20,1.2,0,0,0,0,0,0,0,0,0,0,0,0,0
2009,1,3,8,0,,2,-16.5,24,101910,0,0,240,24,13,11,1797,1200,1456,0,270,1.5,0,0,0,0,0,0,0,0,0,0,0,0,0
2009,1,3,9,0,,2.9,-15.2,25,101950,0,0,244,138,694,28,31823,66592,4482,0,340,2.4,0,0,0,0,0,0,0,0,0,0,0,0,0
2009,1,3,10,0,,6.2,-11,28,101950,0,0,260,298,803,46,45919,78781,6977,0,160,1.7,0,0,0,0,0,0,0,0,0,0,0,0,0
2009,1,3,11,0,,5.9,-16.6,18,101930,0,0,254,425,845,60,52968,83281,8895,0,360,3.6,0,0,0,0,0,0,0,0,0,0,0,0,0
2009,1,3,12,0,,8.2,-15.4,17,101830,0,0,263,508,869,69,53858,85245,10132,0,360,2.1,0,0,0,0,0,0,0,0,0,0,0,0,0
2009,1,3,13,0,,7.7,-15.8,17,101740,0,0,261,504,773,94,47243,75024,13737,0,320,4,0,0,0,0,0,0,0,0,0,0,0,0,0
2009,1,3,14,0,,8.7,-16.5,15,101670,0,0,264,493,829,76,36589,75158,11434,0,340,4.8,0,0,0,0,0,0,0,0,0,0,0,0,0
2009,1,3,15,0,,9.2,-16.9,14,101640,0,0,265,402,778,70,20063,55534,9798,0,340,4.1,0,0,0,0,0,0,0,0,0,0,0,0,0
2009,1,3,16,0,,10,-14.7,16,101660,0,0,270,285,776,48,5018,0,5018,0,340,2.3,0,0,0,0,0,0,0,0,0,0,0,0,0
2009,1,3,17,0,,8.6,-15.1,17,101690,0,0,265,125,96,29,0,0,0,0,270,1.4,0,0,0,0,0,0,0,0,0,0,0,0,0
2009,1,3,18,0,,6.9,-15.1,19,101720,0,0,259,17,9,8,0,0,0,0,270,0.7,0,0,0,0,0,0,0,0,0,0,0,0,0
2009,1,3,19,0,,6.3,-14.4,21,101700,0,0,258,0,0,0,0,0,0,0,340,2.5,0,0,0,0,0,0,0,0,0,0,0,0,0
2009,1,3,20,0,,6.3,-15,20,101720,0,0,257,0,0,0,0,0,0,0,340,2.8,0,0,0,0,0,0,0,0,0,0,0,0,0
2009,1,3,21,0,,5.5,-15.1,21,101730,0,0,254,0,0,0,0,0,0,0,360,2.5,0,0,0,0,0,0,0,0,0,0,0,0,0
2009,1,3,22,0,,4.4,-13.9,25,101730,0,0,251,0,0,0,0,0,0,0,320,2.1,0,0,0,0,0,0,0,0,0,0,0,0,0
2009,1,3,23,0,,4.7,-14.7,23,101690,0,0,251,0,0,0,0,0,0,0,360,4.6,0,0,0,0,0,0,0,0,0,0,0,0,0
2009,1,3,24,0,,4.3,-14,25,101690,0,0,250,0,0,0,0,0,0,0,360,5,0,0,0,0,0,0,0,0,0,0,0,0,0
2009,1,4,1,0,,4.3,-14,25,101630,0,0,250,0,0,0,0,0,0,0,340,4.3,0,0,0,0,0,0,0,0,0,0,0,0,0
2009,1,4,2,0,,4.2,-14.1,25,101630,0,0,250,0,0,0,0,0,0,0,340,2.8,0,0,0,0,0,0,0,0,0,0,0,0,0
2009,1,4,3,0,,3.4,-14.3,26,101660,0,0,247,0,0,0,0,0,0,0,360,7.2,0,0,0,0,0,0,0,0,0,0,0,0,0
2009,1,4,4,0,,3.5,-13.7,27,101620,0,0,248,0,0,0,0,0,0,0,340,6.2,0,0,0,0,0,0,0,0,0,0,0,0,0
2009,1,4,5,0,,3.4,-14.3,26,101560,0,0,247,0,0,0,0,0,0,0,340,1.8,0,0,0,0,0,0,0,0,0,0,0,0,0
2009,1,4,6,0,,3.1,-13.6,28,101570,0,0,246,0,0,0,0,0,0,0,360,2.5,0,0,0,0,0,0,0,0,0,0,0,0,0
2009,1,4,7,0,,3.6,-13.2,28,101650,0,0,253,0,0,0,0,0,0,0,20,2.8,1,0,0,0,0,0,0,0,0,0,0,0,0
2009,1,4,8,0,,3.4,-13.8,27,101640,0,0,264,19,9,10,1611,765,1394,0,340,5.9,6,0,0,0,0,0,0,0,0,0,0,0,0
2009,1,4,9,0,,3.9,-13.9,26,101660,0,0,279,80,179,52,14848,17213,7769,0,340,5.9,9,0,0,0,0,0,0,0,0,0,0,0,0
2009,1,4,10,0,,5.3,-14.7,22,101670,0,0,279,197,294,105,28767,29215,14294,0,360,3.1,8,0,0,0,0,0,0,0,0,0,0,0,0
2009,1,4,11,0,,5.9,-14.8,21,101660,0,0,281,280,276,161,34090,28454,18990,0,340,2.8,8,0,0,0,0,0,0,0,0,0,0,0,0
2009,1,4,12,0,,5.4,-14.1,23,101590,0,0,280,330,255,201,36477,26020,23081,0,340,5.3,8,0,0,0,0,0,0,0,0,0,0,0,0
2009,1,4,13,0,,5.4,-13.6,24,101510,0,0,294,233,79,191,24977,7677,21532,0,340,5.6,10,0,0,0,0,0,0,0,0,0,0,0,0
2009,1,4,14,0,,6.1,-14,22,101420,0,0,297,221,81,180,22696,7573,20143,0,340,5.2,10,0,0,0,0,0,0,0,0,0,0,0,0
2009,1,4,15,0,,6.6,-13.6,22,101410,0,0,299,190,91,151,18038,7477,16637,0,340,4,10,0,0,0,0,0,0,0,0,0,0,0,0
2009,1,4,16,0,,6.9,-13.4,22,101440,0,0,301,136,102,104,10955,6419,10892,0,340,4.7,10,0,0,0,0,0,0,0,0,0,0,0,0
2009,1,4,17,0,,6.5,-13.1,23,101450,0,0,281,99,325,49,0,0,0,0,320,3.9,7,0,0,0,0,0,0,0,0,0,0,0,0
2009,1,4,18,0,,5.7,-12.8,25,101470,0,0,270,18,9,8,0,0,0,0,340,4.1,4,0,0,0,0,0,0,0,0,0,0,0,0
2009,1,4,19,0,,6,-13,24,101470,0,0,268,0,0,0,0,0,0,0,340,4.6,3,0,0,0,0,0,0,0,0,0,0,0,0
2009,1,4,20,0,,4.9,-12.5,27,101490,0,0,260,0,0,0,0,0,0,0,290,1.9,1,0,0,0,0,0,0,0,0,0,0,0,0
2009,1,4,21,0,,5.7,-13.8,23,101470,0,0,256,0,0,0,0,0,0,0,360,2.6,0,0,0,0,0,0,0,0,0,0,0,0,0
2009,1,4,22,0,,5.2,-13.2,25,101480,0,0,255,0,0,0,0,0,0,0,340,5.4,0,0,0,0,0,0,0,0,0,0,0,0,0
2009,1,4,23,0,,4.6,-13.3,26,101500,0,0,252,0,0,0,0,0,0,0,360,6.2,0,0,0,0,0,0,0,0,0,0,0,0,0
2009,1,4,24,0,,4.5,-12.4,28,101490,0,0,252,0,0,0,0,0,0,0,360,3.9,0,0,0,0,0,0,0,0,0,0,0,0,0
2009,1,5,1,0,,4,-12.4,29,101460,0,0,251,0,0,0,0,0,0,0,340,4.8,0,0,0,0,0,0,0,0,0,0,0,0,0
2009,1,5,2,0,,3.6,-11.5,32,101450,0,0,250,0,0,0,0,0,0,0,340,6,0,0,0,0,0,0,0,0,0,0,0,0,0
2009,1,5,3,0,,3.2,-11.5,33,101470,0,0,248,0,0,0,0,0,0,0,250,1.5,0,0,0,0,0,0,0,0,0,0,0,0,0
2009,1,5,4,0,,3.6,-11.9,31,101480,0,0,249,0,0,0,0,0,0,0,360,2.8,0,0,0,0,0,0,0,0,0,0,0,0,0
2009,1,5,5,0,,3.8,-12.6,29,101460,0,0,267,0,0,0,0,0,0,0,360,3.9,6,0,0,0,0,0,0,0,0,0,0,0,0
2009,1,5,6,0,,2.9,-12.2,32,101480,0,0,255,0,0,0,0,0,0,0,360,4.3,2,0,0,0,0,0,0,0,0,0,0,0,0
2009,1,5,7,0,,3,-12.9,30,101520,0,0,246,0,0,0,0,0,0,0,20,3.7,0,0,0,0,0,0,0,0,0,0,0,0,0
2009,1,5,8,0,,2.8,-12.3,32,101500,0,0,254,23,12,11,1814,1115,1497,0,360,7,2,0,0,0,0,0,0,0,0,0,0,0,0
2009,1,5,9,0,,3.1,-12,32,101510,0,0,258,134,649,31,30584,62371,4885,0,360,5.4,3,0,0,0,0,0,0,0,0,0,0,0,0
2009,1,5,10,0,,3.7,-11.5,32,101550,0,0,261,286,740,54,44139,72624,8075,0,360,8.1,3,0,0,0,0,0,0,0,0,0,0,0,0
2009,1,5,11,0,,4.6,-11.5,30,101550,0,0,254,410,779,72,51431,76842,10526,0,360,6.2,0,0,0,0,0,0,0,0,0,0,0,0,0
2009,1,5,12,0,,5.7,-11.4,28,101520,0,0,258,473,742,96,51484,73055,13729,0,340,2.9,0,0,0,0,0,0,0,0,0,0,0,0,0
2009,1,5,13,0,,7.8,-11,25,101400,0,0,266,512,789,91,47596,76105,13266,0,110,2.3,0,0,0,0,0,0,0,0,0,0,0,0,0
2009,1,5,14,0,,8.6,-10.3,25,101370,0,0,270,485,790,85,36688,71580,12376,0,230,2,0,0,0,0,0,0,0,0,0,0,0,0,0
2009,1,5,15,0,,8.4,-10.5,25,101340,0,0,269,409,789,69,20605,57069,9758,0,270,3.5,0,0,0,0,0,0,0,0,0,0,0,0,0
2009,1,5,16,0,,7.8,-9.6,28,101370,0,0,268,269,666,62,6259,0,6259,0,360,2.3,0,0,0,0,0,0,0,0,0,0,0,0,0
2009,1,5,17,0,,6.9,-8.6,32,101410,0,0,265,123,574,35,0,0,0,0,360,2.6,0,0,0,0,0,0,0,0,0,0,0,0,0
2009,1,5,18,0,,6.3,-8.4,34,101460,0,0,263,19,10,8,0,0,0,0,340,2.1,0,0,0,0,0,0,0,0,0,0,0,0,0
2009,1,5,19,0,,5.7,-7.5,38,101580,0,0,261,0,0,0,0,0,0,0,270,1.8,0,0,0,0,0,0,0,0,0,0,0,0,0
2009,1,5,20,0,,4.5,-6.1,46,101650,0,0,258,0,0,0,0,0,0,0,360,1.5,0,0,0,0,0,0,0,0,0,0,0,0,0
2009,1,5,21,0,,3.5,-6.2,49,101720,0,0,254,0,0,0,0,0,0,0,20,2.4,0,0,0,0,0,0,0,0,0,0,0,0,0
2009,1,5,22,0,,3,-6.1,51,101780,0,0,252,0,0,0,0,0,0,0,360,2,0,0,0,0,0,0,0,0,0,0,0,0,0
2009,1,5,23,0,,2.7,-7.7,46,101750,0,0,249,0,0,0,0,0,0,0,340,4.1,0,0,0,0,0,0,0,0,0,0,0,0,0
2009,1,5,24,0,,2.1,-7.7,48,101750,0,0,247,0,0,0,0,0,0,0,360,3.2,0,0,0,0,0,0,0,0,0,0,0,0,0
2009,1,6,1,0,,1.3,-7.4,52,101770,0,0,244,0,0,0,0,0,0,0,290,2.2,0,0,0,0,0,0,0,0,0,0,0,0,0
2009,1,6,2,0,,1.1,-7.1,54,101710,0,0,244,0,0,0,0,0,0,0,340,5.5,0,0,0,0,0,0,0,0,0,0,0,0,0
2009,1,6,3,0,,0.8,-7.2,55,101740,0,0,243,0,0,0,0,0,0,0,340,4.7,0,0,0,0,0,0,0,0,0,0,0,0,0
2009,1,6,4,0,,0.4,-6.9,58,101700,0,0,241,0,0,0,0,0,0,0,340,5.4,0,0,0,0,0,0,0,0,0,0,0,0,0
2009,1,6,5,0,,0.1,-6.7,60,101710,0,0,241,0,0,0,0,0,0,0,340,2.8,0,0,0,0,0,0,0,0,0,0,0,0,0
2009,1,6,6,0,,0,-6.8,60,101790,0,0,240,0,0,0,0,0,0,0,340,2.8,0,0,0,0,0,0,0,0,0,0,0,0,0
2009,1,6,7,0,,1,-7.2,54,101820,0,0,243,0,0,0,0,0,0,0,360,3.3,0,0,0,0,0,0,0,0,0,0,0,0,0
2009,1,6,8,0,,0.9,-6.6,57,101820,0,0,248,21,9,13,1732,740,1521,0,340,0.5,1,0,0,0,0,0,0,0,0,0,0,0,0
2009,1,6,9,0,,2.5,-7.1,49,101860,0,0,257,132,627,33,29998,60309,5094,0,340,1.1,2,0,0,0,0,0,0,0,0,0,0,0,0
2009,1,6,10,0,,5.4,-6.5,42,101900,0,0,261,289,754,52,44774,74193,7833,0,340,1.5,0,0,0,0,0,0,0,0,0,0,0,0,0
2009,1,6,11,0,,5.7,-7.8,37,101880,0,0,261,413,788,70,51901,77815,10344,0,360,3.2,0,0,0,0,0,0,0,0,0,0,0,0,0
2009,1,6,12,0,,8.3,-7,33,101790,0,0,272,494,809,82,53583,80329,11902,0,160,1.4,0,0,0,0,0,0,0,0,0,0,0,0,0
2009,1,6,13,0,,9.8,-5.3,34,101720,0,0,289,505,762,98,47727,73719,14298,0,180,2.8,2,0,0,0,0,0,0,0,0,0,0,0,0
2009,1,6,14,0,,9.4,-3.8,39,101630,0,0,296,422,562,136,34366,50117,17214,0,200,2.9,5,0,0,0,0,0,0,0,0,0,0,0,0
2009,1,6,15,0,,9.6,-4,38,101580,0,0,297,329,456,131,20953,31289,14921,0,180,1.5,5,0,0,0,0,0,0,0,0,0,0,0,0
2009,1,6,16,0,,9.3,-2.9,42,101600,0,0,289,250,550,78,7398,3678,7342,0,90,0.5,2,0,0,0,0,0,0,0,0,0,0,0,0
2009,1,6,17,0,,7.6,-3.3,46,101620,0,0,287,109,408,46,0,0,0,0,340,1.7,4,0,0,0,0,0,0,0,0,0,0,0,0
2009,1,6,18,0,,6.5,-3.4,49,101660,0,0,284,15,5,10,0,0,0,0,340,2.2,5,0,0,0,0,0,0,0,0,0,0,0,0
2009,1,6,19,0,,6.2,-4.2,47,101690,0,0,284,0,0,0,0,0,0,0,340,2.4,6,0,0,0,0,0,0,0,0,0,0,0,0
2009,1,6,20,0,,6.4,-4.1,47,101710,0,0,289,0,0,0,0,0,0,0,340,2.3,7,0,0,0,0,0,0,0,0,0,0,0,0
2009,1,6,21,0,,6.4,-3.5,49,101730,0,0,294,0,0,0,0,0,0,0,340,1,8,0,0,0,0,0,0,0,0,0,0,0,0
2009,1,6,22,0,,6.4,-3.8,48,101740,0,0,290,0,0,0,0,0,0,0,340,3.1,7,0,0,0,0,0,0,0,0,0,0,0,0
2009,1,6,23,0,,6.2,-4.5,46,101750,0,0,286,0,0,0,0,0,0,0,340,4.1,7,0,0,0,0,0,0,0,0,0,0,0,0
2009,1,6,24,0,,6.1,-5.2,44,101690,0,0,283,0,0,0,0,0,0,0,360,2.6,6,0,0,0,0,0,0,0,0,0,0,0,0
2009,1,7,1,0,,5.3,-6.6,42,101620,0,0,281,0,0,0,0,0,0,0,340,3.9,7,0,0,0,0,0,0,0,0,0,0,0,0
2009,1,7,2,0,,5.1,-7.7,39,101630,0,0,281,0,0,0,0,0,0,0,340,4.9,7,0,0,0,0,0,0,0,0,0,0,0,0
2009,1,7,3,0,,5.3,-8.2,37,101630,0,0,285,0,0,0,0,0,0,0,320,1.3,8,0,0,0,0,0,0,0,0,0,0,0,0
2009,1,7,4,0,,4.6,-10.7,32,101620,0,0,265,0,0,0,0,0,0,0,360,5.3,3,0,0,0,0,0,0,0,0,0,0,0,0
2009,1,7,5,0,,4.6,-11.1,31,101630,0,0,275,0,0,0,0,0,0,0,360,3.6,7,0,0,0,0,0,0,0,0,0,0,0,0
2009,1,7,6,0,,3.4,-11,34,101640,0,0,264,0,0,0,0,0,0,0,360,5.8,5,0,0,0,0,0,0,0,0,0,0,0,0
2009,1,7,7,0,,2.5,-12.5,32,101690,0,0,257,0,0,0,0,0,0,0,340,6.4,4,0,0,0,0,0,0,0,0,0,0,0,0
2009,1,7,8,0,,2.3,-12.3,33,101710,0,0,255,21,9,12,1896,819,1662,0,340,6.1,3,0,0,0,0,0,0,0,0,0,0,0,0
2009,1,7,9,0,,3.6,-12.4,30,101780,0,0,257,132,624,33,29934,59942,5122,0,340,2.4,2,0,0,0,0,0,0,0,0,0,0,0,0
2009,1,7,10,0,,6.1,-12,26,101820,0,0,267,292,764,51,45141,75041,7672,0,360,2,2,0,0,0,0,0,0,0,0,0,0,0,0
2009,1,7,11,0,,7.7,-12.7,22,101800,0,0,264,427,841,61,53565,83066,9053,0,340,0.9,0,0,0,0,0,0,0,0,0,0,0,0,0
2009,1,7,12,0,,9.1,-11.5,22,101740,0,0,271,509,856,72,54472,84211,10592,0,320,2.5,0,0,0,0,0,0,0,0,0,0,0,0,0
2009,1,7,13,0,,10.3,-11.1,21,101650,0,0,276,527,826,83,48799,80165,12248,0,290,2.4,0,0,0,0,0,0,0,0,0,0,0,0,0
2009,1,7,14,0,,11.1,-10.4,21,101600,0,0,291,469,721,101,36637,64970,14227,0,360,1.3,3,0,0,0,0,0,0,0,0,0,0,0,0
2009,1,7,15,0,,11,-9.9,22,101600,0,0,302,306,357,151,21606,25018,16714,0,200,1.9,7,0,0,0,0,0,0,0,0,0,0,0,0
2009,1,7,16,0,,10.7,-10.2,22,101630,0,0,283,275,676,62,6428,1036,6410,0,160,1.3,1,0,0,0,0,0,0,0,0,0,0,0,0
2009,1,7,17,0,,8.7,-11.8,22,101680,0,0,274,129,596,35,0,0,0,0,340,2.6,1,0,0,0,0,0,0,0,0,0,0,0,0
2009,1,7,18,0,,7.5,-11.8,24,101740,0,0,269,21,9,12,0,0,0,0,340,3.8,1,0,0,0,0,0,0,0,0,0,0,0,0
2009,1,7,19,0,,6.7,-12.4,24,101770,0,0,266,0,0,0,0,0,0,0,340,3.8,1,0,0,0,0,0,0,0,0,0,0,0,0
2009,1,7,20,0,,6.5,-11.1,27,101800,0,0,266,0,0,0,0,0,0,0,340,4.2,1,0,0,0,0,0,0,0,0,0,0,0,0
2009,1,7,21,0,,5.9,-9.9,31,101810,0,0,265,0,0,0,0,0,0,0,360,3.3,1,0,0,0,0,0,0,0,0,0,0,0,0
2009,1,7,22,0,,5.5,-9.5,33,101820,0,0,266,0,0,0,0,0,0,0,340,1.9,2,0,0,0,0,0,0,0,0,0,0,0,0
2009,1,7,23,0,,5.7,-9.3,33,101810,0,0,269,0,0,0,0,0,0,0,320,0.5,2,0,0,0,0,0,0,0,0,0,0,0,0
2009,1,7,24,0,,5.3,-9.3,34,101800,0,0,269,0,0,0,0,0,0,0,360,0.8,3,0,0,0,0,0,0,0,0,0,0,0,0
2009,1,8,1,0,,4.6,-9.9,34,101800,0,0,267,0,0,0,0,0,0,0,360,1.4,3,0,0,0,0,0,0,0,0,0,0,0,0
2009,1,8,2,0,,4.6,-9.2,36,101780,0,0,268,0,0,0,0,0,0,0,0,0.3,4,0,0,0,0,0,0,0,0,0,0,0,0
2009,1,8,3,0,,4.4,-9.4,36,101780,0,0,268,0,0,0,0,0,0,0,340,2.4,4,0,0,0,0,0,0,0,0,0,0,0,0
2009,1,8,4,0,,4.4,-8,40,101730,0,0,269,0,0,0,0,0,0,0,160,1,4,0,0,0,0,0,0,0,0,0,0,0,0
2009,1,8,5,0,,4.1,-8.6,39,101740,0,0,267,0,0,0,0,0,0,0,90,1,4,0,0,0,0,0,0,0,0,0,0,0,0
2009,1,8,6,0,,3.8,-8.5,40,101740,0,0,266,0,0,0,0,0,0,0,200,0.7,4,0,0,0,0,0,0,0,0,0,0,0,0
2009,1,8,7,0,,4,-9,38,101760,0,0,266,0,0,0,0,0,0,0,200,1.1,4,0,0,0,0,0,0,0,0,0,0,0,0
2009,1,8,8,0,,4.1,-8,41,101780,0,0,270,18,7,11,1463,622,1285,0,110,1,5,0,0,0,0,0,0,0,0,0,0,0,0
2009,1,8,9,0,,6,-6.9,39,101790,0,0,276,124,542,38,27553,52152,5907,0,160,0.7,4,0,0,0,0,0,0,0,0,0,0,0,0
2009,1,8,10,0,,8.1,-9.3,28,101800,0,0,278,294,772,50,45575,75935,7542,0,160,1.2,2,0,0,0,0,0,0,0,0,0,0,0,0
2009,1,8,11,0,,8.5,-9.4,27,101720,0,0,289,346,515,121,44602,51037,17155,0,160,1.5,6,0,0,0,0,0,0,0,0,0,0,0,0
2009,1,8,12,0,,10.7,-8.5,25,101600,0,0,297,436,603,128,48905,59356,17841,0,290,1.5,5,0,0,0,0,0,0,0,0,0,0,0,0
2009,1,8,13,0,,9.1,-9.9,25,101510,0,0,294,362,271,216,36866,26891,24537,0,340,2.6,7,0,0,0,0,0,0,0,0,0,0,0,0
2009,1,8,14,0,,9,-11,23,101440,0,0,293,353,303,198,31910,27839,22231,0,290,3.6,7,0,0,0,0,0,0,0,0,0,0,0,0
2009,1,8,15,0,,8.7,-13,20,101400,0,0,286,308,357,152,21805,25383,16769,0,270,2.8,6,0,0,0,0,0,0,0,0,0,0,0,0
2009,1,8,16,0,,9.3,-12.5,20,101450,0,0,286,252,542,80,7684,6151,7556,0,250,2.7,5,0,0,0,0,0,0,0,0,0,0,0,0
2009,1,8,17,0,,8,-12.4,22,101440,0,0,277,127,555,38,0,0,0,0,340,1,3,0,0,0,0,0,0,0,0,0,0,0,0
2009,1,8,18,0,,7.2,-12,24,101430,0,0,275,23,10,13,0,0,0,0,360,3.1,3,0,0,0,0,0,0,0,0,0,0,0,0
2009,1,8,19,0,,6.9,-13.4,22,101450,0,0,269,0,0,0,0,0,0,0,360,4,2,0,0,0,0,0,0,0,0,0,0,0,0
2009,1,8,20,0,,6.3,-12.8,24,101450,0,0,264,0,0,0,0,0,0,0,360,4.8,1,0,0,0,0,0,0,0,0,0,0,0,0
2009,1,8,21,0,,6.1,-14,22,101430,0,0,257,0,0,0,0,0,0,0,360,5,0,0,0,0,0,0,0,0,0,0,0,0,0
2009,1,8,22,0,,4.7,-14.7,23,101440,0,0,251,0,0,0,0,0,0,0,320,2.5,0,0,0,0,0,0,0,0,0,0,0,0,0
2009,1,8,23,0,,4.1,-15.7,22,101360,0,0,248,0,0,0,0,0,0,0,360,6.8,0,0,0,0,0,0,0,0,0,0,0,0,0
2009,1,8,24,0,,3.4,-15.8,23,101380,0,0,246,0,0,0,0,0,0,0,340,6,0,0,0,0,0,0,0,0,0,0,0,0,0
2009,1,9,1,0,,2.6,-15.9,24,101330,0,0,243,0,0,0,0,0,0,0,320,4.8,0,0,0,0,0,0,0,0,0,0,0,0,0
2009,1,9,2,0,,2.3,-16.2,24,101290,0,0,242,0,0,0,0,0,0,0,360,5.4,0,0,0,0,0,0,0,0,0,0,0,0,0
2009,1,9,3,0,,2.1,-18,21,101250,0,0,240,0,0,0,0,0,0,0,360,3.4,0,0,0,0,0,0,0,0,0,0,0,0,0
2009,1,9,4,0,,1.8,-18.2,21,101220,0,0,239,0,0,0,0,0,0,0,50,2,0,0,0,0,0,0,0,0,0,0,0,0,0
2009,1,9,5,0,,1.5,-18.5,21,101110,0,0,245,0,0,0,0,0,0,0,50,2.6,2,0,0,0,0,0,0,0,0,0,0,0,0
2009,1,9,6,0,,1.1,-17.7,23,101080,0,0,249,0,0,0,0,0,0,0,360,4.8,4,0,0,0,0,0,0,0,0,0,0,0,0
2009,1,9,7,0,,0.9,-16.9,25,101090,0,0,244,0,0,0,0,0,0,0,360,4.8,2,0,0,0,0,0,0,0,0,0,0,0,0
2009,1,9,8,0,,0.8,-16.1,27,101100,0,0,244,23,12,11,1825,1105,1508,0,360,5.9,2,0,0,0,0,0,0,0,0,0,0,0,0
2009,1,9,9,0,,1.7,-14.9,28,101120,0,0,240,146,763,24,34414,73396,3862,0,360,8,0,0,0,0,0,0,0,0,0,0,0,0,0
2009,1,9,10,0,,2.6,-14.5,27,101160,0,0,244,305,824,44,47337,80973,6649,0,360,8.1,0,0,0,0,0,0,0,0,0,0,0,0,0
2009,1,9,11,0,,3.7,-14,26,101130,0,0,248,426,829,64,53580,81854,9394,0,360,5.3,0,0,0,0,0,0,0,0,0,0,0,0,0
2009,1,9,12,0,,5.3,-13.1,25,101010,0,0,255,506,836,77,54479,82259,11234,0,360,4.6,0,0,0,0,0,0,0,0,0,0,0,0,0
2009,1,9,13,0,,5.8,-13.7,23,100890,0,0,257,524,805,89,48934,77957,12985,0,360,4.5,0,0,0,0,0,0,0,0,0,0,0,0,0
2009,1,9,14,0,,6,-13.6,23,100870,0,0,257,493,788,87,37916,72083,12651,0,340,4.5,0,0,0,0,0,0,0,0,0,0,0,0,0
2009,1,9,15,0,,6.2,-13.4,23,100830,0,0,258,397,706,86,22056,51463,11696,0,360,2.4,0,0,0,0,0,0,0,0,0,0,0,0,0
2009,1,9,16,0,,5.5,-13,25,100850,0,0,256,287,711,59,6451,6015,6308,0,360,3.9,0,0,0,0,0,0,0,0,0,0,0,0,0
2009,1,9,17,0,,4.3,-13.5,26,100860,0,0,251,135,615,35,0,0,0,0,360,2.9,0,0,0,0,0,0,0,0,0,0,0,0,0
2009,1,9,18,0,,3.6,-13.2,28,100850,0,0,248,24,12,12,0,0,0,0,360,4.6,0,0,0,0,0,0,0,0,0,0,0,0,0
2009,1,9,19,0,,3.2,-12.7,30,100870,0,0,247,0,0,0,0,0,0,0,360,6.1,0,0,0,0,0,0,0,0,0,0,0,0,0
2009,1,9,20,0,,2.7,-12.3,32,100880,0,0,246,0,0,0,0,0,0,0,360,5.5,0,0,0,0,0,0,0,0,0,0,0,0,0
2009,1,9,21,0,,2.1,-12.1,34,100880,0,0,244,0,0,0,0,0,0,0,360,5.6,0,0,0,0,0,0,0,0,0,0,0,0,0
2009,1,9,22,0,,1.5,-10.9,39,100870,0,0,242,0,0,0,0,0,0,0,290,4.9,0,0,0,0,0,0,0,0,0,0,0,0,0
2009,1,9,23,0,,1.1,-10.4,42,100880,0,0,241,0,0,0,0,0,0,0,180,3.3,0,0,0,0,0,0,0,0,0,0,0,0,0
2009,1,9,24,0,,0.5,-9.5,47,100900,0,0,239,0,0,0,0,0,0,0,160,3,0,0,0,0,0,0,0,0,0,0,0,0,0
2009,1,10,1,0,,-0.1,-8.7,52,100840,0,0,239,0,0,0,0,0,0,0,20,2.5,0,0,0,0,0,0,0,0,0,0,0,0,0
2009,1,10,2,0,,-0.6,-9.2,52,100850,0,0,237,0,0,0,0,0,0,0,70,2.8,0,0,0,0,0,0,0,0,0,0,0,0,0
2009,1,10,3,0,,-1,-9.6,52,100830,0,0,235,0,0,0,0,0,0,0,360,3.6,0,0,0,0,0,0,0,0,0,0,0,0,0
2009,1,10,4,0,,-1.8,-11.9,46,100840,0,0,230,0,0,0,0,0,0,0,360,7.3,0,0,0,0,0,0,0,0,0,0,0,0,0
2009,1,10,5,0,,-2.1,-13.3,42,100850,0,0,228,0,0,0,0,0,0,0,110,2.7,0,0,0,0,0,0,0,0,0,0,0,0,0
2009,1,10,6,0,,-2.3,-13.5,42,100870,0,0,227,0,0,0,0,0,0,0,140,2.3,0,0,0,0,0,0,0,0,0,0,0,0,0
2009,1,10,7,0,,-2.6,-12.9,45,100920,0,0,227,0,0,0,0,0,0,0,140,2.7,0,0,0,0,0,0,0,0,0,0,0,0,0
2009,1,10,8,0,,-2.5,-12.5,46,100960,0,0,227,22,11,12,1885,949,1612,0,70,3,0,0,0,0,0,0,0,0,0,0,0,0,0
2009,1,10,9,0,,-1.3,-12,44,100960,0,0,232,135,651,31,31069,62640,4910,0,90,2.9,0,0,0,0,0,0,0,0,0,0,0,0,0
2009,1,10,10,0,,-1.1,-12.7,41,101010,0,0,232,290,746,54,45000,73311,8034,0,360,5.5,0,0,0,0,0,0,0,0,0,0,0,0,0
2009,1,10,11,0,,-0.3,-13.2,37,101010,0,0,235,401,725,83,51133,72288,11957,0,320,4.2,0,0,0,0,0,0,0,0,0,0,0,0,0
2009,1,10,12,0,,1.1,-14.1,31,100960,0,0,238,478,735,99,52379,72478,14098,0,360,3,0,0,0,0,0,0,0,0,0,0,0,0,0
2009,1,10,13,0,,1.8,-14.3,29,100860,0,0,241,513,762,99,48885,74298,14421,0,320,3.6,0,0,0,0,0,0,0,0,0,0,0,0,0
2009,1,10,14,0,,2.7,-14.9,26,100840,0,0,244,498,795,86,38331,72998,12534,0,360,3.4,0,0,0,0,0,0,0,0,0,0,0,0,0
2009,1,10,15,0,,3,-15.1,25,100860,0,0,245,414,760,77,22246,56575,10689,0,320,4.3,0,0,0,0,0,0,0,0,0,0,0,0,0
2009,1,10,16,0,,3.3,-17,21,100880,0,0,245,304,785,50,5944,11679,5632,0,320,4.2,0,0,0,0,0,0,0,0,0,0,0,0,0
2009,1,10,17,0,,2.4,-17.2,22,100920,0,0,241,143,671,32,0,0,0,0,250,3.1,0,0,0,0,0,0,0,0,0,0,0,0,0
2009,1,10,18,0,,1.3,-16.6,25,101010,0,0,238,27,15,12,0,0,0,0,290,4.7,0,0,0,0,0,0,0,0,0,0,0,0,0
2009,1,10,19,0,,0.4,-16.4,27,101100,0,0,234,0,0,0,0,0,0,0,270,1.9,0,0,0,0,0,0,0,0,0,0,0,0,0
2009,1,10,20,0,,-0.1,-16.4,28,101150,0,0,235,0,0,0,0,0,0,0,270,3.4,0,0,0,0,0,0,0,0,0,0,0,0,0
2009,1,10,21,0,,-0.8,-14.7,34,101190,0,0,233,0,0,0,0,0,0,0,270,4.2,0,0,0,0,0,0,0,0,0,0,0,0,0
2009,1,10,22,0,,-1.7,-13.5,40,101240,0,0,230,0,0,0,0,0,0,0,270,3.6,0,0,0,0,0,0,0,0,0,0,0,0,0
2009,1,10,23,0,,-1.8,-12.7,43,101260,0,0,230,0,0,0,0,0,0,0,250,2.6,0,0,0,0,0,0,0,0,0,0,0,0,0
2009,1,10,24,0,,-2.2,-12.5,45,101250,0,0,228,0,0,0,0,0,0,0,270,3.5,0,0,0,0,0,0,0,0,0,0,0,0,0
2009,1,11,1,0,,-2.5,-12.8,45,101210,0,0,227,0,0,0,0,0,0,0,290,3.2,0,0,0,0,0,0,0,0,0,0,0,0,0
2009,1,11,2,0,,-2.7,-12.7,46,101240,0,0,226,0,0,0,0,0,0,0,290,2.9,0,0,0,0,0,0,0,0,0,0,0,0,0
2009,1,11,3,0,,-3,-13.2,45,101280,0,0,225,0,0,0,0,0,0,0,230,2.5,0,0,0,0,0,0,0,0,0,0,0,0,0
2009,1,11,4,0,,-3.2,-13.7,44,101300,0,0,224,0,0,0,0,0,0,0,360,1.9,0,0,0,0,0,0,0,0,0,0,0,0,0
2009,1,11,5,0,,-3.6,-14.3,43,101310,0,0,222,0,0,0,0,0,0,0,360,1.8,0,0,0,0,0,0,0,0,0,0,0,0,0
2009,1,11,6,0,,-3.8,-15.1,41,101330,0,0,221,0,0,0,0,0,0,0,360,2,0,0,0,0,0,0,0,0,0,0,0,0,0
2009,1,11,7,0,,-3.5,-15.1,40,101350,0,0,222,0,0,0,0,0,0,0,270,2.1,0,0,0,0,0,0,0,0,0,0,0,0,0
2009,1,11,8,0,,-3.5,-14.5,42,101360,0,0,222,22,10,12,1915,879,1661,0,320,0.9,0,0,0,0,0,0,0,0,0,0,0,0,0
2009,1,11,9,0,,-1.5,-13.6,39,101370,0,0,230,137,665,31,31606,63958,4805,0,290,1.4,0,0,0,0,0,0,0,0,0,0,0,0,0
2009,1,11,10,0,,0.6,-12.1,38,101370,0,0,238,299,786,49,46447,77232,7361,0,270,3.6,0,0,0,0,0,0,0,0,0,0,0,0,0
2009,1,11,11,0,,2.4,-10.1,39,101350,0,0,246,428,825,65,53947,81577,9555,0,250,3.5,0,0,0,0,0,0,0,0,0,0,0,0,0
2009,1,11,12,0,,3.3,-10,37,101240,0,0,250,498,799,85,54470,79350,12357,0,230,3.3,0,0,0,0,0,0,0,0,0,0,0,0,0
2009,1,11,13,0,,4.3,-9.4,36,101130,0,0,254,522,784,95,49175,75992,13711,0,250,4.2,0,0,0,0,0,0,0,0,0,0,0,0,0
2009,1,11,14,0,,4.6,-7.5,41,101020,0,0,262,488,755,96,38260,68932,13695,0,250,6.8,1,0,0,0,0,0,0,0,0,0,0,0,0
2009,1,11,15,0,,4.7,-6.8,43,100980,0,0,271,371,584,111,22432,42656,13589,0,250,5.8,4,0,0,0,0,0,0,0,0,0,0,0,0
2009,1,11,16,0,,3.5,-8.2,42,100990,0,0,269,213,329,105,10422,2834,10338,0,290,1.8,6,0,0,0,0,0,0,0,0,0,0,0,0
2009,1,11,17,0,,2.8,-8.2,44,100950,0,0,262,121,429,49,0,0,0,0,360,2.2,4,0,0,0,0,0,0,0,0,0,0,0,0
2009,1,11,18,0,,2.4,-7.7,47,100990,0,0,259,24,13,10,0,0,0,0,320,2.9,3,0,0,0,0,0,0,0,0,0,0,0,0
2009,1,11,19,0,,2.2,-8.8,44,101060,0,0,257,0,0,0,0,0,0,0,290,3.8,3,0,0,0,0,0,0,0,0,0,0,0,0
2009,1,11,20,0,,1.5,-11.6,37,101090,0,0,252,0,0,0,0,0,0,0,290,6.3,3,0,0,0,0,0,0,0,0,0,0,0,0
2009,1,11,21,0,,0.6,-10.2,44,101100,0,0,250,0,0,0,0,0,0,0,290,4.8,3,0,0,0,0,0,0,0,0,0,0,0,0
2009,1,11,22,0,,0.1,-11.3,42,101100,0,0,244,0,0,0,0,0,0,0,270,4.8,2,0,0,0,0,0,0,0,0,0,0,0,0
2009,1,11,23,0,,-0.4,-10.9,45,101150,0,0,241,0,0,0,0,0,0,0,290,7.2,1,0,0,0,0,0,0,0,0,0,0,0,0
2009,1,11,24,0,,-1.1,-11.2,46,101210,0,0,233,0,0,0,0,0,0,0,290,6.5,0,0,0,0,0,0,0,0,0,0,0,0,0
2009,1,12,1,0,,-1.9,-12.2,45,101220,0,0,230,0,0,0,0,0,0,0,290,4.4,0,0,0,0,0,0,0,0,0,0,0,0,0
2009,1,12,2,0,,-2.4,-13.5,42,101250,0,0,227,0,0,0,0,0,0,0,290,3.2,0,0,0,0,0,0,0,0,0,0,0,0,0
2009,1,12,3,0,,-2.6,-13.7,42,101260,0,0,226,0,0,0,0,0,0,0,270,6.4,0,0,0,0,0,0,0,0,0,0,0,0,0
2009,1,12,4,0,,-3,-14.1,42,101320,0,0,225,0,0,0,0,0,0,0,290,4.5,0,0,0,0,0,0,0,0,0,0,0,0,0
2009,1,12,5,0,,-3.3,-14.4,42,101290,0,0,223,0,0,0,0,0,0,0,290,8.6,0,0,0,0,0,0,0,0,0,0,0,0,0
2009,1,12,6,0,,-3.8,-14.5,43,101390,0,0,221,0,0,0,0,0,0,0,320,4.2,0,0,0,0,0,0,0,0,0,0,0,0,0
2009,1,12,7,0,,-4.4,-14.8,44,101480,0,0,219,0,0,0,0,0,0,0,270,1.7,0,0,0,0,0,0,0,0,0,0,0,0,0
2009,1,12,8,0,,-4,-15,42,101520,0,0,220,23,12,12,1888,1044,1585,0,290,4.2,0,0,0,0,0,0,0,0,0,0,0,0,0
2009,1,12,9,0,,-3.5,-15.1,40,101550,0,0,222,140,684,29,32331,65876,4624,0,270,5.5,0,0,0,0,0,0,0,0,0,0,0,0,0
2009,1,12,10,0,,-2.7,-15.4,37,101640,0,0,225,292,746,54,45318,73264,8098,0,270,4.9,0,0,0,0,0,0,0,0,0,0,0,0,0
2009,1,12,11,0,,-1.1,-15.3,33,101580,0,0,231,419,787,72,52985,77677,10535,0,250,5,0,0,0,0,0,0,0,0,0,0,0,0,0
2009,1,12,12,0,,0.7,-15.3,29,101550,0,0,236,504,809,83,55002,80466,12084,0,230,4.3,0,0,0,0,0,0,0,0,0,0,0,0,0
2009,1,12,13,0,,1.3,-15.2,28,101440,0,0,238,543,845,81,50621,82403,11928,0,290,6,0,0,0,0,0,0,0,0,0,0,0,0,0
2009,1,12,14,0,,2.4,-15.2,26,101360,0,0,242,505,804,85,39121,74152,12472,0,320,4.2,0,0,0,0,0,0,0,0,0,0,0,0,0
2009,1,12,15,0,,3.5,-15.2,24,101300,0,0,247,444,852,62,23528,66933,9446,0,270,7.3,0,0,0,0,0,0,0,0,0,0,0,0,0
2009,1,12,16,0,,2.8,-14.8,26,101310,0,0,249,318,831,45,7317,22128,6593,0,290,8.1,1,0,0,0,0,0,0,0,0,0,0,0,0
2009,1,12,17,0,,1.8,-14.3,29,101330,0,0,241,154,720,29,0,0,0,0,270,7.7,0,0,0,0,0,0,0,0,0,0,0,0,0
2009,1,12,18,0,,0.5,-13.5,34,101420,0,0,241,28,15,13,0,0,0,0,270,5.4,1,0,0,0,0,0,0,0,0,0,0,0,0
2009,1,12,19,0,,-0.1,-13.4,36,101510,0,0,239,0,0,0,0,0,0,0,320,5.5,1,0,0,0,0,0,0,0,0,0,0,0,0
2009,1,12,20,0,,-0.7,-12.3,41,101570,0,0,236,0,0,0,0,0,0,0,320,3.9,0,0,0,0,0,0,0,0,0,0,0,0,0
2009,1,12,21,0,,-1.2,-11.9,44,101650,0,0,232,0,0,0,0,0,0,0,270,2.3,0,0,0,0,0,0,0,0,0,0,0,0,0
2009,1,12,22,0,,-1.6,-12.2,44,101690,0,0,231,0,0,0,0,0,0,0,290,2.2,0,0,0,0,0,0,0,0,0,0,0,0,0
2009,1,12,23,0,,-2,-12.3,45,101760,0,0,229,0,0,0,0,0,0,0,320,1.8,0,0,0,0,0,0,0,0,0,0,0,0,0
2009,1,12,24,0,,-2.3,-12.9,44,101790,0,0,228,0,0,0,0,0,0,0,290,2.5,0,0,0,0,0,0,0,0,0,0,0,0,0
2009,1,13,1,0,,-2.8,-12.8,46,101790,0,0,226,0,0,0,0,0,0,0,290,2.7,0,0,0,0,0,0,0,0,0,0,0,0,0
2009,1,13,2,0,,-3,-13,46,101840,0,0,225,0,0,0,0,0,0,0,270,2.9,0,0,0,0,0,0,0,0,0,0,0,0,0
2009,1,13,3,0,,-3.3,-12.7,48,101880,0,0,224,0,0,0,0,0,0,0,250,2.1,0,0,0,0,0,0,0,0,0,0,0,0,0
2009,1,13,4,0,,-3.5,-12.4,50,101850,0,0,224,0,0,0,0,0,0,0,290,5.8,0,0,0,0,0,0,0,0,0,0,0,0,0
2009,1,13,5,0,,-3.9,-12,53,101840,0,0,222,0,0,0,0,0,0,0,290,4,0,0,0,0,0,0,0,0,0,0,0,0,0
2009,1,13,6,0,,-4,-12.6,51,101790,0,0,222,0,0,0,0,0,0,0,270,2.7,0,0,0,0,0,0,0,0,0,0,0,0,0
2009,1,13,7,0,,-4.1,-13,50,101840,0,0,221,0,0,0,0,0,0,0,20,3.1,0,0,0,0,0,0,0,0,0,0,0,0,0
2009,1,13,8,0,,-3.6,-13,48,101880,0,0,223,24,12,12,1899,1072,1587,0,110,3.5,0,0,0,0,0,0,0,0,0,0,0,0,0
2009,1,13,9,0,,-2.3,-13.2,43,101900,0,0,228,138,656,31,31613,63215,4921,0,70,2.7,0,0,0,0,0,0,0,0,0,0,0,0,0
2009,1,13,10,0,,-1.8,-14.2,38,101970,0,0,229,288,718,58,44592,70496,8633,0,290,2.7,0,0,0,0,0,0,0,0,0,0,0,0,0
2009,1,13,11,0,,-1.5,-14.6,36,101950,0,0,230,411,748,79,52588,74847,11503,0,290,5.9,0,0,0,0,0,0,0,0,0,0,0,0,0
2009,1,13,12,0,,-0.1,-14.8,32,101850,0,0,235,494,772,92,54215,76473,13217,0,320,5.4,0,0,0,0,0,0,0,0,0,0,0,0,0
2009,1,13,13,0,,1.5,-15,28,101790,0,0,239,526,785,96,49750,76072,13805,0,320,3.7,0,0,0,0,0,0,0,0,0,0,0,0,0
2009,1,13,14,0,,3.4,-14.8,25,101710,0,0,246,523,851,76,39945,78904,11343,0,290,3.6,0,0,0,0,0,0,0,0,0,0,0,0,0
2009,1,13,15,0,,4.2,-14.6,24,101700,0,0,250,441,830,66,23983,65200,10062,0,290,3.2,0,0,0,0,0,0,0,0,0,0,0,0,0
2009,1,13,16,0,,3.5,-15.2,24,101720,0,0,247,309,771,53,6691,15463,6138,0,290,4.2,0,0,0,0,0,0,0,0,0,0,0,0,0
2009,1,13,17,0,,3.2,-14.9,25,101740,0,0,246,151,671,33,0,0,0,0,320,2.8,0,0,0,0,0,0,0,0,0,0,0,0,0
2009,1,13,18,0,,1.8,-15.2,27,101770,0,0,240,28,14,14,0,0,0,0,290,0.9,0,0,0,0,0,0,0,0,0,0,0,0,0
2009,1,13,19,0,,1.3,-16.1,26,101790,0,0,238,0,0,0,0,0,0,0,320,1.7,0,0,0,0,0,0,0,0,0,0,0,0,0
2009,1,13,20,0,,0.8,-16.1,27,101810,0,0,236,0,0,0,0,0,0,0,340,2.1,0,0,0,0,0,0,0,0,0,0,0,0,0
2009,1,13,21,0,,0.4,-16,28,101820,0,0,235,0,0,0,0,0,0,0,340,1.3,0,0,0,0,0,0,0,0,0,0,0,0,0
2009,1,13,22,0,,0.1,-15.8,29,101800,0,0,234,0,0,0,0,0,0,0,140,2.7,0,0,0,0,0,0,0,0,0,0,0,0,0
2009,1,13,23,0,,-0.5,-15.5,31,101800,0,0,233,0,0,0,0,0,0,0,110,3.2,0,0,0,0,0,0,0,0,0,0,0,0,0
2009,1,13,24,0,,-0.8,-14.3,35,101840,0,0,233,0,0,0,0,0,0,0,160,2.9,0,0,0,0,0,0,0,0,0,0,0,0,0
2009,1,14,1,0,,-1.4,-13.2,40,101810,0,0,231,0,0,0,0,0,0,0,140,2.9,0,0,0,0,0,0,0,0,0,0,0,0,0
2009,1,14,2,0,,-1.5,-12.1,44,101790,0,0,231,0,0,0,0,0,0,0,140,1.3,0,0,0,0,0,0,0,0,0,0,0,0,0
2009,1,14,3,0,,-1.4,-11,48,101770,0,0,232,0,0,0,0,0,0,0,250,1.2,0,0,0,0,0,0,0,0,0,0,0,0,0
2009,1,14,4,0,,-1.5,-10.5,50,101730,0,0,232,0,0,0,0,0,0,0,110,1.2,0,0,0,0,0,0,0,0,0,0,0,0,0
2009,1,14,5,0,,-1.9,-10.4,52,101660,0,0,231,0,0,0,0,0,0,0,250,1.7,0,0,0,0,0,0,0,0,0,0,0,0,0
2009,1,14,6,0,,-1.3,-8.2,59,101630,0,0,235,0,0,0,0,0,0,0,270,4.3,0,0,0,0,0,0,0,0,0,0,0,0,0
2009,1,14,7,0,,-1.1,-6.6,66,101660,0,0,237,0,0,0,0,0,0,0,270,4.2,0,0,0,0,0,0,0,0,0,0,0,0,0
2009,1,14,8,0,,-0.4,-5.9,66,101660,0,0,251,22,9,13,1807,769,1582,0,270,4.7,3,0,0,0,0,0,0,0,0,0,0,0,0
2009,1,14,9,0,,0.6,-5.4,64,101710,0,0,258,112,388,49,24176,37880,8115,0,270,1.9,5,0,0,0,0,0,0,0,0,0,0,0,0
2009,1,14,10,0,,2.2,-5.4,57,101720,0,0,250,287,708,59,44608,69788,8860,0,270,3.9,0,0,0,0,0,0,0,0,0,0,0,0,0
2009,1,14,11,0,,2.9,-6,52,101730,0,0,257,400,700,89,51288,69875,12757,0,250,3.3,1,0,0,0,0,0,0,0,0,0,0,0,0
2009,1,14,12,0,,1.4,-6.4,56,101680,0,0,250,463,661,117,52131,65649,16752,0,360,5.8,1,0,0,0,0,0,0,0,0,0,0,0,0
2009,1,14,13,0,,2,-6.1,55,101620,0,0,248,463,573,148,45543,55776,19019,0,340,3,0,0,0,0,0,0,0,0,0,0,0,0,0
2009,1,14,14,0,,4.1,-10.7,33,101570,0,0,252,472,676,115,38429,61549,15923,0,290,2.6,0,0,0,0,0,0,0,0,0,0,0,0,0
2009,1,14,15,0,,3.5,-12.4,30,101590,0,0,249,420,743,83,23661,56523,11411,0,340,3.9,0,0,0,0,0,0,0,0,0,0,0,0,0
2009,1,14,16,0,,4.1,-14.7,24,101640,0,0,249,305,737,58,7224,15029,6639,0,270,2.4,0,0,0,0,0,0,0,0,0,0,0,0,0
2009,1,14,17,0,,2.2,-19.1,19,101730,0,0,240,150,641,36,0,0,0,0,360,2.8,0,0,0,0,0,0,0,0,0,0,0,0,0
2009,1,14,18,0,,1,-18.3,22,101820,0,0,236,32,19,13,0,0,0,0,360,4.6,0,0,0,0,0,0,0,0,0,0,0,0,0
2009,1,14,19,0,,-0.2,-21.1,19,101920,0,0,233,0,0,0,0,0,0,0,360,3.1,0,0,0,0,0,0,0,0,0,0,0,0,0
2009,1,14,20,0,,-0.9,-20.5,21,102000,0,0,231,0,0,0,0,0,0,0,360,2.7,0,0,0,0,0,0,0,0,0,0,0,0,0
2009,1,14,21,0,,-1.5,-19.5,24,102070,0,0,229,0,0,0,0,0,0,0,360,2.5,0,0,0,0,0,0,0,0,0,0,0,0,0
2009,1,14,22,0,,-2.1,-17.7,29,102120,0,0,227,0,0,0,0,0,0,0,340,4.2,0,0,0,0,0,0,0,0,0,0,0,0,0
2009,1,14,23,0,,-2.5,-19.4,26,102090,0,0,225,0,0,0,0,0,0,0,160,3.4,0,0,0,0,0,0,0,0,0,0,0,0,0
2009,1,14,24,0,,-3.1,-20.4,25,102050,0,0,223,0,0,0,0,0,0,0,360,3.1,0,0,0,0,0,0,0,0,0,0,0,0,0
2009,1,15,1,0,,-3.8,-19.2,29,102020,0,0,220,0,0,0,0,0,0,0,360,6.8,0,0,0,0,0,0,0,0,0,0,0,0,0
2009,1,15,2,0,,-4.2,-18.1,33,102070,0,0,219,0,0,0,0,0,0,0,360,6.7,0,0,0,0,0,0,0,0,0,0,0,0,0
2009,1,15,3,0,,-4.5,-18,34,102050,0,0,218,0,0,0,0,0,0,0,340,9.6,0,0,0,0,0,0,0,0,0,0,0,0,0
2009,1,15,4,0,,-5,-17.4,37,102050,0,0,216,0,0,0,0,0,0,0,360,4.9,0,0,0,0,0,0,0,0,0,0,0,0,0
2009,1,15,5,0,,-4.7,-18.5,33,102100,0,0,217,0,0,0,0,0,0,0,340,7.8,0,0,0,0,0,0,0,0,0,0,0,0,0
2009,1,15,6,0,,-5.8,-16.4,43,102110,0,0,213,0,0,0,0,0,0,0,180,2.1,0,0,0,0,0,0,0,0,0,0,0,0,0
2009,1,15,7,0,,-5.8,-17.8,38,102150,0,0,213,0,0,0,0,0,0,0,340,3.6,0,0,0,0,0,0,0,0,0,0,0,0,0
2009,1,15,8,0,,-5.3,-19.8,31,102170,0,0,215,24,12,12,1946,1097,1623,0,320,2.5,0,0,0,0,0,0,0,0,0,0,0,0,0
2009,1,15,9,0,,-4.3,-19.3,30,102220,0,0,218,142,688,30,32905,66277,4679,0,320,3.2,0,0,0,0,0,0,0,0,0,0,0,0,0
2009,1,15,10,0,,-3.9,-19.7,28,102270,0,0,220,302,780,51,47024,76647,7590,0,320,5.6,0,0,0,0,0,0,0,0,0,0,0,0,0
2009,1,15,11,0,,-2,-20.9,22,102220,0,0,227,438,838,64,55301,82911,9365,0,340,5.4,0,0,0,0,0,0,0,0,0,0,0,0,0
2009,1,15,12,0,,-0.4,-22.5,17,102150,0,0,232,526,861,74,56750,84870,10766,0,360,4.6,0,0,0,0,0,0,0,0,0,0,0,0,0
2009,1,15,13,0,,1,-22.8,15,102050,0,0,234,570,903,69,52374,87873,10312,0,360,5.1,0,0,0,0,0,0,0,0,0,0,0,0,0
2009,1,15,14,0,,2.8,-22.1,14,101980,0,0,240,533,867,73,40798,80749,11011,0,360,2.7,0,0,0,0,0,0,0,0,0,0,0,0,0
2009,1,15,15,0,,2.9,-22,14,101960,0,0,240,446,828,68,23911,64583,9705,0,320,3,0,0,0,0,0,0,0,0,0,0,0,0,0
2009,1,15,16,0,,3.7,-22.2,13,102000,0,0,243,329,837,46,7880,26950,6747,0,290,3.9,0,0,0,0,0,0,0,0,0,0,0,0,0
2009,1,15,17,0,,2.8,-22.9,13,102010,0,0,240,160,699,33,0,0,0,0,290,2.3,0,0,0,0,0,0,0,0,0,0,0,0,0
2009,1,15,18,0,,1.4,-23.2,14,102030,0,0,235,34,21,13,0,0,0,0,320,1.7,0,0,0,0,0,0,0,0,0,0,0,0,0
2009,1,15,19,0,,0.7,-22.3,16,102050,0,0,233,0,0,0,0,0,0,0,0,0.3,0,0,0,0,0,0,0,0,0,0,0,0,0
2009,1,15,20,0,,-0.2,-19.9,21,102070,0,0,233,0,0,0,0,0,0,0,340,1.8,0,0,0,0,0,0,0,0,0,0,0,0,0
2009,1,15,21,0,,0.1,-20.2,20,102080,0,0,232,0,0,0,0,0,0,0,340,2.1,0,0,0,0,0,0,0,0,0,0,0,0,0
2009,1,15,22,0,,0,-20.9,19,102100,0,0,231,0,0,0,0,0,0,0,360,3.9,0,0,0,0,0,0,0,0,0,0,0,0,0
2009,1,15,23,0,,-0.9,-21.1,20,102080,0,0,231,0,0,0,0,0,0,0,340,6,0,0,0,0,0,0,0,0,0,0,0,0,0
2009,1,15,24,0,,-1.7,-20.1,23,102080,0,0,228,0,0,0,0,0,0,0,340,6.5,0,0,0,0,0,0,0,0,0,0,0,0,0
2009,1,16,1,0,,-2,-19.4,25,102040,0,0,227,0,0,0,0,0,0,0,290,4.6,0,0,0,0,0,0,0,0,0,0,0,0,0
2009,1,16,2,0,,-1.8,-17.5,29,102030,0,0,228,0,0,0,0,0,0,0,360,7.7,0,0,0,0,0,0,0,0,0,0,0,0,0
2009,1,16,3,0,,-2.2,-16.7,32,102070,0,0,227,0,0,0,0,0,0,0,360,3.9,0,0,0,0,0,0,0,0,0,0,0,0,0
2009,1,16,4,0,,-2.5,-15.9,35,102040,0,0,226,0,0,0,0,0,0,0,360,5.6,0,0,0,0,0,0,0,0,0,0,0,0,0
2009,1,16,5,0,,-2.4,-14.5,39,102030,0,0,227,0,0,0,0,0,0,0,340,7.4,0,0,0,0,0,0,0,0,0,0,0,0,0
2009,1,16,6,0,,-3,-14.4,41,102090,0,0,224,0,0,0,0,0,0,0,340,3.2,0,0,0,0,0,0,0,0,0,0,0,0,0
2009,1,16,7,0,,-2.9,-13.4,44,102110,0,0,225,0,0,0,0,0,0,0,250,1.8,0,0,0,0,0,0,0,0,0,0,0,0,0
2009,1,16,8,0,,-3,-13.2,45,102110,0,0,225,23,11,13,2010,958,1727,0,340,1.8,0,0,0,0,0,0,0,0,0,0,0,0,0
2009,1,16,9,0,,-1.3,-12.8,41,102160,0,0,232,139,644,33,31711,62139,5124,0,360,1,0,0,0,0,0,0,0,0,0,0,0,0,0
2009,1,16,10,0,,0.5,-12.2,38,102170,0,0,237,295,732,57,45697,72006,8481,0,250,1.4,0,0,0,0,0,0,0,0,0,0,0,0,0
2009,1,16,11,0,,1.6,-10.8,39,102120,0,0,242,419,761,78,53837,76341,11336,0,360,2.2,0,0,0,0,0,0,0,0,0,0,0,0,0
2009,1,16,12,0,,3.2,-9.4,39,101990,0,0,250,496,756,97,54699,74972,13854,0,360,2.2,0,0,0,0,0,0,0,0,0,0,0,0,0
2009,1,16,13,0,,5.7,-8.9,34,101890,0,0,260,548,829,87,51740,81057,12683,0,250,4.5,0,0,0,0,0,0,0,0,0,0,0,0,0
2009,1,16,14,0,,6.5,-9,32,101830,0,0,263,528,839,80,41012,78162,11922,0,250,4.4,0,0,0,0,0,0,0,0,0,0,0,0,0
2009,1,16,15,0,,7.5,-8.5,31,101790,0,0,267,443,807,72,24322,62881,10283,0,230,3.1,0,0,0,0,0,0,0,0,0,0,0,0,0
2009,1,16,16,0,,7.3,-7.9,33,101790,0,0,267,313,747,58,7634,18211,6811,0,250,4.6,0,0,0,0,0,0,0,0,0,0,0,0,0
2009,1,16,17,0,,6.1,-7.1,38,101780,0,0,268,152,605,40,0,0,0,0,250,2.2,1,0,0,0,0,0,0,0,0,0,0,0,0
2009,1,16,18,0,,4.3,-5.7,48,101830,0,0,266,30,13,17,0,0,0,0,270,3.1,2,0,0,0,0,0,0,0,0,0,0,0,0
2009,1,16,19,0,,3.9,-5.5,50,101900,0,0,265,0,0,0,0,0,0,0,290,1.2,2,0,0,0,0,0,0,0,0,0,0,0,0
2009,1,16,20,0,,4,-6.3,47,101960,0,0,264,0,0,0,0,0,0,0,340,1.4,2,0,0,0,0,0,0,0,0,0,0,0,0
2009,1,16,21,0,,3.8,-6.5,47,102060,0,0,263,0,0,0,0,0,0,0,360,2.1,2,0,0,0,0,0,0,0,0,0,0,0,0
2009,1,16,22,0,,3.3,-6.4,49,102050,0,0,259,0,0,0,0,0,0,0,360,2.2,1,0,0,0,0,0,0,0,0,0,0,0,0
2009,1,16,23,0,,2.9,-6,52,102060,0,0,255,0,0,0,0,0,0,0,50,0.6,1,0,0,0,0,0,0,0,0,0,0,0,0
2009,1,16,24,0,,3.1,-6,51,102020,0,0,252,0,0,0,0,0,0,0,360,1.4,0,0,0,0,0,0,0,0,0,0,0,0,0
2009,1,17,1,0,,2,-5.8,56,101990,0,0,248,0,0,0,0,0,0,0,290,1.3,0,0,0,0,0,0,0,0,0,0,0,0,0
2009,1,17,2,0,,2.3,-6,54,101970,0,0,249,0,0,0,0,0,0,0,360,2.1,0,0,0,0,0,0,0,0,0,0,0,0,0
2009,1,17,3,0,,2.4,-5.9,54,101940,0,0,250,0,0,0,0,0,0,0,340,2,0,0,0,0,0,0,0,0,0,0,0,0,0
2009,1,17,4,0,,2.1,-5.7,56,101910,0,0,249,0,0,0,0,0,0,0,340,1.4,0,0,0,0,0,0,0,0,0,0,0,0,0
2009,1,17,5,0,,1.7,-5.9,57,101890,0,0,247,0,0,0,0,0,0,0,290,1,0,0,0,0,0,0,0,0,0,0,0,0,0
2009,1,17,6,0,,2.3,-6,54,101900,0,0,258,0,0,0,0,0,0,0,340,2.6,2,0,0,0,0,0,0,0,0,0,0,0,0
2009,1,17,7,0,,2.4,-3.7,64,101930,0,0,273,0,0,0,0,0,0,0,20,0.7,7,0,0,0,0,0,0,0,0,0,0,0,0
2009,1,17,8,0,,3.2,-6.7,48,101950,0,0,267,22,12,10,1689,1051,1377,0,340,3.8,5,0,0,0,0,0,0,0,0,0,0,0,0
2009,1,17,9,0,,3.9,-6.9,45,101990,0,0,260,139,635,34,31686,61506,5243,0,340,2.3,1,0,0,0,0,0,0,0,0,0,0,0,0
2009,1,17,10,0,,5.7,-6.5,41,102000,0,0,262,292,712,60,45393,70295,8890,0,360,1.1,0,0,0,0,0,0,0,0,0,0,0,0,0
2009,1,17,11,0,,7.2,-7.2,35,101980,0,0,267,424,770,77,54484,77350,11205,0,360,2.4,0,0,0,0,0,0,0,0,0,0,0,0,0
2009,1,17,12,0,,8.6,-7.6,31,101880,0,0,272,505,777,93,55674,77286,13332,0,250,1.7,0,0,0,0,0,0,0,0,0,0,0,0,0
2009,1,17,13,0,,9.9,-7.3,29,101790,0,0,278,550,824,88,52037,80713,12884,0,250,4,0,0,0,0,0,0,0,0,0,0,0,0,0
2009,1,17,14,0,,9.4,-3.5,40,101700,0,0,296,435,524,154,37324,47876,19345,0,270,4.4,5,0,0,0,0,0,0,0,0,0,0,0,0
2009,1,17,15,0,,9.4,-1.9,45,101640,0,0,304,299,264,177,24258,20098,19704,0,250,3.4,7,0,0,0,0,0,0,0,0,0,0,0,0
2009,1,17,16,0,,8,-1.5,51,101660,0,0,303,169,133,123,12952,3047,12804,0,230,3.4,8,0,0,0,0,0,0,0,0,0,0,0,0
2009,1,17,17,0,,7.8,0.2,59,101630,0,0,296,111,281,58,0,0,0,0,230,2.1,6,0,0,0,0,0,0,0,0,0,0,0,0
2009,1,17,18,0,,7.1,0.7,64,101660,0,0,297,19,4,15,0,0,0,0,250,1.3,7,0,0,0,0,0,0,0,0,0,0,0,0
2009,1,17,19,0,,6.9,1.1,67,101640,0,0,296,0,0,0,0,0,0,0,0,0.3,7,0,0,0,0,0,0,0,0,0,0,0,0
2009,1,17,20,0,,6.8,1.4,69,101660,0,0,296,0,0,0,0,0,0,0,0,0.1,7,0,0,0,0,0,0,0,0,0,0,0,0
2009,1,17,21,0,,7.1,1.7,69,101660,0,0,298,0,0,0,0,0,0,0,70,0.8,7,0,0,0,0,0,0,0,0,0,0,0,0
2009,1,17,22,0,,7.1,1.9,70,101620,0,0,298,0,0,0,0,0,0,0,0,0.2,7,0,0,0,0,0,0,0,0,0,0,0,0
2009,1,17,23,0,,6.9,2.7,75,101580,0,0,298,0,0,0,0,0,0,0,0,0.2,7,0,0,0,0,0,0,0,0,0,0,0,0
2009,1,17,24,0,,6.7,2.5,75,101510,0,0,297,0,0,0,0,0,0,0,0,0.3,7,0,0,0,0,0,0,0,0,0,0,0,0
2009,1,18,1,0,,6.4,2.6,77,101460,0,0,301,0,0,0,0,0,0,0,200,0.6,8,0,0,0,0,0,0,0,0,0,0,0,0
2009,1,18,2,0,,6.9,4.2,83,101470,0,0,312,0,0,0,0,0,0,0,320,1.7,9,0,0,0,0,0,0,0,0,0,0,0,0
2009,1,18,3,0,,7.1,4,81,101410,0,0,321,0,0,0,0,0,0,0,250,1.9,10,0,0,0,0,0,0,0,0,0,0,0,0
2009,1,18,4,0,,7.5,3.7,77,101300,0,0,322,0,0,0,0,0,0,0,250,1.3,10,0,0,0,0,0,0,0,0,0,0,0,0
2009,1,18,5,0,,8.1,3.9,75,101260,0,0,325,0,0,0,0,0,0,0,250,2.5,10,0,0,0,0,0,0,0,0,0,0,0,0
2009,1,18,6,0,,9.3,4.3,71,101220,0,0,331,0,0,0,0,0,0,0,270,3.6,10,0,0,0,0,0,0,0,0,0,0,0,0
2009,1,18,7,0,,8.7,4.3,74,101150,0,0,313,0,0,0,0,0,0,0,200,0.7,8,0,0,0,0,0,0,0,0,0,0,0,0
2009,1,18,8,0,,8.8,4.4,74,101100,0,0,329,3,0,3,460,0,460,0,160,0.7,10,0,0,0,0,0,0,0,0,0,0,0,0
2009,1,18,9,0,,9.7,4.6,71,101020,0,0,334,41,23,38,5847,2205,4895,0,0,0.3,10,0,0,0,0,0,0,0,0,0,0,0,0
2009,1,18,10,0,,9.5,8.2,92,101010,0,0,338,93,29,84,11239,2641,9861,0,270,4.8,10,0,0,0,0,0,0,0,0,0,0,0,0
2009,1,18,11,0,,9.7,8.1,90,100890,0,0,338,134,29,121,15631,2667,14131,0,250,5,10,0,0,0,0,0,0,0,0,0,0,0,0
2009,1,18,12,0,,10.2,8.4,89,100760,0,0,341,154,25,141,17583,2296,16318,0,230,4.2,10,0,0,0,0,0,0,0,0,0,0,0,0
2009,1,18,13,0,,9.5,8,91,100660,0,0,337,160,23,147,17984,2131,16943,0,270,4.4,10,0,0,0,0,0,0,0,0,0,0,0,0
2009,1,18,14,0,,9.2,7.8,91,100620,0,0,336,163,28,148,17864,2500,16917,0,270,5.1,10,0,0,0,0,0,0,0,0,0,0,0,0
2009,1,18,15,0,,10.8,7.8,82,100560,0,0,343,132,25,120,13309,1241,13024,0,230,2.6,10,0,0,0,0,0,0,0,0,0,0,0,0
2009,1,18,16,0,,9.8,6.3,79,100550,0,0,336,107,36,95,10419,2071,10312,0,360,3.1,10,0,0,0,0,0,0,0,0,0,0,0,0
2009,1,18,17,0,,9.5,5.6,77,100530,0,0,313,96,171,64,0,0,0,0,290,1,7,0,0,0,0,0,0,0,0,0,0,0,0
2009,1,18,18,0,,8.6,5.6,82,100500,0,0,303,23,8,16,0,0,0,0,270,1.5,5,0,0,0,0,0,0,0,0,0,0,0,0
2009,1,18,19,0,,8.3,5.7,84,100540,0,0,298,0,0,0,0,0,0,0,250,3.5,3,0,0,0,0,0,0,0,0,0,0,0,0
2009,1,18,20,0,,8.5,4.8,78,100560,0,0,293,0,0,0,0,0,0,0,270,4.7,2,0,0,0,0,0,0,0,0,0,0,0,0
2009,1,18,21,0,,7.8,4,77,100670,0,0,281,0,0,0,0,0,0,0,50,1.6,0,0,0,0,0,0,0,0,0,0,0,0,0
2009,1,18,22,0,,7.7,0,58,100750,0,0,276,0,0,0,0,0,0,0,290,3.8,0,0,0,0,0,0,0,0,0,0,0,0,0
2009,1,18,23,0,,7.5,-0.7,56,100790,0,0,275,0,0,0,0,0,0,0,290,5.3,0,0,0,0,0,0,0,0,0,0,0,0,0
2009,1,18,24,0,,7.2,-2,52,100790,0,0,272,0,0,0,0,0,0,0,290,5.2,0,0,0,0,0,0,0,0,0,0,0,0,0
2009,1,19,1,0,,6.8,-2.6,51,100820,0,0,270,0,0,0,0,0,0,0,290,6.3,0,0,0,0,0,0,0,0,0,0,0,0,0
2009,1,19,2,0,,6.4,-3.5,49,100860,0,0,268,0,0,0,0,0,0,0,270,7.2,0,0,0,0,0,0,0,0,0,0,0,0,0
2009,1,19,3,0,,5.9,-4.8,46,100930,0,0,265,0,0,0,0,0,0,0,270,8,0,0,0,0,0,0,0,0,0,0,0,0,0
2009,1,19,4,0,,4.8,-4.7,50,101000,0,0,260,0,0,0,0,0,0,0,290,4.8,0,0,0,0,0,0,0,0,0,0,0,0,0
2009,1,19,5,0,,4.4,-4.6,52,101040,0,0,259,0,0,0,0,0,0,0,270,5.7,0,0,0,0,0,0,0,0,0,0,0,0,0
2009,1,19,6,0,,3.7,-5.5,51,101170,0,0,255,0,0,0,0,0,0,0,290,2,0,0,0,0,0,0,0,0,0,0,0,0,0
2009,1,19,7,0,,3.3,-6.1,50,101240,0,0,253,0,0,0,0,0,0,0,270,1.2,0,0,0,0,0,0,0,0,0,0,0,0,0
2009,1,19,8,0,,3.1,-6.3,50,101330,0,0,252,24,10,14,2129,926,1850,0,360,1.3,0,0,0,0,0,0,0,0,0,0,0,0,0
2009,1,19,9,0,,3.8,-8.5,40,101460,0,0,253,137,594,37,30702,57466,5740,0,340,1.6,0,0,0,0,0,0,0,0,0,0,0,0,0
2009,1,19,10,0,,4.7,-10.6,32,101520,0,0,255,289,682,65,45416,68248,9620,0,360,1.5,0,0,0,0,0,0,0,0,0,0,0,0,0
2009,1,19,11,0,,5.9,-12.6,25,101530,0,0,258,429,774,77,55152,77769,11185,0,320,2.6,0,0,0,0,0,0,0,0,0,0,0,0,0
2009,1,19,12,0,,6.9,-13.4,22,101490,0,0,261,504,759,98,55732,75378,13957,0,290,2.1,0,0,0,0,0,0,0,0,0,0,0,0,0
2009,1,19,13,0,,7.5,-13.4,21,101420,0,0,263,549,805,94,52291,78621,13626,0,360,3.8,0,0,0,0,0,0,0,0,0,0,0,0,0
2009,1,19,14,0,,8.5,-15.2,17,101350,0,0,265,517,774,96,41465,72270,13831,0,340,3.1,0,0,0,0,0,0,0,0,0,0,0,0,0
2009,1,19,15,0,,8.2,-14.1,19,101320,0,0,265,443,772,81,25524,60889,11313,0,320,3.4,0,0,0,0,0,0,0,0,0,0,0,0,0
2009,1,19,16,0,,8.5,-12,22,101290,0,0,277,309,680,70,9018,18396,8006,0,340,1.4,2,0,0,0,0,0,0,0,0,0,0,0,0
2009,1,19,17,0,,7,-11.2,26,101330,0,0,277,150,522,49,0,0,0,0,270,2.2,4,0,0,0,0,0,0,0,0,0,0,0,0
2009,1,19,18,0,,5.9,-10.8,29,101350,0,0,271,36,19,17,0,0,0,0,230,3.1,3,0,0,0,0,0,0,0,0,0,0,0,0
2009,1,19,19,0,,5.4,-10,32,101360,0,0,268,0,0,0,0,0,0,0,320,1.4,3,0,0,0,0,0,0,0,0,0,0,0,0
2009,1,19,20,0,,5.3,-9.7,33,101370,0,0,267,0,0,0,0,0,0,0,270,2.6,2,0,0,0,0,0,0,0,0,0,0,0,0
2009,1,19,21,0,,4.9,-8.9,36,101370,0,0,265,0,0,0,0,0,0,0,320,2.5,2,0,0,0,0,0,0,0,0,0,0,0,0
2009,1,19,22,0,,4.7,-10.2,33,101330,0,0,266,0,0,0,0,0,0,0,340,2.3,3,0,0,0,0,0,0,0,0,0,0,0,0
2009,1,19,23,0,,4.9,-10,33,101460,0,0,269,0,0,0,0,0,0,0,0,0.4,4,0,0,0,0,0,0,0,0,0,0,0,0
2009,1,19,24,0,,4.1,-9.6,36,101460,0,0,268,0,0,0,0,0,0,0,340,4,5,0,0,0,0,0,0,0,0,0,0,0,0
2009,1,20,1,0,,3.9,-8.5,40,101470,0,0,270,0,0,0,0,0,0,0,340,4.4,6,0,0,0,0,0,0,0,0,0,0,0,0
2009,1,20,2,0,,3.8,-7.6,43,101520,0,0,272,0,0,0,0,0,0,0,320,3.1,6,0,0,0,0,0,0,0,0,0,0,0,0
2009,1,20,3,0,,3.6,-7.2,45,101520,0,0,274,0,0,0,0,0,0,0,340,5.3,7,0,0,0,0,0,0,0,0,0,0,0,0
2009,1,20,4,0,,3.8,-7.6,43,101460,0,0,274,0,0,0,0,0,0,0,360,2.6,7,0,0,0,0,0,0,0,0,0,0,0,0
2009,1,20,5,0,,4.3,-8.1,40,101480,0,0,273,0,0,0,0,0,0,0,360,4.1,6,0,0,0,0,0,0,0,0,0,0,0,0
2009,1,20,6,0,,3.3,-6.6,48,101480,0,0,273,0,0,0,0,0,0,0,320,3.2,7,0,0,0,0,0,0,0,0,0,0,0,0
2009,1,20,7,0,,3.8,-8.9,39,101450,0,0,273,0,0,0,0,0,0,0,360,1.8,7,0,0,0,0,0,0,0,0,0,0,0,0
2009,1,20,8,0,,4.2,-9.2,37,101450,0,0,275,18,5,12,1627,458,1488,0,340,2.2,7,0,0,0,0,0,0,0,0,0,0,0,0
2009,1,20,9,0,,4.7,-8.7,37,101490,0,0,272,124,450,47,26663,44204,7356,0,160,1.1,5,0,0,0,0,0,0,0,0,0,0,0,0
2009,1,20,10,0,,6,-9.4,32,101530,0,0,287,195,231,118,27041,23693,14549,0,50,0.5,8,0,0,0,0,0,0,0,0,0,0,0,0
2009,1,20,11,0,,6.8,-7.6,35,101550,0,0,306,185,69,154,22148,7058,18137,0,320,0.5,10,0,0,0,0,0,0,0,0,0,0,0,0
2009,1,20,12,0,,7.5,-8.9,30,101480,0,0,283,448,562,145,50842,55555,19871,0,320,2.8,5,0,0,0,0,0,0,0,0,0,0,0,0
2009,1,20,13,0,,9,-12.2,21,101410,0,0,286,472,551,159,47041,54341,20130,0,290,1.5,5,0,0,0,0,0,0,0,0,0,0,0,0
2009,1,20,14,0,,10.7,-14.1,16,101300,0,0,292,441,515,160,38217,48145,19639,0,180,1.8,6,0,0,0,0,0,0,0,0,0,0,0,0
2009,1,20,15,0,,10.3,-11.1,21,101340,0,0,295,370,488,139,25553,38025,16546,0,200,1.9,6,0,0,0,0,0,0,0,0,0,0,0,0
2009,1,20,16,0,,10.3,-6.9,29,101340,0,0,292,313,687,69,9262,19831,8105,0,270,3.8,3,0,0,0,0,0,0,0,0,0,0,0,0
2009,1,20,17,0,,9.1,-5.2,36,101340,0,0,293,138,393,60,0,0,0,0,270,2.5,5,0,0,0,0,0,0,0,0,0,0,0,0
2009,1,20,18,0,,7.4,-6.7,36,101400,0,0,280,35,17,18,0,0,0,0,290,2.6,3,0,0,0,0,0,0,0,0,0,0,0,0
2009,1,20,19,0,,6.6,-8.5,33,101390,0,0,279,0,0,0,0,0,0,0,290,1.9,5,0,0,0,0,0,0,0,0,0,0,0,0
2009,1,20,20,0,,6.8,-8.3,33,101400,0,0,284,0,0,0,0,0,0,0,270,1.3,6,0,0,0,0,0,0,0,0,0,0,0,0
2009,1,20,21,0,,6.9,-7.9,34,101410,0,0,292,0,0,0,0,0,0,0,340,1,8,0,0,0,0,0,0,0,0,0,0,0,0
2009,1,20,22,0,,7.1,-9.7,29,101470,0,0,291,0,0,0,0,0,0,0,360,1.6,8,0,0,0,0,0,0,0,0,0,0,0,0
2009,1,20,23,0,,7.2,-8,33,101440,0,0,293,0,0,0,0,0,0,0,340,1.9,8,0,0,0,0,0,0,0,0,0,0,0,0
2009,1,20,24,0,,6.9,-7.1,36,101330,0,0,293,0,0,0,0,0,0,0,200,0.5,8,0,0,0,0,0,0,0,0,0,0,0,0
2009,1,21,1,0,,6.5,-9,32,101360,0,0,283,0,0,0,0,0,0,0,360,1.4,7,0,0,0,0,0,0,0,0,0,0,0,0
2009,1,21,2,0,,6.1,-7.1,38,101280,0,0,280,0,0,0,0,0,0,0,180,0.7,5,0,0,0,0,0,0,0,0,0,0,0,0
2009,1,21,3,0,,5.8,-7.7,37,101250,0,0,275,0,0,0,0,0,0,0,140,0.5,4,0,0,0,0,0,0,0,0,0,0,0,0
2009,1,21,4,0,,5.4,-6.5,42,101190,0,0,279,0,0,0,0,0,0,0,20,1.3,6,0,0,0,0,0,0,0,0,0,0,0,0
2009,1,21,5,0,,5.9,-7,39,101210,0,0,288,0,0,0,0,0,0,0,70,1.1,8,0,0,0,0,0,0,0,0,0,0,0,0
2009,1,21,6,0,,6,-7.6,37,101170,0,0,303,0,0,0,0,0,0,0,70,0.7,10,0,0,0,0,0,0,0,0,0,0,0,0
2009,1,21,7,0,,6,-7.2,38,101190,0,0,303,0,0,0,0,0,0,0,110,0.7,10,0,0,0,0,0,0,0,0,0,0,0,0
2009,1,21,8,0,,6.3,-7,38,101260,0,0,305,7,0,6,861,9,859,0,0,0.1,10,0,0,0,0,0,0,0,0,0,0,0,0
2009,1,21,9,0,,6.9,-4.8,43,101270,0,0,310,56,49,47,8094,4817,5978,0,0,0.3,10,0,0,0,0,0,0,0,0,0,0,0,0
2009,1,21,10,0,,7.8,-4.6,41,101250,0,0,314,124,61,104,15812,6169,12543,0,0,0.4,10,0,0,0,0,0,0,0,0,0,0,0,0
2009,1,21,11,0,,8.1,-7.6,32,101230,0,0,312,197,80,160,23481,8176,18808,0,340,1.9,10,0,0,0,0,0,0,0,0,0,0,0,0
2009,1,21,12,0,,8.2,-7.1,33,101150,0,0,313,224,67,188,25002,6522,21344,0,320,1.6,10,0,0,0,0,0,0,0,0,0,0,0,0
2009,1,21,13,0,,6.2,-1.9,56,101170,0,0,310,170,26,155,19012,2503,17764,0,320,1.6,10,0,0,0,0,0,0,0,0,0,0,0,0
2009,1,21,14,0,,3.9,0.7,80,101140,0,0,303,106,8,101,11995,449,11820,0,340,2.3,10,0,0,0,0,0,0,0,0,0,0,0,0
2009,1,21,15,0,,2.9,1.2,89,101060,0,0,299,77,5,74,8476,189,8431,0,340,2.7,10,0,0,0,0,0,0,0,0,0,0,0,0
2009,1,21,16,0,,3.3,1.4,88,101120,0,0,301,82,15,76,7656,368,7633,0,340,3.1,10,0,0,0,0,0,0,0,0,0,0,0,0
2009,1,21,17,0,,3.7,1.2,84,101100,0,0,303,52,25,47,0,0,0,0,340,3.1,10,0,0,0,0,0,0,0,0,0,0,0,0
2009,1,21,18,0,,3.8,1.1,83,101120,0,0,284,24,7,17,0,0,0,0,340,2.2,7,0,0,0,0,0,0,0,0,0,0,0,0
2009,1,21,19,0,,4.1,0.2,76,101130,0,0,277,0,0,0,0,0,0,0,340,5.2,5,0,0,0,0,0,0,0,0,0,0,0,0
2009,1,21,20,0,,4.1,0,75,101140,0,0,272,0,0,0,0,0,0,0,340,1.4,2,0,0,0,0,0,0,0,0,0,0,0,0
2009,1,21,21,0,,4.1,-1.2,68,101140,0,0,261,0,0,0,0,0,0,0,340,1.9,0,0,0,0,0,0,0,0,0,0,0,0,0
2009,1,21,22,0,,4.4,-1.4,66,101130,0,0,268,0,0,0,0,0,0,0,0,0.3,1,0,0,0,0,0,0,0,0,0,0,0,0
2009,1,21,23,0,,4.3,-2.1,63,101090,0,0,271,0,0,0,0,0,0,0,360,1.6,3,0,0,0,0,0,0,0,0,0,0,0,0
2009,1,21,24,0,,4.2,-2,64,101060,0,0,274,0,0,0,0,0,0,0,340,0.8,4,0,0,0,0,0,0,0,0,0,0,0,0
2009,1,22,1,0,,4.3,-0.5,71,101000,0,0,278,0,0,0,0,0,0,0,200,0.7,5,0,0,0,0,0,0,0,0,0,0,0,0
2009,1,22,2,0,,4.1,-1,69,100940,0,0,279,0,0,0,0,0,0,0,160,0.9,6,0,0,0,0,0,0,0,0,0,0,0,0
2009,1,22,3,0,,4,-0.7,71,100930,0,0,282,0,0,0,0,0,0,0,0,0.2,7,0,0,0,0,0,0,0,0,0,0,0,0
2009,1,22,4,0,,3.8,-0.6,73,100900,0,0,282,0,0,0,0,0,0,0,160,0.6,7,0,0,0,0,0,0,0,0,0,0,0,0
2009,1,22,5,0,,3.6,-1.3,70,100880,0,0,277,0,0,0,0,0,0,0,70,0.5,6,0,0,0,0,0,0,0,0,0,0,0,0
2009,1,22,6,0,,3.8,-3,61,100920,0,0,276,0,0,0,0,0,0,0,320,0.9,6,0,0,0,0,0,0,0,0,0,0,0,0
2009,1,22,7,0,,3.8,-1.7,67,100940,0,0,277,0,0,0,0,0,0,0,0,0.2,6,0,0,0,0,0,0,0,0,0,0,0,0
2009,1,22,8,0,,3.9,-2,65,100900,0,0,275,21,8,13,1745,704,1528,0,140,0.7,5,0,0,0,0,0,0,0,0,0,0,0,0
2009,1,22,9,0,,4.5,-2.1,62,100890,0,0,302,49,33,43,7016,3304,5556,0,0,0,10,0,0,0,0,0,0,0,0,0,0,0,0
2009,1,22,10,0,,5.9,-1,61,100870,0,0,309,115,49,99,14722,4946,12086,0,160,0.6,10,0,0,0,0,0,0,0,0,0,0,0,0
2009,1,22,11,0,,8.8,-1,50,100830,0,0,323,199,81,162,23856,8227,19128,0,180,1.3,10,0,0,0,0,0,0,0,0,0,0,0,0
2009,1,22,12,0,,9.4,-1.3,47,100710,0,0,325,235,76,194,26298,7350,22150,0,290,1,10,0,0,0,0,0,0,0,0,0,0,0,0
2009,1,22,13,0,,10,-0.2,49,100620,0,0,329,238,65,201,25922,6256,22780,0,290,1.5,10,0,0,0,0,0,0,0,0,0,0,0,0
2009,1,22,14,0,,9.8,-0.7,48,100570,0,0,328,207,50,179,22059,4674,20221,0,320,1.9,10,0,0,0,0,0,0,0,0,0,0,0,0
2009,1,22,15,0,,9.4,-1.3,47,100540,0,0,310,255,143,186,23634,12417,20606,0,340,1.9,8,0,0,0,0,0,0,0,0,0,0,0,0
2009,1,22,16,0,,9.1,-1.3,48,100510,0,0,308,177,129,130,14525,8460,13974,0,340,0.9,8,0,0,0,0,0,0,0,0,0,0,0,0
2009,1,22,17,0,,9.3,0.4,54,100550,0,0,306,116,243,66,0,0,0,0,290,3.1,7,0,0,0,0,0,0,0,0,0,0,0,0
2009,1,22,18,0,,7.7,0.1,59,100550,0,0,276,38,18,19,0,0,0,0,270,1.2,0,0,0,0,0,0,0,0,0,0,0,0,0
2009,1,22,19,0,,7.1,0,61,100570,0,0,274,0,0,0,0,0,0,0,290,0.8,0,0,0,0,0,0,0,0,0,0,0,0,0
2009,1,22,20,0,,6.7,-0.9,58,100530,0,0,271,0,0,0,0,0,0,0,290,1.7,0,0,0,0,0,0,0,0,0,0,0,0,0
2009,1,22,21,0,,6.4,-0.5,61,100560,0,0,271,0,0,0,0,0,0,0,340,1,0,0,0,0,0,0,0,0,0,0,0,0,0
2009,1,22,22,0,,5.9,-0.4,64,100540,0,0,269,0,0,0,0,0,0,0,270,2.5,0,0,0,0,0,0,0,0,0,0,0,0,0
2009,1,22,23,0,,5.7,-1.2,61,100510,0,0,267,0,0,0,0,0,0,0,290,1.7,0,0,0,0,0,0,0,0,0,0,0,0,0
2009,1,22,24,0,,5.7,-2.1,57,100500,0,0,266,0,0,0,0,0,0,0,230,0.8,0,0,0,0,0,0,0,0,0,0,0,0,0
2009,1,23,1,0,,7,-2.2,52,100480,0,0,271,0,0,0,0,0,0,0,290,4.2,0,0,0,0,0,0,0,0,0,0,0,0,0
2009,1,23,2,0,,5.4,-1.5,61,100470,0,0,266,0,0,0,0,0,0,0,270,4.7,0,0,0,0,0,0,0,0,0,0,0,0,0
2009,1,23,3,0,,4.8,-1.6,63,100400,0,0,263,0,0,0,0,0,0,0,250,4.4,0,0,0,0,0,0,0,0,0,0,0,0,0
2009,1,23,4,0,,5.7,-1.2,61,100420,0,0,267,0,0,0,0,0,0,0,270,4.4,0,0,0,0,0,0,0,0,0,0,0,0,0
2009,1,23,5,0,,5.3,-2,59,100360,0,0,265,0,0,0,0,0,0,0,290,6.3,0,0,0,0,0,0,0,0,0,0,0,0,0
2009,1,23,6,0,,4.3,-3,59,100460,0,0,271,0,0,0,0,0,0,0,290,8.2,3,0,0,0,0,0,0,0,0,0,0,0,0
2009,1,23,7,0,,3.1,-5.3,54,100580,0,0,274,0,0,0,0,0,0,0,290,8.3,7,0,0,0,0,0,0,0,0,0,0,0,0
2009,1,23,8,0,,1.7,-8.4,47,100640,0,0,269,13,2,11,1490,66,1470,0,320,5.2,8,0,0,0,0,0,0,0,0,0,0,0,0
2009,1,23,9,0,,1.1,-9.5,45,100740,0,0,261,98,238,56,18703,23161,8408,0,320,5.2,7,0,0,0,0,0,0,0,0,0,0,0,0
2009,1,23,10,0,,1.5,-10.6,40,100710,0,0,272,160,120,119,20804,12295,14214,0,270,6,9,0,0,0,0,0,0,0,0,0,0,0,0
2009,1,23,11,0,,1.3,-11.1,39,100850,0,0,271,222,108,172,26490,11178,20028,0,270,3.9,9,0,0,0,0,0,0,0,0,0,0,0,0
2009,1,23,12,0,,2,-10.8,38,100780,0,0,268,337,206,224,37612,21162,25597,0,270,5.8,8,0,0,0,0,0,0,0,0,0,0,0,0
2009,1,23,13,0,,2.4,-11.9,34,100710,0,0,275,302,123,231,32376,12418,26094,0,290,5.4,9,0,0,0,0,0,0,0,0,0,0,0,0
2009,1,23,14,0,,1.1,-10.7,41,100770,0,0,270,276,109,215,28165,10421,24032,0,340,4.7,9,0,0,0,0,0,0,0,0,0,0,0,0
2009,1,23,15,0,,-0.1,-11.5,42,100840,0,0,260,255,140,187,23738,12380,20674,0,360,3.6,8,0,0,0,0,0,0,0,0,0,0,0,0
2009,1,23,16,0,,0,-15.1,31,100970,0,0,257,204,189,135,14433,6580,13982,0,320,4.9,8,0,0,0,0,0,0,0,0,0,0,0,0
2009,1,23,17,0,,0.3,-16.1,28,101070,0,0,244,172,610,45,0,0,0,0,320,3.1,3,0,0,0,0,0,0,0,0,0,0,0,0
2009,1,23,18,0,,-1.7,-16.6,31,101150,0,0,242,39,19,20,0,0,0,0,270,4.5,5,0,0,0,0,0,0,0,0,0,0,0,0
2009,1,23,19,0,,-2.4,-17.6,30,101280,0,0,238,0,0,0,0,0,0,0,320,4.6,4,0,0,0,0,0,0,0,0,0,0,0,0
2009,1,23,20,0,,-3.1,-17.8,31,101360,0,0,234,0,0,0,0,0,0,0,320,4.9,4,0,0,0,0,0,0,0,0,0,0,0,0
2009,1,23,21,0,,-3.7,-16.6,36,101430,0,0,231,0,0,0,0,0,0,0,290,6.6,3,0,0,0,0,0,0,0,0,0,0,0,0
2009,1,23,22,0,,-4.4,-16.6,38,101430,0,0,226,0,0,0,0,0,0,0,270,3.8,2,0,0,0,0,0,0,0,0,0,0,0,0
2009,1,23,23,0,,-5,-17.1,38,101410,0,0,220,0,0,0,0,0,0,0,250,2.8,1,0,0,0,0,0,0,0,0,0,0,0,0
2009,1,23,24,0,,-5.3,-18,36,101520,0,0,215,0,0,0,0,0,0,0,70,1.7,0,0,0,0,0,0,0,0,0,0,0,0,0
2009,1,24,1,0,,-5.8,-18.8,35,101500,0,0,213,0,0,0,0,0,0,0,160,3.5,0,0,0,0,0,0,0,0,0,0,0,0,0
2009,1,24,2,0,,-6.3,-18,39,101490,0,0,211,0,0,0,0,0,0,0,140,3.2,0,0,0,0,0,0,0,0,0,0,0,0,0
2009,1,24,3,0,,-6.7,-18.6,38,101500,0,0,210,0,0,0,0,0,0,0,160,2.8,0,0,0,0,0,0,0,0,0,0,0,0,0
2009,1,24,4,0,,-7.2,-18.8,39,101500,0,0,208,0,0,0,0,0,0,0,20,4.1,0,0,0,0,0,0,0,0,0,0,0,0,0
2009,1,24,5,0,,-7.3,-19.5,37,101480,0,0,207,0,0,0,0,0,0,0,140,3.1,0,0,0,0,0,0,0,0,0,0,0,0,0
2009,1,24,6,0,,-7.4,-20.2,35,101470,0,0,207,0,0,0,0,0,0,0,140,2,0,0,0,0,0,0,0,0,0,0,0,0,0
2009,1,24,7,0,,-7.4,-20.6,34,101500,0,0,207,0,0,0,0,0,0,0,230,2,0,0,0,0,0,0,0,0,0,0,0,0,0
2009,1,24,8,0,,-6.4,-18.7,37,101520,0,0,211,30,17,13,2223,1584,1729,0,290,1.3,0,0,0,0,0,0,0,0,0,0,0,0,0
2009,1,24,9,0,,-4.9,-16.7,39,101480,0,0,216,159,730,30,36287,70810,4617,0,250,5.1,0,0,0,0,0,0,0,0,0,0,0,0,0
2009,1,24,10,0,,-3,-14.4,41,101410,0,0,224,324,805,50,50382,79529,7511,0,270,4.1,0,0,0,0,0,0,0,0,0,0,0,0,0
2009,1,24,11,0,,-1.3,-13.5,39,101290,0,0,231,475,895,57,60145,89034,8382,0,250,7.9,0,0,0,0,0,0,0,0,0,0,0,0,0
2009,1,24,12,0,,0.8,-12.6,36,101190,0,0,243,553,868,76,60225,85986,11099,0,250,5.9,1,0,0,0,0,0,0,0,0,0,0,0,0
2009,1,24,13,0,,0.8,-13.6,33,101040,0,0,250,520,666,133,51600,65196,18377,0,270,5.3,4,0,0,0,0,0,0,0,0,0,0,0,0
2009,1,24,14,0,,1.8,-14.3,29,100950,0,0,253,501,670,126,42143,62290,17204,0,270,4.9,4,0,0,0,0,0,0,0,0,0,0,0,0
2009,1,24,15,0,,1.8,-14.3,29,100910,0,0,253,428,654,109,26911,52931,13619,0,290,6.7,4,0,0,0,0,0,0,0,0,0,0,0,0
2009,1,24,16,0,,1.6,-14.9,28,100880,0,0,252,323,675,75,10498,23676,8794,0,270,6.8,4,0,0,0,0,0,0,0,0,0,0,0,0
2009,1,24,17,0,,0.9,-14.7,30,100920,0,0,248,181,652,42,0,0,0,0,270,6,3,0,0,0,0,0,0,0,0,0,0,0,0
2009,1,24,18,0,,-0.4,-13.3,37,100930,0,0,243,46,30,16,0,0,0,0,270,6.8,2,0,0,0,0,0,0,0,0,0,0,0,0
2009,1,24,19,0,,-0.9,-13.4,38,100970,0,0,240,0,0,0,0,0,0,0,270,5,2,0,0,0,0,0,0,0,0,0,0,0,0
2009,1,24,20,0,,-1.3,-12,44,101050,0,0,238,0,0,0,0,0,0,0,270,5.9,1,0,0,0,0,0,0,0,0,0,0,0,0
2009,1,24,21,0,,-1.8,-11.1,49,101110,0,0,235,0,0,0,0,0,0,0,290,5.1,1,0,0,0,0,0,0,0,0,0,0,0,0
2009,1,24,22,0,,-2,-11,50,101160,0,0,235,0,0,0,0,0,0,0,290,5,1,0,0,0,0,0,0,0,0,0,0,0,0
2009,1,24,23,0,,-2.5,-10.7,53,101190,0,0,233,0,0,0,0,0,0,0,270,3.8,1,0,0,0,0,0,0,0,0,0,0,0,0
2009,1,24,24,0,,-2.3,-10.3,54,101210,0,0,234,0,0,0,0,0,0,0,290,3.1,1,0,0,0,0,0,0,0,0,0,0,0,0
2009,1,25,1,0,,-2.5,-9.8,57,101240,0,0,234,0,0,0,0,0,0,0,290,2,1,0,0,0,0,0,0,0,0,0,0,0,0
2009,1,25,2,0,,-2.5,-9.4,59,101270,0,0,234,0,0,0,0,0,0,0,270,4.3,1,0,0,0,0,0,0,0,0,0,0,0,0
2009,1,25,3,0,,-2.7,-9.1,61,101290,0,0,233,0,0,0,0,0,0,0,270,3.2,1,0,0,0,0,0,0,0,0,0,0,0,0
2009,1,25,4,0,,-3,-9.4,61,101270,0,0,232,0,0,0,0,0,0,0,250,2.6,1,0,0,0,0,0,0,0,0,0,0,0,0
2009,1,25,5,0,,-3.1,-9.3,62,101280,0,0,227,0,0,0,0,0,0,0,250,3,0,0,0,0,0,0,0,0,0,0,0,0,0
2009,1,25,6,0,,-3,-9,63,101310,0,0,228,0,0,0,0,0,0,0,270,3.2,0,0,0,0,0,0,0,0,0,0,0,0,0
2009,1,25,7,0,,-3,-8.8,64,101300,0,0,228,0,0,0,0,0,0,0,270,2.6,0,0,0,0,0,0,0,0,0,0,0,0,0
2009,1,25,8,0,,-2.7,-8.7,63,101360,0,0,229,29,14,14,2342,1323,1926,0,270,2.8,0,0,0,0,0,0,0,0,0,0,0,0,0
2009,1,25,9,0,,-0.6,-8.7,54,101400,0,0,237,153,653,35,34048,63484,5474,0,270,3.2,0,0,0,0,0,0,0,0,0,0,0,0,0
2009,1,25,10,0,,0.1,-8.8,51,101430,0,0,239,314,745,59,48679,73719,8705,0,270,6,0,0,0,0,0,0,0,0,0,0,0,0,0
2009,1,25,11,0,,1.8,-9.1,44,101370,0,0,245,441,763,82,56797,76874,11839,0,290,3.4,0,0,0,0,0,0,0,0,0,0,0,0,0
2009,1,25,12,0,,2.3,-10.9,37,101260,0,0,245,527,775,99,58410,77342,13943,0,270,5.8,0,0,0,0,0,0,0,0,0,0,0,0,0
2009,1,25,13,0,,3.3,-11.4,33,101140,0,0,249,579,835,91,55407,82349,13137,0,270,7.8,0,0,0,0,0,0,0,0,0,0,0,0,0
2009,1,25,14,0,,5.9,-11.2,28,101050,0,0,259,566,861,81,44981,81675,11977,0,270,6.3,0,0,0,0,0,0,0,0,0,0,0,0,0
2009,1,25,15,0,,6.5,-10.7,28,101000,0,0,262,487,851,69,28708,71250,10558,0,250,5.1,0,0,0,0,0,0,0,0,0,0,0,0,0
2009,1,25,16,0,,5.2,-11.4,29,101050,0,0,256,354,795,57,9685,32231,7253,0,250,6.6,0,0,0,0,0,0,0,0,0,0,0,0,0
2009,1,25,17,0,,4.4,-11.2,31,101100,0,0,253,185,663,42,0,0,0,0,250,6,0,0,0,0,0,0,0,0,0,0,0,0,0
2009,1,25,18,0,,2.8,-10.4,37,101150,0,0,247,45,26,19,0,0,0,0,270,4.8,0,0,0,0,0,0,0,0,0,0,0,0,0
2009,1,25,19,0,,2.3,-9.6,41,101210,0,0,246,0,0,0,0,0,0,0,270,5,0,0,0,0,0,0,0,0,0,0,0,0,0
2009,1,25,20,0,,1.9,-8.8,45,101220,0,0,245,0,0,0,0,0,0,0,290,5.6,0,0,0,0,0,0,0,0,0,0,0,0,0
2009,1,25,21,0,,1.5,-9.1,45,101280,0,0,244,0,0,0,0,0,0,0,290,5.1,0,0,0,0,0,0,0,0,0,0,0,0,0
2009,1,25,22,0,,1,-8.5,49,101300,0,0,242,0,0,0,0,0,0,0,290,4.6,0,0,0,0,0,0,0,0,0,0,0,0,0
2009,1,25,23,0,,0.6,-8.1,52,101310,0,0,241,0,0,0,0,0,0,0,290,1,0,0,0,0,0,0,0,0,0,0,0,0,0
2009,1,25,24,0,,0,-8.2,54,101370,0,0,239,0,0,0,0,0,0,0,290,1.3,0,0,0,0,0,0,0,0,0,0,0,0,0
2009,1,26,1,0,,0,-8.2,54,101390,0,0,239,0,0,0,0,0,0,0,270,2.1,0,0,0,0,0,0,0,0,0,0,0,0,0
2009,1,26,2,0,,0.3,-7.7,55,101380,0,0,240,0,0,0,0,0,0,0,290,3,0,0,0,0,0,0,0,0,0,0,0,0,0
2009,1,26,3,0,,0.3,-6.7,59,101360,0,0,241,0,0,0,0,0,0,0,270,4.2,0,0,0,0,0,0,0,0,0,0,0,0,0
2009,1,26,4,0,,-0.4,-6.8,62,101320,0,0,239,0,0,0,0,0,0,0,270,3.2,0,0,0,0,0,0,0,0,0,0,0,0,0
2009,1,26,5,0,,-0.2,-6.4,63,101380,0,0,241,0,0,0,0,0,0,0,270,3.9,0,0,0,0,0,0,0,0,0,0,0,0,0
2009,1,26,6,0,,-0.3,-5.8,66,101410,0,0,241,0,0,0,0,0,0,0,270,4,0,0,0,0,0,0,0,0,0,0,0,0,0
2009,1,26,7,0,,0,-5.2,68,101480,0,0,242,0,0,0,0,0,0,0,290,2.7,0,0,0,0,0,0,0,0,0,0,0,0,0
2009,1,26,8,0,,0,-5,69,101460,0,0,253,27,15,11,1988,1419,1537,0,270,2.2,3,0,0,0,0,0,0,0,0,0,0,0,0
2009,1,26,9,0,,0.6,-4.6,68,101570,0,0,259,124,376,56,25883,37020,9111,0,270,3.1,5,0,0,0,0,0,0,0,0,0,0,0,0
2009,1,26,10,0,,1.6,-4.2,65,101580,0,0,269,213,265,122,30848,26332,16484,0,270,3.6,7,0,0,0,0,0,0,0,0,0,0,0,0
2009,1,26,11,0,,2.7,-4,61,101530,0,0,274,309,270,181,37861,27759,21529,0,270,4.2,7,0,0,0,0,0,0,0,0,0,0,0,0
2009,1,26,12,0,,3.8,-6.7,46,101420,0,0,275,407,374,199,46329,37398,24689,0,270,7.3,7,0,0,0,0,0,0,0,0,0,0,0,0
2009,1,26,13,0,,4.3,-7.2,43,101420,0,0,277,402,270,244,41661,27252,27569,0,340,2.7,7,0,0,0,0,0,0,0,0,0,0,0,0
2009,1,26,14,0,,5.3,-10.5,31,101370,0,0,278,404,317,225,37608,30488,25173,0,290,3.1,7,0,0,0,0,0,0,0,0,0,0,0,0
2009,1,26,15,0,,5.1,-11,30,101370,0,0,277,335,295,189,27204,24316,20921,0,340,2.6,7,0,0,0,0,0,0,0,0,0,0,0,0
2009,1,26,16,0,,5.2,-11.4,29,101370,0,0,264,334,691,74,10975,26625,8874,0,290,3.7,2,0,0,0,0,0,0,0,0,0,0,0,0
2009,1,26,17,0,,5,-11.6,29,101440,0,0,270,165,487,58,0,0,0,0,270,3.4,5,0,0,0,0,0,0,0,0,0,0,0,0
2009,1,26,18,0,,3.6,-11.2,33,101500,0,0,258,48,30,18,0,0,0,0,270,3.2,2,0,0,0,0,0,0,0,0,0,0,0,0
2009,1,26,19,0,,3.1,-9.5,39,101540,0,0,255,0,0,0,0,0,0,0,360,1.9,1,0,0,0,0,0,0,0,0,0,0,0,0
2009,1,26,20,0,,2.3,-8.4,45,101600,0,0,251,0,0,0,0,0,0,0,360,2.4,1,0,0,0,0,0,0,0,0,0,0,0,0
2009,1,26,21,0,,1.7,-8.1,48,101660,0,0,245,0,0,0,0,0,0,0,360,3.1,0,0,0,0,0,0,0,0,0,0,0,0,0
2009,1,26,22,0,,1.2,-7.8,51,101710,0,0,244,0,0,0,0,0,0,0,50,2.2,0,0,0,0,0,0,0,0,0,0,0,0,0
2009,1,26,23,0,,0.7,-7.5,54,101770,0,0,242,0,0,0,0,0,0,0,360,2,0,0,0,0,0,0,0,0,0,0,0,0,0
2009,1,26,24,0,,0.5,-7.5,55,101850,0,0,241,0,0,0,0,0,0,0,360,1.3,0,0,0,0,0,0,0,0,0,0,0,0,0
2009,1,27,1,0,,-0.3,-7.5,58,101880,0,0,239,0,0,0,0,0,0,0,340,1.5,0,0,0,0,0,0,0,0,0,0,0,0,0
2009,1,27,2,0,,-0.7,-7.5,60,101930,0,0,238,0,0,0,0,0,0,0,360,2.1,0,0,0,0,0,0,0,0,0,0,0,0,0
2009,1,27,3,0,,-0.9,-7.4,61,102000,0,0,237,0,0,0,0,0,0,0,340,2.3,0,0,0,0,0,0,0,0,0,0,0,0,0
2009,1,27,4,0,,-1.2,-7.9,60,102000,0,0,236,0,0,0,0,0,0,0,340,2.9,0,0,0,0,0,0,0,0,0,0,0,0,0
2009,1,27,5,0,,-1.4,-7.9,61,102060,0,0,235,0,0,0,0,0,0,0,340,3.4,0,0,0,0,0,0,0,0,0,0,0,0,0
2009,1,27,6,0,,-1.7,-8,62,102100,0,0,234,0,0,0,0,0,0,0,340,1.2,0,0,0,0,0,0,0,0,0,0,0,0,0
2009,1,27,7,0,,-1.3,-9.1,55,102130,0,0,234,0,0,0,0,0,0,0,360,1.8,0,0,0,0,0,0,0,0,0,0,0,0,0
2009,1,27,8,0,,-1.1,-9.9,51,102110,0,0,234,33,21,13,2507,1883,1904,0,360,6.6,0,0,0,0,0,0,0,0,0,0,0,0,0
2009,1,27,9,0,,0,-11.4,42,102170,0,0,236,160,686,34,35703,66778,5246,0,360,3.8,0,0,0,0,0,0,0,0,0,0,0,0,0
2009,1,27,10,0,,1.3,-11.8,37,102190,0,0,240,316,732,62,48845,72423,9098,0,340,3.8,0,0,0,0,0,0,0,0,0,0,0,0,0
2009,1,27,11,0,,3.7,-11.1,33,102200,0,0,250,458,803,76,58229,79822,10982,0,340,1.9,0,0,0,0,0,0,0,0,0,0,0,0,0
2009,1,27,12,0,,5,-12.9,26,102140,0,0,254,547,818,90,60590,82077,12791,0,270,2.1,0,0,0,0,0,0,0,0,0,0,0,0,0
2009,1,27,13,0,,6,-12.5,25,102010,0,0,258,581,821,96,55906,80851,13791,0,180,2.3,0,0,0,0,0,0,0,0,0,0,0,0,0
2009,1,27,14,0,,6.7,-8.8,32,101960,0,0,264,536,746,110,44509,70362,15544,0,200,3.7,0,0,0,0,0,0,0,0,0,0,0,0,0
2009,1,27,15,0,,7.2,-8.4,32,101950,0,0,266,457,721,98,28835,58831,13415,0,180,2.8,0,0,0,0,0,0,0,0,0,0,0,0,0
2009,1,27,16,0,,5.6,-11,29,101970,0,0,258,326,639,83,11448,26345,9276,0,110,1.7,0,0,0,0,0,0,0,0,0,0,0,0,0
2009,1,27,17,0,,5.1,-10.2,32,101960,0,0,257,181,588,50,0,0,0,0,70,1.3,0,0,0,0,0,0,0,0,0,0,0,0,0
2009,1,27,18,0,,3.9,-8.5,40,101970,0,0,253,46,25,21,0,0,0,0,90,1.5,0,0,0,0,0,0,0,0,0,0,0,0,0
2009,1,27,19,0,,3.1,-8.5,42,101990,0,0,250,0,0,0,0,0,0,0,20,2.1,0,0,0,0,0,0,0,0,0,0,0,0,0
2009,1,27,20,0,,2.9,-8.4,43,102010,0,0,249,0,0,0,0,0,0,0,20,2.8,0,0,0,0,0,0,0,0,0,0,0,0,0
2009,1,27,21,0,,3,-7.8,45,102000,0,0,250,0,0,0,0,0,0,0,20,3.1,0,0,0,0,0,0,0,0,0,0,0,0,0
2009,1,27,22,0,,2.8,-7.4,47,102000,0,0,250,0,0,0,0,0,0,0,50,2.6,0,0,0,0,0,0,0,0,0,0,0,0,0
2009,1,27,23,0,,2.9,-7.6,46,101980,0,0,250,0,0,0,0,0,0,0,20,2.8,0,0,0,0,0,0,0,0,0,0,0,0,0
2009,1,27,24,0,,2.7,-6.9,49,101950,0,0,250,0,0,0,0,0,0,0,20,3.1,0,0,0,0,0,0,0,0,0,0,0,0,0
2009,1,28,1,0,,3.1,-5.8,52,101990,0,0,253,0,0,0,0,0,0,0,50,1.8,0,0,0,0,0,0,0,0,0,0,0,0,0
2009,1,28,2,0,,2.8,-5.3,55,101990,0,0,252,0,0,0,0,0,0,0,200,0.9,0,0,0,0,0,0,0,0,0,0,0,0,0
2009,1,28,3,0,,2.9,-4.7,57,101980,0,0,253,0,0,0,0,0,0,0,50,1.5,0,0,0,0,0,0,0,0,0,0,0,0,0
2009,1,28,4,0,,2.8,-3.7,62,101950,0,0,254,0,0,0,0,0,0,0,50,1.6,0,0,0,0,0,0,0,0,0,0,0,0,0
2009,1,28,5,0,,2.2,-3.5,66,101910,0,0,252,0,0,0,0,0,0,0,180,1.3,0,0,0,0,0,0,0,0,0,0,0,0,0
2009,1,28,6,0,,2.3,-3.4,66,101890,0,0,252,0,0,0,0,0,0,0,160,0.8,0,0,0,0,0,0,0,0,0,0,0,0,0
2009,1,28,7,0,,2,-2.9,70,101910,0,0,252,0,0,0,0,0,0,0,180,0.5,0,0,0,0,0,0,0,0,0,0,0,0,0
2009,1,28,8,0,,2.3,-3.4,66,101940,0,0,252,29,13,16,2583,1179,2202,0,0,0.1,0,0,0,0,0,0,0,0,0,0,0,0,0
2009,1,28,9,0,,5.1,-2.9,56,101970,0,0,268,155,619,39,33832,60523,6039,0,160,0.8,1,0,0,0,0,0,0,0,0,0,0,0,0
2009,1,28,10,0,,8.5,-0.8,52,101970,0,0,284,331,788,54,51498,78626,8077,0,50,3.7,1,0,0,0,0,0,0,0,0,0,0,0,0
2009,1,28,11,0,,10.1,-0.1,49,101970,0,0,291,470,835,70,60052,83725,10190,0,50,3.2,1,0,0,0,0,0,0,0,0,0,0,0,0
2009,1,28,12,0,,11.1,-1,43,101870,0,0,294,543,793,96,60424,79682,13717,0,70,2.8,1,0,0,0,0,0,0,0,0,0,0,0,0
2009,1,28,13,0,,11.6,0,45,101790,0,0,298,536,675,135,53485,65964,18870,0,140,2,1,0,0,0,0,0,0,0,0,0,0,0,0
2009,1,28,14,0,,11.8,0.2,45,101750,0,0,299,500,622,143,42621,57967,18536,0,90,2,1,0,0,0,0,0,0,0,0,0,0,0,0
2009,1,28,15,0,,11.9,0,44,101680,0,0,299,426,598,126,28586,48104,15799,0,90,2,1,0,0,0,0,0,0,0,0,0,0,0,0
2009,1,28,16,0,,10.5,0.4,50,101760,0,0,293,307,540,100,12936,21592,11081,0,140,2.1,1,0,0,0,0,0,0,0,0,0,0,0,0
2009,1,28,17,0,,10.1,0.9,53,101780,0,0,292,173,500,59,0,0,0,0,90,1.4,1,0,0,0,0,0,0,0,0,0,0,0,0
2009,1,28,18,0,,8.6,1.4,61,101760,0,0,281,44,20,24,0,0,0,0,110,1.7,0,0,0,0,0,0,0,0,0,0,0,0,0
2009,1,28,19,0,,8.1,1,61,101740,0,0,279,0,0,0,0,0,0,0,50,2.2,0,0,0,0,0,0,0,0,0,0,0,0,0
2009,1,28,20,0,,7.4,1,64,101770,0,0,276,0,0,0,0,0,0,0,20,1.9,0,0,0,0,0,0,0,0,0,0,0,0,0
2009,1,28,21,0,,7.3,1.3,66,101740,0,0,276,0,0,0,0,0,0,0,70,1.2,0,0,0,0,0,0,0,0,0,0,0,0,0
2009,1,28,22,0,,6.8,1.2,68,101810,0,0,274,0,0,0,0,0,0,0,0,0.2,0,0,0,0,0,0,0,0,0,0,0,0,0
2009,1,28,23,0,,6.2,1.7,73,101800,0,0,272,0,0,0,0,0,0,0,250,1.1,0,0,0,0,0,0,0,0,0,0,0,0,0
2009,1,28,24,0,,5.9,1.7,75,101740,0,0,271,0,0,0,0,0,0,0,270,0.6,0,0,0,0,0,0,0,0,0,0,0,0,0
2009,1,29,1,0,,5.7,1.9,77,101670,0,0,275,0,0,0,0,0,0,0,0,0.3,1,0,0,0,0,0,0,0,0,0,0,0,0
2009,1,29,2,0,,5.5,1.9,78,101700,0,0,278,0,0,0,0,0,0,0,0,0.2,2,0,0,0,0,0,0,0,0,0,0,0,0
2009,1,29,3,0,,5.4,1.8,78,101660,0,0,281,0,0,0,0,0,0,0,0,0.4,3,0,0,0,0,0,0,0,0,0,0,0,0
2009,1,29,4,0,,5.4,1.8,78,101590,0,0,283,0,0,0,0,0,0,0,20,1.1,4,0,0,0,0,0,0,0,0,0,0,0,0
2009,1,29,5,0,,5.7,2.1,78,101530,0,0,293,0,0,0,0,0,0,0,50,2,7,0,0,0,0,0,0,0,0,0,0,0,0
2009,1,29,6,0,,5.9,2.1,77,101500,0,0,293,0,0,0,0,0,0,0,20,2.5,7,0,0,0,0,0,0,0,0,0,0,0,0
2009,1,29,7,0,,5.8,2.4,79,101510,0,0,298,0,0,0,0,0,0,0,50,1,8,0,0,0,0,0,0,0,0,0,0,0,0
2009,1,29,8,0,,6.3,2.5,77,101550,0,0,315,6,0,6,851,6,849,0,70,1.2,10,0,0,0,0,0,0,0,0,0,0,0,0
2009,1,29,9,0,,7.1,2.9,75,101520,0,0,319,54,34,48,7690,3357,6137,0,50,1.8,10,0,0,0,0,0,0,0,0,0,0,0,0
2009,1,29,10,0,,8.5,2.7,67,101510,0,0,325,131,60,110,16802,6006,13465,0,50,3.6,10,0,0,0,0,0,0,0,0,0,0,0,0
2009,1,29,11,0,,9.6,3.3,65,101470,0,0,331,186,58,158,21588,5596,18234,0,50,3.5,10,0,0,0,0,0,0,0,0,0,0,0,0
2009,1,29,12,0,,10.3,3.9,65,101430,0,0,335,222,56,190,25017,5416,21821,0,20,3.1,10,0,0,0,0,0,0,0,0,0,0,0,0
2009,1,29,13,0,,9.2,7.3,88,101370,0,0,335,179,26,164,20164,2422,18883,0,50,2.8,10,0,0,0,0,0,0,0,0,0,0,0,0
2009,1,29,14,0,,8.8,7,89,101340,0,0,333,157,20,145,17116,1301,16571,0,50,3.3,10,0,0,0,0,0,0,0,0,0,0,0,0
2009,1,29,15,0,,8.5,7.4,93,101340,0,0,332,110,11,104,11755,548,11607,0,50,2.3,10,0,0,0,0,0,0,0,0,0,0,0,0
2009,1,29,16,0,,8.6,7.5,93,101310,0,0,333,90,15,84,8619,365,8586,0,70,1.9,10,0,0,0,0,0,0,0,0,0,0,0,0
2009,1,29,17,0,,8.9,7.8,93,101310,0,0,334,55,20,51,0,0,0,0,50,2.6,10,0,0,0,0,0,0,0,0,0,0,0,0
2009,1,29,18,0,,8.8,7.8,94,101330,0,0,334,12,1,11,0,0,0,0,50,1.9,10,0,0,0,0,0,0,0,0,0,0,0,0
2009,1,29,19,0,,9,8.2,95,101310,0,0,335,0,0,0,0,0,0,0,50,2,10,0,0,0,0,0,0,0,0,0,0,0,0
2009,1,29,20,0,,8.5,7.7,95,101310,0,0,332,0,0,0,0,0,0,0,50,1.7,10,0,0,0,0,0,0,0,0,0,0,0,0
2009,1,29,21,0,,8.5,7.8,96,101270,0,0,333,0,0,0,0,0,0,0,50,3.1,10,0,0,0,0,0,0,0,0,0,0,0,0
2009,1,29,22,0,,8.5,7.7,95,101200,0,0,332,0,0,0,0,0,0,0,50,5.8,10,0,0,0,0,0,0,0,0,0,0,0,0
2009,1,29,23,0,,8.5,7.7,95,101150,0,0,332,0,0,0,0,0,0,0,20,5.2,10,0,0,0,0,0,0,0,0,0,0,0,0
2009,1,29,24,0,,8.3,7.3,94,101090,0,0,331,0,0,0,0,0,0,0,20,5.5,10,0,0,0,0,0,0,0,0,0,0,0,0
2009,1,30,1,0,,8.4,7,91,101000,0,0,331,0,0,0,0,0,0,0,50,6.8,10,0,0,0,0,0,0,0,0,0,0,0,0
2009,1,30,2,0,,8.5,7.1,91,100950,0,0,332,0,0,0,0,0,0,0,50,7.5,10,0,0,0,0,0,0,0,0,0,0,0,0
2009,1,30,3,0,,8.6,7.2,91,100880,0,0,332,0,0,0,0,0,0,0,50,7.8,10,0,0,0,0,0,0,0,0,0,0,0,0
2009,1,30,4,0,,8.7,6.9,89,100840,0,0,332,0,0,0,0,0,0,0,50,4,10,0,0,0,0,0,0,0,0,0,0,0,0
2009,1,30,5,0,,8.7,7.1,90,100790,0,0,332,0,0,0,0,0,0,0,20,6.5,10,0,0,0,0,0,0,0,0,0,0,0,0
2009,1,30,6,0,,8.6,7.2,91,100780,0,0,332,0,0,0,0,0,0,0,20,6.7,10,0,0,0,0,0,0,0,0,0,0,0,0
2009,1,30,7,0,,8.4,7.1,92,100750,0,0,331,0,0,0,0,0,0,0,50,6.8,10,0,0,0,0,0,0,0,0,0,0,0,0
2009,1,30,8,0,,8.3,7,92,100740,0,0,331,7,0,6,877,6,875,0,50,6,10,0,0,0,0,0,0,0,0,0,0,0,0
2009,1,30,9,0,,8.5,7.1,91,100730,0,0,332,55,33,48,7728,3202,6237,0,50,7.9,10,0,0,0,0,0,0,0,0,0,0,0,0
2009,1,30,10,0,,9,7.1,88,100750,0,0,334,114,39,100,13740,3620,11715,0,20,6.8,10,0,0,0,0,0,0,0,0,0,0,0,0
2009,1,30,11,0,,9.6,7.1,85,100660,0,0,337,168,43,147,19578,4073,17122,0,20,7.5,10,0,0,0,0,0,0,0,0,0,0,0,0
2009,1,30,12,0,,9.8,7,83,100610,0,0,337,212,49,184,23978,4609,21241,0,20,7.9,10,0,0,0,0,0,0,0,0,0,0,0,0
2009,1,30,13,0,,9.9,6.7,81,100540,0,0,337,216,43,191,23988,4023,21845,0,20,7.4,10,0,0,0,0,0,0,0,0,0,0,0,0
2009,1,30,14,0,,9.9,6.2,78,100490,0,0,337,210,44,184,22678,4063,20958,0,20,7,10,0,0,0,0,0,0,0,0,0,0,0,0
2009,1,30,15,0,,9.8,6.3,79,100460,0,0,336,177,42,156,18505,3626,17513,0,20,7.1,10,0,0,0,0,0,0,0,0,0,0,0,0
2009,1,30,16,0,,9.9,6.2,78,100470,0,0,337,130,42,113,12689,2725,12435,0,20,6.4,10,0,0,0,0,0,0,0,0,0,0,0,0
2009,1,30,17,0,,9.6,6.3,80,100490,0,0,335,71,39,62,0,0,0,0,20,7,10,0,0,0,0,0,0,0,0,0,0,0,0
2009,1,30,18,0,,9.5,6,79,100520,0,0,335,16,1,14,0,0,0,0,20,6.3,10,0,0,0,0,0,0,0,0,0,0,0,0
2009,1,30,19,0,,9.4,5.9,79,100580,0,0,331,0,0,0,0,0,0,0,50,7.8,10,0,0,0,0,0,0,0,0,0,0,0,0
2009,1,30,20,0,,9.5,5.4,76,100630,0,0,327,0,0,0,0,0,0,0,20,6.2,9,0,0,0,0,0,0,0,0,0,0,0,0
2009,1,30,21,0,,9.6,5.4,75,100640,0,0,325,0,0,0,0,0,0,0,20,6.1,9,0,0,0,0,0,0,0,0,0,0,0,0
2009,1,30,22,0,,9.7,5,73,100670,0,0,325,0,0,0,0,0,0,0,20,6.1,9,0,0,0,0,0,0,0,0,0,0,0,0
2009,1,30,23,0,,9.6,5.3,75,100680,0,0,325,0,0,0,0,0,0,0,20,4.4,9,0,0,0,0,0,0,0,0,0,0,0,0
2009,1,30,24,0,,9.2,5.9,80,100690,0,0,324,0,0,0,0,0,0,0,20,4.8,9,0,0,0,0,0,0,0,0,0,0,0,0
2009,1,31,1,0,,9.4,6.2,81,100730,0,0,325,0,0,0,0,0,0,0,20,6.2,9,0,0,0,0,0,0,0,0,0,0,0,0
2009,1,31,2,0,,9,6.6,85,100810,0,0,324,0,0,0,0,0,0,0,20,2.7,9,0,0,0,0,0,0,0,0,0,0,0,0
2009,1,31,3,0,,8.8,5.5,80,100830,0,0,315,0,0,0,0,0,0,0,20,4.5,8,0,0,0,0,0,0,0,0,0,0,0,0
2009,1,31,4,0,,8.6,5.1,79,100880,0,0,313,0,0,0,0,0,0,0,20,6.7,8,0,0,0,0,0,0,0,0,0,0,0,0
2009,1,31,5,0,,8.6,3.8,72,100940,0,0,307,0,0,0,0,0,0,0,20,4.8,7,0,0,0,0,0,0,0,0,0,0,0,0
2009,1,31,6,0,,8.3,3.3,71,101020,0,0,294,0,0,0,0,0,0,0,20,6.7,3,0,0,0,0,0,0,0,0,0,0,0,0
2009,1,31,7,0,,8,3,71,101090,0,0,290,0,0,0,0,0,0,0,20,5.8,2,0,0,0,0,0,0,0,0,0,0,0,0
2009,1,31,8,0,,8,2.4,68,101160,0,0,292,32,15,17,2774,1359,2323,0,20,6,3,0,0,0,0,0,0,0,0,0,0,0,0
2009,1,31,9,0,,9,1.8,61,101260,0,0,295,151,533,48,32370,53214,7407,0,20,4.1,3,0,0,0,0,0,0,0,0,0,0,0,0
2009,1,31,10,0,,9.2,1.3,58,101340,0,0,298,299,596,84,45954,59953,12204,0,50,7.3,4,0,0,0,0,0,0,0,0,0,0,0,0
2009,1,31,11,0,,11,1.7,53,101360,0,0,306,413,595,122,53757,59596,17591,0,50,3.9,4,0,0,0,0,0,0,0,0,0,0,0,0
2009,1,31,12,0,,10.5,0.7,51,101290,0,0,301,500,628,141,57012,62492,19650,0,20,6.5,3,0,0,0,0,0,0,0,0,0,0,0,0
2009,1,31,13,0,,10.2,0.2,50,101270,0,0,310,392,222,258,41135,21952,29356,0,50,5,7,0,0,0,0,0,0,0,0,0,0,0,0
2009,1,31,14,0,,9.4,0.5,54,101300,0,0,303,392,251,244,37782,23747,27637,0,50,6,6,0,0,0,0,0,0,0,0,0,0,0,0
2009,1,31,15,0,,9.3,0.1,53,101360,0,0,306,313,206,207,27799,16938,23105,0,20,5.3,7,0,0,0,0,0,0,0,0,0,0,0,0
2009,1,31,16,0,,8.7,0.3,56,101460,0,0,303,236,224,147,16699,9700,15762,0,50,5,7,0,0,0,0,0,0,0,0,0,0,0,0
2009,1,31,17,0,,7.8,0.2,59,101540,0,0,293,162,365,76,0,0,0,0,50,5.2,5,0,0,0,0,0,0,0,0,0,0,0,0
2009,1,31,18,0,,6.7,0.5,65,101680,0,0,291,40,17,23,0,0,0,0,50,6.3,6,0,0,0,0,0,0,0,0,0,0,0,0
2009,1,31,19,0,,6.2,0.9,69,101740,0,0,286,0,0,0,0,0,0,0,50,3.9,4,0,0,0,0,0,0,0,0,0,0,0,0
2009,1,31,20,0,,5.7,0.4,69,101780,0,0,279,0,0,0,0,0,0,0,20,4.5,3,0,0,0,0,0,0,0,0,0,0,0,0
2009,1,31,21,0,,5.4,0.3,70,101800,0,0,273,0,0,0,0,0,0,0,50,3.2,1,0,0,0,0,0,0,0,0,0,0,0,0
2009,1,31,22,0,,5,0.5,73,101830,0,0,271,0,0,0,0,0,0,0,50,4.1,1,0,0,0,0,0,0,0,0,0,0,0,0
2009,1,31,23,0,,4.7,0.4,74,101850,0,0,270,0,0,0,0,0,0,0,50,3.4,1,0,0,0,0,0,0,0,0,0,0,0,0
2009,1,31,24,0,,4.6,0.5,75,101890,0,0,270,0,0,0,0,0,0,0,50,3.4,1,0,0,0,0,0,0,0,0,0,0,0,0
1995,2,1,1,0,,-2,-12.9,42,102080,0,0,229,0,0,0,0,0,0,0,340,5,0,0,0,0,0,0,0,0,0,0,0,0,0
1995,2,1,2,0,,-2.6,-13.1,44,102100,0,0,226,0,0,0,0,0,0,0,340,5,0,0,0,0,0,0,0,0,0,0,0,0,0
1995,2,1,3,0,,-2.9,-13.3,45,102120,0,0,225,0,0,0,0,0,0,0,340,8.7,0,0,0,0,0,0,0,0,0,0,0,0,0
1995,2,1,4,0,,-3,-13.3,46,102130,0,0,225,0,0,0,0,0,0,0,340,8.3,0,0,0,0,0,0,0,0,0,0,0,0,0
1995,2,1,5,0,,-3.4,-13.3,46,102150,0,0,223,0,0,0,0,0,0,0,320,8,0,0,0,0,0,0,0,0,0,0,0,0,0
1995,2,1,6,0,,-3.6,-13.3,47,102160,0,0,223,0,0,0,0,0,0,0,320,7.7,0,0,0,0,0,0,0,0,0,0,0,0,0
1995,2,1,7,0,,-4,-13.3,46,102200,0,0,221,0,0,0,0,0,0,0,320,8.3,0,0,0,0,0,0,0,0,0,0,0,0,0
1995,2,1,8,0,,-3.6,-13.3,46,102230,0,0,223,40,28,13,2754,2561,1902,0,320,9.3,0,0,0,0,0,0,0,0,0,0,0,0,0
1995,2,1,9,0,,-3,-13.3,45,102270,0,0,225,170,675,37,36704,65881,5714,0,320,5.3,0,0,0,0,0,0,0,0,0,0,0,0,0
1995,2,1,10,0,,-1.8,-12.6,42,102270,0,0,230,342,785,57,52345,77826,8424,0,340,7,0,0,0,0,0,0,0,0,0,0,0,0,0
1995,2,1,11,0,,0,-11.9,40,102270,0,0,235,476,808,78,60174,80440,11237,0,340,7,0,0,0,0,0,0,0,0,0,0,0,0,0
1995,2,1,12,0,,2.1,-11.2,37,102270,0,0,244,570,833,90,63036,83857,12768,0,320,5,0,0,0,0,0,0,0,0,0,0,0,0,0
1995,2,1,13,0,,4.2,-11.5,33,102240,0,0,252,609,845,94,58511,83711,13459,0,320,3,0,0,0,0,0,0,0,0,0,0,0,0,0
1995,2,1,14,0,,5.9,-11.9,28,102200,0,0,258,588,844,90,47733,80551,13194,0,270,2,0,0,0,0,0,0,0,0,0,0,0,0,0
1995,2,1,15,0,,6.7,-12.2,24,102170,0,0,261,499,798,86,30944,67433,12153,0,270,1.5,0,0,0,0,0,0,0,0,0,0,0,0,0
1995,2,1,16,0,,7,-13.4,23,102200,0,0,261,375,774,66,12043,37181,8396,0,290,2.3,0,0,0,0,0,0,0,0,0,0,0,0,0
1995,2,1,17,0,,6.5,-14.5,23,102240,0,0,258,215,711,43,0,0,0,0,340,2.5,0,0,0,0,0,0,0,0,0,0,0,0,0
1995,2,1,18,0,,4,-15.7,22,102270,0,0,248,57,36,20,0,0,0,0,340,1.8,0,0,0,0,0,0,0,0,0,0,0,0,0
1995,2,1,19,0,,2.8,-15.7,23,102280,0,0,243,0,0,0,0,0,0,0,320,2.3,0,0,0,0,0,0,0,0,0,0,0,0,0
1995,2,1,20,0,,2.4,-15.7,24,102290,0,0,242,0,0,0,0,0,0,0,320,4.3,0,0,0,0,0,0,0,0,0,0,0,0,0
1995,2,1,21,0,,2.1,-15.7,25,102300,0,0,241,0,0,0,0,0,0,0,340,5.3,0,0,0,0,0,0,0,0,0,0,0,0,0
1995,2,1,22,0,,1.6,-15.3,27,102300,0,0,239,0,0,0,0,0,0,0,340,3,0,0,0,0,0,0,0,0,0,0,0,0,0
1995,2,1,23,0,,1,-14.9,30,102300,0,0,237,0,0,0,0,0,0,0,0,0,0,0,0,0,0,0,0,0,0,0,0,0,0
1995,2,1,24,0,,0.8,-14.5,32,102300,0,0,237,0,0,0,0,0,0,0,0,0,0,0,0,0,0,0,0,0,0,0,0,0,0
1995,2,2,1,0,,0.6,-13.4,35,102300,0,0,246,0,0,0,0,0,0,0,0,0,3,0,0,0,0,0,0,0,0,0,0,0,0
1995,2,2,2,0,,0.5,-12.3,39,102290,0,0,252,0,0,0,0,0,0,0,70,0.7,5,0,0,0,0,0,0,0,0,0,0,0,0
1995,2,2,3,0,,0.3,-11.2,42,102290,0,0,260,0,0,0,0,0,0,0,200,0.5,8,0,0,0,0,0,0,0,0,0,0,0,0
1995,2,2,4,0,,0.7,-11.7,39,102270,0,0,260,0,0,0,0,0,0,0,20,0.8,8,0,0,0,0,0,0,0,0,0,0,0,0
1995,2,2,5,0,,1,-12.2,35,102250,0,0,260,0,0,0,0,0,0,0,340,5.7,7,0,0,0,0,0,0,0,0,0,0,0,0
1995,2,2,6,0,,1.7,-12.7,32,102230,0,0,261,0,0,0,0,0,0,0,320,5,7,0,0,0,0,0,0,0,0,0,0,0,0
1995,2,2,7,0,,1.8,-11.5,35,102240,0,0,267,0,0,0,0,0,0,0,20,0.8,8,0,0,0,0,0,0,0,0,0,0,0,0
1995,2,2,8,0,,1.8,-10.2,39,102260,0,0,273,17,3,14,1886,94,1855,0,0,0,9,0,0,0,0,0,0,0,0,0,0,0,0
1995,2,2,9,0,,2.4,-9,42,102270,0,0,285,67,53,57,9657,5398,7100,0,70,0.3,10,0,0,0,0,0,0,0,0,0,0,0,0
1995,2,2,10,0,,3.2,-8.4,42,102240,0,0,289,148,75,120,18791,7699,14417,0,20,3.3,10,0,0,0,0,0,0,0,0,0,0,0,0
1995,2,2,11,0,,5.8,-7.7,41,102200,0,0,302,233,99,183,27653,10246,21380,0,360,4,10,0,0,0,0,0,0,0,0,0,0,0,0
1995,2,2,12,0,,4.8,-7.1,41,102170,0,0,298,246,69,206,27535,6766,23452,0,320,2,10,0,0,0,0,0,0,0,0,0,0,0,0
1995,2,2,13,0,,6.4,-6.2,41,102120,0,0,306,273,76,227,29640,7482,25583,0,360,3.3,10,0,0,0,0,0,0,0,0,0,0,0,0
1995,2,2,14,0,,7.8,-5.3,41,102070,0,0,313,251,67,211,26470,6425,23690,0,360,2.7,10,0,0,0,0,0,0,0,0,0,0,0,0
1995,2,2,15,0,,7.8,-4.4,41,102020,0,0,314,219,71,182,22052,6340,20261,0,20,2.5,10,0,0,0,0,0,0,0,0,0,0,0,0
1995,2,2,16,0,,7.6,-3.8,46,102060,0,0,314,161,69,133,14907,4860,14413,0,20,4.3,10,0,0,0,0,0,0,0,0,0,0,0,0
1995,2,2,17,0,,6.6,-3.3,50,102090,0,0,310,78,43,67,0,0,0,0,20,2.5,10,0,0,0,0,0,0,0,0,0,0,0,0
1995,2,2,18,0,,5.6,-2.7,55,102130,0,0,306,17,1,16,0,0,0,0,20,3.7,10,0,0,0,0,0,0,0,0,0,0,0,0
1995,2,2,19,0,,4.3,-2.3,61,102150,0,0,293,0,0,0,0,0,0,0,20,3.7,9,0,0,0,0,0,0,0,0,0,0,0,0
1995,2,2,20,0,,3.9,-1.8,66,102180,0,0,285,0,0,0,0,0,0,0,20,3,8,0,0,0,0,0,0,0,0,0,0,0,0
1995,2,2,21,0,,3.1,-1.4,72,102200,0,0,278,0,0,0,0,0,0,0,20,3.3,7,0,0,0,0,0,0,0,0,0,0,0,0
1995,2,2,22,0,,3.3,-1.1,74,102200,0,0,277,0,0,0,0,0,0,0,20,2.8,6,0,0,0,0,0,0,0,0,0,0,0,0
1995,2,2,23,0,,3.2,-0.8,75,102200,0,0,275,0,0,0,0,0,0,0,20,2.7,6,0,0,0,0,0,0,0,0,0,0,0,0
1995,2,2,24,0,,3.2,-0.5,77,102200,0,0,274,0,0,0,0,0,0,0,20,4,5,0,0,0,0,0,0,0,0,0,0,0,0
1995,2,3,1,0,,2.7,-0.6,79,102220,0,0,272,0,0,0,0,0,0,0,50,2.3,5,0,0,0,0,0,0,0,0,0,0,0,0
1995,2,3,2,0,,2.3,-0.6,81,102240,0,0,270,0,0,0,0,0,0,0,50,3,5,0,0,0,0,0,0,0,0,0,0,0,0
1995,2,3,3,0,,1.8,-0.7,83,102260,0,0,268,0,0,0,0,0,0,0,50,2.8,5,0,0,0,0,0,0,0,0,0,0,0,0
1995,2,3,4,0,,1.6,-0.9,83,102240,0,0,267,0,0,0,0,0,0,0,20,2.3,5,0,0,0,0,0,0,0,0,0,0,0,0
1995,2,3,5,0,,1.8,-1,83,102220,0,0,267,0,0,0,0,0,0,0,340,0.7,4,0,0,0,0,0,0,0,0,0,0,0,0
1995,2,3,6,0,,1.5,-1.2,83,102200,0,0,265,0,0,0,0,0,0,0,360,0.8,4,0,0,0,0,0,0,0,0,0,0,0,0
1995,2,3,7,0,,1.7,-1,81,102210,0,0,268,0,0,0,0,0,0,0,20,2,5,0,0,0,0,0,0,0,0,0,0,0,0
1995,2,3,8,0,,2,-0.9,79,102220,0,0,273,23,6,17,2218,552,2031,0,320,2.3,7,0,0,0,0,0,0,0,0,0,0,0,0
1995,2,3,9,0,,2.7,-0.7,77,102230,0,0,282,94,131,67,15072,12988,8871,0,320,2.3,8,0,0,0,0,0,0,0,0,0,0,0,0
1995,2,3,10,0,,5.1,-0.9,68,102200,0,0,291,205,187,136,27681,18980,16827,0,20,2,8,0,0,0,0,0,0,0,0,0,0,0,0
1995,2,3,11,0,,6.9,-1.2,60,102160,0,0,299,302,205,199,36540,20974,23615,0,360,3.3,8,0,0,0,0,0,0,0,0,0,0,0,0
1995,2,3,12,0,,8.2,-1.4,51,102130,0,0,304,365,205,245,40753,20763,28139,0,140,1.2,8,0,0,0,0,0,0,0,0,0,0,0,0
1995,2,3,13,0,,8.7,-0.8,54,102080,0,0,307,369,173,262,39183,17183,29797,0,140,2,8,0,0,0,0,0,0,0,0,0,0,0,0
1995,2,3,14,0,,9.3,-0.2,57,102020,0,0,310,346,162,250,34907,15395,28184,0,110,2.3,8,0,0,0,0,0,0,0,0,0,0,0,0
1995,2,3,15,0,,7.5,0.4,60,101970,0,0,303,271,125,205,25989,11179,22788,0,90,3.5,8,0,0,0,0,0,0,0,0,0,0,0,0
1995,2,3,16,0,,6.9,0.5,63,101970,0,0,304,154,60,130,14607,4180,14167,0,90,3,9,0,0,0,0,0,0,0,0,0,0,0,0
1995,2,3,17,0,,6.7,0.5,65,101980,0,0,309,87,56,73,0,0,0,0,90,2.7,9,0,0,0,0,0,0,0,0,0,0,0,0
1995,2,3,18,0,,6.2,0.6,68,101980,0,0,312,16,1,15,0,0,0,0,50,3,10,0,0,0,0,0,0,0,0,0,0,0,0
1995,2,3,19,0,,5.6,0.5,69,101980,0,0,299,0,0,0,0,0,0,0,360,1.7,9,0,0,0,0,0,0,0,0,0,0,0,0
1995,2,3,20,0,,5.5,0.5,71,101980,0,0,291,0,0,0,0,0,0,0,20,1.5,7,0,0,0,0,0,0,0,0,0,0,0,0
1995,2,3,21,0,,5.1,0.4,72,101980,0,0,285,0,0,0,0,0,0,0,20,1.7,6,0,0,0,0,0,0,0,0,0,0,0,0
1995,2,3,22,0,,4.9,-1.5,65,101970,0,0,287,0,0,0,0,0,0,0,290,2.3,7,0,0,0,0,0,0,0,0,0,0,0,0
1995,2,3,23,0,,4.5,-3.5,59,101950,0,0,290,0,0,0,0,0,0,0,320,4.5,9,0,0,0,0,0,0,0,0,0,0,0,0
1995,2,3,24,0,,3.8,-5.4,52,101940,0,0,295,0,0,0,0,0,0,0,320,2.8,10,0,0,0,0,0,0,0,0,0,0,0,0
1995,2,4,1,0,,3.2,-7,48,101900,0,0,271,0,0,0,0,0,0,0,340,4,7,0,0,0,0,0,0,0,0,0,0,0,0
1995,2,4,2,0,,2.6,-8.7,43,101850,0,0,260,0,0,0,0,0,0,0,340,2.5,3,0,0,0,0,0,0,0,0,0,0,0,0
1995,2,4,3,0,,1.8,-10.3,39,101810,0,0,244,0,0,0,0,0,0,0,340,6.7,0,0,0,0,0,0,0,0,0,0,0,0,0
1995,2,4,4,0,,1.3,-10,42,101790,0,0,242,0,0,0,0,0,0,0,340,7.3,0,0,0,0,0,0,0,0,0,0,0,0,0
1995,2,4,5,0,,1.1,-9.7,46,101780,0,0,241,0,0,0,0,0,0,0,340,7.7,0,0,0,0,0,0,0,0,0,0,0,0,0
1995,2,4,6,0,,0.1,-9.4,49,101760,0,0,238,0,0,0,0,0,0,0,360,2.8,0,0,0,0,0,0,0,0,0,0,0,0,0
1995,2,4,7,0,,-0.3,-9.5,47,101760,0,0,246,0,0,0,0,0,0,0,340,4,2,0,0,0,0,0,0,0,0,0,0,0,0
1995,2,4,8,0,,-0.1,-9.7,46,101760,0,0,252,34,20,14,2536,1869,1896,0,360,4.3,5,0,0,0,0,0,0,0,0,0,0,0,0
1995,2,4,9,0,,0.8,-9.8,44,101760,0,0,260,125,308,62,24644,30684,9882,0,140,2.8,7,0,0,0,0,0,0,0,0,0,0,0,0
1995,2,4,10,0,,1.8,-9.3,43,101710,0,0,269,222,229,137,30263,23781,16571,0,140,3.5,8,0,0,0,0,0,0,0,0,0,0,0,0
1995,2,4,11,0,,3.2,-8.7,41,101670,0,0,281,273,149,198,32515,15429,22945,0,140,3.7,9,0,0,0,0,0,0,0,0,0,0,0,0
1995,2,4,12,0,,4.2,-8.2,40,101620,0,0,294,277,91,223,30833,9015,25319,0,90,4.2,10,0,0,0,0,0,0,0,0,0,0,0,0
1995,2,4,13,0,,4.4,-9.5,35,101560,0,0,291,276,75,229,29958,7402,25885,0,110,3.3,10,0,0,0,0,0,0,0,0,0,0,0,0
1995,2,4,14,0,,6.1,-10.9,31,101510,0,0,294,336,145,249,34022,14088,27814,0,140,3,9,0,0,0,0,0,0,0,0,0,0,0,0
1995,2,4,15,0,,6,-12.2,26,101450,0,0,290,281,134,209,26708,12313,23136,0,270,2.2,9,0,0,0,0,0,0,0,0,0,0,0,0
1995,2,4,16,0,,4.6,-13,26,101450,0,0,281,204,127,152,17394,9391,16372,0,340,2.8,9,0,0,0,0,0,0,0,0,0,0,0,0
1995,2,4,17,0,,4.2,-13.7,25,101440,0,0,277,138,203,87,0,0,0,0,290,3.3,8,0,0,0,0,0,0,0,0,0,0,0,0
1995,2,4,18,0,,3.7,-14.5,25,101440,0,0,272,38,12,26,0,0,0,0,340,2.7,8,0,0,0,0,0,0,0,0,0,0,0,0
1995,2,4,19,0,,3.2,-14.5,26,101460,0,0,267,0,0,0,0,0,0,0,320,3.7,7,0,0,0,0,0,0,0,0,0,0,0,0
1995,2,4,20,0,,2.7,-14.5,26,101480,0,0,263,0,0,0,0,0,0,0,340,1.7,7,0,0,0,0,0,0,0,0,0,0,0,0
1995,2,4,21,0,,2.3,-14.5,27,101500,0,0,259,0,0,0,0,0,0,0,320,2,6,0,0,0,0,0,0,0,0,0,0,0,0
1995,2,4,22,0,,1.8,-13.9,30,101470,0,0,253,0,0,0,0,0,0,0,320,2,4,0,0,0,0,0,0,0,0,0,0,0,0
1995,2,4,23,0,,1,-13.3,34,101450,0,0,246,0,0,0,0,0,0,0,340,3,2,0,0,0,0,0,0,0,0,0,0,0,0
1995,2,4,24,0,,0.1,-12.7,37,101420,0,0,235,0,0,0,0,0,0,0,360,3.3,0,0,0,0,0,0,0,0,0,0,0,0,0
1995,2,5,1,0,,-0.5,-12.9,38,101410,0,0,235,0,0,0,0,0,0,0,20,1.5,0,0,0,0,0,0,0,0,0,0,0,0,0
1995,2,5,2,0,,-1.1,-13.1,39,101410,0,0,232,0,0,0,0,0,0,0,160,1.3,0,0,0,0,0,0,0,0,0,0,0,0,0
1995,2,5,3,0,,-1.5,-13.3,40,101400,0,0,231,0,0,0,0,0,0,0,360,2.7,0,0,0,0,0,0,0,0,0,0,0,0,0
1995,2,5,4,0,,-1.7,-13.7,40,101380,0,0,230,0,0,0,0,0,0,0,270,2.5,0,0,0,0,0,0,0,0,0,0,0,0,0
1995,2,5,5,0,,-1.7,-14.1,39,101360,0,0,229,0,0,0,0,0,0,0,160,2.7,0,0,0,0,0,0,0,0,0,0,0,0,0
1995,2,5,6,0,,-2,-14.5,39,101340,0,0,228,0,0,0,0,0,0,0,320,2.3,0,0,0,0,0,0,0,0,0,0,0,0,0
1995,2,5,7,0,,-2.2,-14.1,40,101360,0,0,228,0,0,0,0,0,0,0,360,6.7,0,0,0,0,0,0,0,0,0,0,0,0,0
1995,2,5,8,0,,-2.5,-13.7,40,101380,0,0,227,43,28,15,3144,2639,2231,0,340,4.7,0,0,0,0,0,0,0,0,0,0,0,0,0
1995,2,5,9,0,,-2,-13.3,41,101400,0,0,229,179,658,41,37495,64448,6251,0,340,4.8,0,0,0,0,0,0,0,0,0,0,0,0,0
1995,2,5,10,0,,-0.3,-12.6,40,101380,0,0,236,338,710,71,51184,70538,10294,0,360,3.3,0,0,0,0,0,0,0,0,0,0,0,0,0
1995,2,5,11,0,,1,-11.9,38,101350,0,0,239,480,773,88,61316,78178,12506,0,320,4.5,0,0,0,0,0,0,0,0,0,0,0,0,0
1995,2,5,12,0,,1.6,-11.2,37,101330,0,0,242,578,810,99,64016,81386,13903,0,270,6,0,0,0,0,0,0,0,0,0,0,0,0,0
1995,2,5,13,0,,3.1,-11.5,34,101280,0,0,248,610,801,109,59255,79127,15381,0,290,5,0,0,0,0,0,0,0,0,0,0,0,0,0
1995,2,5,14,0,,3.6,-11.9,30,101230,0,0,249,573,751,118,48484,71896,16510,0,270,5,0,0,0,0,0,0,0,0,0,0,0,0,0
1995,2,5,15,0,,5.1,-12.2,27,101180,0,0,255,510,781,93,32754,67046,13046,0,360,3,0,0,0,0,0,0,0,0,0,0,0,0,0
1995,2,5,16,0,,5.4,-12.8,27,101220,0,0,256,394,790,66,13348,41875,8641,0,320,4.5,0,0,0,0,0,0,0,0,0,0,0,0,0
1995,2,5,17,0,,5.1,-13.3,27,101260,0,0,254,235,755,41,0,0,0,0,360,3.8,0,0,0,0,0,0,0,0,0,0,0,0,0
1995,2,5,18,0,,3.4,-13.9,27,101300,0,0,247,66,46,20,0,0,0,0,340,3,0,0,0,0,0,0,0,0,0,0,0,0,0
1995,2,5,19,0,,2.2,-13.9,28,101330,0,0,243,0,0,0,0,0,0,0,340,3.5,0,0,0,0,0,0,0,0,0,0,0,0,0
1995,2,5,20,0,,1.7,-13.9,30,101350,0,0,241,0,0,0,0,0,0,0,340,6.7,0,0,0,0,0,0,0,0,0,0,0,0,0
1995,2,5,21,0,,1.1,-13.9,31,101380,0,0,238,0,0,0,0,0,0,0,340,6,0,0,0,0,0,0,0,0,0,0,0,0,0
1995,2,5,22,0,,0.7,-14.3,32,101400,0,0,237,0,0,0,0,0,0,0,340,7,0,0,0,0,0,0,0,0,0,0,0,0,0
1995,2,5,23,0,,0.3,-14.7,32,101420,0,0,235,0,0,0,0,0,0,0,340,7.7,0,0,0,0,0,0,0,0,0,0,0,0,0
1995,2,5,24,0,,-0.1,-15.1,33,101440,0,0,235,0,0,0,0,0,0,0,340,7.3,0,0,0,0,0,0,0,0,0,0,0,0,0
1995,2,6,1,0,,-0.6,-14.5,36,101450,0,0,233,0,0,0,0,0,0,0,340,7.7,0,0,0,0,0,0,0,0,0,0,0,0,0
1995,2,6,2,0,,-1.2,-13.9,38,101460,0,0,231,0,0,0,0,0,0,0,360,5,0,0,0,0,0,0,0,0,0,0,0,0,0
1995,2,6,3,0,,-1.5,-13.3,41,101470,0,0,231,0,0,0,0,0,0,0,340,3,0,0,0,0,0,0,0,0,0,0,0,0,0
1995,2,6,4,0,,-1.7,-12.9,42,101460,0,0,230,0,0,0,0,0,0,0,340,4.3,0,0,0,0,0,0,0,0,0,0,0,0,0
1995,2,6,5,0,,-2.3,-12.6,44,101460,0,0,228,0,0,0,0,0,0,0,180,2,0,0,0,0,0,0,0,0,0,0,0,0,0
1995,2,6,6,0,,-2.1,-12.2,45,101450,0,0,229,0,0,0,0,0,0,0,340,3.5,0,0,0,0,0,0,0,0,0,0,0,0,0
1995,2,6,7,0,,-2,-11.4,46,101510,0,0,236,0,0,0,0,0,0,0,180,3.7,2,0,0,0,0,0,0,0,0,0,0,0,0
1995,2,6,8,0,,-1.8,-10.6,48,101570,0,0,242,42,24,17,3126,2331,2311,0,140,3,3,0,0,0,0,0,0,0,0,0,0,0,0
1995,2,6,9,0,,-0.1,-9.8,49,101630,0,0,252,163,514,54,33244,51234,8212,0,360,3.8,5,0,0,0,0,0,0,0,0,0,0,0,0
1995,2,6,10,0,,1.7,-9.5,45,101600,0,0,255,336,687,75,51394,69386,10896,0,250,2.7,3,0,0,0,0,0,0,0,0,0,0,0,0
1995,2,6,11,0,,3.4,-9.3,42,101570,0,0,258,479,755,93,61057,76259,13131,0,360,2,2,0,0,0,0,0,0,0,0,0,0,0,0
1995,2,6,12,0,,4,-9,38,101540,0,0,253,563,753,115,62534,75297,15856,0,320,3.5,0,0,0,0,0,0,0,0,0,0,0,0,0
1995,2,6,13,0,,5.8,-8.2,37,101440,0,0,261,593,739,128,58981,73518,17913,0,320,2.7,0,0,0,0,0,0,0,0,0,0,0,0,0
1995,2,6,14,0,,6.2,-7.5,35,101340,0,0,263,568,725,126,48518,69169,17479,0,320,3.7,0,0,0,0,0,0,0,0,0,0,0,0,0
1995,2,6,15,0,,7.5,-6.7,34,101240,0,0,269,519,796,91,33286,68579,12865,0,250,4.7,0,0,0,0,0,0,0,0,0,0,0,0,0
1995,2,6,16,0,,8.6,-7.3,34,101230,0,0,273,394,773,70,13892,41279,9103,0,250,4,0,0,0,0,0,0,0,0,0,0,0,0,0
1995,2,6,17,0,,7.7,-8,33,101210,0,0,269,237,745,43,0,0,0,0,290,4.7,0,0,0,0,0,0,0,0,0,0,0,0,0
1995,2,6,18,0,,6.1,-8.6,33,101200,0,0,262,66,45,21,0,0,0,0,270,3,0,0,0,0,0,0,0,0,0,0,0,0,0
1995,2,6,19,0,,5.1,-9.5,33,101220,0,0,257,0,0,0,0,0,0,0,250,5,0,0,0,0,0,0,0,0,0,0,0,0,0
1995,2,6,20,0,,4.5,-10.3,33,101240,0,0,254,0,0,0,0,0,0,0,270,4,0,0,0,0,0,0,0,0,0,0,0,0,0
1995,2,6,21,0,,3.6,-11.2,33,101260,0,0,250,0,0,0,0,0,0,0,270,4,0,0,0,0,0,0,0,0,0,0,0,0,0
1995,2,6,22,0,,3.2,-11.2,33,101270,0,0,248,0,0,0,0,0,0,0,250,6.7,0,0,0,0,0,0,0,0,0,0,0,0,0
1995,2,6,23,0,,2.8,-11.2,34,101270,0,0,247,0,0,0,0,0,0,0,250,3,0,0,0,0,0,0,0,0,0,0,0,0,0
1995,2,6,24,0,,2.4,-11.2,34,101280,0,0,245,0,0,0,0,0,0,0,270,2.7,0,0,0,0,0,0,0,0,0,0,0,0,0
1995,2,7,1,0,,2.3,-11,36,101290,0,0,245,0,0,0,0,0,0,0,230,2.7,0,0,0,0,0,0,0,0,0,0,0,0,0
1995,2,7,2,0,,2.1,-10.9,39,101290,0,0,244,0,0,0,0,0,0,0,250,3.7,0,0,0,0,0,0,0,0,0,0,0,0,0
1995,2,7,3,0,,1.5,-10.7,41,101300,0,0,242,0,0,0,0,0,0,0,110,1.8,0,0,0,0,0,0,0,0,0,0,0,0,0
1995,2,7,4,0,,1.4,-10.1,43,101300,0,0,242,0,0,0,0,0,0,0,270,3.8,0,0,0,0,0,0,0,0,0,0,0,0,0
1995,2,7,5,0,,0.9,-9.6,46,101300,0,0,241,0,0,0,0,0,0,0,340,2.3,0,0,0,0,0,0,0,0,0,0,0,0,0
1995,2,7,6,0,,0.5,-9,48,101300,0,0,240,0,0,0,0,0,0,0,340,2.3,0,0,0,0,0,0,0,0,0,0,0,0,0
1995,2,7,7,0,,1.1,-8.7,47,101340,0,0,242,0,0,0,0,0,0,0,270,5,0,0,0,0,0,0,0,0,0,0,0,0,0
1995,2,7,8,0,,0.9,-8.5,45,101370,0,0,242,43,26,18,3422,2395,2576,0,270,1.2,0,0,0,0,0,0,0,0,0,0,0,0,0
1995,2,7,9,0,,2.6,-8.2,44,101410,0,0,249,186,673,41,38843,66172,6258,0,340,2.2,0,0,0,0,0,0,0,0,0,0,0,0,0
1995,2,7,10,0,,4.3,-7.5,41,101390,0,0,256,352,741,68,53243,73853,9839,0,340,3,0,0,0,0,0,0,0,0,0,0,0,0,0
1995,2,7,11,0,,6.5,-6.7,37,101380,0,0,265,497,805,83,62830,80512,11896,0,320,2.7,0,0,0,0,0,0,0,0,0,0,0,0,0
1995,2,7,12,0,,8.6,-6,34,101360,0,0,274,582,797,104,64614,80225,14543,0,360,2.3,0,0,0,0,0,0,0,0,0,0,0,0,0
1995,2,7,13,0,,10.9,-5.8,31,101280,0,0,283,643,868,93,62077,86694,13288,0,270,3.8,0,0,0,0,0,0,0,0,0,0,0,0,0
1995,2,7,14,0,,13.3,-5.6,29,101190,0,0,293,637,910,78,51684,88506,11610,0,200,5,0,0,0,0,0,0,0,0,0,0,0,0,0
1995,2,7,15,0,,13.4,-5.4,26,101110,0,0,294,542,855,78,34469,75194,11789,0,230,4.5,0,0,0,0,0,0,0,0,0,0,0,0,0
1995,2,7,16,0,,12.6,-5.2,29,101120,0,0,291,388,734,78,14626,39091,9950,0,200,3.5,0,0,0,0,0,0,0,0,0,0,0,0,0
1995,2,7,17,0,,10.9,-4.9,33,101130,0,0,284,220,615,57,0,0,0,0,200,4.2,0,0,0,0,0,0,0,0,0,0,0,0,0
1995,2,7,18,0,,9.4,-4.7,36,101140,0,0,278,65,41,24,0,0,0,0,250,4.5,0,0,0,0,0,0,0,0,0,0,0,0,0
1995,2,7,19,0,,8.2,-4.4,39,101160,0,0,274,0,0,0,0,0,0,0,250,3,0,0,0,0,0,0,0,0,0,0,0,0,0
1995,2,7,20,0,,7.6,-4.1,43,101170,0,0,272,0,0,0,0,0,0,0,250,3.7,0,0,0,0,0,0,0,0,0,0,0,0,0
1995,2,7,21,0,,6.9,-3.8,46,101190,0,0,269,0,0,0,0,0,0,0,250,3.8,0,0,0,0,0,0,0,0,0,0,0,0,0
1995,2,7,22,0,,6.5,-3.8,47,101200,0,0,268,0,0,0,0,0,0,0,250,3.3,0,0,0,0,0,0,0,0,0,0,0,0,0
1995,2,7,23,0,,6.3,-3.8,47,101210,0,0,267,0,0,0,0,0,0,0,270,0.7,0,0,0,0,0,0,0,0,0,0,0,0,0
1995,2,7,24,0,,6.1,-3.8,48,101220,0,0,266,0,0,0,0,0,0,0,290,1.2,0,0,0,0,0,0,0,0,0,0,0,0,0
1995,2,8,1,0,,6,-4.1,48,101200,0,0,266,0,0,0,0,0,0,0,290,1.7,0,0,0,0,0,0,0,0,0,0,0,0,0
1995,2,8,2,0,,5.7,-4.4,48,101190,0,0,264,0,0,0,0,0,0,0,270,3.2,0,0,0,0,0,0,0,0,0,0,0,0,0
1995,2,8,3,0,,5.2,-4.7,48,101170,0,0,262,0,0,0,0,0,0,0,270,3.3,0,0,0,0,0,0,0,0,0,0,0,0,0
1995,2,8,4,0,,5.2,-4.8,49,101170,0,0,262,0,0,0,0,0,0,0,320,4,0,0,0,0,0,0,0,0,0,0,0,0,0
1995,2,8,5,0,,5.1,-4.9,51,101170,0,0,261,0,0,0,0,0,0,0,320,4.7,0,0,0,0,0,0,0,0,0,0,0,0,0
1995,2,8,6,0,,4,-5,52,101170,0,0,257,0,0,0,0,0,0,0,340,1.2,0,0,0,0,0,0,0,0,0,0,0,0,0
1995,2,8,7,0,,5,-5.5,49,101230,0,0,272,0,0,0,0,0,0,0,320,5.3,3,0,0,0,0,0,0,0,0,0,0,0,0
1995,2,8,8,0,,4.2,-5.9,45,101280,0,0,275,36,19,17,2942,1811,2296,0,320,4.7,6,0,0,0,0,0,0,0,0,0,0,0,0
1995,2,8,9,0,,5.2,-6.4,42,101340,0,0,292,102,134,73,16210,13518,9500,0,320,2.7,9,0,0,0,0,0,0,0,0,0,0,0,0
1995,2,8,10,0,,6.1,-6.7,38,101330,0,0,293,191,129,141,24670,13361,16763,0,320,3.2,9,0,0,0,0,0,0,0,0,0,0,0,0
1995,2,8,11,0,,6.8,-7.1,34,101310,0,0,294,325,225,209,39277,23443,24348,0,340,4.7,8,0,0,0,0,0,0,0,0,0,0,0,0
1995,2,8,12,0,,9.1,-7.4,30,101300,0,0,302,398,236,256,44464,24459,29095,0,340,3.7,8,0,0,0,0,0,0,0,0,0,0,0,0
1995,2,8,13,0,,6.9,-7.9,27,101230,0,0,292,382,170,273,40548,17190,30802,0,270,4,8,0,0,0,0,0,0,0,0,0,0,0,0
1995,2,8,14,0,,13.5,-8.5,24,101160,0,0,320,452,321,253,42749,31671,28281,0,250,3.7,8,0,0,0,0,0,0,0,0,0,0,0,0
1995,2,8,15,0,,12.4,-9,21,101090,0,0,314,373,281,219,31738,24569,24232,0,230,5.3,8,0,0,0,0,0,0,0,0,0,0,0,0
1995,2,8,16,0,,9.6,-7.2,27,101070,0,0,308,242,184,163,18666,9819,17456,0,230,5,9,0,0,0,0,0,0,0,0,0,0,0,0
1995,2,8,17,0,,9.6,-5.4,33,101060,0,0,315,111,89,87,0,0,0,0,270,4.7,9,0,0,0,0,0,0,0,0,0,0,0,0
1995,2,8,18,0,,9.4,-3.6,39,101040,0,0,323,22,2,20,0,0,0,0,270,3.2,10,0,0,0,0,0,0,0,0,0,0,0,0
1995,2,8,19,0,,9.4,-2,46,101030,0,0,315,0,0,0,0,0,0,0,250,5,9,0,0,0,0,0,0,0,0,0,0,0,0
1995,2,8,20,0,,9.1,-0.5,52,101010,0,0,309,0,0,0,0,0,0,0,250,3,8,0,0,0,0,0,0,0,0,0,0,0,0
1995,2,8,21,0,,8.7,1.1,59,101000,0,0,304,0,0,0,0,0,0,0,250,3.7,7,0,0,0,0,0,0,0,0,0,0,0,0
1995,2,8,22,0,,8.5,1.8,63,100980,0,0,309,0,0,0,0,0,0,0,270,4.7,8,0,0,0,0,0,0,0,0,0,0,0,0
1995,2,8,23,0,,8.5,2.5,66,100960,0,0,316,0,0,0,0,0,0,0,270,4.3,9,0,0,0,0,0,0,0,0,0,0,0,0
1995,2,8,24,0,,8.4,3.2,70,100940,0,0,326,0,0,0,0,0,0,0,340,4,10,0,0,0,0,0,0,0,0,0,0,0,0
1995,2,9,1,0,,8.4,2.6,67,100910,0,0,321,0,0,0,0,0,0,0,270,1.7,10,0,0,0,0,0,0,0,0,0,0,0,0
1995,2,9,2,0,,8.3,1.9,64,100890,0,0,317,0,0,0,0,0,0,0,320,3,9,0,0,0,0,0,0,0,0,0,0,0,0
1995,2,9,3,0,,8.2,1.3,61,100860,0,0,314,0,0,0,0,0,0,0,270,0.5,9,0,0,0,0,0,0,0,0,0,0,0,0
1995,2,9,4,0,,7.8,-0.3,55,100840,0,0,310,0,0,0,0,0,0,0,250,1.7,9,0,0,0,0,0,0,0,0,0,0,0,0
1995,2,9,5,0,,8.1,-2,49,100820,0,0,310,0,0,0,0,0,0,0,340,6,9,0,0,0,0,0,0,0,0,0,0,0,0
1995,2,9,6,0,,8.1,-3.6,43,100800,0,0,308,0,0,0,0,0,0,0,320,5.3,9,0,0,0,0,0,0,0,0,0,0,0,0
1995,2,9,7,0,,7.3,-3.5,44,100830,0,0,307,0,0,0,0,0,0,0,340,8,9,0,0,0,0,0,0,0,0,0,0,0,0
1995,2,9,8,0,,7.4,-3.4,44,100850,0,0,310,14,1,13,1704,37,1691,0,230,1.3,10,0,0,0,0,0,0,0,0,0,0,0,0
1995,2,9,9,0,,7.6,-3.3,45,100880,0,0,315,72,46,62,10048,4653,7721,0,290,2,10,0,0,0,0,0,0,0,0,0,0,0,0
1995,2,9,10,0,,8.1,-3.3,41,100860,0,0,302,220,188,146,29346,19300,17844,0,290,2.7,8,0,0,0,0,0,0,0,0,0,0,0,0
1995,2,9,11,0,,8.4,-3.3,36,100850,0,0,295,372,336,196,46447,33802,24777,0,290,3.3,6,0,0,0,0,0,0,0,0,0,0,0,0
1995,2,9,12,0,,12.4,-3.3,32,100830,0,0,307,535,630,151,60696,63123,20763,0,200,1.5,4,0,0,0,0,0,0,0,0,0,0,0,0
1995,2,9,13,0,,13.5,-1.8,37,100830,0,0,315,551,581,178,55600,57537,22737,0,140,3.3,5,0,0,0,0,0,0,0,0,0,0,0,0
1995,2,9,14,0,,14,-0.2,41,100840,0,0,321,535,588,169,47238,55983,21436,0,140,3,5,0,0,0,0,0,0,0,0,0,0,0,0
1995,2,9,15,0,,12.6,1.3,46,100840,0,0,318,394,328,214,32774,27809,24171,0,90,4.5,6,0,0,0,0,0,0,0,0,0,0,0,0
1995,2,9,16,0,,11.3,0.6,49,100920,0,0,308,301,357,147,18245,17526,16023,0,70,4.7,5,0,0,0,0,0,0,0,0,0,0,0,0
1995,2,9,17,0,,9.6,0,51,100990,0,0,297,204,469,76,0,0,0,0,50,7.3,3,0,0,0,0,0,0,0,0,0,0,0,0
1995,2,9,18,0,,8.1,-0.7,54,101070,0,0,286,64,37,27,0,0,0,0,50,6,2,0,0,0,0,0,0,0,0,0,0,0,0
1995,2,9,19,0,,6.5,-0.3,59,101200,0,0,284,0,0,0,0,0,0,0,50,6,3,0,0,0,0,0,0,0,0,0,0,0,0
1995,2,9,20,0,,5.8,0,65,101340,0,0,284,0,0,0,0,0,0,0,20,5.3,5,0,0,0,0,0,0,0,0,0,0,0,0
1995,2,9,21,0,,5.7,0.4,70,101470,0,0,287,0,0,0,0,0,0,0,20,6.3,6,0,0,0,0,0,0,0,0,0,0,0,0
1995,2,9,22,0,,5.7,0.2,70,101500,0,0,289,0,0,0,0,0,0,0,20,6,7,0,0,0,0,0,0,0,0,0,0,0,0
1995,2,9,23,0,,5.3,0,69,101520,0,0,290,0,0,0,0,0,0,0,20,5.3,7,0,0,0,0,0,0,0,0,0,0,0,0
1995,2,9,24,0,,5.1,-0.2,69,101550,0,0,292,0,0,0,0,0,0,0,20,5.3,8,0,0,0,0,0,0,0,0,0,0,0,0
1995,2,10,1,0,,5,-0.2,70,101590,0,0,292,0,0,0,0,0,0,0,20,3,8,0,0,0,0,0,0,0,0,0,0,0,0
1995,2,10,2,0,,4.9,-0.2,70,101630,0,0,291,0,0,0,0,0,0,0,20,4.3,8,0,0,0,0,0,0,0,0,0,0,0,0
1995,2,10,3,0,,4.4,-0.2,71,101670,0,0,289,0,0,0,0,0,0,0,20,4.5,8,0,0,0,0,0,0,0,0,0,0,0,0
1995,2,10,4,0,,4,-0.5,72,101690,0,0,278,0,0,0,0,0,0,0,20,4.3,6,0,0,0,0,0,0,0,0,0,0,0,0
1995,2,10,5,0,,3.6,-0.9,72,101700,0,0,272,0,0,0,0,0,0,0,360,4.3,3,0,0,0,0,0,0,0,0,0,0,0,0
1995,2,10,6,0,,3.3,-1.2,73,101720,0,0,263,0,0,0,0,0,0,0,20,3.2,1,0,0,0,0,0,0,0,0,0,0,0,0
1995,2,10,7,0,,3.3,-1.1,70,101800,0,0,268,0,0,0,0,0,0,0,360,4.5,2,0,0,0,0,0,0,0,0,0,0,0,0
1995,2,10,8,0,,3.3,-1,68,101870,0,0,271,42,19,22,3639,1826,2973,0,360,4,4,0,0,0,0,0,0,0,0,0,0,0,0
1995,2,10,9,0,,5.1,-0.9,65,101950,0,0,281,165,446,64,32711,44496,10269,0,20,4.7,5,0,0,0,0,0,0,0,0,0,0,0,0
1995,2,10,10,0,,6.7,-0.6,59,101960,0,0,288,307,497,110,46179,50031,16152,0,50,4,5,0,0,0,0,0,0,0,0,0,0,0,0
1995,2,10,11,0,,9.4,-0.3,52,101970,0,0,299,445,587,136,57261,59118,19108,0,50,3,5,0,0,0,0,0,0,0,0,0,0,0,0
1995,2,10,12,0,,11.2,0,46,101980,0,0,308,529,601,161,60072,59942,21894,0,70,4.2,5,0,0,0,0,0,0,0,0,0,0,0,0
1995,2,10,13,0,,12.1,-0.1,46,101950,0,0,309,592,687,148,59385,67878,20329,0,90,5,4,0,0,0,0,0,0,0,0,0,0,0,0
1995,2,10,14,0,,10.9,-0.1,45,101930,0,0,301,538,586,171,47664,55959,21645,0,90,4.2,3,0,0,0,0,0,0,0,0,0,0,0,0
1995,2,10,15,0,,11.2,-0.2,45,101900,0,0,300,473,592,144,33905,50711,18022,0,70,4.5,2,0,0,0,0,0,0,0,0,0,0,0,0
1995,2,10,16,0,,10.3,-0.5,48,101920,0,0,294,349,530,118,17213,28710,13469,0,90,3,2,0,0,0,0,0,0,0,0,0,0,0,0
1995,2,10,17,0,,8.9,-0.9,50,101930,0,0,287,220,550,68,0,0,0,0,70,4,1,0,0,0,0,0,0,0,0,0,0,0,0
1995,2,10,18,0,,7.8,-1.2,53,101950,0,0,281,66,38,28,0,0,0,0,70,3.2,1,0,0,0,0,0,0,0,0,0,0,0,0
1995,2,10,19,0,,6.7,-1.2,56,101980,0,0,278,0,0,0,0,0,0,0,90,3.2,1,0,0,0,0,0,0,0,0,0,0,0,0
1995,2,10,20,0,,6.2,-1.2,59,102010,0,0,277,0,0,0,0,0,0,0,50,3,2,0,0,0,0,0,0,0,0,0,0,0,0
1995,2,10,21,0,,5.6,-1.2,62,102040,0,0,275,0,0,0,0,0,0,0,20,2.7,2,0,0,0,0,0,0,0,0,0,0,0,0
1995,2,10,22,0,,4.8,-1.1,64,102030,0,0,270,0,0,0,0,0,0,0,20,1.2,1,0,0,0,0,0,0,0,0,0,0,0,0
1995,2,10,23,0,,4.4,-1,66,102010,0,0,266,0,0,0,0,0,0,0,20,1.5,1,0,0,0,0,0,0,0,0,0,0,0,0
1995,2,10,24,0,,4.4,-0.9,68,102000,0,0,262,0,0,0,0,0,0,0,20,1.2,0,0,0,0,0,0,0,0,0,0,0,0,0
1995,2,11,1,0,,4.3,-0.5,71,101990,0,0,265,0,0,0,0,0,0,0,20,0.7,0,0,0,0,0,0,0,0,0,0,0,0,0
1995,2,11,2,0,,4.3,0,74,101980,0,0,266,0,0,0,0,0,0,0,0,0,1,0,0,0,0,0,0,0,0,0,0,0,0
1995,2,11,3,0,,4.2,0.4,77,101970,0,0,268,0,0,0,0,0,0,0,0,0,1,0,0,0,0,0,0,0,0,0,0,0,0
1995,2,11,4,0,,4.1,0.6,79,101940,0,0,275,0,0,0,0,0,0,0,0,0,3,0,0,0,0,0,0,0,0,0,0,0,0
1995,2,11,5,0,,4,0.9,80,101920,0,0,280,0,0,0,0,0,0,0,0,0,6,0,0,0,0,0,0,0,0,0,0,0,0
1995,2,11,6,0,,3.8,1.1,82,101890,0,0,288,0,0,0,0,0,0,0,360,1,8,0,0,0,0,0,0,0,0,0,0,0,0
1995,2,11,7,0,,4.5,1.7,83,101900,0,0,282,0,0,0,0,0,0,0,0,0,5,0,0,0,0,0,0,0,0,0,0,0,0
1995,2,11,8,0,,6.1,2.4,83,101900,0,0,283,45,23,22,3691,2177,2889,0,70,0.5,3,0,0,0,0,0,0,0,0,0,0,0,0
1995,2,11,9,0,,5.4,3,84,101910,0,0,271,172,480,62,33853,48207,9341,0,0,0.2,0,0,0,0,0,0,0,0,0,0,0,0,0
1995,2,11,10,0,,12.7,3.1,74,101870,0,0,302,389,837,56,59146,84360,8158,0,180,1.3,0,0,0,0,0,0,0,0,0,0,0,0,0
1995,2,11,11,0,,12.7,3.1,63,101830,0,0,304,515,808,86,65269,81663,12213,0,200,3.8,1,0,0,0,0,0,0,0,0,0,0,0,0
1995,2,11,12,0,,12.5,3.2,53,101790,0,0,305,618,848,95,68249,85576,13376,0,200,5.5,1,0,0,0,0,0,0,0,0,0,0,0,0
1995,2,11,13,0,,11.7,3.5,54,101720,0,0,302,545,539,193,55346,52775,24758,0,200,6,1,0,0,0,0,0,0,0,0,0,0,0,0
1995,2,11,14,0,,11.8,3.8,56,101640,0,0,303,528,544,184,47477,51363,23386,0,200,6,1,0,0,0,0,0,0,0,0,0,0,0,0
1995,2,11,15,0,,12.2,4.1,57,101570,0,0,305,475,585,147,34367,49607,18639,0,200,6.7,1,0,0,0,0,0,0,0,0,0,0,0,0
1995,2,11,16,0,,12.5,4.2,60,101550,0,0,311,381,643,98,16551,35050,11853,0,200,6.3,2,0,0,0,0,0,0,0,0,0,0,0,0
1995,2,11,17,0,,11.4,4.4,63,101520,0,0,310,208,461,79,0,0,0,0,200,3,4,0,0,0,0,0,0,0,0,0,0,0,0
1995,2,11,18,0,,10.6,4.5,66,101500,0,0,310,58,33,25,0,0,0,0,250,4.3,5,0,0,0,0,0,0,0,0,0,0,0,0
1995,2,11,19,0,,10.3,5.1,70,101500,0,0,309,0,0,0,0,0,0,0,230,6,5,0,0,0,0,0,0,0,0,0,0,0,0
1995,2,11,20,0,,10,5.6,74,101510,0,0,307,0,0,0,0,0,0,0,230,4.7,4,0,0,0,0,0,0,0,0,0,0,0,0
1995,2,11,21,0,,10,6.2,78,101510,0,0,307,0,0,0,0,0,0,0,250,6.3,4,0,0,0,0,0,0,0,0,0,0,0,0
1995,2,11,22,0,,9.7,6.3,79,101500,0,0,311,0,0,0,0,0,0,0,250,3.7,6,0,0,0,0,0,0,0,0,0,0,0,0
1995,2,11,23,0,,9.5,6.3,81,101500,0,0,319,0,0,0,0,0,0,0,230,3.7,8,0,0,0,0,0,0,0,0,0,0,0,0
1995,2,11,24,0,,9.4,6.4,82,101490,0,0,335,0,0,0,0,0,0,0,250,4.3,10,0,0,0,0,0,0,0,0,0,0,0,0
1995,2,12,1,0,,9.4,6.9,85,101450,0,0,335,0,0,0,0,0,0,0,230,4.3,10,0,0,0,0,0,0,0,0,0,0,0,0
1995,2,12,2,0,,9.4,7.5,87,101420,0,0,336,0,0,0,0,0,0,0,250,3,10,0,0,0,0,0,0,0,0,0,0,0,0
1995,2,12,3,0,,9.4,8,90,101380,0,0,337,0,0,0,0,0,0,0,230,2.5,10,0,0,0,0,0,0,0,0,0,0,0,0
1995,2,12,4,0,,9.4,7.8,90,101290,0,0,337,0,0,0,0,0,0,0,340,1.7,10,0,0,0,0,0,0,0,0,0,0,0,0
1995,2,12,5,0,,8.9,7.5,90,101200,0,0,334,0,0,0,0,0,0,0,340,1,10,0,0,0,0,0,0,0,0,0,0,0,0
1995,2,12,6,0,,8.8,7.3,90,101110,0,0,333,0,0,0,0,0,0,0,340,1.7,10,0,0,0,0,0,0,0,0,0,0,0,0
1995,2,12,7,0,,8.8,7.1,90,101130,0,0,333,0,0,0,0,0,0,0,340,1.3,10,0,0,0,0,0,0,0,0,0,0,0,0
1995,2,12,8,0,,8.3,7,90,101160,0,0,330,10,0,9,1278,10,1274,0,20,1.7,10,0,0,0,0,0,0,0,0,0,0,0,0
1995,2,12,9,0,,8.4,6.8,90,101180,0,0,331,52,16,48,6562,1488,5800,0,20,1.3,10,0,0,0,0,0,0,0,0,0,0,0,0
1995,2,12,10,0,,8.4,7.5,93,101090,0,0,332,99,18,92,11818,1655,10811,0,20,2,10,0,0,0,0,0,0,0,0,0,0,0,0
1995,2,12,11,0,,8.7,8.1,95,100990,0,0,334,145,21,134,16976,1958,15696,0,20,2.7,10,0,0,0,0,0,0,0,0,0,0,0,0
1995,2,12,12,0,,9.1,8.8,98,100900,0,0,337,165,18,154,19035,1702,17936,0,20,3,10,0,0,0,0,0,0,0,0,0,0,0,0
1995,2,12,13,0,,9.1,8.3,97,100810,0,0,336,179,19,166,20342,1298,19584,0,20,3.7,10,0,0,0,0,0,0,0,0,0,0,0,0
1995,2,12,14,0,,8.6,7.9,96,100710,0,0,333,158,15,148,17585,971,17126,0,20,3,10,0,0,0,0,0,0,0,0,0,0,0,0
1995,2,12,15,0,,8.2,7.4,95,100620,0,0,331,155,21,143,16263,1302,15845,0,360,4.5,10,0,0,0,0,0,0,0,0,0,0,0,0
1995,2,12,16,0,,8.1,6.9,94,100570,0,0,329,131,29,118,12363,1303,12183,0,360,5.7,10,0,0,0,0,0,0,0,0,0,0,0,0
1995,2,12,17,0,,7.5,6.3,92,100510,0,0,326,79,28,71,0,0,0,0,360,5,10,0,0,0,0,0,0,0,0,0,0,0,0
1995,2,12,18,0,,7.3,5.8,91,100460,0,0,324,18,1,17,0,0,0,0,20,4.3,10,0,0,0,0,0,0,0,0,0,0,0,0
1995,2,12,19,0,,6.9,5.7,93,100480,0,0,323,0,0,0,0,0,0,0,20,5.3,10,0,0,0,0,0,0,0,0,0,0,0,0
1995,2,12,20,0,,6.7,5.7,94,100510,0,0,322,0,0,0,0,0,0,0,360,4.3,10,0,0,0,0,0,0,0,0,0,0,0,0
1995,2,12,21,0,,6.2,5.6,96,100530,0,0,319,0,0,0,0,0,0,0,320,1.8,10,0,0,0,0,0,0,0,0,0,0,0,0
1995,2,12,22,0,,5.8,5.3,95,100530,0,0,314,0,0,0,0,0,0,0,320,3,10,0,0,0,0,0,0,0,0,0,0,0,0
1995,2,12,23,0,,5.6,4.9,94,100540,0,0,310,0,0,0,0,0,0,0,320,8.3,9,0,0,0,0,0,0,0,0,0,0,0,0
1995,2,12,24,0,,5.6,4.6,93,100540,0,0,307,0,0,0,0,0,0,0,320,4.2,9,0,0,0,0,0,0,0,0,0,0,0,0
1995,2,13,1,0,,5.3,4.1,92,100570,0,0,292,0,0,0,0,0,0,0,270,3.5,7,0,0,0,0,0,0,0,0,0,0,0,0
1995,2,13,2,0,,5,3.5,91,100610,0,0,284,0,0,0,0,0,0,0,320,9,4,0,0,0,0,0,0,0,0,0,0,0,0
1995,2,13,3,0,,4.7,3,90,100640,0,0,277,0,0,0,0,0,0,0,290,2.3,2,0,0,0,0,0,0,0,0,0,0,0,0
1995,2,13,4,0,,4.9,2.6,88,100660,0,0,275,0,0,0,0,0,0,0,320,6.3,1,0,0,0,0,0,0,0,0,0,0,0,0
1995,2,13,5,0,,4.6,2.1,86,100670,0,0,270,0,0,0,0,0,0,0,340,3.3,1,0,0,0,0,0,0,0,0,0,0,0,0
1995,2,13,6,0,,4.2,1.7,84,100690,0,0,265,0,0,0,0,0,0,0,320,4.8,0,0,0,0,0,0,0,0,0,0,0,0,0
1995,2,13,7,0,,4.6,1.1,76,100750,0,0,274,0,0,0,0,0,0,0,320,9,2,0,0,0,0,0,0,0,0,0,0,0,0
1995,2,13,8,0,,4.6,0.4,69,100810,0,0,278,47,24,23,3927,2241,3083,0,320,6.3,4,0,0,0,0,0,0,0,0,0,0,0,0
1995,2,13,9,0,,4.4,-0.2,61,100870,0,0,281,152,352,69,29069,35156,10899,0,320,6,6,0,0,0,0,0,0,0,0,0,0,0,0
1995,2,13,10,0,,5.3,-1.9,53,100850,0,0,281,301,428,127,44357,43000,17996,0,290,4.3,5,0,0,0,0,0,0,0,0,0,0,0,0
1995,2,13,11,0,,8,-3.7,44,100840,0,0,288,454,581,141,58266,58634,19660,0,230,2.3,4,0,0,0,0,0,0,0,0,0,0,0,0
1995,2,13,12,0,,8.8,-5.4,36,100820,0,0,287,574,697,138,65003,70329,19295,0,320,2.7,3,0,0,0,0,0,0,0,0,0,0,0,0
1995,2,13,13,0,,10.1,-5.5,34,100750,0,0,292,604,685,152,60708,67997,20719,0,290,1.7,3,0,0,0,0,0,0,0,0,0,0,0,0
1995,2,13,14,0,,11,-5.6,31,100670,0,0,295,596,718,137,51722,69094,18751,0,270,2.8,2,0,0,0,0,0,0,0,0,0,0,0,0
1995,2,13,15,0,,11.8,-5.7,29,100600,0,0,297,538,760,106,36426,66748,14749,0,250,5.3,2,0,0,0,0,0,0,0,0,0,0,0,0
1995,2,13,16,0,,11.3,-6.2,29,100610,0,0,295,408,720,86,17002,42331,11025,0,270,5,2,0,0,0,0,0,0,0,0,0,0,0,0
1995,2,13,17,0,,11.4,-6.6,29,100610,0,0,296,245,643,60,0,0,0,0,270,3.3,3,0,0,0,0,0,0,0,0,0,0,0,0
1995,2,13,18,0,,10.4,-7.1,29,100620,0,0,292,79,56,23,0,0,0,0,270,5.5,3,0,0,0,0,0,0,0,0,0,0,0,0
1995,2,13,19,0,,9.8,-8.2,28,100650,0,0,291,0,0,0,0,0,0,0,360,3.3,4,0,0,0,0,0,0,0,0,0,0,0,0
1995,2,13,20,0,,8.4,-9.2,27,100680,0,0,286,0,0,0,0,0,0,0,340,1.7,5,0,0,0,0,0,0,0,0,0,0,0,0
1995,2,13,21,0,,7.4,-10.3,26,100710,0,0,284,0,0,0,0,0,0,0,340,3.5,6,0,0,0,0,0,0,0,0,0,0,0,0
1995,2,13,22,0,,6.6,-10.3,28,100740,0,0,282,0,0,0,0,0,0,0,360,1.3,6,0,0,0,0,0,0,0,0,0,0,0,0
1995,2,13,23,0,,5.9,-10.3,30,100760,0,0,280,0,0,0,0,0,0,0,340,2.5,7,0,0,0,0,0,0,0,0,0,0,0,0
1995,2,13,24,0,,5,-10.3,32,100790,0,0,277,0,0,0,0,0,0,0,320,1.5,7,0,0,0,0,0,0,0,0,0,0,0,0
1995,2,14,1,0,,4.6,-9.7,35,100800,0,0,275,0,0,0,0,0,0,0,360,1.3,7,0,0,0,0,0,0,0,0,0,0,0,0
1995,2,14,2,0,,4.1,-9.2,37,100820,0,0,272,0,0,0,0,0,0,0,360,1.7,6,0,0,0,0,0,0,0,0,0,0,0,0
1995,2,14,3,0,,3.5,-8.6,40,100830,0,0,269,0,0,0,0,0,0,0,360,4.3,6,0,0,0,0,0,0,0,0,0,0,0,0
1995,2,14,4,0,,3,-10,38,100820,0,0,261,0,0,0,0,0,0,0,340,3.3,4,0,0,0,0,0,0,0,0,0,0,0,0
1995,2,14,5,0,,2.3,-11.3,37,100800,0,0,253,0,0,0,0,0,0,0,340,1.7,2,0,0,0,0,0,0,0,0,0,0,0,0
1995,2,14,6,0,,1.3,-12.7,35,100790,0,0,240,0,0,0,0,0,0,0,230,1.7,0,0,0,0,0,0,0,0,0,0,0,0,0
1995,2,14,7,0,,0.6,-11.9,36,100810,0,0,246,0,0,0,0,0,0,0,250,5,2,0,0,0,0,0,0,0,0,0,0,0,0
1995,2,14,8,0,,0.6,-11.1,38,100840,0,0,251,49,26,23,3996,2549,3026,0,250,3.3,4,0,0,0,0,0,0,0,0,0,0,0,0
1995,2,14,9,0,,2.1,-10.3,39,100860,0,0,262,170,403,73,32449,40505,11341,0,20,2.5,6,0,0,0,0,0,0,0,0,0,0,0,0
1995,2,14,10,0,,4.3,-9.7,37,100820,0,0,267,360,667,86,53888,67470,12231,0,140,3.3,4,0,0,0,0,0,0,0,0,0,0,0,0
1995,2,14,11,0,,6.6,-9.2,34,100780,0,0,272,541,852,79,67809,85411,11195,0,230,4,2,0,0,0,0,0,0,0,0,0,0,0,0
1995,2,14,12,0,,6.3,-8.6,32,100740,0,0,263,592,736,128,66998,74678,18137,0,290,2.2,0,0,0,0,0,0,0,0,0,0,0,0,0
1995,2,14,13,0,,7.4,-8.6,30,100670,0,0,267,618,711,146,61958,70877,19974,0,340,2.7,0,0,0,0,0,0,0,0,0,0,0,0,0
1995,2,14,14,0,,8.9,-8.6,29,100610,0,0,273,600,715,139,52116,68922,18946,0,290,3.3,0,0,0,0,0,0,0,0,0,0,0,0,0
1995,2,14,15,0,,9.3,-8.6,27,100540,0,0,274,550,786,101,37027,69718,14117,0,270,4,0,0,0,0,0,0,0,0,0,0,0,0,0
1995,2,14,16,0,,9.7,-9.3,26,100550,0,0,275,426,774,76,16950,47251,10109,0,290,4.3,0,0,0,0,0,0,0,0,0,0,0,0,0
1995,2,14,17,0,,9,-10,26,100550,0,0,272,263,729,51,0,0,0,0,290,5,0,0,0,0,0,0,0,0,0,0,0,0,0
1995,2,14,18,0,,8,-10.7,25,100560,0,0,267,80,55,25,0,0,0,0,320,1,0,0,0,0,0,0,0,0,0,0,0,0,0
1995,2,14,19,0,,6.7,-9.5,30,100600,0,0,264,0,0,0,0,0,0,0,270,4.2,0,0,0,0,0,0,0,0,0,0,0,0,0
1995,2,14,20,0,,5.9,-8.3,35,100650,0,0,261,0,0,0,0,0,0,0,250,5,0,0,0,0,0,0,0,0,0,0,0,0,0
1995,2,14,21,0,,5.2,-7.1,40,100690,0,0,260,0,0,0,0,0,0,0,320,3,0,0,0,0,0,0,0,0,0,0,0,0,0
1995,2,14,22,0,,5.1,-7.7,40,100680,0,0,259,0,0,0,0,0,0,0,340,4.3,0,0,0,0,0,0,0,0,0,0,0,0,0
1995,2,14,23,0,,4.2,-8.4,39,100680,0,0,255,0,0,0,0,0,0,0,340,6.7,0,0,0,0,0,0,0,0,0,0,0,0,0
1995,2,14,24,0,,3.4,-9,39,100670,0,0,251,0,0,0,0,0,0,0,320,6.3,0,0,0,0,0,0,0,0,0,0,0,0,0
1995,2,15,1,0,,2.7,-9,41,100680,0,0,248,0,0,0,0,0,0,0,340,6,0,0,0,0,0,0,0,0,0,0,0,0,0
1995,2,15,2,0,,2,-9,44,100680,0,0,246,0,0,0,0,0,0,0,340,7.7,0,0,0,0,0,0,0,0,0,0,0,0,0
1995,2,15,3,0,,1.3,-9,46,100690,0,0,243,0,0,0,0,0,0,0,340,3.7,0,0,0,0,0,0,0,0,0,0,0,0,0
1995,2,15,4,0,,1.2,-9.3,46,100700,0,0,242,0,0,0,0,0,0,0,340,6.7,0,0,0,0,0,0,0,0,0,0,0,0,0
1995,2,15,5,0,,0.6,-9.5,47,100700,0,0,240,0,0,0,0,0,0,0,340,7.7,0,0,0,0,0,0,0,0,0,0,0,0,0
1995,2,15,6,0,,0.1,-9.8,47,100710,0,0,238,0,0,0,0,0,0,0,360,4,0,0,0,0,0,0,0,0,0,0,0,0,0
1995,2,15,7,0,,0.1,-9.1,48,100760,0,0,238,0,0,0,0,0,0,0,340,4.3,0,0,0,0,0,0,0,0,0,0,0,0,0
1995,2,15,8,0,,-0.2,-8.5,50,100820,0,0,239,56,35,20,4241,3394,2936,0,320,3.3,0,0,0,0,0,0,0,0,0,0,0,0,0
1995,2,15,9,0,,1.3,-7.8,51,100870,0,0,244,203,611,53,39677,60367,7958,0,320,1.5,0,0,0,0,0,0,0,0,0,0,0,0,0
1995,2,15,10,0,,3.2,-6.9,47,100840,0,0,258,373,706,80,56024,71604,11498,0,340,2.7,1,0,0,0,0,0,0,0,0,0,0,0,0
1995,2,15,11,0,,5.2,-5.9,44,100810,0,0,271,498,699,115,62837,70537,15769,0,250,2.7,3,0,0,0,0,0,0,0,0,0,0,0,0
1995,2,15,12,0,,7.4,-5,40,100780,0,0,284,594,730,132,67222,73892,18551,0,250,5.5,4,0,0,0,0,0,0,0,0,0,0,0,0
1995,2,15,13,0,,7.8,-5.8,38,100730,0,0,287,581,595,183,58766,59682,23158,0,270,5.7,5,0,0,0,0,0,0,0,0,0,0,0,0
1995,2,15,14,0,,8.3,-6.6,35,100670,0,0,291,521,478,211,48008,46345,25514,0,270,5.7,6,0,0,0,0,0,0,0,0,0,0,0,0
1995,2,15,15,0,,7.9,-7.4,33,100620,0,0,292,387,257,239,34021,22932,26397,0,340,4,7,0,0,0,0,0,0,0,0,0,0,0,0
1995,2,15,16,0,,7.6,-7.9,33,100650,0,0,290,301,286,171,20956,17325,18386,0,340,4.3,7,0,0,0,0,0,0,0,0,0,0,0,0
1995,2,15,17,0,,7.2,-8.5,32,100680,0,0,288,183,288,98,0,0,0,0,340,3,7,0,0,0,0,0,0,0,0,0,0,0,0
1995,2,15,18,0,,6.7,-9,32,100710,0,0,285,60,30,31,0,0,0,0,270,3,7,0,0,0,0,0,0,0,0,0,0,0,0
1995,2,15,19,0,,5.8,-9,34,100770,0,0,282,0,0,0,0,0,0,0,320,2,7,0,0,0,0,0,0,0,0,0,0,0,0
1995,2,15,20,0,,5.1,-9,35,100840,0,0,279,0,0,0,0,0,0,0,340,3.7,7,0,0,0,0,0,0,0,0,0,0,0,0
1995,2,15,21,0,,4.4,-9,37,100900,0,0,276,0,0,0,0,0,0,0,340,2.5,7,0,0,0,0,0,0,0,0,0,0,0,0
1995,2,15,22,0,,3.7,-9.6,37,100930,0,0,266,0,0,0,0,0,0,0,340,4.3,5,0,0,0,0,0,0,0,0,0,0,0,0
1995,2,15,23,0,,3.1,-10.1,36,100950,0,0,258,0,0,0,0,0,0,0,340,7,2,0,0,0,0,0,0,0,0,0,0,0,0
1995,2,15,24,0,,2.3,-10.7,36,100980,0,0,245,0,0,0,0,0,0,0,340,4.3,0,0,0,0,0,0,0,0,0,0,0,0,0
1995,2,16,1,0,,1.3,-11.6,36,100990,0,0,250,0,0,0,0,0,0,0,110,4.5,2,0,0,0,0,0,0,0,0,0,0,0,0
1995,2,16,2,0,,0.3,-12.4,37,101000,0,0,250,0,0,0,0,0,0,0,90,2.7,5,0,0,0,0,0,0,0,0,0,0,0,0
1995,2,16,3,0,,-0.1,-13.3,37,101010,0,0,255,0,0,0,0,0,0,0,360,5.7,7,0,0,0,0,0,0,0,0,0,0,0,0
1995,2,16,4,0,,-0.6,-13.1,39,101030,0,0,247,0,0,0,0,0,0,0,320,4.3,5,0,0,0,0,0,0,0,0,0,0,0,0
1995,2,16,5,0,,-0.7,-12.9,42,101040,0,0,243,0,0,0,0,0,0,0,140,2.3,2,0,0,0,0,0,0,0,0,0,0,0,0
1995,2,16,6,0,,-0.9,-12.7,44,101060,0,0,233,0,0,0,0,0,0,0,140,2.3,0,0,0,0,0,0,0,0,0,0,0,0,0
1995,2,16,7,0,,-1.2,-11.6,45,101080,0,0,234,0,0,0,0,0,0,0,20,2,0,0,0,0,0,0,0,0,0,0,0,0,0
1995,2,16,8,0,,-1.4,-10.5,46,101110,0,0,236,57,36,21,4366,3456,3022,0,340,2.7,1,0,0,0,0,0,0,0,0,0,0,0,0
1995,2,16,9,0,,0.6,-9.4,47,101130,0,0,244,211,645,51,41348,63680,7610,0,320,1.3,1,0,0,0,0,0,0,0,0,0,0,0,0
1995,2,16,10,0,,2.9,-9.1,44,101120,0,0,252,388,752,73,57613,75157,10544,0,50,3,1,0,0,0,0,0,0,0,0,0,0,0,0
1995,2,16,11,0,,4,-8.9,40,101110,0,0,255,534,801,92,66867,80237,12969,0,180,3.3,0,0,0,0,0,0,0,0,0,0,0,0,0
1995,2,16,12,0,,5,-8.6,37,101100,0,0,258,624,801,112,68972,80780,15410,0,270,5,0,0,0,0,0,0,0,0,0,0,0,0,0
1995,2,16,13,0,,6.1,-8.7,34,101070,0,0,262,644,756,135,64307,75822,18747,0,340,4,0,0,0,0,0,0,0,0,0,0,0,0,0
1995,2,16,14,0,,7.5,-8.9,32,101030,0,0,267,635,788,120,54498,76868,16877,0,320,4,0,0,0,0,0,0,0,0,0,0,0,0,0
1995,2,16,15,0,,7.8,-9,29,101000,0,0,268,547,750,112,37768,66592,15374,0,270,3.7,0,0,0,0,0,0,0,0,0,0,0,0,0
1995,2,16,16,0,,7.3,-10.4,27,101030,0,0,267,431,761,81,17830,47582,10602,0,340,5.7,0,0,0,0,0,0,0,0,0,0,0,0,0
1995,2,16,17,0,,7.5,-11.9,25,101070,0,0,268,268,716,54,0,0,0,0,340,4.3,1,0,0,0,0,0,0,0,0,0,0,0,0
1995,2,16,18,0,,6.2,-13.3,23,101100,0,0,263,88,64,24,0,0,0,0,270,2.5,1,0,0,0,0,0,0,0,0,0,0,0,0
1995,2,16,19,0,,4.9,-13.3,25,101150,0,0,257,0,0,0,0,0,0,0,340,3,1,0,0,0,0,0,0,0,0,0,0,0,0
1995,2,16,20,0,,3.9,-13.3,26,101190,0,0,251,0,0,0,0,0,0,0,340,1.8,0,0,0,0,0,0,0,0,0,0,0,0,0
1995,2,16,21,0,,3,-13.3,28,101240,0,0,246,0,0,0,0,0,0,0,320,4,0,0,0,0,0,0,0,0,0,0,0,0,0
1995,2,16,22,0,,2.3,-12.8,31,101260,0,0,244,0,0,0,0,0,0,0,140,2,0,0,0,0,0,0,0,0,0,0,0,0,0
1995,2,16,23,0,,1.6,-12.2,33,101290,0,0,241,0,0,0,0,0,0,0,140,1.7,0,0,0,0,0,0,0,0,0,0,0,0,0
1995,2,16,24,0,,1.4,-11.7,36,101310,0,0,241,0,0,0,0,0,0,0,140,3.2,0,0,0,0,0,0,0,0,0,0,0,0,0
1995,2,17,1,0,,1.1,-11.4,38,101340,0,0,240,0,0,0,0,0,0,0,360,3,0,0,0,0,0,0,0,0,0,0,0,0,0
1995,2,17,2,0,,0.8,-11,41,101380,0,0,239,0,0,0,0,0,0,0,90,1.5,0,0,0,0,0,0,0,0,0,0,0,0,0
1995,2,17,3,0,,0.4,-10.7,43,101410,0,0,238,0,0,0,0,0,0,0,200,3,0,0,0,0,0,0,0,0,0,0,0,0,0
1995,2,17,4,0,,-0.3,-10.9,44,101420,0,0,237,0,0,0,0,0,0,0,320,2.5,0,0,0,0,0,0,0,0,0,0,0,0,0
1995,2,17,5,0,,-0.9,-11,45,101440,0,0,234,0,0,0,0,0,0,0,200,2.3,0,0,0,0,0,0,0,0,0,0,0,0,0
1995,2,17,6,0,,-1,-11.2,46,101450,0,0,234,0,0,0,0,0,0,0,140,2,0,0,0,0,0,0,0,0,0,0,0,0,0
1995,2,17,7,0,,-1.5,-10.3,47,101500,0,0,232,0,0,0,0,0,0,0,180,2.7,0,0,0,0,0,0,0,0,0,0,0,0,0
1995,2,17,8,0,,-1.3,-9.5,47,101540,0,0,234,59,38,21,4475,3684,3027,0,270,2.2,0,0,0,0,0,0,0,0,0,0,0,0,0
1995,2,17,9,0,,1.1,-8.6,48,101590,0,0,242,221,687,48,43427,67934,7135,0,360,3.2,0,0,0,0,0,0,0,0,0,0,0,0,0
1995,2,17,10,0,,3.1,-8.6,43,101570,0,0,250,403,792,67,59700,79243,9717,0,180,3,0,0,0,0,0,0,0,0,0,0,0,0,0
1995,2,17,11,0,,5.7,-8.6,39,101550,0,0,260,553,844,83,69015,84689,11747,0,320,2.7,0,0,0,0,0,0,0,0,0,0,0,0,0
1995,2,17,12,0,,5.9,-8.6,34,101530,0,0,261,623,785,118,68859,79089,16069,0,290,2.7,0,0,0,0,0,0,0,0,0,0,0,0,0
1995,2,17,13,0,,7.4,-8.3,32,101470,0,0,267,655,774,130,65357,77790,18283,0,320,4.3,0,0,0,0,0,0,0,0,0,0,0,0,0
1995,2,17,14,0,,8.8,-8.1,30,101420,0,0,273,619,731,138,53856,70850,18893,0,270,2.3,0,0,0,0,0,0,0,0,0,0,0,0,0
1995,2,17,15,0,,9.8,-7.8,28,101360,0,0,277,561,779,105,38411,69633,14728,0,270,2.8,0,0,0,0,0,0,0,0,0,0,0,0,0
1995,2,17,16,0,,10.1,-6.2,33,101370,0,0,287,425,726,88,18510,45271,11472,0,270,1.7,1,0,0,0,0,0,0,0,0,0,0,0,0
1995,2,17,17,0,,10.4,-4.6,38,101390,0,0,294,259,648,63,0,0,0,0,200,2.7,3,0,0,0,0,0,0,0,0,0,0,0,0
1995,2,17,18,0,,8.4,-3,43,101400,0,0,290,82,50,31,0,0,0,0,230,5.7,4,0,0,0,0,0,0,0,0,0,0,0,0
1995,2,17,19,0,,6.7,-3,47,101430,0,0,283,0,0,0,0,0,0,0,230,4.7,4,0,0,0,0,0,0,0,0,0,0,0,0
1995,2,17,20,0,,6,-3,50,101470,0,0,280,0,0,0,0,0,0,0,250,3.3,4,0,0,0,0,0,0,0,0,0,0,0,0
1995,2,17,21,0,,5.4,-3,54,101500,0,0,278,0,0,0,0,0,0,0,270,2.7,4,0,0,0,0,0,0,0,0,0,0,0,0
1995,2,17,22,0,,5.2,-3.3,55,101500,0,0,277,0,0,0,0,0,0,0,270,2.5,4,0,0,0,0,0,0,0,0,0,0,0,0
1995,2,17,23,0,,4.3,-3.5,55,101500,0,0,273,0,0,0,0,0,0,0,360,0.8,4,0,0,0,0,0,0,0,0,0,0,0,0
1995,2,17,24,0,,4,-3.8,56,101500,0,0,271,0,0,0,0,0,0,0,360,0.5,4,0,0,0,0,0,0,0,0,0,0,0,0
1995,2,18,1,0,,3.8,-4.9,53,101500,0,0,270,0,0,0,0,0,0,0,20,1.7,4,0,0,0,0,0,0,0,0,0,0,0,0
1995,2,18,2,0,,3.5,-6,49,101510,0,0,268,0,0,0,0,0,0,0,20,0.7,5,0,0,0,0,0,0,0,0,0,0,0,0
1995,2,18,3,0,,3.7,-7.1,46,101510,0,0,269,0,0,0,0,0,0,0,110,1,5,0,0,0,0,0,0,0,0,0,0,0,0
1995,2,18,4,0,,3.1,-6.5,49,101520,0,0,267,0,0,0,0,0,0,0,20,0.3,5,0,0,0,0,0,0,0,0,0,0,0,0
1995,2,18,5,0,,3,-6,51,101540,0,0,267,0,0,0,0,0,0,0,110,0.8,5,0,0,0,0,0,0,0,0,0,0,0,0
1995,2,18,6,0,,3,-5.4,54,101550,0,0,268,0,0,0,0,0,0,0,0,0,5,0,0,0,0,0,0,0,0,0,0,0,0
1995,2,18,7,0,,2.9,-4.8,54,101550,0,0,272,0,0,0,0,0,0,0,50,0.3,7,0,0,0,0,0,0,0,0,0,0,0,0
1995,2,18,8,0,,3.3,-4.2,55,101550,0,0,282,35,10,25,3382,874,3034,0,50,0.7,8,0,0,0,0,0,0,0,0,0,0,0,0
1995,2,18,9,0,,4.7,-3.6,55,101550,0,0,301,89,54,75,12279,5510,9311,0,50,1.8,10,0,0,0,0,0,0,0,0,0,0,0,0
1995,2,18,10,0,,7.6,-2.5,54,101530,0,0,315,196,101,154,24839,10357,18259,0,20,4,10,0,0,0,0,0,0,0,0,0,0,0,0
1995,2,18,11,0,,9.2,-1.3,52,101510,0,0,324,261,91,210,30919,9360,24547,0,70,2.3,10,0,0,0,0,0,0,0,0,0,0,0,0
1995,2,18,12,0,,9.6,-0.2,51,101490,0,0,327,286,72,239,32030,7079,27274,0,70,2.8,10,0,0,0,0,0,0,0,0,0,0,0,0
1995,2,18,13,0,,9.8,-0.1,52,101440,0,0,328,274,54,237,30147,5253,26946,0,50,3,10,0,0,0,0,0,0,0,0,0,0,0,0
1995,2,18,14,0,,9.4,0.1,54,101390,0,0,327,249,45,219,26899,4386,24716,0,90,5.3,10,0,0,0,0,0,0,0,0,0,0,0,0
1995,2,18,15,0,,8.8,0.2,55,101340,0,0,324,205,39,182,21677,3620,20432,0,70,4,10,0,0,0,0,0,0,0,0,0,0,0,0
1995,2,18,16,0,,7.6,0.3,56,101320,0,0,319,145,32,130,13768,1725,13493,0,70,4.7,10,0,0,0,0,0,0,0,0,0,0,0,0
1995,2,18,17,0,,8.7,0.5,57,101300,0,0,324,103,47,88,0,0,0,0,50,4,10,0,0,0,0,0,0,0,0,0,0,0,0
1995,2,18,18,0,,8.4,0.6,58,101280,0,0,322,33,4,29,0,0,0,0,50,4.7,10,0,0,0,0,0,0,0,0,0,0,0,0
1995,2,18,19,0,,7.9,0.6,59,101280,0,0,309,0,0,0,0,0,0,0,50,4,9,0,0,0,0,0,0,0,0,0,0,0,0
1995,2,18,20,0,,7.7,0.6,61,101270,0,0,301,0,0,0,0,0,0,0,20,4.3,7,0,0,0,0,0,0,0,0,0,0,0,0
1995,2,18,21,0,,7.4,0.6,62,101270,0,0,294,0,0,0,0,0,0,0,20,4,6,0,0,0,0,0,0,0,0,0,0,0,0
1995,2,18,22,0,,6.9,0.4,63,101280,0,0,296,0,0,0,0,0,0,0,20,4,7,0,0,0,0,0,0,0,0,0,0,0,0
1995,2,18,23,0,,6.1,0.2,64,101290,0,0,297,0,0,0,0,0,0,0,20,3.7,8,0,0,0,0,0,0,0,0,0,0,0,0
1995,2,18,24,0,,6,0,65,101300,0,0,302,0,0,0,0,0,0,0,20,4.7,9,0,0,0,0,0,0,0,0,0,0,0,0
1995,2,19,1,0,,6.5,0,66,101280,0,0,292,0,0,0,0,0,0,0,360,5.5,7,0,0,0,0,0,0,0,0,0,0,0,0
1995,2,19,2,0,,6,0,66,101250,0,0,284,0,0,0,0,0,0,0,360,5.3,4,0,0,0,0,0,0,0,0,0,0,0,0
1995,2,19,3,0,,5.6,0,67,101230,0,0,277,0,0,0,0,0,0,0,360,5.3,2,0,0,0,0,0,0,0,0,0,0,0,0
1995,2,19,4,0,,5.7,0,67,101230,0,0,275,0,0,0,0,0,0,0,360,5.7,1,0,0,0,0,0,0,0,0,0,0,0,0
1995,2,19,5,0,,5.6,0,67,101240,0,0,272,0,0,0,0,0,0,0,360,5.3,1,0,0,0,0,0,0,0,0,0,0,0,0
1995,2,19,6,0,,5.6,0,67,101240,0,0,268,0,0,0,0,0,0,0,360,4.3,0,0,0,0,0,0,0,0,0,0,0,0,0
1995,2,19,7,0,,5.5,0.4,65,101270,0,0,268,0,0,0,0,0,0,0,360,4.7,0,0,0,0,0,0,0,0,0,0,0,0,0
1995,2,19,8,0,,5.9,0.7,63,101310,0,0,270,62,40,22,4755,3795,3230,0,360,4.8,0,0,0,0,0,0,0,0,0,0,0,0,0
1995,2,19,9,0,,8,1.1,61,101340,0,0,278,224,654,53,43288,65240,7852,0,360,5.3,0,0,0,0,0,0,0,0,0,0,0,0,0
1995,2,19,10,0,,9.9,1.5,57,101320,0,0,292,399,746,77,59139,75158,11052,0,360,4.7,1,0,0,0,0,0,0,0,0,0,0,0,0
1995,2,19,11,0,,12,1.9,53,101290,0,0,305,535,762,105,67630,77545,14493,0,20,3.3,2,0,0,0,0,0,0,0,0,0,0,0,0
1995,2,19,12,0,,12.7,2.3,49,101270,0,0,312,586,655,159,66228,65694,21798,0,70,2.7,3,0,0,0,0,0,0,0,0,0,0,0,0
1995,2,19,13,0,,14,2.4,49,101210,0,0,320,592,578,195,60019,57141,24953,0,90,3.7,4,0,0,0,0,0,0,0,0,0,0,0,0
1995,2,19,14,0,,13.7,2.4,50,101160,0,0,320,544,495,214,50173,47385,26404,0,90,3,4,0,0,0,0,0,0,0,0,0,0,0,0
1995,2,19,15,0,,12.5,2.5,50,101100,0,0,316,436,338,235,36856,29859,26474,0,90,3,5,0,0,0,0,0,0,0,0,0,0,0,0
1995,2,19,16,0,,11.4,2.3,52,101120,0,0,308,345,396,158,21371,23279,17588,0,140,3.7,4,0,0,0,0,0,0,0,0,0,0,0,0
1995,2,19,17,0,,11,2.1,54,101150,0,0,302,237,491,85,0,0,0,0,110,3.3,2,0,0,0,0,0,0,0,0,0,0,0,0
1995,2,19,18,0,,10,1.9,56,101170,0,0,293,86,52,34,0,0,0,0,110,2.3,1,0,0,0,0,0,0,0,0,0,0,0,0
1995,2,19,19,0,,9,2,60,101200,0,0,289,0,0,0,0,0,0,0,70,2,1,0,0,0,0,0,0,0,0,0,0,0,0
1995,2,19,20,0,,8.5,2,65,101230,0,0,287,0,0,0,0,0,0,0,70,1.8,1,0,0,0,0,0,0,0,0,0,0,0,0
1995,2,19,21,0,,7.4,2.1,69,101260,0,0,282,0,0,0,0,0,0,0,20,1.8,1,0,0,0,0,0,0,0,0,0,0,0,0
1995,2,19,22,0,,6.6,1.8,70,101260,0,0,280,0,0,0,0,0,0,0,20,1.8,1,0,0,0,0,0,0,0,0,0,0,0,0
1995,2,19,23,0,,6.3,1.6,70,101270,0,0,280,0,0,0,0,0,0,0,20,2.7,2,0,0,0,0,0,0,0,0,0,0,0,0
1995,2,19,24,0,,6.1,1.3,71,101270,0,0,280,0,0,0,0,0,0,0,20,3.5,2,0,0,0,0,0,0,0,0,0,0,0,0
1995,2,20,1,0,,5.9,1.5,73,101260,0,0,277,0,0,0,0,0,0,0,20,2.7,1,0,0,0,0,0,0,0,0,0,0,0,0
1995,2,20,2,0,,5.8,1.7,76,101240,0,0,274,0,0,0,0,0,0,0,20,1.5,1,0,0,0,0,0,0,0,0,0,0,0,0
1995,2,20,3,0,,5.6,1.9,78,101230,0,0,270,0,0,0,0,0,0,0,290,0.8,0,0,0,0,0,0,0,0,0,0,0,0,0
1995,2,20,4,0,,5.6,2.1,80,101220,0,0,270,0,0,0,0,0,0,0,340,2,0,0,0,0,0,0,0,0,0,0,0,0,0
1995,2,20,5,0,,5.6,2.3,81,101210,0,0,270,0,0,0,0,0,0,0,20,1.8,0,0,0,0,0,0,0,0,0,0,0,0,0
1995,2,20,6,0,,5.2,2.5,83,101200,0,0,269,0,0,0,0,0,0,0,340,3,0,0,0,0,0,0,0,0,0,0,0,0,0
1995,2,20,7,0,,5.1,2.6,81,101230,0,0,269,0,0,0,0,0,0,0,320,3.3,0,0,0,0,0,0,0,0,0,0,0,0,0
1995,2,20,8,0,,5.2,2.8,78,101250,0,0,270,57,29,27,4761,2816,3617,0,320,1.2,0,0,0,0,0,0,0,0,0,0,0,0,0
1995,2,20,9,0,,6.8,2.9,76,101280,0,0,276,208,529,67,39280,53478,9991,0,20,1.7,0,0,0,0,0,0,0,0,0,0,0,0,0
1995,2,20,10,0,,8.7,2.5,69,101260,0,0,286,394,707,85,58624,72106,12161,0,360,4.5,1,0,0,0,0,0,0,0,0,0,0,0,0
1995,2,20,11,0,,9.6,2.1,63,101240,0,0,293,503,647,135,64304,65499,19125,0,270,1.7,1,0,0,0,0,0,0,0,0,0,0,0,0
1995,2,20,12,0,,9.9,1.7,56,101220,0,0,296,571,599,177,64479,59829,23751,0,360,1.7,2,0,0,0,0,0,0,0,0,0,0,0,0
1995,2,20,13,0,,11.4,2.8,62,101160,0,0,308,581,536,211,59301,52931,26593,0,110,1.3,3,0,0,0,0,0,0,0,0,0,0,0,0
1995,2,20,14,0,,10.1,4,68,101110,0,0,306,476,272,293,46426,26136,33211,0,70,3.2,5,0,0,0,0,0,0,0,0,0,0,0,0
1995,2,20,15,0,,9.4,5.1,74,101050,0,0,308,383,218,253,35176,19032,28486,0,70,5.2,6,0,0,0,0,0,0,0,0,0,0,0,0
1995,2,20,16,0,,9.9,4.8,76,101060,0,0,308,323,305,178,22750,18743,19638,0,90,4.7,5,0,0,0,0,0,0,0,0,0,0,0,0
1995,2,20,17,0,,8.9,4.4,79,101080,0,0,302,211,328,108,0,0,0,0,70,5,5,0,0,0,0,0,0,0,0,0,0,0,0
1995,2,20,18,0,,7.2,4.1,81,101090,0,0,293,81,41,40,0,0,0,0,70,6.2,4,0,0,0,0,0,0,0,0,0,0,0,0
1995,2,20,19,0,,6.6,3.7,81,101130,0,0,290,0,0,0,0,0,0,0,50,4.3,4,0,0,0,0,0,0,0,0,0,0,0,0
1995,2,20,20,0,,6.4,3.3,80,101160,0,0,289,0,0,0,0,0,0,0,50,2.7,4,0,0,0,0,0,0,0,0,0,0,0,0
1995,2,20,21,0,,5.8,2.9,80,101200,0,0,286,0,0,0,0,0,0,0,20,3.7,4,0,0,0,0,0,0,0,0,0,0,0,0
1995,2,20,22,0,,5.2,2.6,82,101230,0,0,281,0,0,0,0,0,0,0,360,5.2,3,0,0,0,0,0,0,0,0,0,0,0,0
1995,2,20,23,0,,4.6,2.2,84,101250,0,0,275,0,0,0,0,0,0,0,20,3.3,2,0,0,0,0,0,0,0,0,0,0,0,0
1995,2,20,24,0,,3.9,1.9,86,101280,0,0,269,0,0,0,0,0,0,0,50,3.3,1,0,0,0,0,0,0,0,0,0,0,0,0
1995,2,21,1,0,,3.2,1.4,87,101300,0,0,264,0,0,0,0,0,0,0,50,4.3,1,0,0,0,0,0,0,0,0,0,0,0,0
1995,2,21,2,0,,2.6,0.9,89,101310,0,0,260,0,0,0,0,0,0,0,20,3,0,0,0,0,0,0,0,0,0,0,0,0,0
1995,2,21,3,0,,1.9,0.4,90,101330,0,0,255,0,0,0,0,0,0,0,50,1.7,0,0,0,0,0,0,0,0,0,0,0,0,0
1995,2,21,4,0,,1.8,0.1,89,101340,0,0,258,0,0,0,0,0,0,0,50,2.3,1,0,0,0,0,0,0,0,0,0,0,0,0
1995,2,21,5,0,,1.3,-0.2,89,101350,0,0,258,0,0,0,0,0,0,0,20,3.7,1,0,0,0,0,0,0,0,0,0,0,0,0
1995,2,21,6,0,,1.3,-0.5,88,101360,0,0,260,0,0,0,0,0,0,0,20,4.7,2,0,0,0,0,0,0,0,0,0,0,0,0
1995,2,21,7,0,,1,-0.4,83,101420,0,0,262,0,0,0,0,0,0,0,20,3,3,0,0,0,0,0,0,0,0,0,0,0,0
1995,2,21,8,0,,1.3,-0.3,79,101490,0,0,265,52,29,24,4272,2775,3133,0,20,0.7,4,0,0,0,0,0,0,0,0,0,0,0,0
1995,2,21,9,0,,3.8,-0.2,74,101550,0,0,277,188,382,85,34171,38299,13020,0,290,1.7,5,0,0,0,0,0,0,0,0,0,0,0,0
1995,2,21,10,0,,5.6,-0.4,67,101540,0,0,282,361,559,114,53420,56632,16668,0,320,2.5,4,0,0,0,0,0,0,0,0,0,0,0,0
1995,2,21,11,0,,7,-0.7,60,101520,0,0,286,493,600,148,62688,60707,20539,0,250,1.7,4,0,0,0,0,0,0,0,0,0,0,0,0
1995,2,21,12,0,,8.2,-0.9,53,101510,0,0,289,580,614,175,65505,61529,23347,0,230,1.7,3,0,0,0,0,0,0,0,0,0,0,0,0
1995,2,21,13,0,,10.6,-1.2,52,101490,0,0,304,578,516,219,59173,51464,27152,0,180,2.3,5,0,0,0,0,0,0,0,0,0,0,0,0
1995,2,21,14,0,,11.3,-1.4,50,101470,0,0,313,478,270,296,46699,26424,33232,0,90,3.3,7,0,0,0,0,0,0,0,0,0,0,0,0
1995,2,21,15,0,,8.4,-1.7,49,101450,0,0,311,275,82,225,27820,7696,25085,0,90,3.3,9,0,0,0,0,0,0,0,0,0,0,0,0
1995,2,21,16,0,,7.1,-1.1,54,101470,0,0,300,227,102,177,20818,8231,19422,0,70,3.7,8,0,0,0,0,0,0,0,0,0,0,0,0
1995,2,21,17,0,,7.5,-0.4,59,101490,0,0,297,173,185,114,0,0,0,0,50,4.7,7,0,0,0,0,0,0,0,0,0,0,0,0
1995,2,21,18,0,,6.5,0.2,64,101510,0,0,290,75,39,36,0,0,0,0,50,5.2,6,0,0,0,0,0,0,0,0,0,0,0,0
1995,2,21,19,0,,5.4,-0.2,65,101550,0,0,283,0,0,0,0,0,0,0,50,4.3,5,0,0,0,0,0,0,0,0,0,0,0,0
1995,2,21,20,0,,4.7,-0.5,67,101580,0,0,278,0,0,0,0,0,0,0,20,3.7,4,0,0,0,0,0,0,0,0,0,0,0,0
1995,2,21,21,0,,4.4,-0.9,68,101620,0,0,274,0,0,0,0,0,0,0,20,3,3,0,0,0,0,0,0,0,0,0,0,0,0
1995,2,21,22,0,,3.6,-0.6,71,101650,0,0,268,0,0,0,0,0,0,0,20,3.3,2,0,0,0,0,0,0,0,0,0,0,0,0
1995,2,21,23,0,,3.3,-0.3,75,101670,0,0,264,0,0,0,0,0,0,0,20,3.3,1,0,0,0,0,0,0,0,0,0,0,0,0
1995,2,21,24,0,,3.2,0,78,101700,0,0,259,0,0,0,0,0,0,0,20,4,0,0,0,0,0,0,0,0,0,0,0,0,0
1995,2,22,1,0,,3.2,0,79,101690,0,0,259,0,0,0,0,0,0,0,20,4.3,0,0,0,0,0,0,0,0,0,0,0,0,0
1995,2,22,2,0,,3.1,0,79,101670,0,0,259,0,0,0,0,0,0,0,20,5,0,0,0,0,0,0,0,0,0,0,0,0,0
1995,2,22,3,0,,3.1,0,80,101660,0,0,259,0,0,0,0,0,0,0,20,3.7,0,0,0,0,0,0,0,0,0,0,0,0,0
1995,2,22,4,0,,2.7,-0.1,80,101670,0,0,257,0,0,0,0,0,0,0,20,3,0,0,0,0,0,0,0,0,0,0,0,0,0
1995,2,22,5,0,,2.7,-0.1,80,101670,0,0,257,0,0,0,0,0,0,0,20,2.3,0,0,0,0,0,0,0,0,0,0,0,0,0
1995,2,22,6,0,,2.9,-0.2,80,101680,0,0,258,0,0,0,0,0,0,0,0,0.2,0,0,0,0,0,0,0,0,0,0,0,0,0
1995,2,22,7,0,,3,-0.1,76,101700,0,0,258,0,0,0,0,0,0,0,70,0.5,0,0,0,0,0,0,0,0,0,0,0,0,0
1995,2,22,8,0,,2.9,0.1,73,101730,0,0,258,61,32,28,5011,3149,3704,0,50,0.7,0,0,0,0,0,0,0,0,0,0,0,0,0
1995,2,22,9,0,,5.4,0.2,69,101750,0,0,267,225,592,62,42719,59987,9315,0,70,1,0,0,0,0,0,0,0,0,0,0,0,0,0
1995,2,22,10,0,,8.2,0.2,61,101730,0,0,284,411,740,81,60298,74562,11566,0,50,2.7,1,0,0,0,0,0,0,0,0,0,0,0,0
1995,2,22,11,0,,10.4,0.2,54,101720,0,0,297,554,777,104,69733,79230,14362,0,50,1.2,2,0,0,0,0,0,0,0,0,0,0,0,0
1995,2,22,12,0,,11.2,0.2,46,101700,0,0,303,610,684,155,68773,68902,21259,0,180,2.7,3,0,0,0,0,0,0,0,0,0,0,0,0
1995,2,22,13,0,,12.3,0.3,46,101620,0,0,309,637,664,172,64309,65847,23060,0,180,4.3,3,0,0,0,0,0,0,0,0,0,0,0,0
1995,2,22,14,0,,12.2,0.3,47,101550,0,0,309,564,517,212,51825,49976,26152,0,180,3.7,4,0,0,0,0,0,0,0,0,0,0,0,0
1995,2,22,15,0,,11.4,0.4,47,101470,0,0,307,495,515,183,38747,45825,22293,0,180,5.5,4,0,0,0,0,0,0,0,0,0,0,0,0
1995,2,22,16,0,,10.6,0.9,51,101460,0,0,302,386,512,138,21725,32810,16047,0,180,5.8,3,0,0,0,0,0,0,0,0,0,0,0,0
1995,2,22,17,0,,9.8,1.4,55,101450,0,0,297,246,491,88,0,0,0,0,180,5.3,3,0,0,0,0,0,0,0,0,0,0,0,0
1995,2,22,18,0,,9.4,1.9,59,101440,0,0,294,96,61,35,0,0,0,0,200,4.8,2,0,0,0,0,0,0,0,0,0,0,0,0
1995,2,22,19,0,,8.4,2,62,101460,0,0,288,0,0,0,0,0,0,0,200,4,1,0,0,0,0,0,0,0,0,0,0,0,0
1995,2,22,20,0,,7.7,2.2,66,101480,0,0,282,0,0,0,0,0,0,0,230,3.7,1,0,0,0,0,0,0,0,0,0,0,0,0
1995,2,22,21,0,,7.5,2.3,69,101500,0,0,278,0,0,0,0,0,0,0,250,3.2,0,0,0,0,0,0,0,0,0,0,0,0,0
1995,2,22,22,0,,7.4,2.5,71,101510,0,0,277,0,0,0,0,0,0,0,250,3,0,0,0,0,0,0,0,0,0,0,0,0,0
1995,2,22,23,0,,7.1,2.7,74,101520,0,0,277,0,0,0,0,0,0,0,250,3.3,0,0,0,0,0,0,0,0,0,0,0,0,0
1995,2,22,24,0,,6.7,2.9,76,101530,0,0,275,0,0,0,0,0,0,0,250,2.8,0,0,0,0,0,0,0,0,0,0,0,0,0
1995,2,23,1,0,,6.4,2.6,76,101500,0,0,274,0,0,0,0,0,0,0,250,2.5,0,0,0,0,0,0,0,0,0,0,0,0,0
1995,2,23,2,0,,6.2,2.4,76,101470,0,0,273,0,0,0,0,0,0,0,340,1.7,0,0,0,0,0,0,0,0,0,0,0,0,0
1995,2,23,3,0,,5.9,2.1,76,101440,0,0,271,0,0,0,0,0,0,0,250,0.5,0,0,0,0,0,0,0,0,0,0,0,0,0
1995,2,23,4,0,,5.7,2,77,101430,0,0,270,0,0,0,0,0,0,0,340,2.3,0,0,0,0,0,0,0,0,0,0,0,0,0
1995,2,23,5,0,,5.6,1.8,78,101410,0,0,270,0,0,0,0,0,0,0,320,2.8,0,0,0,0,0,0,0,0,0,0,0,0,0
1995,2,23,6,0,,4.8,1.7,79,101400,0,0,267,0,0,0,0,0,0,0,340,2.8,0,0,0,0,0,0,0,0,0,0,0,0,0
1995,2,23,7,0,,4.1,0.8,73,101430,0,0,263,0,0,0,0,0,0,0,340,4,0,0,0,0,0,0,0,0,0,0,0,0,0
1995,2,23,8,0,,3.7,0,66,101460,0,0,261,64,36,28,5426,3471,3969,0,340,4,0,0,0,0,0,0,0,0,0,0,0,0,0
1995,2,23,9,0,,5.2,-0.9,60,101490,0,0,265,220,538,70,40795,54349,10279,0,320,2,0,0,0,0,0,0,0,0,0,0,0,0,0
1995,2,23,10,0,,7.5,-1.7,53,101470,0,0,274,399,678,94,58592,68984,13186,0,320,1,0,0,0,0,0,0,0,0,0,0,0,0,0
1995,2,23,11,0,,9.2,-2.5,45,101460,0,0,280,554,763,109,69492,77615,14896,0,270,2,0,0,0,0,0,0,0,0,0,0,0,0,0
1995,2,23,12,0,,10.5,-3.3,38,101440,0,0,284,645,767,131,71177,77270,17550,0,320,2,0,0,0,0,0,0,0,0,0,0,0,0,0
1995,2,23,13,0,,11.5,-3.4,36,101350,0,0,288,676,755,144,67693,75723,19937,0,340,4.3,0,0,0,0,0,0,0,0,0,0,0,0,0
1995,2,23,14,0,,12.8,-3.5,34,101270,0,0,294,634,699,156,56045,67746,20973,0,250,1.7,0,0,0,0,0,0,0,0,0,0,0,0,0
1995,2,23,15,0,,12.9,-3.6,32,101180,0,0,294,574,740,122,40944,66725,16736,0,270,5.3,0,0,0,0,0,0,0,0,0,0,0,0,0
1995,2,23,16,0,,12.9,-3.4,34,101170,0,0,301,437,684,103,20612,45552,12570,0,340,3,1,0,0,0,0,0,0,0,0,0,0,0,0
1995,2,23,17,0,,12.8,-3.2,35,101150,0,0,306,266,581,77,0,0,0,0,250,1.7,3,0,0,0,0,0,0,0,0,0,0,0,0
1995,2,23,18,0,,11,-3,37,101140,0,0,301,99,62,36,0,0,0,0,250,4,4,0,0,0,0,0,0,0,0,0,0,0,0
1995,2,23,19,0,,9.6,-1.6,44,101180,0,0,296,0,0,0,0,0,0,0,270,2.8,4,0,0,0,0,0,0,0,0,0,0,0,0
1995,2,23,20,0,,8.9,-0.3,52,101230,0,0,294,0,0,0,0,0,0,0,320,1.8,3,0,0,0,0,0,0,0,0,0,0,0,0
1995,2,23,21,0,,8.4,1.1,59,101270,0,0,292,0,0,0,0,0,0,0,20,1,3,0,0,0,0,0,0,0,0,0,0,0,0
1995,2,23,22,0,,8.2,-0.4,54,101260,0,0,291,0,0,0,0,0,0,0,20,1.7,4,0,0,0,0,0,0,0,0,0,0,0,0
1995,2,23,23,0,,8.1,-1.8,50,101250,0,0,291,0,0,0,0,0,0,0,20,5.3,4,0,0,0,0,0,0,0,0,0,0,0,0
1995,2,23,24,0,,8,-3.3,45,101240,0,0,290,0,0,0,0,0,0,0,20,4.7,5,0,0,0,0,0,0,0,0,0,0,0,0
1995,2,24,1,0,,7.6,-1.6,54,101240,0,0,291,0,0,0,0,0,0,0,20,6.7,5,0,0,0,0,0,0,0,0,0,0,0,0
1995,2,24,2,0,,7.3,0.2,62,101240,0,0,291,0,0,0,0,0,0,0,20,6,5,0,0,0,0,0,0,0,0,0,0,0,0
1995,2,24,3,0,,6.9,1.9,71,101240,0,0,291,0,0,0,0,0,0,0,20,3.3,5,0,0,0,0,0,0,0,0,0,0,0,0
1995,2,24,4,0,,6.8,2,72,101230,0,0,289,0,0,0,0,0,0,0,20,4,4,0,0,0,0,0,0,0,0,0,0,0,0
1995,2,24,5,0,,6.5,2,74,101210,0,0,287,0,0,0,0,0,0,0,20,3.7,4,0,0,0,0,0,0,0,0,0,0,0,0
1995,2,24,6,0,,6.1,2.1,75,101200,0,0,284,0,0,0,0,0,0,0,20,4,3,0,0,0,0,0,0,0,0,0,0,0,0
1995,2,24,7,0,,6,2.4,74,101230,0,0,283,0,0,0,0,0,0,0,20,4.3,3,0,0,0,0,0,0,0,0,0,0,0,0
1995,2,24,8,0,,6.2,2.7,74,101270,0,0,283,66,38,28,5571,3641,4026,0,20,3.7,2,0,0,0,0,0,0,0,0,0,0,0,0
1995,2,24,9,0,,7.5,3,73,101300,0,0,288,231,583,66,43267,59148,9781,0,20,4.5,2,0,0,0,0,0,0,0,0,0,0,0,0
1995,2,24,10,0,,9.4,3.3,69,101260,0,0,302,368,540,122,53910,54587,17728,0,20,4,4,0,0,0,0,0,0,0,0,0,0,0,0
1995,2,24,11,0,,11.4,3.5,64,101230,0,0,317,422,313,237,50659,31870,28097,0,70,4.7,7,0,0,0,0,0,0,0,0,0,0,0,0
1995,2,24,12,0,,11.4,3.8,60,101190,0,0,331,353,112,278,39903,11269,32032,0,70,4.3,9,0,0,0,0,0,0,0,0,0,0,0,0
1995,2,24,13,0,,11.3,3.7,59,101130,0,0,326,402,136,306,43489,13509,34912,0,70,5,8,0,0,0,0,0,0,0,0,0,0,0,0
1995,2,24,14,0,,11.4,3.5,59,101070,0,0,322,368,117,287,38274,11408,32323,0,70,4,8,0,0,0,0,0,0,0,0,0,0,0,0
1995,2,24,15,0,,11.2,3.4,58,101010,0,0,318,370,177,261,35070,15831,29268,0,90,4.2,7,0,0,0,0,0,0,0,0,0,0,0,0
1995,2,24,16,0,,10.7,4.2,65,100990,0,0,322,259,138,191,23019,11151,21012,0,70,5.7,8,0,0,0,0,0,0,0,0,0,0,0,0
1995,2,24,17,0,,9.5,5,72,100980,0,0,324,118,56,100,0,0,0,0,90,3.7,9,0,0,0,0,0,0,0,0,0,0,0,0
1995,2,24,18,0,,9.1,5.8,79,100960,0,0,332,31,2,28,0,0,0,0,70,4.5,10,0,0,0,0,0,0,0,0,0,0,0,0
1995,2,24,19,0,,8.8,5.4,80,100980,0,0,321,0,0,0,0,0,0,0,50,4.3,9,0,0,0,0,0,0,0,0,0,0,0,0
1995,2,24,20,0,,8,5,80,100990,0,0,311,0,0,0,0,0,0,0,50,3.3,8,0,0,0,0,0,0,0,0,0,0,0,0
1995,2,24,21,0,,7.7,4.6,81,101010,0,0,304,0,0,0,0,0,0,0,20,2.7,7,0,0,0,0,0,0,0,0,0,0,0,0
1995,2,24,22,0,,7.2,4.8,83,101000,0,0,305,0,0,0,0,0,0,0,20,3.3,8,0,0,0,0,0,0,0,0,0,0,0,0
1995,2,24,23,0,,6.8,4.9,86,100990,0,0,308,0,0,0,0,0,0,0,20,3.7,8,0,0,0,0,0,0,0,0,0,0,0,0
1995,2,24,24,0,,7,5.1,88,100980,0,0,313,0,0,0,0,0,0,0,20,3.3,9,0,0,0,0,0,0,0,0,0,0,0,0
1995,2,25,1,0,,7,5.1,88,100960,0,0,316,0,0,0,0,0,0,0,360,3.8,9,0,0,0,0,0,0,0,0,0,0,0,0
1995,2,25,2,0,,7,5.1,88,100950,0,0,319,0,0,0,0,0,0,0,20,2.2,10,0,0,0,0,0,0,0,0,0,0,0,0
1995,2,25,3,0,,7,5.1,88,100930,0,0,322,0,0,0,0,0,0,0,50,3.2,10,0,0,0,0,0,0,0,0,0,0,0,0
1995,2,25,4,0,,6.5,5,89,100910,0,0,309,0,0,0,0,0,0,0,20,3.3,9,0,0,0,0,0,0,0,0,0,0,0,0
1995,2,25,5,0,,6.3,4.9,90,100900,0,0,300,0,0,0,0,0,0,0,20,2.7,7,0,0,0,0,0,0,0,0,0,0,0,0
1995,2,25,6,0,,6,4.8,91,100880,0,0,294,0,0,0,0,0,0,0,20,3.5,6,0,0,0,0,0,0,0,0,0,0,0,0
1995,2,25,7,0,,5.9,5.1,90,100870,0,0,295,0,0,0,0,0,0,0,20,3.5,6,0,0,0,0,0,0,0,0,0,0,0,0
1995,2,25,8,0,,6.5,5.5,88,100850,0,0,299,47,16,31,4312,1438,3695,0,20,4.5,7,0,0,0,0,0,0,0,0,0,0,0,0
1995,2,25,9,0,,7.8,5.8,87,100840,0,0,306,157,196,101,25502,19048,14629,0,20,2,7,0,0,0,0,0,0,0,0,0,0,0,0
1995,2,25,10,0,,9.7,6.1,81,100790,0,0,319,243,146,176,31565,14598,21821,0,20,2.5,8,0,0,0,0,0,0,0,0,0,0,0,0
1995,2,25,11,0,,11.4,6.4,76,100750,0,0,335,296,107,233,35077,10726,27435,0,90,2.8,9,0,0,0,0,0,0,0,0,0,0,0,0
1995,2,25,12,0,,11.8,6.7,70,100700,0,0,346,255,45,225,28890,4303,25866,0,70,1.8,10,0,0,0,0,0,0,0,0,0,0,0,0
1995,2,25,13,0,,11.1,6.3,69,100600,0,0,342,247,35,223,27641,3337,25508,0,160,3.5,10,0,0,0,0,0,0,0,0,0,0,0,0
1995,2,25,14,0,,12,5.9,68,100490,0,0,346,223,29,203,24607,2739,23167,0,180,1.2,10,0,0,0,0,0,0,0,0,0,0,0,0
1995,2,25,15,0,,11.2,5.5,67,100390,0,0,342,199,31,180,20727,2252,19893,0,180,4.3,10,0,0,0,0,0,0,0,0,0,0,0,0
1995,2,25,16,0,,10.5,5.6,69,100340,0,0,335,156,33,140,14992,1866,14649,0,180,4.2,10,0,0,0,0,0,0,0,0,0,0,0,0
1995,2,25,17,0,,10.5,5.7,72,100290,0,0,332,129,69,106,0,0,0,0,200,4.7,9,0,0,0,0,0,0,0,0,0,0,0,0
1995,2,25,18,0,,10.2,5.8,74,100240,0,0,328,49,9,40,0,0,0,0,230,4.3,9,0,0,0,0,0,0,0,0,0,0,0,0
1995,2,25,19,0,,9.5,5.4,75,100230,0,0,325,0,0,0,0,0,0,0,200,6,9,0,0,0,0,0,0,0,0,0,0,0,0
1995,2,25,20,0,,8.8,4.9,75,100230,0,0,321,0,0,0,0,0,0,0,230,5.3,9,0,0,0,0,0,0,0,0,0,0,0,0
1995,2,25,21,0,,8.6,4.5,76,100220,0,0,319,0,0,0,0,0,0,0,250,5.8,9,0,0,0,0,0,0,0,0,0,0,0,0
1995,2,25,22,0,,8,2.8,70,100190,0,0,306,0,0,0,0,0,0,0,250,6.2,8,0,0,0,0,0,0,0,0,0,0,0,0
1995,2,25,23,0,,7.6,1.2,64,100160,0,0,297,0,0,0,0,0,0,0,250,6.7,6,0,0,0,0,0,0,0,0,0,0,0,0
1995,2,25,24,0,,7.2,-0.5,58,100130,0,0,290,0,0,0,0,0,0,0,290,4.7,5,0,0,0,0,0,0,0,0,0,0,0,0
1995,2,26,1,0,,6.6,-0.7,59,100150,0,0,285,0,0,0,0,0,0,0,270,5.3,4,0,0,0,0,0,0,0,0,0,0,0,0
1995,2,26,2,0,,6,-1,61,100180,0,0,280,0,0,0,0,0,0,0,270,7.8,3,0,0,0,0,0,0,0,0,0,0,0,0
1995,2,26,3,0,,5.4,-1.2,62,100200,0,0,275,0,0,0,0,0,0,0,270,6,2,0,0,0,0,0,0,0,0,0,0,0,0
1995,2,26,4,0,,4.9,-1.6,61,100200,0,0,270,0,0,0,0,0,0,0,270,8.7,1,0,0,0,0,0,0,0,0,0,0,0,0
1995,2,26,5,0,,4.7,-2.1,61,100200,0,0,266,0,0,0,0,0,0,0,270,8.7,1,0,0,0,0,0,0,0,0,0,0,0,0
1995,2,26,6,0,,4.4,-2.5,60,100200,0,0,261,0,0,0,0,0,0,0,250,9.3,0,0,0,0,0,0,0,0,0,0,0,0,0
1995,2,26,7,0,,4.2,-2.3,60,100270,0,0,262,0,0,0,0,0,0,0,270,6.7,0,0,0,0,0,0,0,0,0,0,0,0,0
1995,2,26,8,0,,4,-2.1,61,100330,0,0,263,78,54,23,5713,5313,3408,0,270,8.3,1,0,0,0,0,0,0,0,0,0,0,0,0
1995,2,26,9,0,,4.7,-1.9,61,100400,0,0,268,237,574,69,43620,58109,10178,0,270,4.2,1,0,0,0,0,0,0,0,0,0,0,0,0
1995,2,26,10,0,,4.8,-2,57,100410,0,0,266,390,595,114,57375,60603,16640,0,320,4,1,0,0,0,0,0,0,0,0,0,0,0,0
1995,2,26,11,0,,6.3,-2.1,52,100420,0,0,271,523,625,149,66143,63448,20645,0,320,3,0,0,0,0,0,0,0,0,0,0,0,0,0
1995,2,26,12,0,,8,-2.2,48,100430,0,0,275,625,674,164,70284,68025,22173,0,340,3.5,0,0,0,0,0,0,0,0,0,0,0,0,0
1995,2,26,13,0,,8.9,-2.8,43,100380,0,0,278,687,746,151,68864,74879,20695,0,270,5.5,0,0,0,0,0,0,0,0,0,0,0,0,0
1995,2,26,14,0,,9.8,-3.5,39,100340,0,0,281,671,761,140,58780,74579,19283,0,340,5.3,0,0,0,0,0,0,0,0,0,0,0,0,0
1995,2,26,15,0,,10.7,-4.1,34,100290,0,0,284,589,746,124,42335,67818,16976,0,320,5.3,0,0,0,0,0,0,0,0,0,0,0,0,0
1995,2,26,16,0,,10.7,-5.1,33,100330,0,0,283,459,724,98,22071,49649,12793,0,320,4.3,0,0,0,0,0,0,0,0,0,0,0,0,0
1995,2,26,17,0,,10.4,-6.1,31,100360,0,0,281,303,715,62,0,0,0,0,320,4.7,0,0,0,0,0,0,0,0,0,0,0,0,0
1995,2,26,18,0,,9.1,-7.1,30,100400,0,0,275,117,86,32,0,0,0,0,340,3.8,0,0,0,0,0,0,0,0,0,0,0,0,0
1995,2,26,19,0,,7.4,-6.5,35,100500,0,0,269,9,2,6,0,0,0,0,340,3,0,0,0,0,0,0,0,0,0,0,0,0,0
1995,2,26,20,0,,6.6,-6,41,100590,0,0,266,0,0,0,0,0,0,0,340,3.5,0,0,0,0,0,0,0,0,0,0,0,0,0
1995,2,26,21,0,,5.3,-5.4,46,100690,0,0,262,0,0,0,0,0,0,0,360,1.7,0,0,0,0,0,0,0,0,0,0,0,0,0
1995,2,26,22,0,,4.6,-5.6,47,100700,0,0,259,0,0,0,0,0,0,0,340,3.2,0,0,0,0,0,0,0,0,0,0,0,0,0
1995,2,26,23,0,,4.1,-5.8,49,100720,0,0,257,0,0,0,0,0,0,0,340,3.3,0,0,0,0,0,0,0,0,0,0,0,0,0
1995,2,26,24,0,,3.7,-6,50,100730,0,0,255,0,0,0,0,0,0,0,340,6.3,0,0,0,0,0,0,0,0,0,0,0,0,0
1995,2,27,1,0,,3.2,-6.1,51,100760,0,0,253,0,0,0,0,0,0,0,340,4,0,0,0,0,0,0,0,0,0,0,0,0,0
1995,2,27,2,0,,2.7,-6.3,51,100790,0,0,251,0,0,0,0,0,0,0,340,4,0,0,0,0,0,0,0,0,0,0,0,0,0
1995,2,27,3,0,,2.2,-6.4,52,100820,0,0,249,0,0,0,0,0,0,0,320,6.3,0,0,0,0,0,0,0,0,0,0,0,0,0
1995,2,27,4,0,,1.7,-6.5,54,100860,0,0,247,0,0,0,0,0,0,0,340,5.7,0,0,0,0,0,0,0,0,0,0,0,0,0
1995,2,27,5,0,,1.2,-6.6,56,100890,0,0,245,0,0,0,0,0,0,0,320,5,0,0,0,0,0,0,0,0,0,0,0,0,0
1995,2,27,6,0,,0.9,-6.7,58,100930,0,0,244,0,0,0,0,0,0,0,340,6.3,0,0,0,0,0,0,0,0,0,0,0,0,0
1995,2,27,7,0,,0.6,-6,58,100970,0,0,243,0,0,0,0,0,0,0,340,5.3,0,0,0,0,0,0,0,0,0,0,0,0,0
1995,2,27,8,0,,1.5,-5.4,57,101010,0,0,247,80,57,24,6443,5500,4032,0,340,5.3,0,0,0,0,0,0,0,0,0,0,0,0,0
1995,2,27,9,0,,2.9,-4.7,57,101050,0,0,253,249,620,65,46081,62958,9551,0,340,2.5,0,0,0,0,0,0,0,0,0,0,0,0,0
1995,2,27,10,0,,10.7,-3.7,53,101020,0,0,285,487,932,50,71023,94118,7320,0,90,1.3,0,0,0,0,0,0,0,0,0,0,0,0,0
1995,2,27,11,0,,9.4,-2.7,48,100990,0,0,280,596,830,96,73771,83734,13344,0,110,1.7,0,0,0,0,0,0,0,0,0,0,0,0,0
1995,2,27,12,0,,10.1,-1.7,44,100960,0,0,284,684,820,119,75303,83168,16118,0,110,3,0,0,0,0,0,0,0,0,0,0,0,0,0
1995,2,27,13,0,,10.8,-1.2,45,100890,0,0,288,623,566,214,63376,56676,26680,0,110,3.7,0,0,0,0,0,0,0,0,0,0,0,0,0
1995,2,27,14,0,,11.2,-0.7,45,100820,0,0,290,627,633,183,56239,61951,23186,0,90,3.7,0,0,0,0,0,0,0,0,0,0,0,0,0
1995,2,27,15,0,,10.9,-0.2,46,100750,0,0,289,550,619,161,41425,56230,20194,0,110,3.7,0,0,0,0,0,0,0,0,0,0,0,0,0
1995,2,27,16,0,,10.9,0.9,54,100730,0,0,298,432,614,122,22741,41822,14783,0,90,4,2,0,0,0,0,0,0,0,0,0,0,0,0
1995,2,27,17,0,,9.1,2.1,62,100720,0,0,297,246,411,106,0,0,0,0,90,3,3,0,0,0,0,0,0,0,0,0,0,0,0
1995,2,27,18,0,,8.4,3.2,70,100700,0,0,299,87,44,43,0,0,0,0,90,3.3,5,0,0,0,0,0,0,0,0,0,0,0,0
1995,2,27,19,0,,7.8,2.8,69,100690,0,0,295,7,1,6,0,0,0,0,90,2.7,4,0,0,0,0,0,0,0,0,0,0,0,0
1995,2,27,20,0,,8,2.3,69,100680,0,0,293,0,0,0,0,0,0,0,140,3.7,4,0,0,0,0,0,0,0,0,0,0,0,0
1995,2,27,21,0,,7.5,1.9,68,100670,0,0,289,0,0,0,0,0,0,0,140,2.7,3,0,0,0,0,0,0,0,0,0,0,0,0
1995,2,27,22,0,,7.4,3,75,100650,0,0,294,0,0,0,0,0,0,0,140,2,5,0,0,0,0,0,0,0,0,0,0,0,0
1995,2,27,23,0,,7.2,4.2,81,100620,0,0,299,0,0,0,0,0,0,0,160,1.5,6,0,0,0,0,0,0,0,0,0,0,0,0
1995,2,27,24,0,,7.1,5.3,88,100600,0,0,307,0,0,0,0,0,0,0,360,2.3,8,0,0,0,0,0,0,0,0,0,0,0,0
1995,2,28,1,0,,6.6,5.2,91,100530,0,0,300,0,0,0,0,0,0,0,20,1.7,7,0,0,0,0,0,0,0,0,0,0,0,0
1995,2,28,2,0,,6.1,5.1,93,100450,0,0,295,0,0,0,0,0,0,0,50,0.7,6,0,0,0,0,0,0,0,0,0,0,0,0
1995,2,28,3,0,,5.6,5,96,100380,0,0,290,0,0,0,0,0,0,0,20,0.7,5,0,0,0,0,0,0,0,0,0,0,0,0
1995,2,28,4,0,,6.6,4.8,89,100270,0,0,294,0,0,0,0,0,0,0,110,1.2,5,0,0,0,0,0,0,0,0,0,0,0,0
1995,2,28,5,0,,7.5,4.7,83,100150,0,0,297,0,0,0,0,0,0,0,140,4,5,0,0,0,0,0,0,0,0,0,0,0,0
1995,2,28,6,0,,8.5,4.5,76,100040,0,0,301,0,0,0,0,0,0,0,110,4.3,5,0,0,0,0,0,0,0,0,0,0,0,0
1995,2,28,7,0,,6.4,3.6,83,100010,0,0,296,0,0,0,0,0,0,0,140,7.7,7,0,0,0,0,0,0,0,0,0,0,0,0
1995,2,28,8,0,,4.2,2.8,91,99980,0,0,294,39,8,31,4029,738,3702,0,200,6.3,8,0,0,0,0,0,0,0,0,0,0,0,0
1995,2,28,9,0,,2.1,1.9,98,99950,0,0,297,58,10,55,7047,897,6522,0,250,9.3,10,0,0,0,0,0,0,0,0,0,0,0,0
1995,2,28,10,0,,3.2,2.9,92,99930,0,0,288,184,60,156,22926,6123,18753,0,270,4.7,8,0,0,0,0,0,0,0,0,0,0,0,0
1995,2,28,11,0,,4.7,3.8,87,99910,0,0,288,342,148,252,40264,14922,29428,0,250,1.7,6,0,0,0,0,0,0,0,0,0,0,0,0
1995,2,28,12,0,,7.9,4.8,81,99890,0,0,297,585,540,211,65432,53553,27088,0,230,5.3,4,0,0,0,0,0,0,0,0,0,0,0,0
1995,2,28,13,0,,7.2,4.3,82,99870,0,0,297,519,259,330,54314,25707,37563,0,290,4.7,6,0,0,0,0,0,0,0,0,0,0,0,0
1995,2,28,14,0,,8.3,3.9,83,99860,0,0,307,469,214,318,47058,20791,35884,0,270,5,7,0,0,0,0,0,0,0,0,0,0,0,0
1995,2,28,15,0,,6,3.4,84,99840,0,0,307,221,38,197,23508,3560,22151,0,320,2.5,9,0,0,0,0,0,0,0,0,0,0,0,0
1995,2,28,16,0,,7.5,2,74,99860,0,0,300,311,210,204,25081,14306,22310,0,270,5,7,0,0,0,0,0,0,0,0,0,0,0,0
1995,2,28,17,0,,8.1,0.7,64,99880,0,0,295,242,378,112,0,0,0,0,270,3.2,5,0,0,0,0,0,0,0,0,0,0,0,0
1995,2,28,18,0,,7.8,-0.7,54,99900,0,0,288,128,648,30,0,0,0,0,270,9.5,3,0,0,0,0,0,0,0,0,0,0,0,0
1995,2,28,19,0,,6.6,-0.9,56,100000,0,0,281,12,5,7,0,0,0,0,270,6.7,2,0,0,0,0,0,0,0,0,0,0,0,0
1995,2,28,20,0,,5.7,-1.2,59,100110,0,0,275,0,0,0,0,0,0,0,270,7.3,2,0,0,0,0,0,0,0,0,0,0,0,0
1995,2,28,21,0,,5.2,-1.4,61,100210,0,0,270,0,0,0,0,0,0,0,270,2.2,1,0,0,0,0,0,0,0,0,0,0,0,0
1995,2,28,22,0,,4.5,-1.6,63,100280,0,0,267,0,0,0,0,0,0,0,250,2,1,0,0,0,0,0,0,0,0,0,0,0,0
1995,2,28,23,0,,4.2,-1.7,65,100350,0,0,266,0,0,0,0,0,0,0,200,3,1,0,0,0,0,0,0,0,0,0,0,0,0
1995,2,28,24,0,,3.6,-1.9,67,100420,0,0,264,0,0,0,0,0,0,0,230,1.8,1,0,0,0,0,0,0,0,0,0,0,0,0
2009,3,1,1,0,,8.8,1.4,60,101620,0,0,302,0,0,0,0,0,0,0,20,1,6,0,0,0,0,0,0,0,0,0,0,0,0
2009,3,1,2,0,,8.3,2.5,67,101600,0,0,295,0,0,0,0,0,0,0,160,1,4,0,0,0,0,0,0,0,0,0,0,0,0
2009,3,1,3,0,,7.9,1.7,65,101580,0,0,284,0,0,0,0,0,0,0,360,1.4,1,0,0,0,0,0,0,0,0,0,0,0,0
2009,3,1,4,0,,7.1,1.3,67,101550,0,0,275,0,0,0,0,0,0,0,340,2.2,0,0,0,0,0,0,0,0,0,0,0,0,0
2009,3,1,5,0,,6.9,-1.7,54,101590,0,0,271,0,0,0,0,0,0,0,340,1.6,0,0,0,0,0,0,0,0,0,0,0,0,0
2009,3,1,6,0,,7,-5,42,101630,0,0,269,0,0,0,0,0,0,0,360,6.3,0,0,0,0,0,0,0,0,0,0,0,0,0
2009,3,1,7,0,,6.1,-3.8,49,101680,0,0,266,0,0,0,0,0,0,0,360,5.7,0,0,0,0,0,0,0,0,0,0,0,0,0
2009,3,1,8,0,,6.4,-5.2,43,101740,0,0,266,90,68,22,6826,6614,3844,0,340,6.5,0,0,0,0,0,0,0,0,0,0,0,0,0
2009,3,1,9,0,,8.4,-6.9,33,101810,0,0,272,267,674,60,48719,67310,8829,0,160,1.3,0,0,0,0,0,0,0,0,0,0,0,0,0
2009,3,1,10,0,,9.1,-6.7,32,101800,0,0,275,447,754,86,64299,75807,12063,0,340,3.4,0,0,0,0,0,0,0,0,0,0,0,0,0
2009,3,1,11,0,,10.7,-9,24,101750,0,0,279,590,783,111,73345,79599,14957,0,320,2.4,0,0,0,0,0,0,0,0,0,0,0,0,0
2009,3,1,12,0,,11.7,-9.9,21,101680,0,0,282,680,783,133,74720,78970,17624,0,290,3.5,0,0,0,0,0,0,0,0,0,0,0,0,0
2009,3,1,13,0,,12.8,-5.7,27,101640,0,0,291,706,759,150,70862,76403,20571,0,140,3.2,0,0,0,0,0,0,0,0,0,0,0,0,0
2009,3,1,14,0,,13.1,-7,24,101570,0,0,291,675,735,152,59695,72100,20499,0,140,2.8,0,0,0,0,0,0,0,0,0,0,0,0,0
2009,3,1,15,0,,13,-7.6,23,101570,0,0,300,589,709,138,43455,64729,18404,0,180,4.5,2,0,0,0,0,0,0,0,0,0,0,0,0
2009,3,1,16,0,,12.7,-5.8,27,101570,0,0,291,454,665,113,23175,47374,13746,0,180,3,0,0,0,0,0,0,0,0,0,0,0,0,0
2009,3,1,17,0,,11.8,-6.6,27,101530,0,0,286,290,607,79,0,0,0,0,180,1.5,0,0,0,0,0,0,0,0,0,0,0,0,0
2009,3,1,18,0,,10.4,-4.8,34,101530,0,0,282,122,558,36,0,0,0,0,180,2.8,0,0,0,0,0,0,0,0,0,0,0,0,0
2009,3,1,19,0,,10,-3.3,39,101540,0,0,282,13,5,8,0,0,0,0,230,2.9,0,0,0,0,0,0,0,0,0,0,0,0,0
2009,3,1,20,0,,9.4,-2.5,43,101560,0,0,281,0,0,0,0,0,0,0,320,2,0,0,0,0,0,0,0,0,0,0,0,0,0
2009,3,1,21,0,,9.5,-5.2,35,101580,0,0,278,0,0,0,0,0,0,0,320,1.2,0,0,0,0,0,0,0,0,0,0,0,0,0
2009,3,1,22,0,,9.4,-11.2,22,101610,0,0,272,0,0,0,0,0,0,0,360,5.1,0,0,0,0,0,0,0,0,0,0,0,0,0
2009,3,1,23,0,,8.5,-11.4,23,101670,0,0,268,0,0,0,0,0,0,0,360,5,0,0,0,0,0,0,0,0,0,0,0,0,0
2009,3,1,24,0,,7.7,-11.1,25,101670,0,0,266,0,0,0,0,0,0,0,360,6.6,0,0,0,0,0,0,0,0,0,0,0,0,0
2009,3,2,1,0,,6.7,-9.2,31,101650,0,0,264,0,0,0,0,0,0,0,340,4.3,0,0,0,0,0,0,0,0,0,0,0,0,0
2009,3,2,2,0,,5.9,-7.7,37,101690,0,0,262,0,0,0,0,0,0,0,360,4.5,0,0,0,0,0,0,0,0,0,0,0,0,0
2009,3,2,3,0,,4.8,-8,39,101720,0,0,257,0,0,0,0,0,0,0,340,6.6,0,0,0,0,0,0,0,0,0,0,0,0,0
2009,3,2,4,0,,4.5,-9.6,35,101720,0,0,255,0,0,0,0,0,0,0,340,2.6,0,0,0,0,0,0,0,0,0,0,0,0,0
2009,3,2,5,0,,4.4,-8,40,101750,0,0,256,0,0,0,0,0,0,0,20,2.6,0,0,0,0,0,0,0,0,0,0,0,0,0
2009,3,2,6,0,,4.7,-5.3,48,101770,0,0,259,0,0,0,0,0,0,0,20,4.4,0,0,0,0,0,0,0,0,0,0,0,0,0
2009,3,2,7,0,,4.6,-3.2,57,101810,0,0,266,0,0,0,0,0,0,0,20,5.7,1,0,0,0,0,0,0,0,0,0,0,0,0
2009,3,2,8,0,,5.9,-0.8,62,101920,0,0,268,91,65,26,7223,6272,4366,0,20,4,0,0,0,0,0,0,0,0,0,0,0,0,0
2009,3,2,9,0,,6.2,1.7,73,101950,0,0,305,138,102,106,19715,10353,13530,0,50,5.5,9,0,0,0,0,0,0,0,0,0,0,0,0
2009,3,2,10,0,,5.7,3.5,86,101960,0,0,306,206,77,169,25641,7830,20209,0,20,5.6,9,0,0,0,0,0,0,0,0,0,0,0,0
2009,3,2,11,0,,6.9,2.5,74,101900,0,0,309,266,70,223,30661,6808,25637,0,50,5.6,9,0,0,0,0,0,0,0,0,0,0,0,0
2009,3,2,12,0,,7.1,1.9,70,101910,0,0,309,321,75,268,35892,7339,30554,0,50,5.3,9,0,0,0,0,0,0,0,0,0,0,0,0
2009,3,2,13,0,,7.3,1.3,66,101860,0,0,309,358,86,294,38931,8505,33297,0,50,5.6,9,0,0,0,0,0,0,0,0,0,0,0,0
2009,3,2,14,0,,7.8,0.5,60,101750,0,0,311,350,90,286,36985,8847,32141,0,50,6.2,9,0,0,0,0,0,0,0,0,0,0,0,0
2009,3,2,15,0,,8.4,0.3,57,101780,0,0,313,305,90,248,30955,8528,27624,0,50,4.9,9,0,0,0,0,0,0,0,0,0,0,0,0
2009,3,2,16,0,,8.1,0,57,101790,0,0,320,190,49,164,18979,4084,18153,0,50,3.7,10,0,0,0,0,0,0,0,0,0,0,0,0
2009,3,2,17,0,,7.1,0,61,101770,0,0,316,115,42,100,0,0,0,0,50,4.1,10,0,0,0,0,0,0,0,0,0,0,0,0
2009,3,2,18,0,,6.4,0,64,101720,0,0,313,45,34,40,0,0,0,0,50,5.5,10,0,0,0,0,0,0,0,0,0,0,0,0
2009,3,2,19,0,,6.2,-0.3,63,101720,0,0,311,0,0,0,0,0,0,0,50,4.6,10,0,0,0,0,0,0,0,0,0,0,0,0
2009,3,2,20,0,,6.1,-0.6,62,101740,0,0,311,0,0,0,0,0,0,0,50,5.7,10,0,0,0,0,0,0,0,0,0,0,0,0
2009,3,2,21,0,,6,-0.9,61,101710,0,0,310,0,0,0,0,0,0,0,50,4.5,10,0,0,0,0,0,0,0,0,0,0,0,0
2009,3,2,22,0,,5.7,-1,62,101760,0,0,308,0,0,0,0,0,0,0,20,4.3,10,0,0,0,0,0,0,0,0,0,0,0,0
2009,3,2,23,0,,5.6,-1.5,60,101740,0,0,307,0,0,0,0,0,0,0,20,4.9,10,0,0,0,0,0,0,0,0,0,0,0,0
2009,3,2,24,0,,5.7,-1.4,60,101610,0,0,308,0,0,0,0,0,0,0,50,6.1,10,0,0,0,0,0,0,0,0,0,0,0,0
2009,3,3,1,0,,5.8,-1.3,60,101550,0,0,309,0,0,0,0,0,0,0,50,5.4,10,0,0,0,0,0,0,0,0,0,0,0,0
2009,3,3,2,0,,5.5,0,68,101460,0,0,309,0,0,0,0,0,0,0,20,3.5,10,0,0,0,0,0,0,0,0,0,0,0,0
2009,3,3,3,0,,4.8,1.8,81,101330,0,0,308,0,0,0,0,0,0,0,20,4.5,10,0,0,0,0,0,0,0,0,0,0,0,0
2009,3,3,4,0,,4.9,2.4,84,101240,0,0,309,0,0,0,0,0,0,0,20,3.7,10,0,0,0,0,0,0,0,0,0,0,0,0
2009,3,3,5,0,,4.9,2.5,85,101210,0,0,309,0,0,0,0,0,0,0,20,4.1,10,0,0,0,0,0,0,0,0,0,0,0,0
2009,3,3,6,0,,4.8,2.6,86,101150,0,0,309,0,0,0,0,0,0,0,20,4.1,10,0,0,0,0,0,0,0,0,0,0,0,0
2009,3,3,7,0,,4.7,2.8,88,101090,0,0,309,0,0,0,0,0,0,0,20,4.9,10,0,0,0,0,0,0,0,0,0,0,0,0
2009,3,3,8,0,,4.8,3.2,90,101060,0,0,310,29,3,26,3446,125,3388,0,20,4.3,10,0,0,0,0,0,0,0,0,0,0,0,0
2009,3,3,9,0,,5.3,3.6,89,101050,0,0,313,102,41,89,13545,4174,11031,0,20,6.8,10,0,0,0,0,0,0,0,0,0,0,0,0
2009,3,3,10,0,,5.9,3.7,86,101040,0,0,315,161,37,143,19122,3595,16611,0,50,4.5,10,0,0,0,0,0,0,0,0,0,0,0,0
2009,3,3,11,0,,6.7,2.9,77,100990,0,0,318,225,43,199,26009,4162,22918,0,20,6,10,0,0,0,0,0,0,0,0,0,0,0,0
2009,3,3,12,0,,7.1,3.3,77,100960,0,0,320,256,39,228,28952,3821,26157,0,20,5.8,10,0,0,0,0,0,0,0,0,0,0,0,0
2009,3,3,13,0,,7.9,3.3,73,100870,0,0,324,264,37,237,29439,3577,27056,0,20,4.3,10,0,0,0,0,0,0,0,0,0,0,0,0
2009,3,3,14,0,,7.1,3.1,76,100790,0,0,320,240,31,218,26405,3012,24744,0,360,3.5,10,0,0,0,0,0,0,0,0,0,0,0,0
2009,3,3,15,0,,7,3,76,100780,0,0,319,196,26,180,20789,1947,20021,0,340,1.9,10,0,0,0,0,0,0,0,0,0,0,0,0
2009,3,3,16,0,,6.6,3,78,100850,0,0,317,148,24,135,14640,1376,14357,0,340,3.4,10,0,0,0,0,0,0,0,0,0,0,0,0
2009,3,3,17,0,,6.6,3.5,81,100930,0,0,309,134,62,112,0,0,0,0,340,3.3,9,0,0,0,0,0,0,0,0,0,0,0,0
2009,3,3,18,0,,6.4,3,79,100950,0,0,308,59,69,48,0,0,0,0,360,4.6,9,0,0,0,0,0,0,0,0,0,0,0,0
2009,3,3,19,0,,6.2,2.8,79,100960,0,0,304,3,0,3,0,0,0,0,340,4.8,9,0,0,0,0,0,0,0,0,0,0,0,0
2009,3,3,20,0,,5.8,2.6,80,101020,0,0,300,0,0,0,0,0,0,0,340,3.8,8,0,0,0,0,0,0,0,0,0,0,0,0
2009,3,3,21,0,,5.3,2.1,80,101030,0,0,296,0,0,0,0,0,0,0,340,4.3,8,0,0,0,0,0,0,0,0,0,0,0,0
2009,3,3,22,0,,5.1,2.1,81,100950,0,0,295,0,0,0,0,0,0,0,340,1.9,8,0,0,0,0,0,0,0,0,0,0,0,0
2009,3,3,23,0,,5.8,1.5,74,100930,0,0,297,0,0,0,0,0,0,0,50,1.6,8,0,0,0,0,0,0,0,0,0,0,0,0
2009,3,3,24,0,,6.1,1.8,74,100920,0,0,298,0,0,0,0,0,0,0,20,1.5,8,0,0,0,0,0,0,0,0,0,0,0,0
2009,3,4,1,0,,4.7,1.5,80,101080,0,0,291,0,0,0,0,0,0,0,340,5,8,0,0,0,0,0,0,0,0,0,0,0,0
2009,3,4,2,0,,4.7,1.3,79,101040,0,0,289,0,0,0,0,0,0,0,340,3.6,7,0,0,0,0,0,0,0,0,0,0,0,0
2009,3,4,3,0,,4.4,1,79,101050,0,0,286,0,0,0,0,0,0,0,340,5.6,7,0,0,0,0,0,0,0,0,0,0,0,0
2009,3,4,4,0,,4.2,0.8,79,101020,0,0,285,0,0,0,0,0,0,0,340,6.4,7,0,0,0,0,0,0,0,0,0,0,0,0
2009,3,4,5,0,,4.6,1,78,100950,0,0,287,0,0,0,0,0,0,0,340,1.4,7,0,0,0,0,0,0,0,0,0,0,0,0
2009,3,4,6,0,,4.9,1.1,77,100960,0,0,293,0,0,0,0,0,0,0,360,1.5,8,0,0,0,0,0,0,0,0,0,0,0,0
2009,3,4,7,0,,5.1,1.5,78,101000,0,0,294,0,0,0,0,0,0,0,290,0.7,8,0,0,0,0,0,0,0,0,0,0,0,0
2009,3,4,8,0,,5.1,1,75,101080,0,0,308,29,3,26,3501,124,3443,0,0,0.4,10,0,0,0,0,0,0,0,0,0,0,0,0
2009,3,4,9,0,,6.2,1.9,74,101030,0,0,299,150,119,112,21590,12085,14255,0,90,0.7,8,0,0,0,0,0,0,0,0,0,0,0,0
2009,3,4,10,0,,7.6,1.8,67,101110,0,0,300,298,206,196,38431,21191,23532,0,200,0.6,7,0,0,0,0,0,0,0,0,0,0,0,0
2009,3,4,11,0,,10.3,1.6,55,101150,0,0,312,442,284,264,52489,29162,30702,0,20,2.1,7,0,0,0,0,0,0,0,0,0,0,0,0
2009,3,4,12,0,,12.4,3.3,54,101120,0,0,314,620,585,203,69431,58417,26438,0,90,1.5,4,0,0,0,0,0,0,0,0,0,0,0,0
2009,3,4,13,0,,12.8,3.9,55,101020,0,0,314,663,614,206,67307,60566,26699,0,140,2.7,3,0,0,0,0,0,0,0,0,0,0,0,0
2009,3,4,14,0,,11.3,3.3,58,101030,0,0,312,526,277,326,51686,27035,36679,0,140,2.7,5,0,0,0,0,0,0,0,0,0,0,0,0
2009,3,4,15,0,,11,4.2,63,101020,0,0,309,470,301,275,41708,27351,30831,0,110,2.7,4,0,0,0,0,0,0,0,0,0,0,0,0
2009,3,4,16,0,,10.9,4.7,66,101050,0,0,309,367,320,200,26827,22440,22136,0,110,1.8,4,0,0,0,0,0,0,0,0,0,0,0,0
2009,3,4,17,0,,10.8,4.6,66,101140,0,0,309,252,375,118,11006,0,11006,0,110,1.6,4,0,0,0,0,0,0,0,0,0,0,0,0
2009,3,4,18,0,,9.8,4.5,70,101160,0,0,304,109,345,53,0,0,0,0,90,1.7,4,0,0,0,0,0,0,0,0,0,0,0,0
2009,3,4,19,0,,9.4,4.9,74,101220,0,0,303,13,4,9,0,0,0,0,70,2.2,4,0,0,0,0,0,0,0,0,0,0,0,0
2009,3,4,20,0,,8.9,4.8,76,101350,0,0,301,0,0,0,0,0,0,0,20,1.9,4,0,0,0,0,0,0,0,0,0,0,0,0
2009,3,4,21,0,,8.4,4.7,78,101380,0,0,299,0,0,0,0,0,0,0,20,1.9,4,0,0,0,0,0,0,0,0,0,0,0,0
2009,3,4,22,0,,8.2,4.7,79,101410,0,0,297,0,0,0,0,0,0,0,20,1.7,4,0,0,0,0,0,0,0,0,0,0,0,0
2009,3,4,23,0,,8.1,4.4,78,101380,0,0,295,0,0,0,0,0,0,0,50,2.1,3,0,0,0,0,0,0,0,0,0,0,0,0
2009,3,4,24,0,,8.3,4.4,77,101390,0,0,295,0,0,0,0,0,0,0,50,2.2,3,0,0,0,0,0,0,0,0,0,0,0,0
2009,3,5,1,0,,8.3,4.4,77,101370,0,0,297,0,0,0,0,0,0,0,50,1.7,4,0,0,0,0,0,0,0,0,0,0,0,0
2009,3,5,2,0,,8.1,4.6,79,101310,0,0,298,0,0,0,0,0,0,0,50,1.4,4,0,0,0,0,0,0,0,0,0,0,0,0
2009,3,5,3,0,,8.2,4.5,78,101280,0,0,300,0,0,0,0,0,0,0,70,1.1,5,0,0,0,0,0,0,0,0,0,0,0,0
2009,3,5,4,0,,8.4,4.5,77,101150,0,0,307,0,0,0,0,0,0,0,50,1.9,7,0,0,0,0,0,0,0,0,0,0,0,0
2009,3,5,5,0,,9,4.2,72,101130,0,0,305,0,0,0,0,0,0,0,50,1.3,6,0,0,0,0,0,0,0,0,0,0,0,0
2009,3,5,6,0,,10,3.7,65,101150,0,0,313,0,0,0,0,0,0,0,140,3,7,0,0,0,0,0,0,0,0,0,0,0,0
2009,3,5,7,0,,10.5,3.5,62,101170,0,0,320,0,0,0,0,0,0,0,140,3,8,0,0,0,0,0,0,0,0,0,0,0,0
2009,3,5,8,0,,11,4.2,63,101180,0,0,339,40,6,34,4366,550,4108,0,110,2.8,10,0,0,0,0,0,0,0,0,0,0,0,0
2009,3,5,9,0,,11.7,3.4,57,101140,0,0,332,153,119,114,21910,12013,14561,0,140,4.8,9,0,0,0,0,0,0,0,0,0,0,0,0
2009,3,5,10,0,,12.2,4.4,59,101100,0,0,329,277,161,197,35410,16302,23872,0,110,3.4,8,0,0,0,0,0,0,0,0,0,0,0,0
2009,3,5,11,0,,12.3,4,57,100970,0,0,345,228,42,201,26263,4054,23216,0,90,2.9,10,0,0,0,0,0,0,0,0,0,0,0,0
2009,3,5,12,0,,12.1,3.8,57,100940,0,0,344,269,43,238,30426,4211,27308,0,110,4,10,0,0,0,0,0,0,0,0,0,0,0,0
2009,3,5,13,0,,12,5.1,63,100790,0,0,345,257,33,232,28733,3158,26603,0,110,3.2,10,0,0,0,0,0,0,0,0,0,0,0,0
2009,3,5,14,0,,11.8,4.5,61,100660,0,0,343,229,26,210,25269,2048,24124,0,110,2.6,10,0,0,0,0,0,0,0,0,0,0,0,0
2009,3,5,15,0,,10.7,6,73,100600,0,0,340,178,19,165,19093,1329,18559,0,70,2.5,10,0,0,0,0,0,0,0,0,0,0,0,0
2009,3,5,16,0,,9.8,7.7,87,100560,0,0,338,123,14,116,12614,656,12475,0,90,2.6,10,0,0,0,0,0,0,0,0,0,0,0,0
2009,3,5,17,0,,9.4,7.9,91,100500,0,0,337,84,16,78,7129,1781,7120,0,70,2.9,10,0,0,0,0,0,0,0,0,0,0,0,0
2009,3,5,18,0,,8.9,7.9,94,100460,0,0,334,35,14,32,0,0,0,0,20,3.7,10,0,0,0,0,0,0,0,0,0,0,0,0
2009,3,5,19,0,,8.6,7.8,95,100470,0,0,333,0,0,0,0,0,0,0,20,2.5,10,0,0,0,0,0,0,0,0,0,0,0,0
2009,3,5,20,0,,8.6,7.8,95,100390,0,0,333,0,0,0,0,0,0,0,50,2.6,10,0,0,0,0,0,0,0,0,0,0,0,0
2009,3,5,21,0,,9.1,8.4,96,100360,0,0,336,0,0,0,0,0,0,0,20,2.8,10,0,0,0,0,0,0,0,0,0,0,0,0
2009,3,5,22,0,,9.3,8.6,96,100310,0,0,337,0,0,0,0,0,0,0,50,1.3,10,0,0,0,0,0,0,0,0,0,0,0,0
2009,3,5,23,0,,8.9,8.2,96,100240,0,0,335,0,0,0,0,0,0,0,340,2.5,10,0,0,0,0,0,0,0,0,0,0,0,0
2009,3,5,24,0,,8.4,7.7,96,100190,0,0,332,0,0,0,0,0,0,0,360,4.2,10,0,0,0,0,0,0,0,0,0,0,0,0
2009,3,6,1,0,,8.1,7.4,96,100180,0,0,330,0,0,0,0,0,0,0,340,6.1,10,0,0,0,0,0,0,0,0,0,0,0,0
2009,3,6,2,0,,8.4,7.3,93,100200,0,0,331,0,0,0,0,0,0,0,360,6,10,0,0,0,0,0,0,0,0,0,0,0,0
2009,3,6,3,0,,8.5,7.2,92,100160,0,0,332,0,0,0,0,0,0,0,20,2.5,10,0,0,0,0,0,0,0,0,0,0,0,0
2009,3,6,4,0,,8.3,6.5,89,100150,0,0,330,0,0,0,0,0,0,0,360,4,10,0,0,0,0,0,0,0,0,0,0,0,0
2009,3,6,5,0,,8.4,5.8,84,100130,0,0,320,0,0,0,0,0,0,0,360,5.7,9,0,0,0,0,0,0,0,0,0,0,0,0
2009,3,6,6,0,,8.2,5.1,81,100210,0,0,312,0,0,0,0,0,0,0,360,5.7,8,0,0,0,0,0,0,0,0,0,0,0,0
2009,3,6,7,0,,7.6,4.3,80,100270,0,0,300,0,0,0,0,0,0,0,230,3.3,6,0,0,0,0,0,0,0,0,0,0,0,0
2009,3,6,8,0,,7.6,2.2,69,100320,0,0,297,78,41,38,6813,4052,4889,0,110,3.6,6,0,0,0,0,0,0,0,0,0,0,0,0
2009,3,6,9,0,,7.9,-0.1,57,100390,0,0,291,246,451,97,42674,45715,14489,0,340,3.5,4,0,0,0,0,0,0,0,0,0,0,0,0
2009,3,6,10,0,,8.8,-0.2,53,100410,0,0,292,409,537,139,58323,54478,19512,0,90,2.7,3,0,0,0,0,0,0,0,0,0,0,0,0
2009,3,6,11,0,,10,-1.1,46,100520,0,0,284,572,661,152,71734,67227,20906,0,20,3.5,0,0,0,0,0,0,0,0,0,0,0,0,0
2009,3,6,12,0,,9.6,-1.7,45,100570,0,0,282,655,653,183,73223,65848,24200,0,270,5.3,0,0,0,0,0,0,0,0,0,0,0,0,0
2009,3,6,13,0,,10.7,-3.4,37,100530,0,0,285,694,668,189,69972,66675,24733,0,290,4.5,0,0,0,0,0,0,0,0,0,0,0,0,0
2009,3,6,14,0,,11.5,-3,36,100470,0,0,294,661,644,190,59697,63717,23850,0,320,3.2,1,0,0,0,0,0,0,0,0,0,0,0,0
2009,3,6,15,0,,11.4,-4.7,32,100470,0,0,287,616,729,138,45779,67216,18576,0,320,4.6,0,0,0,0,0,0,0,0,0,0,0,0,0
2009,3,6,16,0,,10.8,-6.5,29,100550,0,0,282,475,677,116,24987,50265,14150,0,320,3.9,0,0,0,0,0,0,0,0,0,0,0,0,0
2009,3,6,17,0,,10.5,-6.8,29,100610,0,0,281,317,660,76,6915,1527,6902,0,340,3.9,0,0,0,0,0,0,0,0,0,0,0,0,0
2009,3,6,18,0,,9.7,-7,30,100680,0,0,278,138,585,38,0,0,0,0,320,3.2,0,0,0,0,0,0,0,0,0,0,0,0,0
2009,3,6,19,0,,8.7,-8.3,29,100810,0,0,272,20,8,12,0,0,0,0,290,2.1,0,0,0,0,0,0,0,0,0,0,0,0,0
2009,3,6,20,0,,8.1,-10.7,25,100920,0,0,268,0,0,0,0,0,0,0,290,2.4,0,0,0,0,0,0,0,0,0,0,0,0,0
2009,3,6,21,0,,7,-10.7,27,101030,0,0,264,0,0,0,0,0,0,0,320,2.1,0,0,0,0,0,0,0,0,0,0,0,0,0
2009,3,6,22,0,,6.2,-13.4,23,101090,0,0,258,0,0,0,0,0,0,0,20,2.5,0,0,0,0,0,0,0,0,0,0,0,0,0
2009,3,6,23,0,,5.1,-13.8,24,101190,0,0,254,0,0,0,0,0,0,0,360,4.4,0,0,0,0,0,0,0,0,0,0,0,0,0
2009,3,6,24,0,,4.3,-12.6,28,101170,0,0,252,0,0,0,0,0,0,0,140,2.2,0,0,0,0,0,0,0,0,0,0,0,0,0
2009,3,7,1,0,,3.6,-11.9,31,101180,0,0,249,0,0,0,0,0,0,0,20,3.3,0,0,0,0,0,0,0,0,0,0,0,0,0
2009,3,7,2,0,,2.9,-11.4,34,101270,0,0,247,0,0,0,0,0,0,0,20,2.9,0,0,0,0,0,0,0,0,0,0,0,0,0
2009,3,7,3,0,,2.6,-11.3,35,101330,0,0,246,0,0,0,0,0,0,0,360,4.9,0,0,0,0,0,0,0,0,0,0,0,0,0
2009,3,7,4,0,,2.6,-13.2,30,101290,0,0,253,0,0,0,0,0,0,0,20,5.1,2,0,0,0,0,0,0,0,0,0,0,0,0
2009,3,7,5,0,,2,-13.3,31,101390,0,0,242,0,0,0,0,0,0,0,20,3.9,0,0,0,0,0,0,0,0,0,0,0,0,0
2009,3,7,6,0,,1.8,-12.4,34,101450,0,0,250,0,0,0,0,0,0,0,360,1.4,2,0,0,0,0,0,0,0,0,0,0,0,0
2009,3,7,7,0,,1.1,-11.6,38,101460,0,0,248,0,0,0,0,0,0,0,340,6.6,2,0,0,0,0,0,0,0,0,0,0,0,0
2009,3,7,8,0,,1.7,-12.1,35,101470,0,0,259,94,52,42,8228,5314,5678,0,340,5.5,6,0,0,0,0,0,0,0,0,0,0,0,0
2009,3,7,9,0,,3.3,-11.8,32,101630,0,0,263,269,550,84,46531,55655,11953,0,360,3.8,5,0,0,0,0,0,0,0,0,0,0,0,0
2009,3,7,10,0,,5.8,-12.2,26,101750,0,0,258,489,802,83,69287,80549,11529,0,250,2.3,0,0,0,0,0,0,0,0,0,0,0,0,0
2009,3,7,11,0,,6.3,-12.3,25,101730,0,0,268,626,800,113,77034,81424,15111,0,340,3.5,2,0,0,0,0,0,0,0,0,0,0,0,0
2009,3,7,12,0,,8.7,-10.2,25,101620,0,0,289,602,502,237,67277,51482,28732,0,290,2.2,6,0,0,0,0,0,0,0,0,0,0,0,0
2009,3,7,13,0,,9.8,-10.3,23,101520,0,0,286,726,738,166,72911,74395,22139,0,290,3.2,3,0,0,0,0,0,0,0,0,0,0,0,0
2009,3,7,14,0,,10.7,-12,19,101400,0,0,292,656,619,200,59666,62083,24507,0,320,3.5,5,0,0,0,0,0,0,0,0,0,0,0,0
2009,3,7,15,0,,11.4,-10.8,20,101300,0,0,308,434,219,289,40282,20829,31780,0,270,3,8,0,0,0,0,0,0,0,0,0,0,0,0
2009,3,7,16,0,,10.4,-6.4,30,101300,0,0,324,215,62,182,21149,5295,19990,0,160,2,10,0,0,0,0,0,0,0,0,0,0,0,0
2009,3,7,17,0,,8.8,-5.1,37,101270,0,0,318,122,42,106,11146,2674,11116,0,180,1.4,10,0,0,0,0,0,0,0,0,0,0,0,0
2009,3,7,18,0,,8.4,-4.7,39,101370,0,0,317,51,38,45,0,0,0,0,200,4,10,0,0,0,0,0,0,0,0,0,0,0,0
2009,3,7,19,0,,8.3,-5.2,38,101430,0,0,310,7,1,7,0,0,0,0,200,2.8,9,0,0,0,0,0,0,0,0,0,0,0,0
2009,3,7,20,0,,8.2,-4.6,40,101420,0,0,305,0,0,0,0,0,0,0,230,2.3,9,0,0,0,0,0,0,0,0,0,0,0,0
2009,3,7,21,0,,8,-1.8,50,101430,0,0,303,0,0,0,0,0,0,0,250,3.2,8,0,0,0,0,0,0,0,0,0,0,0,0
2009,3,7,22,0,,7.4,-2.3,50,101410,0,0,300,0,0,0,0,0,0,0,290,2.4,8,0,0,0,0,0,0,0,0,0,0,0,0
2009,3,7,23,0,,7.4,-3.1,47,101380,0,0,299,0,0,0,0,0,0,0,320,1.7,8,0,0,0,0,0,0,0,0,0,0,0,0
2009,3,7,24,0,,7.6,-5.8,38,101380,0,0,297,0,0,0,0,0,0,0,340,4.2,8,0,0,0,0,0,0,0,0,0,0,0,0
2009,3,8,1,0,,7.5,-7.3,34,101320,0,0,295,0,0,0,0,0,0,0,360,1.9,8,0,0,0,0,0,0,0,0,0,0,0,0
2009,3,8,2,0,,7.6,-5.8,38,101310,0,0,297,0,0,0,0,0,0,0,340,3.9,8,0,0,0,0,0,0,0,0,0,0,0,0
2009,3,8,3,0,,7.3,-6.4,37,101270,0,0,295,0,0,0,0,0,0,0,340,5.7,8,0,0,0,0,0,0,0,0,0,0,0,0
2009,3,8,4,0,,7.7,-9.2,29,101230,0,0,294,0,0,0,0,0,0,0,0,0.1,8,0,0,0,0,0,0,0,0,0,0,0,0
2009,3,8,5,0,,7.4,-6,38,101240,0,0,296,0,0,0,0,0,0,0,180,0.7,8,0,0,0,0,0,0,0,0,0,0,0,0
2009,3,8,6,0,,7.3,-6.1,38,101270,0,0,295,0,0,0,0,0,0,0,20,0.6,8,0,0,0,0,0,0,0,0,0,0,0,0
2009,3,8,7,0,,7.2,-5.2,41,101220,0,0,281,0,0,0,0,0,0,0,0,0.2,3,0,0,0,0,0,0,0,0,0,0,0,0
2009,3,8,8,0,,7.7,-5.4,39,101240,0,0,290,91,43,48,8189,4352,6080,0,0,0.1,6,0,0,0,0,0,0,0,0,0,0,0,0
2009,3,8,9,0,,10.1,-5.8,32,101300,0,0,297,268,524,89,46982,53430,13530,0,70,0.7,5,0,0,0,0,0,0,0,0,0,0,0,0
2009,3,8,10,0,,12,-8.5,23,101340,0,0,297,480,752,94,67645,75645,13053,0,90,1,3,0,0,0,0,0,0,0,0,0,0,0,0
2009,3,8,11,0,,13.5,-2.4,33,101300,0,0,298,624,781,120,76828,79576,15958,0,70,1.5,0,0,0,0,0,0,0,0,0,0,0,0,0
2009,3,8,12,0,,14.2,-0.6,36,101230,0,0,302,688,714,165,76856,72361,22375,0,110,1.7,0,0,0,0,0,0,0,0,0,0,0,0,0
2009,3,8,13,0,,14.5,-1.2,34,101150,0,0,303,698,656,197,70439,65339,25590,0,160,2.5,0,0,0,0,0,0,0,0,0,0,0,0,0
2009,3,8,14,0,,14.7,0.5,38,101080,0,0,306,671,648,192,60580,63710,24265,0,200,4.5,0,0,0,0,0,0,0,0,0,0,0,0,0
2009,3,8,15,0,,13.7,0.3,40,101050,0,0,301,580,607,177,45176,56223,22034,0,200,4.8,0,0,0,0,0,0,0,0,0,0,0,0,0
2009,3,8,16,0,,13.2,-0.4,39,101050,0,0,298,462,611,134,26173,45184,16139,0,200,4.7,0,0,0,0,0,0,0,0,0,0,0,0,0
2009,3,8,17,0,,12.4,-1.9,37,100990,0,0,303,302,562,93,8376,2089,8346,0,200,3.8,2,0,0,0,0,0,0,0,0,0,0,0,0
2009,3,8,18,0,,11.5,1.4,50,101010,0,0,308,126,424,51,0,0,0,0,200,3.5,4,0,0,0,0,0,0,0,0,0,0,0,0
2009,3,8,19,0,,10.4,2.4,58,101040,0,0,307,16,5,11,0,0,0,0,250,3,5,0,0,0,0,0,0,0,0,0,0,0,0
2009,3,8,20,0,,10.2,3,61,101070,0,0,309,0,0,0,0,0,0,0,250,3.2,6,0,0,0,0,0,0,0,0,0,0,0,0
2009,3,8,21,0,,9.8,2.8,62,101060,0,0,311,0,0,0,0,0,0,0,250,3.5,7,0,0,0,0,0,0,0,0,0,0,0,0
2009,3,8,22,0,,9.5,2.1,60,101050,0,0,309,0,0,0,0,0,0,0,270,2,7,0,0,0,0,0,0,0,0,0,0,0,0
2009,3,8,23,0,,9.1,0.2,54,101100,0,0,305,0,0,0,0,0,0,0,290,2.9,7,0,0,0,0,0,0,0,0,0,0,0,0
2009,3,8,24,0,,8.7,-0.3,53,101080,0,0,303,0,0,0,0,0,0,0,270,1.4,7,0,0,0,0,0,0,0,0,0,0,0,0
2009,3,9,1,0,,8.7,-1.1,50,101120,0,0,303,0,0,0,0,0,0,0,270,3.5,7,0,0,0,0,0,0,0,0,0,0,0,0
2009,3,9,2,0,,8.6,-0.4,53,101140,0,0,305,0,0,0,0,0,0,0,270,3.9,8,0,0,0,0,0,0,0,0,0,0,0,0
2009,3,9,3,0,,9.2,-4,39,101040,0,0,306,0,0,0,0,0,0,0,360,2.1,8,0,0,0,0,0,0,0,0,0,0,0,0
2009,3,9,4,0,,9.3,-3.9,39,100990,0,0,306,0,0,0,0,0,0,0,360,3.5,8,0,0,0,0,0,0,0,0,0,0,0,0
2009,3,9,5,0,,8.7,-3.2,43,100900,0,0,304,0,0,0,0,0,0,0,20,2.4,8,0,0,0,0,0,0,0,0,0,0,0,0
2009,3,9,6,0,,9,-4.5,38,100930,0,0,304,0,0,0,0,0,0,0,340,1.8,8,0,0,0,0,0,0,0,0,0,0,0,0
2009,3,9,7,0,,8.9,-4.6,38,100900,0,0,304,3,0,3,450,3,449,0,320,3.3,8,0,0,0,0,0,0,0,0,0,0,0,0
2009,3,9,8,0,,8.9,-5,37,100920,0,0,303,80,34,46,7582,3444,5896,0,340,5.2,8,0,0,0,0,0,0,0,0,0,0,0,0
2009,3,9,9,0,,9.3,-3.3,41,100980,0,0,322,124,55,105,16384,5656,12816,0,250,0.8,10,0,0,0,0,0,0,0,0,0,0,0,0
2009,3,9,10,0,,11.3,-4,34,101030,0,0,307,380,389,178,51782,39585,23031,0,250,0.9,6,0,0,0,0,0,0,0,0,0,0,0,0
2009,3,9,11,0,,12.5,-2.1,36,100990,0,0,323,407,191,283,47554,19845,32286,0,90,0.9,8,0,0,0,0,0,0,0,0,0,0,0,0
2009,3,9,12,0,,12.9,0.6,43,100920,0,0,328,442,156,328,49244,15887,37216,0,140,1.7,8,0,0,0,0,0,0,0,0,0,0,0,0
2009,3,9,13,0,,12.8,0.1,42,100900,0,0,327,453,143,343,48617,14471,38628,0,200,2.9,8,0,0,0,0,0,0,0,0,0,0,0,0
2009,3,9,14,0,,13.4,-3.4,31,100840,0,0,325,438,145,330,45165,14464,36868,0,200,2.5,8,0,0,0,0,0,0,0,0,0,0,0,0
2009,3,9,15,0,,14.4,-4.3,27,100780,0,0,317,541,486,217,43916,46359,24676,0,180,2.5,5,0,0,0,0,0,0,0,0,0,0,0,0
2009,3,9,16,0,,13.7,-4.9,27,100770,0,0,314,437,515,158,26460,38573,17771,0,200,3.4,5,0,0,0,0,0,0,0,0,0,0,0,0
2009,3,9,17,0,,13.8,-4.9,27,100750,0,0,312,308,578,91,8358,3800,8292,0,200,2.6,4,0,0,0,0,0,0,0,0,0,0,0,0
2009,3,9,18,0,,13.2,-4.4,29,100770,0,0,300,150,626,37,0,0,0,0,250,3.1,1,0,0,0,0,0,0,0,0,0,0,0,0
2009,3,9,19,0,,11.4,-5.1,31,100790,0,0,290,24,12,13,0,0,0,0,270,3.7,1,0,0,0,0,0,0,0,0,0,0,0,0
2009,3,9,20,0,,11.5,-6.8,27,100820,0,0,287,0,0,0,0,0,0,0,290,4.2,0,0,0,0,0,0,0,0,0,0,0,0,0
2009,3,9,21,0,,10.5,-6.8,29,100820,0,0,281,0,0,0,0,0,0,0,270,2.2,0,0,0,0,0,0,0,0,0,0,0,0,0
2009,3,9,22,0,,10.5,-6.3,30,100850,0,0,281,0,0,0,0,0,0,0,290,0.7,0,0,0,0,0,0,0,0,0,0,0,0,0
2009,3,9,23,0,,10.8,-6.1,30,100830,0,0,283,0,0,0,0,0,0,0,230,1.2,0,0,0,0,0,0,0,0,0,0,0,0,0
2009,3,9,24,0,,11.8,-6.6,27,100820,0,0,286,0,0,0,0,0,0,0,360,4.7,0,0,0,0,0,0,0,0,0,0,0,0,0
2009,3,10,1,0,,11.3,-6.1,29,100880,0,0,285,0,0,0,0,0,0,0,360,4.6,0,0,0,0,0,0,0,0,0,0,0,0,0
2009,3,10,2,0,,10.2,-5.3,33,100900,0,0,281,0,0,0,0,0,0,0,360,4.9,0,0,0,0,0,0,0,0,0,0,0,0,0
2009,3,10,3,0,,9.7,-3.6,39,100900,0,0,281,0,0,0,0,0,0,0,360,4.9,0,0,0,0,0,0,0,0,0,0,0,0,0
2009,3,10,4,0,,8.9,-2.4,45,100900,0,0,279,0,0,0,0,0,0,0,360,3.7,0,0,0,0,0,0,0,0,0,0,0,0,0
2009,3,10,5,0,,8.5,-1.9,48,100910,0,0,278,0,0,0,0,0,0,0,360,3.8,0,0,0,0,0,0,0,0,0,0,0,0,0
2009,3,10,6,0,,7.9,-2.4,48,100950,0,0,284,0,0,0,0,0,0,0,360,4,2,0,0,0,0,0,0,0,0,0,0,0,0
2009,3,10,7,0,,7.5,-3.1,47,101020,0,0,281,11,4,7,991,337,884,0,360,3.2,2,0,0,0,0,0,0,0,0,0,0,0,0
2009,3,10,8,0,,7.2,-3.9,45,101150,0,0,282,116,516,38,30962,50883,5805,0,340,3.6,3,0,0,0,0,0,0,0,0,0,0,0,0
2009,3,10,9,0,,8.7,-4.1,40,101260,0,0,293,265,470,100,45284,47813,14893,0,290,2,5,0,0,0,0,0,0,0,0,0,0,0,0
2009,3,10,10,0,,9.8,-5.7,33,101330,0,0,291,457,644,121,63968,65361,16196,0,270,2.3,3,0,0,0,0,0,0,0,0,0,0,0,0
2009,3,10,11,0,,11.4,-9.6,22,101270,0,0,298,571,604,175,70704,61407,23192,0,230,2.5,5,0,0,0,0,0,0,0,0,0,0,0,0
2009,3,10,12,0,,12.9,-9.5,20,101220,0,0,300,697,715,168,77825,72803,22408,0,340,2.6,3,0,0,0,0,0,0,0,0,0,0,0,0
2009,3,10,13,0,,13.3,-12,16,101140,0,0,298,736,727,174,73862,73389,22917,0,320,3.7,3,0,0,0,0,0,0,0,0,0,0,0,0
2009,3,10,14,0,,15.3,-12.1,14,101060,0,0,293,741,802,140,65332,79878,19221,0,320,2.7,0,0,0,0,0,0,0,0,0,0,0,0,0
2009,3,10,15,0,,16.4,-13.1,12,101010,0,0,295,665,820,115,48418,77568,15963,0,320,2.8,0,0,0,0,0,0,0,0,0,0,0,0,0
2009,3,10,16,0,,15.2,-15.1,11,101010,0,0,287,517,768,99,26572,58893,13118,0,340,2.8,0,0,0,0,0,0,0,0,0,0,0,0,0
2009,3,10,17,0,,15.5,-12.8,13,101020,0,0,292,348,743,66,6761,1017,6741,0,290,3.5,0,0,0,0,0,0,0,0,0,0,0,0,0
2009,3,10,18,0,,12.2,0.5,45,101060,0,0,295,139,498,48,0,0,0,0,230,4.4,0,0,0,0,0,0,0,0,0,0,0,0,0
2009,3,10,19,0,,11.2,0.5,48,101090,0,0,296,23,13,10,0,0,0,0,250,3.4,1,0,0,0,0,0,0,0,0,0,0,0,0
2009,3,10,20,0,,10.9,0.8,50,101100,0,0,299,0,0,0,0,0,0,0,270,2.7,2,0,0,0,0,0,0,0,0,0,0,0,0
2009,3,10,21,0,,10.5,-2.8,39,101130,0,0,297,0,0,0,0,0,0,0,320,1.4,3,0,0,0,0,0,0,0,0,0,0,0,0
2009,3,10,22,0,,10.2,-2.1,42,101150,0,0,300,0,0,0,0,0,0,0,50,2.2,5,0,0,0,0,0,0,0,0,0,0,0,0
2009,3,10,23,0,,9.6,-2.3,43,101150,0,0,302,0,0,0,0,0,0,0,20,2.4,6,0,0,0,0,0,0,0,0,0,0,0,0
2009,3,10,24,0,,9.3,-5,36,101150,0,0,305,0,0,0,0,0,0,0,340,2.3,8,0,0,0,0,0,0,0,0,0,0,0,0
2009,3,11,1,0,,8.7,-10.2,25,101170,0,0,295,0,0,0,0,0,0,0,340,1.9,8,0,0,0,0,0,0,0,0,0,0,0,0
2009,3,11,2,0,,8.3,-11.1,24,101220,0,0,291,0,0,0,0,0,0,0,360,1.7,7,0,0,0,0,0,0,0,0,0,0,0,0
2009,3,11,3,0,,7.6,-10.7,26,101290,0,0,287,0,0,0,0,0,0,0,360,3.5,7,0,0,0,0,0,0,0,0,0,0,0,0
2009,3,11,4,0,,6.7,-11,27,101310,0,0,283,0,0,0,0,0,0,0,360,3,7,0,0,0,0,0,0,0,0,0,0,0,0
2009,3,11,5,0,,6.5,-12.1,25,101320,0,0,282,0,0,0,0,0,0,0,340,4.2,7,0,0,0,0,0,0,0,0,0,0,0,0
2009,3,11,6,0,,6.7,-14.7,20,101380,0,0,280,0,0,0,0,0,0,0,160,2.9,7,0,0,0,0,0,0,0,0,0,0,0,0
2009,3,11,7,0,,5.9,-13.7,23,101480,0,0,282,7,1,6,886,32,875,0,340,3.5,8,0,0,0,0,0,0,0,0,0,0,0,0
2009,3,11,8,0,,6.2,-11.4,27,101550,0,0,278,104,340,51,25405,34158,8351,0,340,0.9,6,0,0,0,0,0,0,0,0,0,0,0,0
2009,3,11,9,0,,9,-9.5,26,101590,0,0,291,267,461,103,45300,47052,15169,0,50,2.3,6,0,0,0,0,0,0,0,0,0,0,0,0
2009,3,11,10,0,,9.8,-5.7,33,101640,0,0,302,380,350,196,51063,35744,24773,0,50,2.9,7,0,0,0,0,0,0,0,0,0,0,0,0
2009,3,11,11,0,,11.6,-4.1,33,101640,0,0,323,385,155,283,44820,16033,32345,0,160,1.9,9,0,0,0,0,0,0,0,0,0,0,0,0
2009,3,11,12,0,,10.8,-0.9,44,101570,0,0,316,434,141,329,48318,14483,37234,0,140,2.4,8,0,0,0,0,0,0,0,0,0,0,0,0
2009,3,11,13,0,,11.7,-1.1,41,101640,0,0,327,393,93,321,42690,9292,36204,0,140,2.9,9,0,0,0,0,0,0,0,0,0,0,0,0
2009,3,11,14,0,,12.5,0,42,101600,0,0,320,497,201,346,50210,19888,38658,0,140,3.4,7,0,0,0,0,0,0,0,0,0,0,0,0
2009,3,11,15,0,,11.5,0.2,46,101580,0,0,316,433,200,298,40998,18688,33116,0,140,2.7,7,0,0,0,0,0,0,0,0,0,0,0,0
2009,3,11,16,0,,11.2,0,46,101590,0,0,310,365,259,223,28906,19498,24389,0,110,2.2,6,0,0,0,0,0,0,0,0,0,0,0,0
2009,3,11,17,0,,10.5,0,48,101630,0,0,287,300,514,104,9587,4364,9485,0,110,2.3,0,0,0,0,0,0,0,0,0,0,0,0,0
2009,3,11,18,0,,9.7,0.5,53,101720,0,0,297,134,428,54,0,0,0,0,110,1.9,3,0,0,0,0,0,0,0,0,0,0,0,0
2009,3,11,19,0,,9.1,0.5,55,101770,0,0,291,24,13,11,0,0,0,0,90,1.9,2,0,0,0,0,0,0,0,0,0,0,0,0
2009,3,11,20,0,,9,0.9,57,101770,0,0,288,0,0,0,0,0,0,0,90,1.2,1,0,0,0,0,0,0,0,0,0,0,0,0
2009,3,11,21,0,,8.7,1.1,59,101830,0,0,281,0,0,0,0,0,0,0,50,2.1,0,0,0,0,0,0,0,0,0,0,0,0,0
2009,3,11,22,0,,8,1.1,62,101880,0,0,278,0,0,0,0,0,0,0,20,2.1,0,0,0,0,0,0,0,0,0,0,0,0,0
2009,3,11,23,0,,7.9,1.2,63,101980,0,0,278,0,0,0,0,0,0,0,20,1.4,0,0,0,0,0,0,0,0,0,0,0,0,0
2009,3,11,24,0,,7.9,1.4,64,101960,0,0,278,0,0,0,0,0,0,0,0,0.4,0,0,0,0,0,0,0,0,0,0,0,0,0
2009,3,12,1,0,,7.3,1.3,66,101940,0,0,282,0,0,0,0,0,0,0,20,2.6,1,0,0,0,0,0,0,0,0,0,0,0,0
2009,3,12,2,0,,7.3,1.3,66,101960,0,0,287,0,0,0,0,0,0,0,50,2.2,3,0,0,0,0,0,0,0,0,0,0,0,0
2009,3,12,3,0,,7.4,1.8,68,101930,0,0,291,0,0,0,0,0,0,0,180,0.6,4,0,0,0,0,0,0,0,0,0,0,0,0
2009,3,12,4,0,,7.3,2.3,71,101930,0,0,286,0,0,0,0,0,0,0,70,0.9,2,0,0,0,0,0,0,0,0,0,0,0,0
2009,3,12,5,0,,6.8,2,72,101860,0,0,286,0,0,0,0,0,0,0,90,1,3,0,0,0,0,0,0,0,0,0,0,0,0
2009,3,12,6,0,,6.8,2.4,74,101830,0,0,294,0,0,0,0,0,0,0,70,0.6,6,0,0,0,0,0,0,0,0,0,0,0,0
2009,3,12,7,0,,7.1,2.7,74,101990,0,0,286,14,5,9,1208,464,1057,0,50,1.9,2,0,0,0,0,0,0,0,0,0,0,0,0
2009,3,12,8,0,,8.3,2.3,66,102110,0,0,300,100,340,45,24818,34049,7652,0,70,0.7,6,0,0,0,0,0,0,0,0,0,0,0,0
2009,3,12,9,0,,10.4,1.2,53,102100,0,0,312,240,335,119,38204,33535,16571,0,50,2.2,7,0,0,0,0,0,0,0,0,0,0,0,0
2009,3,12,10,0,,11.9,0.3,45,102040,0,0,317,375,321,204,49967,32380,26005,0,70,3.7,7,0,0,0,0,0,0,0,0,0,0,0,0
2009,3,12,11,0,,13.3,0.6,42,102060,0,0,315,593,639,168,73434,64864,22684,0,70,3,4,0,0,0,0,0,0,0,0,0,0,0,0
2009,3,12,12,0,,13.2,-1.5,36,102060,0,0,321,524,239,345,57589,24760,38539,0,110,3.3,7,0,0,0,0,0,0,0,0,0,0,0,0
2009,3,12,13,0,,13.7,0.9,42,101970,0,0,331,470,150,353,50377,15126,39761,0,110,3.2,8,0,0,0,0,0,0,0,0,0,0,0,0
2009,3,12,14,0,,12.9,-1.1,38,101840,0,0,326,421,123,328,43896,12229,36750,0,110,2.9,8,0,0,0,0,0,0,0,0,0,0,0,0
2009,3,12,15,0,,12.2,-2.4,36,101740,0,0,321,374,129,286,37143,12484,31836,0,110,3.2,8,0,0,0,0,0,0,0,0,0,0,0,0
2009,3,12,16,0,,12.1,-2.1,37,101650,0,0,328,247,82,202,23888,7116,22218,0,110,2.8,9,0,0,0,0,0,0,0,0,0,0,0,0
2009,3,12,17,0,,11.4,-1.4,41,101640,0,0,334,133,47,115,12218,2956,12140,0,110,2.7,10,0,0,0,0,0,0,0,0,0,0,0,0
2009,3,12,18,0,,11.2,-1.5,41,101560,0,0,333,60,44,51,0,0,0,0,90,2.3,10,0,0,0,0,0,0,0,0,0,0,0,0
2009,3,12,19,0,,11,-1.4,42,101570,0,0,333,7,0,6,0,0,0,0,110,1.8,10,0,0,0,0,0,0,0,0,0,0,0,0
2009,3,12,20,0,,11,-0.8,44,101540,0,0,333,0,0,0,0,0,0,0,70,2.5,10,0,0,0,0,0,0,0,0,0,0,0,0
2009,3,12,21,0,,11,-0.1,46,101530,0,0,334,0,0,0,0,0,0,0,70,1.6,10,0,0,0,0,0,0,0,0,0,0,0,0
2009,3,12,22,0,,10.9,-0.2,46,101390,0,0,333,0,0,0,0,0,0,0,50,4.7,10,0,0,0,0,0,0,0,0,0,0,0,0
2009,3,12,23,0,,10.8,0,47,101390,0,0,333,0,0,0,0,0,0,0,50,1.4,10,0,0,0,0,0,0,0,0,0,0,0,0
2009,3,12,24,0,,10.9,1.9,54,101300,0,0,336,0,0,0,0,0,0,0,50,2.9,10,0,0,0,0,0,0,0,0,0,0,0,0
2009,3,13,1,0,,10.7,4.3,65,101200,0,0,338,0,0,0,0,0,0,0,70,2.7,10,0,0,0,0,0,0,0,0,0,0,0,0
2009,3,13,2,0,,10.2,6.1,76,101060,0,0,338,0,0,0,0,0,0,0,70,2.9,10,0,0,0,0,0,0,0,0,0,0,0,0
2009,3,13,3,0,,10.2,7.9,86,100920,0,0,340,0,0,0,0,0,0,0,90,2.3,10,0,0,0,0,0,0,0,0,0,0,0,0
2009,3,13,4,0,,10.9,8.4,85,100760,0,0,344,0,0,0,0,0,0,0,140,5.8,10,0,0,0,0,0,0,0,0,0,0,0,0
2009,3,13,5,0,,10.9,9.1,89,100620,0,0,345,0,0,0,0,0,0,0,140,5.7,10,0,0,0,0,0,0,0,0,0,0,0,0
2009,3,13,6,0,,10.7,9.2,91,100470,0,0,345,0,0,0,0,0,0,0,140,4.4,10,0,0,0,0,0,0,0,0,0,0,0,0
2009,3,13,7,0,,10.4,8.9,91,100330,0,0,343,0,0,0,18,0,18,0,140,3.3,10,0,0,0,0,0,0,0,0,0,0,0,0
2009,3,13,8,0,,10.4,9.3,93,100160,0,0,343,35,14,33,4625,1294,3966,0,110,2.2,10,0,0,0,0,0,0,0,0,0,0,0,0
2009,3,13,9,0,,10.7,9.9,95,100080,0,0,346,93,20,86,11403,1892,10174,0,160,2.8,10,0,0,0,0,0,0,0,0,0,0,0,0
2009,3,13,10,0,,12.5,12,97,99850,0,0,357,164,29,149,19478,2675,17486,0,180,2.9,10,0,0,0,0,0,0,0,0,0,0,0,0
2009,3,13,11,0,,14,13.5,97,99770,0,0,366,248,44,219,28752,4052,25565,0,230,8,10,0,0,0,0,0,0,0,0,0,0,0,0
2009,3,13,12,0,,15.2,12.1,82,99700,0,0,347,529,239,348,59134,22932,41398,0,230,9.8,7,0,0,0,0,0,0,0,0,0,0,0,0
2009,3,13,13,0,,15.5,11.4,77,99610,0,0,348,521,197,366,55646,18875,42327,0,270,8.3,7,0,0,0,0,0,0,0,0,0,0,0,0
2009,3,13,14,0,,13.9,11.2,84,99580,0,0,363,255,31,232,28308,2874,26618,0,250,7.3,10,0,0,0,0,0,0,0,0,0,0,0,0
2009,3,13,15,0,,13.1,10.8,86,99600,0,0,358,203,23,187,21621,1688,20898,0,250,6.7,10,0,0,0,0,0,0,0,0,0,0,0,0
2009,3,13,16,0,,12.5,9.5,82,99710,0,0,354,134,14,126,13746,752,13567,0,340,2.2,10,0,0,0,0,0,0,0,0,0,0,0,0
2009,3,13,17,0,,11.3,7.4,77,99770,0,0,345,101,21,93,8772,1745,8721,0,360,5.6,10,0,0,0,0,0,0,0,0,0,0,0,0
2009,3,13,18,0,,10.1,3.5,64,99730,0,0,334,52,28,46,0,0,0,0,360,5.9,10,0,0,0,0,0,0,0,0,0,0,0,0
2009,3,13,19,0,,9.6,3.3,65,99940,0,0,331,3,0,3,0,0,0,0,160,2.8,10,0,0,0,0,0,0,0,0,0,0,0,0
2009,3,13,20,0,,9,3.1,67,100080,0,0,328,0,0,0,0,0,0,0,290,6.8,10,0,0,0,0,0,0,0,0,0,0,0,0
2009,3,13,21,0,,8.4,1.7,63,100170,0,0,324,0,0,0,0,0,0,0,290,2.6,10,0,0,0,0,0,0,0,0,0,0,0,0
2009,3,13,22,0,,7.6,-1.1,54,100190,0,0,317,0,0,0,0,0,0,0,290,6.4,10,0,0,0,0,0,0,0,0,0,0,0,0
2009,3,13,23,0,,6.2,-4,48,100300,0,0,308,0,0,0,0,0,0,0,270,4.2,10,0,0,0,0,0,0,0,0,0,0,0,0
2009,3,13,24,0,,4.3,-6.9,44,100370,0,0,296,0,0,0,0,0,0,0,270,4.7,10,0,0,0,0,0,0,0,0,0,0,0,0
2009,3,14,1,0,,3.3,-9.6,38,100430,0,0,289,0,0,0,0,0,0,0,270,7.1,10,0,0,0,0,0,0,0,0,0,0,0,0
2009,3,14,2,0,,2.4,-10.1,39,100470,0,0,284,0,0,0,0,0,0,0,270,4.4,10,0,0,0,0,0,0,0,0,0,0,0,0
2009,3,14,3,0,,1.7,-8.9,45,100450,0,0,282,0,0,0,0,0,0,0,290,6.3,10,0,0,0,0,0,0,0,0,0,0,0,0
2009,3,14,4,0,,1.3,-9,46,100510,0,0,255,0,0,0,0,0,0,0,290,5.3,4,0,0,0,0,0,0,0,0,0,0,0,0
2009,3,14,5,0,,0.5,-10.3,44,100590,0,0,251,0,0,0,0,0,0,0,160,3.1,4,0,0,0,0,0,0,0,0,0,0,0,0
2009,3,14,6,0,,-0.3,-10.8,45,100610,0,0,237,0,0,0,0,0,0,0,270,5.5,0,0,0,0,0,0,0,0,0,0,0,0,0
2009,3,14,7,0,,-0.6,-11.6,43,100730,0,0,235,20,8,12,1704,701,1468,0,180,3.7,0,0,0,0,0,0,0,0,0,0,0,0,0
2009,3,14,8,0,,0,-12,40,100890,0,0,236,143,628,35,37231,61910,5418,0,320,3.5,0,0,0,0,0,0,0,0,0,0,0,0,0
2009,3,14,9,0,,0.9,-12.1,37,100980,0,0,239,333,712,69,56572,71306,9899,0,320,3.2,0,0,0,0,0,0,0,0,0,0,0,0,0
2009,3,14,10,0,,2,-12.6,33,101000,0,0,243,513,767,98,71141,77016,13451,0,290,4.2,0,0,0,0,0,0,0,0,0,0,0,0,0
2009,3,14,11,0,,4.3,-10.5,33,100980,0,0,253,659,797,122,80244,81151,16056,0,270,4,0,0,0,0,0,0,0,0,0,0,0,0,0
2009,3,14,12,0,,5.8,-10.9,29,100930,0,0,259,743,781,150,80595,78799,19336,0,270,3.8,0,0,0,0,0,0,0,0,0,0,0,0,0
2009,3,14,13,0,,6.8,-11.4,26,100890,0,0,262,795,827,142,77604,82979,18744,0,360,5.6,0,0,0,0,0,0,0,0,0,0,0,0,0
2009,3,14,14,0,,7.7,-12.1,23,100830,0,0,265,752,787,150,66656,78355,20317,0,360,4.5,0,0,0,0,0,0,0,0,0,0,0,0,0
2009,3,14,15,0,,9.6,-10.5,23,100810,0,0,274,663,771,134,49496,72691,18119,0,320,2.1,0,0,0,0,0,0,0,0,0,0,0,0,0
2009,3,14,16,0,,9.4,-11.2,22,100830,0,0,272,532,772,101,28093,60368,13546,0,340,2.9,0,0,0,0,0,0,0,0,0,0,0,0,0
2009,3,14,17,0,,8.8,-10.7,24,100850,0,0,270,360,741,69,7626,8057,7365,0,340,3.5,0,0,0,0,0,0,0,0,0,0,0,0,0
2009,3,14,18,0,,7.7,-9.2,29,100930,0,0,268,165,643,39,0,0,0,0,290,4.8,0,0,0,0,0,0,0,0,0,0,0,0,0
2009,3,14,19,0,,6.5,-9.4,31,100980,0,0,263,31,17,14,0,0,0,0,270,4.6,0,0,0,0,0,0,0,0,0,0,0,0,0
2009,3,14,20,0,,5.6,-9.8,32,101040,0,0,259,0,0,0,0,0,0,0,270,3,0,0,0,0,0,0,0,0,0,0,0,0,0
2009,3,14,21,0,,5.2,-9.7,33,101120,0,0,258,0,0,0,0,0,0,0,270,4.5,0,0,0,0,0,0,0,0,0,0,0,0,0
2009,3,14,22,0,,4.4,-10.5,33,101170,0,0,254,0,0,0,0,0,0,0,270,3.7,0,0,0,0,0,0,0,0,0,0,0,0,0
2009,3,14,23,0,,3.8,-10.6,34,101170,0,0,251,0,0,0,0,0,0,0,200,2.5,0,0,0,0,0,0,0,0,0,0,0,0,0
2009,3,14,24,0,,3.3,-10.3,36,101170,0,0,250,0,0,0,0,0,0,0,290,3.2,0,0,0,0,0,0,0,0,0,0,0,0,0
2009,3,15,1,0,,2.5,-9.4,41,101170,0,0,247,0,0,0,0,0,0,0,340,2.6,0,0,0,0,0,0,0,0,0,0,0,0,0
2009,3,15,2,0,,2,-9.2,43,101140,0,0,245,0,0,0,0,0,0,0,90,1.6,0,0,0,0,0,0,0,0,0,0,0,0,0
2009,3,15,3,0,,2,-10.2,40,101130,0,0,245,0,0,0,0,0,0,0,290,2.3,0,0,0,0,0,0,0,0,0,0,0,0,0
2009,3,15,4,0,,1.6,-9.3,44,101110,0,0,244,0,0,0,0,0,0,0,290,4.4,0,0,0,0,0,0,0,0,0,0,0,0,0
2009,3,15,5,0,,1.1,-8.4,49,101080,0,0,243,0,0,0,0,0,0,0,160,2,0,0,0,0,0,0,0,0,0,0,0,0,0
2009,3,15,6,0,,1.7,-10.1,41,101150,0,0,243,0,0,0,0,0,0,0,340,3.1,0,0,0,0,0,0,0,0,0,0,0,0,0
2009,3,15,7,0,,1.4,-9.8,43,101200,0,0,243,22,10,12,1998,978,1664,0,340,1.5,0,0,0,0,0,0,0,0,0,0,0,0,0
2009,3,15,8,0,,2.7,-10.5,37,101230,0,0,247,153,682,33,39943,67325,5021,0,360,2.6,0,0,0,0,0,0,0,0,0,0,0,0,0
2009,3,15,9,0,,4.7,-11.4,30,101230,0,0,254,344,740,66,58384,74199,9470,0,230,1.3,0,0,0,0,0,0,0,0,0,0,0,0,0
2009,3,15,10,0,,6.5,-11.1,27,101170,0,0,261,535,820,87,74179,82552,11973,0,230,2.5,0,0,0,0,0,0,0,0,0,0,0,0,0
2009,3,15,11,0,,8,-9.9,27,101130,0,0,268,678,832,113,81816,83786,15190,0,250,4.1,0,0,0,0,0,0,0,0,0,0,0,0,0
2009,3,15,12,0,,9.4,-7.3,30,101060,0,0,276,759,809,142,82347,81869,18377,0,230,3.9,0,0,0,0,0,0,0,0,0,0,0,0,0
2009,3,15,13,0,,10.6,-6.2,30,100910,0,0,282,782,786,158,78243,79624,21468,0,200,5.5,0,0,0,0,0,0,0,0,0,0,0,0,0
2009,3,15,14,0,,11.2,-7.1,27,100820,0,0,283,756,787,151,67071,78246,20526,0,200,5.8,0,0,0,0,0,0,0,0,0,0,0,0,0
2009,3,15,15,0,,11.5,-6.8,27,100720,0,0,285,662,758,139,49759,71353,18728,0,230,5.7,0,0,0,0,0,0,0,0,0,0,0,0,0
2009,3,15,16,0,,11.5,-3.4,35,100670,0,0,288,529,750,107,28572,58387,14323,0,230,7.6,0,0,0,0,0,0,0,0,0,0,0,0,0
2009,3,15,17,0,,11.1,-1.6,41,100610,0,0,288,354,703,76,8341,7215,8086,0,250,7.2,0,0,0,0,0,0,0,0,0,0,0,0,0
2009,3,15,18,0,,10.1,0.4,51,100650,0,0,286,160,576,45,0,0,0,0,250,5.2,0,0,0,0,0,0,0,0,0,0,0,0,0
2009,3,15,19,0,,9.4,0,52,100640,0,0,283,32,17,15,0,0,0,0,270,7,0,0,0,0,0,0,0,0,0,0,0,0,0
2009,3,15,20,0,,9.3,1.4,58,100670,0,0,284,0,0,0,0,0,0,0,270,5.8,0,0,0,0,0,0,0,0,0,0,0,0,0
2009,3,15,21,0,,9.2,1.1,57,100670,0,0,283,0,0,0,0,0,0,0,270,8.2,0,0,0,0,0,0,0,0,0,0,0,0,0
2009,3,15,22,0,,9.2,1.8,60,100690,0,0,284,0,0,0,0,0,0,0,250,5.2,0,0,0,0,0,0,0,0,0,0,0,0,0
2009,3,15,23,0,,9.5,1.8,59,100690,0,0,285,0,0,0,0,0,0,0,230,8.1,0,0,0,0,0,0,0,0,0,0,0,0,0
2009,3,15,24,0,,9.1,1.9,61,100680,0,0,284,0,0,0,0,0,0,0,270,4.9,0,0,0,0,0,0,0,0,0,0,0,0,0
2009,3,16,1,0,,9.1,2.8,65,100680,0,0,285,0,0,0,0,0,0,0,270,6.9,0,0,0,0,0,0,0,0,0,0,0,0,0
2009,3,16,2,0,,9,3.6,69,100650,0,0,285,0,0,0,0,0,0,0,270,6.5,0,0,0,0,0,0,0,0,0,0,0,0,0
2009,3,16,3,0,,8.7,3.5,70,100590,0,0,284,0,0,0,0,0,0,0,270,6.2,0,0,0,0,0,0,0,0,0,0,0,0,0
2009,3,16,4,0,,8.5,3.3,70,100580,0,0,283,0,0,0,0,0,0,0,270,6.9,0,0,0,0,0,0,0,0,0,0,0,0,0
2009,3,16,5,0,,8.5,3.7,72,100590,0,0,283,0,0,0,0,0,0,0,290,4.2,0,0,0,0,0,0,0,0,0,0,0,0,0
2009,3,16,6,0,,8.5,4.1,74,100640,0,0,284,0,0,0,0,0,0,0,270,4.8,0,0,0,0,0,0,0,0,0,0,0,0,0
2009,3,16,7,0,,8.8,4.4,74,100650,0,0,285,24,10,13,2162,943,1835,0,270,5.2,0,0,0,0,0,0,0,0,0,0,0,0,0
2009,3,16,8,0,,9.6,4.7,72,100680,0,0,289,147,583,41,36747,58350,6198,0,270,5.7,0,0,0,0,0,0,0,0,0,0,0,0,0
2009,3,16,9,0,,11.1,5.1,67,100750,0,0,295,324,630,84,54882,64589,12001,0,270,3.4,0,0,0,0,0,0,0,0,0,0,0,0,0
2009,3,16,10,0,,12.4,5.3,62,100750,0,0,301,493,672,123,68516,68657,16476,0,270,5,0,0,0,0,0,0,0,0,0,0,0,0,0
2009,3,16,11,0,,14.2,5.5,56,100710,0,0,309,645,731,145,78435,74497,18883,0,250,3.9,0,0,0,0,0,0,0,0,0,0,0,0,0
2009,3,16,12,0,,14.7,6.2,57,100680,0,0,312,713,683,188,79041,68624,25150,0,230,6.7,0,0,0,0,0,0,0,0,0,0,0,0,0
2009,3,16,13,0,,15.6,7.3,58,100610,0,0,328,726,639,216,73272,63033,28096,0,200,6.2,2,0,0,0,0,0,0,0,0,0,0,0,0
2009,3,16,14,0,,14.9,8.1,64,100530,0,0,329,652,518,252,61090,49664,31378,0,200,7.9,3,0,0,0,0,0,0,0,0,0,0,0,0
2009,3,16,15,0,,16.2,6,51,100470,0,0,335,594,566,202,47971,51990,25194,0,230,7.6,4,0,0,0,0,0,0,0,0,0,0,0,0
2009,3,16,16,0,,15.7,7.1,57,100410,0,0,334,452,494,173,29134,36394,20140,0,230,7.2,4,0,0,0,0,0,0,0,0,0,0,0,0
2009,3,16,17,0,,14.8,8,64,100400,0,0,328,325,567,100,10504,8666,10172,0,230,7.3,3,0,0,0,0,0,0,0,0,0,0,0,0
2009,3,16,18,0,,13.9,8.2,69,100380,0,0,327,145,430,58,0,0,0,0,230,7.6,4,0,0,0,0,0,0,0,0,0,0,0,0
2009,3,16,19,0,,14.2,7,62,100380,0,0,327,30,14,17,0,0,0,0,230,8.6,4,0,0,0,0,0,0,0,0,0,0,0,0
2009,3,16,20,0,,13.9,7.4,65,100390,0,0,310,0,0,0,0,0,0,0,230,6.7,0,0,0,0,0,0,0,0,0,0,0,0,0
2009,3,16,21,0,,13.4,7.8,69,100430,0,0,308,0,0,0,0,0,0,0,250,4.9,0,0,0,0,0,0,0,0,0,0,0,0,0
2009,3,16,22,0,,13,7.2,68,100480,0,0,306,0,0,0,0,0,0,0,270,5.6,0,0,0,0,0,0,0,0,0,0,0,0,0
2009,3,16,23,0,,12.5,7.3,71,100510,0,0,304,0,0,0,0,0,0,0,270,6,0,0,0,0,0,0,0,0,0,0,0,0,0
2009,3,16,24,0,,12.1,6.9,71,100540,0,0,302,0,0,0,0,0,0,0,270,5.1,0,0,0,0,0,0,0,0,0,0,0,0,0
2009,3,17,1,0,,11.8,6.9,72,100600,0,0,300,0,0,0,0,0,0,0,270,5.1,0,0,0,0,0,0,0,0,0,0,0,0,0
2009,3,17,2,0,,11.6,6.5,71,100650,0,0,299,0,0,0,0,0,0,0,270,4.4,0,0,0,0,0,0,0,0,0,0,0,0,0
2009,3,17,3,0,,11.3,6.4,72,100620,0,0,298,0,0,0,0,0,0,0,270,4.7,0,0,0,0,0,0,0,0,0,0,0,0,0
2009,3,17,4,0,,11.1,5.4,68,100650,0,0,296,0,0,0,0,0,0,0,290,2.8,0,0,0,0,0,0,0,0,0,0,0,0,0
2009,3,17,5,0,,11.1,5.6,69,100690,0,0,296,0,0,0,0,0,0,0,290,3.7,0,0,0,0,0,0,0,0,0,0,0,0,0
2009,3,17,6,0,,10.9,4.1,63,100730,0,0,293,0,0,0,0,0,0,0,360,1.6,0,0,0,0,0,0,0,0,0,0,0,0,0
2009,3,17,7,0,,10.6,3.8,63,100810,0,0,292,24,14,10,1881,1283,1430,0,160,0.8,0,0,0,0,0,0,0,0,0,0,0,0,0
2009,3,17,8,0,,11.3,2.8,56,100840,0,0,314,116,332,54,26529,33334,8917,0,270,1.5,6,0,0,0,0,0,0,0,0,0,0,0,0
2009,3,17,9,0,,13.6,5.2,57,100860,0,0,324,284,431,118,46428,43562,17306,0,200,2.8,5,0,0,0,0,0,0,0,0,0,0,0,0
2009,3,17,10,0,,15,7.5,61,100900,0,0,334,440,482,172,60393,48357,23526,0,180,3.3,5,0,0,0,0,0,0,0,0,0,0,0,0
2009,3,17,11,0,,15.5,5.1,50,100890,0,0,314,659,756,139,80122,77174,18110,0,230,6,0,0,0,0,0,0,0,0,0,0,0,0,0
2009,3,17,12,0,,16.9,3.8,42,100840,0,0,319,728,712,179,80751,71803,24086,0,200,5.4,0,0,0,0,0,0,0,0,0,0,0,0,0
2009,3,17,13,0,,16.9,8.8,59,100780,0,0,325,710,590,237,71745,57476,30344,0,200,6.2,0,0,0,0,0,0,0,0,0,0,0,0,0
2009,3,17,14,0,,17.2,9.8,62,100690,0,0,327,681,581,230,62732,55344,29434,0,230,5.4,0,0,0,0,0,0,0,0,0,0,0,0,0
2009,3,17,15,0,,17.6,7.6,52,100650,0,0,327,617,620,185,48760,56727,23728,0,230,5.5,0,0,0,0,0,0,0,0,0,0,0,0,0
2009,3,17,16,0,,17,9.1,60,100610,0,0,326,503,646,135,29308,48414,17198,0,230,8.1,0,0,0,0,0,0,0,0,0,0,0,0,0
2009,3,17,17,0,,15.9,9.7,67,100610,0,0,321,334,594,96,10503,9723,10101,0,230,7.7,0,0,0,0,0,0,0,0,0,0,0,0,0
2009,3,17,18,0,,15.1,10.6,75,100610,0,0,319,158,516,52,0,0,0,0,230,8.1,0,0,0,0,0,0,0,0,0,0,0,0,0
2009,3,17,19,0,,14.7,10.7,77,100620,0,0,317,31,14,17,0,0,0,0,250,7.8,0,0,0,0,0,0,0,0,0,0,0,0,0
2009,3,17,20,0,,14.5,11.2,81,100670,0,0,317,0,0,0,0,0,0,0,230,7.1,0,0,0,0,0,0,0,0,0,0,0,0,0
2009,3,17,21,0,,14.4,11.7,84,100700,0,0,323,0,0,0,0,0,0,0,230,6.2,1,0,0,0,0,0,0,0,0,0,0,0,0
2009,3,17,22,0,,14.1,11.7,86,100710,0,0,329,0,0,0,0,0,0,0,250,7.1,3,0,0,0,0,0,0,0,0,0,0,0,0
2009,3,17,23,0,,13.9,11.4,85,100720,0,0,333,0,0,0,0,0,0,0,230,5.8,5,0,0,0,0,0,0,0,0,0,0,0,0
2009,3,17,24,0,,14.7,11,79,100710,0,0,343,0,0,0,0,0,0,0,250,5.3,7,0,0,0,0,0,0,0,0,0,0,0,0
2009,3,18,1,0,,14.9,12,83,100720,0,0,347,0,0,0,0,0,0,0,230,5,7,0,0,0,0,0,0,0,0,0,0,0,0
2009,3,18,2,0,,15.2,12.8,86,100700,0,0,351,0,0,0,0,0,0,0,230,5.8,8,0,0,0,0,0,0,0,0,0,0,0,0
2009,3,18,3,0,,15.2,13.3,89,100650,0,0,354,0,0,0,0,0,0,0,230,8.4,8,0,0,0,0,0,0,0,0,0,0,0,0
2009,3,18,4,0,,15.4,13.2,87,100650,0,0,355,0,0,0,0,0,0,0,230,6.9,8,0,0,0,0,0,0,0,0,0,0,0,0
2009,3,18,5,0,,15.2,13.3,89,100660,0,0,362,0,0,0,0,0,0,0,230,6,9,0,0,0,0,0,0,0,0,0,0,0,0
2009,3,18,6,0,,15.2,13.7,91,100690,0,0,355,0,0,0,0,0,0,0,230,5.8,8,0,0,0,0,0,0,0,0,0,0,0,0
2009,3,18,7,0,,15.6,14.1,91,100740,0,0,375,6,0,6,788,5,786,0,230,7,10,0,0,0,0,0,0,0,0,0,0,0,0
2009,3,18,8,0,,15.7,14,90,100780,0,0,376,57,38,50,8498,3530,6615,0,230,7,10,0,0,0,0,0,0,0,0,0,0,0,0
2009,3,18,9,0,,15.2,13.7,91,100820,0,0,362,151,64,126,19976,6160,15829,0,200,6,9,0,0,0,0,0,0,0,0,0,0,0,0
2009,3,18,10,0,,15.7,13.8,89,100840,0,0,375,169,27,154,20098,2505,18177,0,230,5.6,10,0,0,0,0,0,0,0,0,0,0,0,0
2009,3,18,11,0,,16.3,13.9,86,100840,0,0,368,287,58,247,33056,5384,28707,0,200,5.7,9,0,0,0,0,0,0,0,0,0,0,0,0
2009,3,18,12,0,,18.3,13.3,73,100780,0,0,369,464,148,350,52207,14117,41012,0,230,6.9,8,0,0,0,0,0,0,0,0,0,0,0,0
2009,3,18,13,0,,18.2,13.2,73,100730,0,0,363,565,226,382,59863,21384,44383,0,230,10.5,7,0,0,0,0,0,0,0,0,0,0,0,0
2009,3,18,14,0,,18.5,13.3,72,100670,0,0,370,456,138,348,47452,13036,39565,0,230,8.4,8,0,0,0,0,0,0,0,0,0,0,0,0
2009,3,18,15,0,,18.1,13.5,75,100630,0,0,377,323,77,269,33669,7087,30519,0,230,7.7,9,0,0,0,0,0,0,0,0,0,0,0,0
2009,3,18,16,0,,17.8,13.7,77,100670,0,0,375,253,78,209,25030,6450,23397,0,230,8.1,9,0,0,0,0,0,0,0,0,0,0,0,0
2009,3,18,17,0,,17.5,13.6,78,100690,0,0,366,205,136,150,16458,8472,16084,0,230,6.9,8,0,0,0,0,0,0,0,0,0,0,0,0
2009,3,18,18,0,,16.9,13.9,83,100670,0,0,353,121,264,66,0,0,0,0,230,6.2,6,0,0,0,0,0,0,0,0,0,0,0,0
2009,3,18,19,0,,16.2,14.3,89,100680,0,0,351,23,7,16,0,0,0,0,230,5.4,6,0,0,0,0,0,0,0,0,0,0,0,0
2009,3,18,20,0,,16.3,14.4,89,100700,0,0,351,0,0,0,0,0,0,0,230,6.5,6,0,0,0,0,0,0,0,0,0,0,0,0
2009,3,18,21,0,,16.7,14.5,87,100680,0,0,353,0,0,0,0,0,0,0,230,8.2,6,0,0,0,0,0,0,0,0,0,0,0,0
2009,3,18,22,0,,16.8,14.4,86,100700,0,0,356,0,0,0,0,0,0,0,230,7.7,7,0,0,0,0,0,0,0,0,0,0,0,0
2009,3,18,23,0,,16.9,14.3,85,100700,0,0,360,0,0,0,0,0,0,0,230,6.7,7,0,0,0,0,0,0,0,0,0,0,0,0
2009,3,18,24,0,,16.9,14.1,84,100630,0,0,363,0,0,0,0,0,0,0,230,7.2,8,0,0,0,0,0,0,0,0,0,0,0,0
2009,3,19,1,0,,16.7,14.3,86,100620,0,0,359,0,0,0,0,0,0,0,250,3.9,7,0,0,0,0,0,0,0,0,0,0,0,0
2009,3,19,2,0,,16.7,14.1,85,100600,0,0,355,0,0,0,0,0,0,0,250,4.7,7,0,0,0,0,0,0,0,0,0,0,0,0
2009,3,19,3,0,,16.6,14,85,100540,0,0,352,0,0,0,0,0,0,0,250,4.7,6,0,0,0,0,0,0,0,0,0,0,0,0
2009,3,19,4,0,,16.3,13.9,86,100520,0,0,351,0,0,0,0,0,0,0,270,4.3,6,0,0,0,0,0,0,0,0,0,0,0,0
2009,3,19,5,0,,16.5,13.9,85,100520,0,0,356,0,0,0,0,0,0,0,230,3.8,7,0,0,0,0,0,0,0,0,0,0,0,0
2009,3,19,6,0,,16.3,14.3,88,100520,0,0,351,0,0,0,0,0,0,0,250,4.8,6,0,0,0,0,0,0,0,0,0,0,0,0
2009,3,19,7,0,,16.8,14.6,87,100530,0,0,371,11,1,10,1313,28,1303,0,230,5.2,9,0,0,0,0,0,0,0,0,0,0,0,0
2009,3,19,8,0,,16.6,14.9,90,100550,0,0,371,72,67,59,11727,6040,8478,0,230,5,9,0,0,0,0,0,0,0,0,0,0,0,0
2009,3,19,9,0,,17,14.9,88,100570,0,0,383,125,37,111,15429,3325,13176,0,230,4.5,10,0,0,0,0,0,0,0,0,0,0,0,0
2009,3,19,10,0,,16.6,15.2,92,100540,0,0,382,165,25,151,19595,2233,17873,0,250,4.8,10,0,0,0,0,0,0,0,0,0,0,0,0
2009,3,19,11,0,,16.3,15.1,93,100480,0,0,380,192,19,179,22519,1712,21129,0,230,4.6,10,0,0,0,0,0,0,0,0,0,0,0,0
2009,3,19,12,0,,16.3,15.4,95,100420,0,0,381,200,14,189,23662,918,22931,0,200,3.4,10,0,0,0,0,0,0,0,0,0,0,0,0
2009,3,19,13,0,,15.9,15.2,96,100350,0,0,378,217,16,204,25086,1064,24312,0,200,3.4,10,0,0,0,0,0,0,0,0,0,0,0,0
2009,3,19,14,0,,16.8,16.1,96,100260,0,0,384,224,19,209,24971,1334,24160,0,250,3.7,10,0,0,0,0,0,0,0,0,0,0,0,0
2009,3,19,15,0,,16.9,16.2,96,100200,0,0,385,178,15,168,19350,934,18932,0,230,1.7,10,0,0,0,0,0,0,0,0,0,0,0,0
2009,3,19,16,0,,16.7,16,96,100170,0,0,383,153,19,142,15503,1012,15243,0,200,2,10,0,0,0,0,0,0,0,0,0,0,0,0
2009,3,19,17,0,,16,15.3,96,100150,0,0,379,96,16,90,8658,716,8625,0,230,1.8,10,0,0,0,0,0,0,0,0,0,0,0,0
2009,3,19,18,0,,16.4,15.9,97,100140,0,0,382,52,21,47,0,0,0,0,200,3.4,10,0,0,0,0,0,0,0,0,0,0,0,0
2009,3,19,19,0,,16.4,15.9,97,100140,0,0,382,7,0,7,0,0,0,0,230,3.9,10,0,0,0,0,0,0,0,0,0,0,0,0
2009,3,19,20,0,,16.3,15.8,97,100160,0,0,381,0,0,0,0,0,0,0,230,4,10,0,0,0,0,0,0,0,0,0,0,0,0
2009,3,19,21,0,,15.8,15.3,97,100210,0,0,378,0,0,0,0,0,0,0,180,1.2,10,0,0,0,0,0,0,0,0,0,0,0,0
2009,3,19,22,0,,15.8,15.3,97,100240,0,0,374,0,0,0,0,0,0,0,0,0.2,10,0,0,0,0,0,0,0,0,0,0,0,0
2009,3,19,23,0,,12.7,12.2,97,100300,0,0,351,0,0,0,0,0,0,0,70,2.6,9,0,0,0,0,0,0,0,0,0,0,0,0
2009,3,19,24,0,,12.1,11.4,96,100320,0,0,344,0,0,0,0,0,0,0,70,2.1,9,0,0,0,0,0,0,0,0,0,0,0,0
2009,3,20,1,0,,11.9,11.1,95,100370,0,0,348,0,0,0,0,0,0,0,50,5.5,10,0,0,0,0,0,0,0,0,0,0,0,0
2009,3,20,2,0,,10.7,9.2,91,100450,0,0,345,0,0,0,0,0,0,0,50,6.9,10,0,0,0,0,0,0,0,0,0,0,0,0
2009,3,20,3,0,,10.3,9.2,93,100510,0,0,343,0,0,0,0,0,0,0,50,5.2,10,0,0,0,0,0,0,0,0,0,0,0,0
2009,3,20,4,0,,10,8,88,100570,0,0,330,0,0,0,0,0,0,0,50,4.3,9,0,0,0,0,0,0,0,0,0,0,0,0
2009,3,20,5,0,,9.7,6.9,83,100710,0,0,327,0,0,0,0,0,0,0,50,7.1,9,0,0,0,0,0,0,0,0,0,0,0,0
2009,3,20,6,0,,9.5,6.5,82,100770,0,0,326,0,0,0,0,0,0,0,50,4.6,9,0,0,0,0,0,0,0,0,0,0,0,0
2009,3,20,7,0,,9.2,4.9,75,100890,0,0,323,12,1,11,1465,42,1450,0,50,4.7,9,0,0,0,0,0,0,0,0,0,0,0,0
2009,3,20,8,0,,9.6,3.1,64,101000,0,0,315,103,174,68,19499,17028,10258,0,50,6,8,0,0,0,0,0,0,0,0,0,0,0,0
2009,3,20,9,0,,10.3,2.8,60,101050,0,0,325,188,110,144,24974,11193,17337,0,50,4.8,9,0,0,0,0,0,0,0,0,0,0,0,0
2009,3,20,10,0,,11,3.2,59,101180,0,0,329,277,101,219,33827,10330,25817,0,50,4.8,9,0,0,0,0,0,0,0,0,0,0,0,0
2009,3,20,11,0,,12.8,3.4,53,101200,0,0,321,539,341,300,63113,34947,34605,0,20,6.6,6,0,0,0,0,0,0,0,0,0,0,0,0
2009,3,20,12,0,,13.5,1.7,45,101190,0,0,315,702,612,221,77343,61350,28227,0,50,5.1,3,0,0,0,0,0,0,0,0,0,0,0,0
2009,3,20,13,0,,13.2,4,54,101180,0,0,309,727,601,237,73445,59820,29721,0,70,3.8,1,0,0,0,0,0,0,0,0,0,0,0,0
2009,3,20,14,0,,13.2,2.7,49,101170,0,0,302,680,550,246,63170,54076,30100,0,70,3.6,0,0,0,0,0,0,0,0,0,0,0,0,0
2009,3,20,15,0,,13.1,2.8,50,101170,0,0,307,605,559,210,49271,52296,25705,0,70,3.9,1,0,0,0,0,0,0,0,0,0,0,0,0
2009,3,20,16,0,,11.9,2.6,53,101170,0,0,296,471,518,172,30166,40402,19698,0,70,4,0,0,0,0,0,0,0,0,0,0,0,0,0
2009,3,20,17,0,,11.5,3.2,57,101170,0,0,295,329,539,108,11547,12300,10931,0,70,3.5,0,0,0,0,0,0,0,0,0,0,0,0,0
2009,3,20,18,0,,10.1,3.3,63,101170,0,0,289,158,468,58,0,0,0,0,70,4,0,0,0,0,0,0,0,0,0,0,0,0,0
2009,3,20,19,0,,9.4,3.5,67,101180,0,0,287,34,15,19,0,0,0,0,70,2.5,0,0,0,0,0,0,0,0,0,0,0,0,0
2009,3,20,20,0,,8.9,3.5,69,101220,0,0,285,0,0,0,0,0,0,0,50,3.8,0,0,0,0,0,0,0,0,0,0,0,0,0
2009,3,20,21,0,,8.7,3.5,70,101270,0,0,284,0,0,0,0,0,0,0,50,5.6,0,0,0,0,0,0,0,0,0,0,0,0,0
2009,3,20,22,0,,8.5,3.7,72,101310,0,0,283,0,0,0,0,0,0,0,50,3.7,0,0,0,0,0,0,0,0,0,0,0,0,0
2009,3,20,23,0,,8.1,3.7,74,101330,0,0,282,0,0,0,0,0,0,0,50,3.2,0,0,0,0,0,0,0,0,0,0,0,0,0
2009,3,20,24,0,,8.1,3.5,73,101270,0,0,281,0,0,0,0,0,0,0,50,4,0,0,0,0,0,0,0,0,0,0,0,0,0
2009,3,21,1,0,,7.9,3.5,74,101270,0,0,281,0,0,0,0,0,0,0,50,3.2,0,0,0,0,0,0,0,0,0,0,0,0,0
2009,3,21,2,0,,7.7,3.7,76,101210,0,0,280,0,0,0,0,0,0,0,50,4.6,0,0,0,0,0,0,0,0,0,0,0,0,0
2009,3,21,3,0,,7.8,4,77,101170,0,0,281,0,0,0,0,0,0,0,20,2.9,0,0,0,0,0,0,0,0,0,0,0,0,0
2009,3,21,4,0,,7.6,4,78,101140,0,0,280,0,0,0,0,0,0,0,20,4.4,0,0,0,0,0,0,0,0,0,0,0,0,0
2009,3,21,5,0,,7.8,4.3,79,101120,0,0,281,0,0,0,0,0,0,0,20,3.6,0,0,0,0,0,0,0,0,0,0,0,0,0
2009,3,21,6,0,,7.9,4.6,80,101110,0,0,282,0,0,0,0,0,0,0,50,3.6,0,0,0,0,0,0,0,0,0,0,0,0,0
2009,3,21,7,0,,8.1,4.6,79,101090,0,0,297,30,17,13,2384,1566,1803,0,50,4.2,4,0,0,0,0,0,0,0,0,0,0,0,0
2009,3,21,8,0,,9.8,4.9,72,101040,0,0,307,151,446,58,33587,45244,8818,0,20,4.5,5,0,0,0,0,0,0,0,0,0,0,0,0
2009,3,21,9,0,,11.5,5.3,66,101000,0,0,313,330,560,103,54571,56900,15491,0,50,2.9,4,0,0,0,0,0,0,0,0,0,0,0,0
2009,3,21,10,0,,13.4,6.2,62,100940,0,0,320,502,627,142,69739,63695,20076,0,70,2.4,3,0,0,0,0,0,0,0,0,0,0,0,0
2009,3,21,11,0,,14.3,6.1,58,100840,0,0,341,427,163,312,49518,16404,36071,0,90,2.5,8,0,0,0,0,0,0,0,0,0,0,0,0
2009,3,21,12,0,,14,6.1,59,100790,0,0,347,362,71,306,40543,6873,35014,0,70,1.3,9,0,0,0,0,0,0,0,0,0,0,0,0
2009,3,21,13,0,,14.4,6.2,58,100690,0,0,349,372,67,317,40898,6571,36072,0,90,1.9,9,0,0,0,0,0,0,0,0,0,0,0,0
2009,3,21,14,0,,15,7.2,60,100540,0,0,363,267,30,243,29538,2910,27749,0,90,1.2,10,0,0,0,0,0,0,0,0,0,0,0,0
2009,3,21,15,0,,14,7,63,100430,0,0,358,221,26,203,23610,1991,22707,0,0,0.4,10,0,0,0,0,0,0,0,0,0,0,0,0
2009,3,21,16,0,,14.6,6.6,59,100330,0,0,360,179,28,163,17881,1880,17389,0,180,0.6,10,0,0,0,0,0,0,0,0,0,0,0,0
2009,3,21,17,0,,14.9,5.9,55,100230,0,0,361,137,41,120,13046,2512,12913,0,200,1.4,10,0,0,0,0,0,0,0,0,0,0,0,0
2009,3,21,18,0,,14.9,6.9,59,100110,0,0,362,72,51,61,0,0,0,0,200,2.6,10,0,0,0,0,0,0,0,0,0,0,0,0
2009,3,21,19,0,,14.8,9.1,69,100000,0,0,364,11,1,10,0,0,0,0,230,3.4,10,0,0,0,0,0,0,0,0,0,0,0,0
2009,3,21,20,0,,15.5,12.6,83,99940,0,0,373,0,0,0,0,0,0,0,180,3.7,10,0,0,0,0,0,0,0,0,0,0,0,0
2009,3,21,21,0,,15.6,12.5,82,99860,0,0,373,0,0,0,0,0,0,0,200,5.6,10,0,0,0,0,0,0,0,0,0,0,0,0
2009,3,21,22,0,,14.7,12.8,89,99720,0,0,369,0,0,0,0,0,0,0,200,9.8,10,0,0,0,0,0,0,0,0,0,0,0,0
2009,3,21,23,0,,14.6,12.2,86,99600,0,0,368,0,0,0,0,0,0,0,230,7.6,10,0,0,0,0,0,0,0,0,0,0,0,0
2009,3,21,24,0,,13.9,13.1,95,99460,0,0,365,0,0,0,0,0,0,0,200,5.3,10,0,0,0,0,0,0,0,0,0,0,0,0
2009,3,22,1,0,,13.7,13,96,99260,0,0,364,0,0,0,0,0,0,0,180,3.2,10,0,0,0,0,0,0,0,0,0,0,0,0
2009,3,22,2,0,,14,13.5,97,99170,0,0,366,0,0,0,0,0,0,0,200,5.1,10,0,0,0,0,0,0,0,0,0,0,0,0
2009,3,22,3,0,,13.8,13.3,97,98960,0,0,365,0,0,0,0,0,0,0,230,2.9,10,0,0,0,0,0,0,0,0,0,0,0,0
2009,3,22,4,0,,15,14.5,97,98830,0,0,373,0,0,0,0,0,0,0,230,7,10,0,0,0,0,0,0,0,0,0,0,0,0
2009,3,22,5,0,,14.4,13.7,96,98860,0,0,369,0,0,0,0,0,0,0,230,7.7,10,0,0,0,0,0,0,0,0,0,0,0,0
2009,3,22,6,0,,14.8,14,95,98800,0,0,371,0,0,0,0,0,0,0,250,8.9,10,0,0,0,0,0,0,0,0,0,0,0,0
2009,3,22,7,0,,14.7,13.7,94,98830,0,0,370,9,0,8,1159,12,1155,0,270,8.7,10,0,0,0,0,0,0,0,0,0,0,0,0
2009,3,22,8,0,,14.9,13.6,92,98910,0,0,371,60,32,53,8738,3057,7050,0,270,4.9,10,0,0,0,0,0,0,0,0,0,0,0,0
2009,3,22,9,0,,15.3,13.3,88,98940,0,0,373,124,32,111,15210,2914,13196,0,250,3.9,10,0,0,0,0,0,0,0,0,0,0,0,0
2009,3,22,10,0,,15.1,13.1,88,98980,0,0,371,177,28,161,20954,2547,18958,0,270,4.6,10,0,0,0,0,0,0,0,0,0,0,0,0
2009,3,22,11,0,,15.7,12.9,84,99000,0,0,374,229,28,209,26571,2650,24388,0,250,5.3,10,0,0,0,0,0,0,0,0,0,0,0,0
2009,3,22,12,0,,16.1,12.6,80,99050,0,0,358,406,95,331,45287,8982,38030,0,250,4.7,8,0,0,0,0,0,0,0,0,0,0,0,0
2009,3,22,13,0,,18.7,12.6,68,99080,0,0,365,538,183,388,57696,17364,44885,0,250,2.9,7,0,0,0,0,0,0,0,0,0,0,0,0
2009,3,22,14,0,,18.6,10.6,60,99080,0,0,368,450,125,351,47135,11974,39735,0,360,2.4,8,0,0,0,0,0,0,0,0,0,0,0,0
2009,3,22,15,0,,18.9,10.1,57,99170,0,0,369,416,145,312,41320,13701,35063,0,250,3.5,8,0,0,0,0,0,0,0,0,0,0,0,0
2009,3,22,16,0,,19.6,8.5,49,99290,0,0,357,426,332,232,32765,25303,26060,0,20,1.6,5,0,0,0,0,0,0,0,0,0,0,0,0
2009,3,22,17,0,,17.2,10.7,66,99420,0,0,343,308,428,130,14359,6064,14020,0,70,2,3,0,0,0,0,0,0,0,0,0,0,0,0
2009,3,22,18,0,,14.4,11.5,83,99630,0,0,330,136,318,66,0,0,0,0,90,1.8,3,0,0,0,0,0,0,0,0,0,0,0,0
2009,3,22,19,0,,13.3,11,86,99740,0,0,322,28,10,18,0,0,0,0,70,1,2,0,0,0,0,0,0,0,0,0,0,0,0
2009,3,22,20,0,,12.9,10.6,86,99900,0,0,315,0,0,0,0,0,0,0,70,1.1,1,0,0,0,0,0,0,0,0,0,0,0,0
2009,3,22,21,0,,13.6,5.4,58,100070,0,0,306,0,0,0,0,0,0,0,360,1.8,0,0,0,0,0,0,0,0,0,0,0,0,0
2009,3,22,22,0,,12.8,4.9,59,100180,0,0,302,0,0,0,0,0,0,0,340,2.8,0,0,0,0,0,0,0,0,0,0,0,0,0
2009,3,22,23,0,,12.4,4.3,58,100270,0,0,300,0,0,0,0,0,0,0,340,3.8,0,0,0,0,0,0,0,0,0,0,0,0,0
2009,3,22,24,0,,11.5,4.9,64,100290,0,0,297,0,0,0,0,0,0,0,340,3.9,0,0,0,0,0,0,0,0,0,0,0,0,0
2009,3,23,1,0,,10.9,4.3,64,100410,0,0,294,0,0,0,0,0,0,0,340,2.7,0,0,0,0,0,0,0,0,0,0,0,0,0
2009,3,23,2,0,,9.9,4.6,70,100450,0,0,290,0,0,0,0,0,0,0,340,2.7,0,0,0,0,0,0,0,0,0,0,0,0,0
2009,3,23,3,0,,9.4,4.5,72,100500,0,0,288,0,0,0,0,0,0,0,340,3.3,0,0,0,0,0,0,0,0,0,0,0,0,0
2009,3,23,4,0,,8.6,4.4,75,100560,0,0,284,0,0,0,0,0,0,0,340,4.5,0,0,0,0,0,0,0,0,0,0,0,0,0
2009,3,23,5,0,,8,4,76,100570,0,0,282,0,0,0,0,0,0,0,340,1.9,0,0,0,0,0,0,0,0,0,0,0,0,0
2009,3,23,6,0,,7.8,4,77,100650,0,0,281,0,0,0,0,0,0,0,340,2.7,0,0,0,0,0,0,0,0,0,0,0,0,0
2009,3,23,7,0,,8.1,3.3,72,100710,0,0,281,37,19,18,3109,1783,2429,0,70,1.7,0,0,0,0,0,0,0,0,0,0,0,0,0
2009,3,23,8,0,,9.6,2.8,63,100780,0,0,287,179,608,47,40977,60952,7036,0,50,3,0,0,0,0,0,0,0,0,0,0,0,0,0
2009,3,23,9,0,,10.8,2.1,55,100840,0,0,291,360,651,90,58991,66723,12568,0,20,2.8,0,0,0,0,0,0,0,0,0,0,0,0,0
2009,3,23,10,0,,12.3,2.1,50,100880,0,0,297,536,703,125,73083,71802,16496,0,50,3.1,0,0,0,0,0,0,0,0,0,0,0,0,0
2009,3,23,11,0,,12.6,3.7,55,100840,0,0,325,468,203,323,54112,20695,36985,0,70,1.7,7,0,0,0,0,0,0,0,0,0,0,0,0
2009,3,23,12,0,,13.7,4,52,100840,0,0,330,532,198,374,58716,20001,42483,0,70,2.3,7,0,0,0,0,0,0,0,0,0,0,0,0
2009,3,23,13,0,,12.8,3.7,54,100780,0,0,322,560,202,393,59243,20210,44264,0,90,2.7,6,0,0,0,0,0,0,0,0,0,0,0,0
2009,3,23,14,0,,12.2,3.9,57,100740,0,0,328,408,94,333,43264,9258,37513,0,110,2.4,8,0,0,0,0,0,0,0,0,0,0,0,0
2009,3,23,15,0,,12.5,3.6,55,100710,0,0,329,368,102,295,37467,9809,32958,0,110,3.2,8,0,0,0,0,0,0,0,0,0,0,0,0
2009,3,23,16,0,,11.7,3.9,59,100680,0,0,342,182,28,165,18232,1960,17707,0,140,2.2,10,0,0,0,0,0,0,0,0,0,0,0,0
2009,3,23,17,0,,11.3,4.5,63,100670,0,0,341,125,31,113,10958,2124,10833,0,140,2.6,10,0,0,0,0,0,0,0,0,0,0,0,0
2009,3,23,18,0,,11,4.2,63,100720,0,0,339,57,24,52,0,0,0,0,90,1.1,10,0,0,0,0,0,0,0,0,0,0,0,0
2009,3,23,19,0,,10.6,4.7,67,100760,0,0,320,19,3,16,0,0,0,0,110,1,8,0,0,0,0,0,0,0,0,0,0,0,0
2009,3,23,20,0,,10.8,4.9,67,100790,0,0,312,0,0,0,0,0,0,0,180,0.9,5,0,0,0,0,0,0,0,0,0,0,0,0
2009,3,23,21,0,,10.7,5,68,100790,0,0,306,0,0,0,0,0,0,0,250,2.4,3,0,0,0,0,0,0,0,0,0,0,0,0
2009,3,23,22,0,,10.6,5.3,70,100820,0,0,303,0,0,0,0,0,0,0,250,2.9,2,0,0,0,0,0,0,0,0,0,0,0,0
2009,3,23,23,0,,10.4,5.5,72,100810,0,0,299,0,0,0,0,0,0,0,270,1.9,1,0,0,0,0,0,0,0,0,0,0,0,0
2009,3,23,24,0,,10.1,3.1,62,100790,0,0,289,0,0,0,0,0,0,0,320,1.5,0,0,0,0,0,0,0,0,0,0,0,0,0
2009,3,24,1,0,,9.1,4.7,74,100810,0,0,287,0,0,0,0,0,0,0,50,0.9,0,0,0,0,0,0,0,0,0,0,0,0,0
2009,3,24,2,0,,8.7,-1.7,48,100830,0,0,279,0,0,0,0,0,0,0,360,4.2,0,0,0,0,0,0,0,0,0,0,0,0,0
2009,3,24,3,0,,7.8,-4.3,42,100860,0,0,272,0,0,0,0,0,0,0,360,4.9,0,0,0,0,0,0,0,0,0,0,0,0,0
2009,3,24,4,0,,6.7,-6.3,39,100860,0,0,266,0,0,0,0,0,0,0,360,4,0,0,0,0,0,0,0,0,0,0,0,0,0
2009,3,24,5,0,,6.2,-9.7,31,100900,0,0,261,0,0,0,0,0,0,0,360,7.9,0,0,0,0,0,0,0,0,0,0,0,0,0
2009,3,24,6,0,,5.4,-10.4,31,100970,0,0,258,0,0,0,0,0,0,0,360,7.3,0,0,0,0,0,0,0,0,0,0,0,0,0
2009,3,24,7,0,,4.7,-9.4,35,100860,0,0,256,44,29,15,3311,2747,2251,0,360,7.4,0,0,0,0,0,0,0,0,0,0,0,0,0
2009,3,24,8,0,,5.5,-10.7,30,100960,0,0,258,205,772,34,48277,76806,5151,0,360,10.1,0,0,0,0,0,0,0,0,0,0,0,0,0
2009,3,24,9,0,,6.5,-10.2,29,100990,0,0,262,390,756,73,63476,75964,10289,0,320,5.8,0,0,0,0,0,0,0,0,0,0,0,0,0
2009,3,24,10,0,,8.5,-9.9,26,100990,0,0,270,576,812,98,78140,81835,13307,0,360,4.2,0,0,0,0,0,0,0,0,0,0,0,0,0
2009,3,24,11,0,,11.5,-14.3,15,100990,0,0,276,736,868,111,87433,87323,14827,0,50,2.3,0,0,0,0,0,0,0,0,0,0,0,0,0
2009,3,24,12,0,,12.3,-8.2,23,100970,0,0,287,812,836,142,87381,84811,18244,0,180,3.6,0,0,0,0,0,0,0,0,0,0,0,0,0
2009,3,24,13,0,,12.8,-5.2,28,100940,0,0,302,803,744,186,80256,75043,24387,0,180,3.8,2,0,0,0,0,0,0,0,0,0,0,0,0
2009,3,24,14,0,,11.9,-3.8,33,100870,0,0,299,698,561,248,64811,56065,29811,0,110,3,2,0,0,0,0,0,0,0,0,0,0,0,0
2009,3,24,15,0,,12.1,-4.1,32,100800,0,0,300,625,577,209,50749,55229,25197,0,110,2.8,2,0,0,0,0,0,0,0,0,0,0,0,0
2009,3,24,16,0,,11.2,-2.6,38,100760,0,0,288,490,541,170,31878,43788,20022,0,110,2.2,0,0,0,0,0,0,0,0,0,0,0,0,0
2009,3,24,17,0,,10.7,-2.7,39,100730,0,0,298,336,524,115,12503,15436,11552,0,140,1.9,3,0,0,0,0,0,0,0,0,0,0,0,0
2009,3,24,18,0,,9.6,-2.3,43,100700,0,0,309,106,135,76,0,0,0,0,140,2.5,8,0,0,0,0,0,0,0,0,0,0,0,0
2009,3,24,19,0,,9.2,-1.3,48,100690,0,0,305,27,9,19,0,0,0,0,140,2.6,7,0,0,0,0,0,0,0,0,0,0,0,0
2009,3,24,20,0,,8.5,-1.3,50,100700,0,0,299,0,0,0,0,0,0,0,180,2.5,7,0,0,0,0,0,0,0,0,0,0,0,0
2009,3,24,21,0,,8.4,-1.2,51,100700,0,0,297,0,0,0,0,0,0,0,230,1.5,6,0,0,0,0,0,0,0,0,0,0,0,0
2009,3,24,22,0,,8.3,-0.2,55,100710,0,0,301,0,0,0,0,0,0,0,270,1.6,7,0,0,0,0,0,0,0,0,0,0,0,0
2009,3,24,23,0,,9,0,53,100690,0,0,309,0,0,0,0,0,0,0,290,2.7,8,0,0,0,0,0,0,0,0,0,0,0,0
2009,3,24,24,0,,8.9,-0.7,51,100640,0,0,315,0,0,0,0,0,0,0,290,2.3,9,0,0,0,0,0,0,0,0,0,0,0,0
2009,3,25,1,0,,8.1,-0.6,54,100620,0,0,306,0,0,0,0,0,0,0,360,4.5,8,0,0,0,0,0,0,0,0,0,0,0,0
2009,3,25,2,0,,7.3,-5.4,40,100650,0,0,294,0,0,0,0,0,0,0,360,6.1,8,0,0,0,0,0,0,0,0,0,0,0,0
2009,3,25,3,0,,6,-3.3,51,100610,0,0,288,0,0,0,0,0,0,0,360,4.3,7,0,0,0,0,0,0,0,0,0,0,0,0
2009,3,25,4,0,,5.1,-4.2,51,100610,0,0,275,0,0,0,0,0,0,0,360,5.4,4,0,0,0,0,0,0,0,0,0,0,0,0
2009,3,25,5,0,,4.6,-4.1,53,100640,0,0,271,0,0,0,0,0,0,0,360,5,3,0,0,0,0,0,0,0,0,0,0,0,0
2009,3,25,6,0,,4.1,-4.6,53,100710,0,0,269,0,0,0,0,0,0,0,360,3.3,3,0,0,0,0,0,0,0,0,0,0,0,0
2009,3,25,7,0,,4,-4.7,53,100780,0,0,257,42,23,18,3346,2275,2458,0,290,2.5,0,0,0,0,0,0,0,0,0,0,0,0,0
2009,3,25,8,0,,4.1,-5.6,49,100860,0,0,262,185,592,51,40936,58974,7551,0,340,3.4,1,0,0,0,0,0,0,0,0,0,0,0,0
2009,3,25,9,0,,4.7,-8.1,39,100930,0,0,257,371,660,91,60037,67355,12583,0,340,3,0,0,0,0,0,0,0,0,0,0,0,0,0
2009,3,25,10,0,,6.2,-9.3,32,100950,0,0,262,547,710,126,73982,72272,16429,0,360,2.6,0,0,0,0,0,0,0,0,0,0,0,0,0
2009,3,25,11,0,,6.6,-12.5,24,100950,0,0,261,690,741,154,82098,74998,19453,0,340,3.3,0,0,0,0,0,0,0,0,0,0,0,0,0
2009,3,25,12,0,,7.5,-12.8,22,100890,0,0,264,779,749,176,85888,76527,23234,0,340,3.3,0,0,0,0,0,0,0,0,0,0,0,0,0
2009,3,25,13,0,,8.5,-13.8,19,100830,0,0,266,809,749,185,80851,75894,24099,0,340,4.5,0,0,0,0,0,0,0,0,0,0,0,0,0
2009,3,25,14,0,,9.4,-13.7,18,100720,0,0,279,771,728,184,69292,72372,23890,0,290,3,2,0,0,0,0,0,0,0,0,0,0,0,0
2009,3,25,15,0,,9.7,-13.5,18,100660,0,0,271,691,743,153,53249,70761,20302,0,340,3.9,0,0,0,0,0,0,0,0,0,0,0,0,0
2009,3,25,16,0,,10.3,-14.4,16,100610,0,0,277,571,781,107,32019,64350,14412,0,290,3.5,1,0,0,0,0,0,0,0,0,0,0,0,0
2009,3,25,17,0,,9,-6.8,32,100630,0,0,280,382,701,84,10706,19868,9425,0,200,6.6,1,0,0,0,0,0,0,0,0,0,0,0,0
2009,3,25,18,0,,8.2,-5.6,37,100680,0,0,273,193,646,46,0,0,0,0,200,5.4,0,0,0,0,0,0,0,0,0,0,0,0,0
2009,3,25,19,0,,7.3,-7.1,35,100700,0,0,268,42,24,18,0,0,0,0,250,3.2,0,0,0,0,0,0,0,0,0,0,0,0,0
2009,3,25,20,0,,7,-12.2,24,100800,0,0,262,0,0,0,0,0,0,0,290,2.9,0,0,0,0,0,0,0,0,0,0,0,0,0
2009,3,25,21,0,,6.1,-13,24,100900,0,0,258,0,0,0,0,0,0,0,340,4.8,0,0,0,0,0,0,0,0,0,0,0,0,0
2009,3,25,22,0,,5.6,-13.4,24,100960,0,0,256,0,0,0,0,0,0,0,340,3.2,0,0,0,0,0,0,0,0,0,0,0,0,0
2009,3,25,23,0,,4.9,-13,26,100980,0,0,254,0,0,0,0,0,0,0,340,3.1,0,0,0,0,0,0,0,0,0,0,0,0,0
2009,3,25,24,0,,4.2,-12.7,28,100980,0,0,251,0,0,0,0,0,0,0,340,1.5,0,0,0,0,0,0,0,0,0,0,0,0,0
2009,3,26,1,0,,3.9,-13.4,27,100980,0,0,249,0,0,0,0,0,0,0,270,2.4,0,0,0,0,0,0,0,0,0,0,0,0,0
2009,3,26,2,0,,3.6,-11.5,32,100980,0,0,250,0,0,0,0,0,0,0,180,2.4,0,0,0,0,0,0,0,0,0,0,0,0,0
2009,3,26,3,0,,3.1,-11.2,34,100950,0,0,248,0,0,0,0,0,0,0,180,2.1,0,0,0,0,0,0,0,0,0,0,0,0,0
2009,3,26,4,0,,2.5,-8.8,43,100900,0,0,248,0,0,0,0,0,0,0,110,2.2,0,0,0,0,0,0,0,0,0,0,0,0,0
2009,3,26,5,0,,3,-9.3,40,100960,0,0,249,0,0,0,0,0,0,0,230,2.4,0,0,0,0,0,0,0,0,0,0,0,0,0
2009,3,26,6,0,,2.3,-9.6,41,101010,0,0,246,0,0,0,0,0,0,0,320,1.6,0,0,0,0,0,0,0,0,0,0,0,0,0
2009,3,26,7,0,,2.6,-11,36,101030,0,0,246,47,31,17,3625,2969,2451,0,230,1.8,0,0,0,0,0,0,0,0,0,0,0,0,0
2009,3,26,8,0,,4.7,-10.6,32,101070,0,0,255,207,719,40,46911,71612,6042,0,250,3.1,0,0,0,0,0,0,0,0,0,0,0,0,0
2009,3,26,9,0,,6,-8.3,35,101080,0,0,262,420,838,61,68513,84467,8637,0,270,6.7,0,0,0,0,0,0,0,0,0,0,0,0,0
2009,3,26,10,0,,7.8,-8.3,31,101110,0,0,269,603,861,88,81544,86950,11949,0,270,6,0,0,0,0,0,0,0,0,0,0,0,0,0
2009,3,26,11,0,,9.5,-8.1,28,101060,0,0,276,755,893,105,89724,90248,14002,0,230,8.1,0,0,0,0,0,0,0,0,0,0,0,0,0
2009,3,26,12,0,,11.1,-6.7,28,100990,0,0,283,840,879,128,89856,88669,16951,0,230,8.1,0,0,0,0,0,0,0,0,0,0,0,0,0
2009,3,26,13,0,,12.6,-7.4,24,100970,0,0,289,863,864,140,83865,87184,18387,0,250,6.9,0,0,0,0,0,0,0,0,0,0,0,0,0
2009,3,26,14,0,,12.9,-6.6,25,100890,0,0,291,814,821,150,72312,82315,20422,0,200,7.6,0,0,0,0,0,0,0,0,0,0,0,0,0
2009,3,26,15,0,,12.8,-6.7,25,100820,0,0,290,696,747,153,53681,71034,20401,0,200,6.2,0,0,0,0,0,0,0,0,0,0,0,0,0
2009,3,26,16,0,,12.5,-3.7,32,100780,0,0,292,558,733,120,32472,59695,15969,0,200,8.4,0,0,0,0,0,0,0,0,0,0,0,0,0
2009,3,26,17,0,,11.8,-1.7,39,100770,0,0,291,383,695,85,10908,23290,9340,0,200,8.8,0,0,0,0,0,0,0,0,0,0,0,0,0
2009,3,26,18,0,,11.1,-0.4,45,100740,0,0,290,198,662,45,0,0,0,0,200,9,0,0,0,0,0,0,0,0,0,0,0,0,0
2009,3,26,19,0,,10.5,-0.3,47,100790,0,0,287,46,29,17,0,0,0,0,250,7.5,0,0,0,0,0,0,0,0,0,0,0,0,0
2009,3,26,20,0,,10.4,-3.3,38,100850,0,0,284,0,0,0,0,0,0,0,250,5.2,0,0,0,0,0,0,0,0,0,0,0,0,0
2009,3,26,21,0,,10,-4,37,100970,0,0,282,0,0,0,0,0,0,0,250,5.8,0,0,0,0,0,0,0,0,0,0,0,0,0
2009,3,26,22,0,,9.5,-3.1,41,101050,0,0,280,0,0,0,0,0,0,0,270,4.5,0,0,0,0,0,0,0,0,0,0,0,0,0
2009,3,26,23,0,,8.7,-2.2,46,101090,0,0,278,0,0,0,0,0,0,0,290,4.2,0,0,0,0,0,0,0,0,0,0,0,0,0
2009,3,26,24,0,,8.1,-3.1,45,101090,0,0,275,0,0,0,0,0,0,0,290,5.1,0,0,0,0,0,0,0,0,0,0,0,0,0
2009,3,27,1,0,,7.3,-6.8,36,101100,0,0,268,0,0,0,0,0,0,0,290,3.8,0,0,0,0,0,0,0,0,0,0,0,0,0
2009,3,27,2,0,,6.8,-12.4,24,101130,0,0,261,0,0,0,0,0,0,0,270,4.4,0,0,0,0,0,0,0,0,0,0,0,0,0
2009,3,27,3,0,,6,-10.7,29,101190,0,0,260,0,0,0,0,0,0,0,270,3.7,0,0,0,0,0,0,0,0,0,0,0,0,0
2009,3,27,4,0,,5.2,-10.5,31,101220,0,0,257,0,0,0,0,0,0,0,290,2.2,0,0,0,0,0,0,0,0,0,0,0,0,0
2009,3,27,5,0,,4.3,-9.4,36,101290,0,0,254,0,0,0,0,0,0,0,70,1.3,0,0,0,0,0,0,0,0,0,0,0,0,0
2009,3,27,6,0,,3.5,-10.5,35,101350,0,0,250,0,0,0,0,0,0,0,320,1.8,0,0,0,0,0,0,0,0,0,0,0,0,0
2009,3,27,7,0,,3.4,-11.3,33,101400,0,0,249,48,31,18,3799,2998,2600,0,360,2.6,0,0,0,0,0,0,0,0,0,0,0,0,0
2009,3,27,8,0,,4.4,-10.8,32,101470,0,0,262,204,667,46,45043,66356,6872,0,340,4.1,2,0,0,0,0,0,0,0,0,0,0,0,0
2009,3,27,9,0,,6.1,-10.2,30,101480,0,0,278,335,477,128,52827,48820,18011,0,340,3.2,6,0,0,0,0,0,0,0,0,0,0,0,0
2009,3,27,10,0,,7.2,-11,26,101480,0,0,280,523,609,156,71352,62483,21090,0,320,3.4,5,0,0,0,0,0,0,0,0,0,0,0,0
2009,3,27,11,0,,8.8,-10.1,25,101470,0,0,290,604,492,243,72246,50708,29511,0,290,3.7,6,0,0,0,0,0,0,0,0,0,0,0,0
2009,3,27,12,0,,10.6,-10.2,22,101420,0,0,292,746,648,218,81650,65593,27493,0,250,2.6,4,0,0,0,0,0,0,0,0,0,0,0,0
2009,3,27,13,0,,11.2,-6.6,28,101390,0,0,284,814,740,191,81246,74778,24847,0,90,3.3,0,0,0,0,0,0,0,0,0,0,0,0,0
2009,3,27,14,0,,11.6,-5.4,30,101320,0,0,287,778,727,187,69999,72066,24353,0,160,4.5,0,0,0,0,0,0,0,0,0,0,0,0,0
2009,3,27,15,0,,10.6,-5.4,32,101280,0,0,283,645,606,202,52097,58419,24559,0,110,3.3,0,0,0,0,0,0,0,0,0,0,0,0,0
2009,3,27,16,0,,10.4,-6,31,101280,0,0,293,495,531,176,32231,44282,19865,0,90,1.8,3,0,0,0,0,0,0,0,0,0,0,0,0
2009,3,27,17,0,,9.1,-6.3,33,101300,0,0,290,320,428,136,14678,12369,13810,0,90,2.3,4,0,0,0,0,0,0,0,0,0,0,0,0
2009,3,27,18,0,,8.6,-6,35,101340,0,0,283,186,560,55,0,0,0,0,110,2.8,2,0,0,0,0,0,0,0,0,0,0,0,0
2009,3,27,19,0,,7.6,-5.1,40,101380,0,0,277,44,25,19,0,0,0,0,140,2.5,1,0,0,0,0,0,0,0,0,0,0,0,0
2009,3,27,20,0,,7.6,-4.8,41,101390,0,0,275,0,0,0,0,0,0,0,90,1.1,1,0,0,0,0,0,0,0,0,0,0,0,0
2009,3,27,21,0,,7.7,-4.4,42,101390,0,0,272,0,0,0,0,0,0,0,70,1.2,0,0,0,0,0,0,0,0,0,0,0,0,0
2009,3,27,22,0,,7.4,-3.4,46,101380,0,0,274,0,0,0,0,0,0,0,20,2.9,0,0,0,0,0,0,0,0,0,0,0,0,0
2009,3,27,23,0,,6.9,-3.3,48,101360,0,0,273,0,0,0,0,0,0,0,20,3.2,1,0,0,0,0,0,0,0,0,0,0,0,0
2009,3,27,24,0,,6.8,-3.1,49,101360,0,0,275,0,0,0,0,0,0,0,20,3.1,1,0,0,0,0,0,0,0,0,0,0,0,0
2009,3,28,1,0,,6.5,-2.4,53,101360,0,0,281,0,0,0,0,0,0,0,320,2.5,3,0,0,0,0,0,0,0,0,0,0,0,0
2009,3,28,2,0,,6.2,-3.7,49,101330,0,0,283,0,0,0,0,0,0,0,340,2.1,5,0,0,0,0,0,0,0,0,0,0,0,0
2009,3,28,3,0,,5.5,-4.1,50,101330,0,0,285,0,0,0,0,0,0,0,340,3.8,7,0,0,0,0,0,0,0,0,0,0,0,0
2009,3,28,4,0,,5.3,-7.9,38,101290,0,0,281,0,0,0,0,0,0,0,340,6.1,7,0,0,0,0,0,0,0,0,0,0,0,0
2009,3,28,5,0,,5,-10.3,32,101250,0,0,281,0,0,0,0,0,0,0,340,6.8,8,0,0,0,0,0,0,0,0,0,0,0,0
2009,3,28,6,0,,4.7,-11,31,101240,0,0,279,0,0,0,0,0,0,0,340,4.2,8,0,0,0,0,0,0,0,0,0,0,0,0
2009,3,28,7,0,,4.8,-11.3,30,101270,0,0,286,26,6,20,2669,552,2445,0,110,2.9,9,0,0,0,0,0,0,0,0,0,0,0,0
2009,3,28,8,0,,5.1,-10.6,31,101310,0,0,282,143,262,79,26857,26542,11469,0,340,5.7,8,0,0,0,0,0,0,0,0,0,0,0,0
2009,3,28,9,0,,6.2,-11,28,101360,0,0,286,278,257,166,40327,26360,21417,0,340,4.6,8,0,0,0,0,0,0,0,0,0,0,0,0
2009,3,28,10,0,,7.6,-10.2,27,101360,0,0,285,478,459,199,63265,46606,25591,0,290,3.6,6,0,0,0,0,0,0,0,0,0,0,0,0
2009,3,28,11,0,,9.3,-11.3,22,101310,0,0,286,680,680,179,82416,69564,23535,0,270,3.3,4,0,0,0,0,0,0,0,0,0,0,0,0
2009,3,28,12,0,,12.2,-9.5,21,101220,0,0,299,769,693,202,84293,70463,25877,0,290,1.5,4,0,0,0,0,0,0,0,0,0,0,0,0
2009,3,28,13,0,,12.2,-8.9,22,101180,0,0,300,780,654,228,78045,65482,28450,0,110,3.3,4,0,0,0,0,0,0,0,0,0,0,0,0
2009,3,28,14,0,,11.5,-8.4,24,101150,0,0,295,755,664,213,68490,65373,26889,0,180,4.7,3,0,0,0,0,0,0,0,0,0,0,0,0
2009,3,28,15,0,,11.6,-7.2,26,101140,0,0,285,655,622,198,52620,60230,24058,0,180,3.8,0,0,0,0,0,0,0,0,0,0,0,0,0
2009,3,28,16,0,,11.6,-6.3,28,101170,0,0,286,538,655,143,32797,54608,17394,0,180,4.5,0,0,0,0,0,0,0,0,0,0,0,0,0
2009,3,28,17,0,,10,-4.7,35,101160,0,0,281,359,578,108,12779,20374,11292,0,90,2.2,0,0,0,0,0,0,0,0,0,0,0,0,0
2009,3,28,18,0,,9.2,-5.1,36,101200,0,0,283,190,572,55,0,0,0,0,90,2.4,1,0,0,0,0,0,0,0,0,0,0,0,0
2009,3,28,19,0,,8.4,-5.1,38,101260,0,0,283,44,24,20,0,0,0,0,110,2.5,2,0,0,0,0,0,0,0,0,0,0,0,0
2009,3,28,20,0,,8.2,-3,45,101310,0,0,287,0,0,0,0,0,0,0,70,1,3,0,0,0,0,0,0,0,0,0,0,0,0
2009,3,28,21,0,,8.2,-2.1,48,101340,0,0,290,0,0,0,0,0,0,0,70,1.3,4,0,0,0,0,0,0,0,0,0,0,0,0
2009,3,28,22,0,,8.1,-1.7,50,101360,0,0,291,0,0,0,0,0,0,0,50,1.2,4,0,0,0,0,0,0,0,0,0,0,0,0
2009,3,28,23,0,,7.4,-2,51,101370,0,0,288,0,0,0,0,0,0,0,360,2.3,5,0,0,0,0,0,0,0,0,0,0,0,0
2009,3,28,24,0,,7.1,-2.1,52,101390,0,0,288,0,0,0,0,0,0,0,20,2.7,5,0,0,0,0,0,0,0,0,0,0,0,0
2009,3,29,1,0,,7.3,-2.4,50,101370,0,0,290,0,0,0,0,0,0,0,20,2.6,6,0,0,0,0,0,0,0,0,0,0,0,0
2009,3,29,2,0,,7.1,-2.3,51,101360,0,0,291,0,0,0,0,0,0,0,20,2.8,6,0,0,0,0,0,0,0,0,0,0,0,0
2009,3,29,3,0,,7.1,-2.1,52,101330,0,0,294,0,0,0,0,0,0,0,20,4,7,0,0,0,0,0,0,0,0,0,0,0,0
2009,3,29,4,0,,6.9,-1.7,54,101290,0,0,293,0,0,0,0,0,0,0,20,3.9,7,0,0,0,0,0,0,0,0,0,0,0,0
2009,3,29,5,0,,7,-0.9,57,101290,0,0,295,0,0,0,0,0,0,0,20,4.2,7,0,0,0,0,0,0,0,0,0,0,0,0
2009,3,29,6,0,,7,0,61,101340,0,0,296,0,0,0,0,0,0,0,20,4.4,7,0,0,0,0,0,0,0,0,0,0,0,0
2009,3,29,7,0,,7,0,61,101380,0,0,296,36,14,22,3473,1359,2916,0,360,3.8,7,0,0,0,0,0,0,0,0,0,0,0,0
2009,3,29,8,0,,7.9,0.1,58,101420,0,0,296,163,327,83,32047,33019,12756,0,20,4.1,6,0,0,0,0,0,0,0,0,0,0,0,0
2009,3,29,9,0,,9.1,0.7,56,101450,0,0,302,308,345,155,45843,34811,20723,0,20,4,6,0,0,0,0,0,0,0,0,0,0,0,0
2009,3,29,10,0,,10.3,1.3,54,101500,0,0,316,376,189,261,46251,19587,30342,0,20,4.6,8,0,0,0,0,0,0,0,0,0,0,0,0
2009,3,29,11,0,,11.5,1.9,52,101500,0,0,322,455,165,333,52328,16849,38005,0,50,3.7,8,0,0,0,0,0,0,0,0,0,0,0,0
2009,3,29,12,0,,11.1,2.3,55,101510,0,0,328,418,91,343,46456,9002,38962,0,20,4,9,0,0,0,0,0,0,0,0,0,0,0,0
2009,3,29,13,0,,9.3,2.3,62,101530,0,0,313,435,91,358,47356,9080,40450,0,20,4.1,8,0,0,0,0,0,0,0,0,0,0,0,0
2009,3,29,14,0,,9.8,2.1,59,101490,0,0,331,276,29,251,30419,2879,28578,0,20,4.4,10,0,0,0,0,0,0,0,0,0,0,0,0
2009,3,29,15,0,,9.5,2.1,60,101500,0,0,329,231,26,212,24848,2087,23852,0,50,3.8,10,0,0,0,0,0,0,0,0,0,0,0,0
2009,3,29,16,0,,9.2,2.2,62,101510,0,0,328,204,35,182,20302,2652,19547,0,50,3.1,10,0,0,0,0,0,0,0,0,0,0,0,0
2009,3,29,17,0,,8.4,2.1,65,101570,0,0,324,123,25,112,11098,1444,10989,0,50,2.7,10,0,0,0,0,0,0,0,0,0,0,0,0
2009,3,29,18,0,,7.7,1.7,66,101640,0,0,320,68,32,60,0,0,0,0,50,4.3,10,0,0,0,0,0,0,0,0,0,0,0,0
2009,3,29,19,0,,7,1.2,67,101690,0,0,314,12,1,12,0,0,0,0,20,4.1,10,0,0,0,0,0,0,0,0,0,0,0,0
2009,3,29,20,0,,6.4,1.5,71,101740,0,0,308,0,0,0,0,0,0,0,20,4.2,9,0,0,0,0,0,0,0,0,0,0,0,0
2009,3,29,21,0,,6.2,0.9,69,101830,0,0,304,0,0,0,0,0,0,0,20,4,9,0,0,0,0,0,0,0,0,0,0,0,0
2009,3,29,22,0,,6.4,0.7,67,101820,0,0,303,0,0,0,0,0,0,0,20,4.2,9,0,0,0,0,0,0,0,0,0,0,0,0
2009,3,29,23,0,,6.2,0.5,67,101820,0,0,299,0,0,0,0,0,0,0,20,4.6,8,0,0,0,0,0,0,0,0,0,0,0,0
2009,3,29,24,0,,6.7,0.3,64,101840,0,0,299,0,0,0,0,0,0,0,20,4.6,8,0,0,0,0,0,0,0,0,0,0,0,0
2009,3,30,1,0,,6.8,0.4,64,101820,0,0,302,0,0,0,0,0,0,0,20,3.7,8,0,0,0,0,0,0,0,0,0,0,0,0
2009,3,30,2,0,,6.7,0.3,64,101810,0,0,303,0,0,0,0,0,0,0,20,4,9,0,0,0,0,0,0,0,0,0,0,0,0
2009,3,30,3,0,,6.6,0.4,65,101780,0,0,305,0,0,0,0,0,0,0,20,4.6,9,0,0,0,0,0,0,0,0,0,0,0,0
2009,3,30,4,0,,6.5,0,63,101770,0,0,305,0,0,0,0,0,0,0,20,3.5,9,0,0,0,0,0,0,0,0,0,0,0,0
2009,3,30,5,0,,6.2,-0.3,63,101780,0,0,303,0,0,0,0,0,0,0,20,3.7,9,0,0,0,0,0,0,0,0,0,0,0,0
2009,3,30,6,0,,5.8,-0.2,65,101810,0,0,290,0,0,0,0,0,0,0,20,4.1,7,0,0,0,0,0,0,0,0,0,0,0,0
2009,3,30,7,0,,5.9,-0.6,63,101830,0,0,282,48,25,24,4124,2408,3127,0,20,4.4,4,0,0,0,0,0,0,0,0,0,0,0,0
2009,3,30,8,0,,7.5,-0.2,58,101860,0,0,287,204,581,58,42808,58266,8509,0,20,4.2,3,0,0,0,0,0,0,0,0,0,0,0,0
2009,3,30,9,0,,9,0.1,54,101910,0,0,294,379,606,107,59496,61824,14626,0,50,2.3,3,0,0,0,0,0,0,0,0,0,0,0,0
2009,3,30,10,0,,11.4,0.7,48,101930,0,0,307,541,627,155,73532,63941,21348,0,70,2.6,4,0,0,0,0,0,0,0,0,0,0,0,0
2009,3,30,11,0,,10.5,0.7,51,101880,0,0,311,490,199,341,56259,20461,38793,0,50,2.1,7,0,0,0,0,0,0,0,0,0,0,0,0
2009,3,30,12,0,,11,0.9,50,101840,0,0,319,487,137,374,53925,13962,42258,0,90,2.7,8,0,0,0,0,0,0,0,0,0,0,0,0
2009,3,30,13,0,,10.9,1.4,52,101780,0,0,319,448,98,365,48642,9724,41218,0,90,2.6,8,0,0,0,0,0,0,0,0,0,0,0,0
2009,3,30,14,0,,11.9,1.2,48,101720,0,0,312,619,277,391,61280,27581,43568,0,90,1.9,5,0,0,0,0,0,0,0,0,0,0,0,0
2009,3,30,15,0,,10.7,1.2,52,101650,0,0,318,384,103,308,39165,10085,34326,0,90,1.9,8,0,0,0,0,0,0,0,0,0,0,0,0
2009,3,30,16,0,,10.7,1.2,52,101610,0,0,313,360,170,257,32757,15499,28300,0,90,2.2,7,0,0,0,0,0,0,0,0,0,0,0,0
2009,3,30,17,0,,10,1.8,57,101600,0,0,315,210,111,161,17895,7779,17283,0,90,1.8,8,0,0,0,0,0,0,0,0,0,0,0,0
2009,3,30,18,0,,9.6,1.4,57,101620,0,0,313,113,129,82,0,0,0,0,90,2.1,8,0,0,0,0,0,0,0,0,0,0,0,0
2009,3,30,19,0,,9.1,1.7,60,101610,0,0,313,25,5,20,0,0,0,0,70,1.4,8,0,0,0,0,0,0,0,0,0,0,0,0
2009,3,30,20,0,,8.8,1.9,62,101650,0,0,314,0,0,0,0,0,0,0,70,1.1,9,0,0,0,0,0,0,0,0,0,0,0,0
2009,3,30,21,0,,8.7,1.8,62,101670,0,0,316,0,0,0,0,0,0,0,50,1.6,9,0,0,0,0,0,0,0,0,0,0,0,0
2009,3,30,22,0,,8.5,1.6,62,101650,0,0,315,0,0,0,0,0,0,0,20,2.2,9,0,0,0,0,0,0,0,0,0,0,0,0
2009,3,30,23,0,,8.6,1.4,61,101610,0,0,315,0,0,0,0,0,0,0,20,2.1,9,0,0,0,0,0,0,0,0,0,0,0,0
2009,3,30,24,0,,8.5,1.8,63,101590,0,0,315,0,0,0,0,0,0,0,20,1.5,9,0,0,0,0,0,0,0,0,0,0,0,0
2009,3,31,1,0,,8.5,1.6,62,101560,0,0,315,0,0,0,0,0,0,0,20,1,9,0,0,0,0,0,0,0,0,0,0,0,0
2009,3,31,2,0,,8.4,1.9,64,101530,0,0,315,0,0,0,0,0,0,0,360,1.1,9,0,0,0,0,0,0,0,0,0,0,0,0
2009,3,31,3,0,,8.4,1.9,64,101520,0,0,315,0,0,0,0,0,0,0,0,0.3,9,0,0,0,0,0,0,0,0,0,0,0,0
2009,3,31,4,0,,7.9,2.5,69,101460,0,0,322,0,0,0,0,0,0,0,290,1.3,10,0,0,0,0,0,0,0,0,0,0,0,0
2009,3,31,5,0,,7.8,2.4,69,101400,0,0,313,0,0,0,0,0,0,0,250,0.5,9,0,0,0,0,0,0,0,0,0,0,0,0
2009,3,31,6,0,,7.6,2.8,72,101360,0,0,322,0,0,0,0,0,0,0,290,1.3,10,0,0,0,0,0,0,0,0,0,0,0,0
2009,3,31,7,0,,7.6,2.8,72,101370,0,0,301,35,11,24,3306,1031,2874,0,250,1.9,7,0,0,0,0,0,0,0,0,0,0,0,0
2009,3,31,8,0,,9.2,2.9,65,101430,0,0,308,158,296,82,30424,29867,12712,0,250,4,7,0,0,0,0,0,0,0,0,0,0,0,0
2009,3,31,9,0,,10.9,2.4,56,101420,0,0,291,406,695,91,64157,70533,12677,0,250,3.3,0,0,0,0,0,0,0,0,0,0,0,0,0
2009,3,31,10,0,,12.5,2.6,51,101390,0,0,308,578,721,130,77459,73745,16993,0,200,3.4,2,0,0,0,0,0,0,0,0,0,0,0,0
2009,3,31,11,0,,13.6,4.4,54,101350,0,0,318,659,594,214,78931,59845,27637,0,160,3.5,3,0,0,0,0,0,0,0,0,0,0,0,0
2009,3,31,12,0,,14.5,3.6,48,101290,0,0,322,755,632,231,82405,63312,29291,0,180,6.2,3,0,0,0,0,0,0,0,0,0,0,0,0
2009,3,31,13,0,,14,4.2,52,101210,0,0,325,668,301,411,69060,30476,45698,0,180,5.9,5,0,0,0,0,0,0,0,0,0,0,0,0
2009,3,31,14,0,,13.5,5.1,57,101130,0,0,327,573,216,395,57938,21169,44283,0,180,6.1,6,0,0,0,0,0,0,0,0,0,0,0,0
2009,3,31,15,0,,13.4,4.5,55,101040,0,0,315,619,508,242,51646,48605,28190,0,180,6.4,2,0,0,0,0,0,0,0,0,0,0,0,0
2009,3,31,16,0,,14,4.2,52,101020,0,0,317,526,593,163,34038,48378,19993,0,200,6.4,2,0,0,0,0,0,0,0,0,0,0,0,0
2009,3,31,17,0,,13.1,4.2,55,100990,0,0,309,373,607,105,13398,22280,11585,0,230,5,1,0,0,0,0,0,0,0,0,0,0,0,0
2009,3,31,18,0,,12.4,4.5,59,101010,0,0,318,171,392,75,0,0,0,0,230,5.6,5,0,0,0,0,0,0,0,0,0,0,0,0
2009,3,31,19,0,,12.1,4.5,60,101030,0,0,316,41,22,19,0,0,0,0,230,3.6,5,0,0,0,0,0,0,0,0,0,0,0,0
2009,3,31,20,0,,11.4,-0.1,45,101060,0,0,307,0,0,0,0,0,0,0,340,2.8,4,0,0,0,0,0,0,0,0,0,0,0,0
2009,3,31,21,0,,10.5,4.8,68,101100,0,0,308,0,0,0,0,0,0,0,20,3.3,4,0,0,0,0,0,0,0,0,0,0,0,0
2009,3,31,22,0,,10,4.7,70,101140,0,0,309,0,0,0,0,0,0,0,20,2,5,0,0,0,0,0,0,0,0,0,0,0,0
2009,3,31,23,0,,9.8,-2.8,41,101140,0,0,304,0,0,0,0,0,0,0,340,2.6,7,0,0,0,0,0,0,0,0,0,0,0,0
2009,3,31,24,0,,8.8,-3.4,42,101140,0,0,305,0,0,0,0,0,0,0,320,3.2,8,0,0,0,0,0,0,0,0,0,0,0,0
2018,4,1,1,0,,13.7,3.1,49,100990,0,0,313,0,0,0,0,0,0,0,250,3.7,2,0,0,0,0,0,0,0,0,0,0,0,0
2018,4,1,2,0,,13.9,3.9,51,100970,0,0,320,0,0,0,0,0,0,0,270,5.3,3,0,0,0,0,0,0,0,0,0,0,0,0
2018,4,1,3,0,,13.7,4.2,53,100950,0,0,324,0,0,0,0,0,0,0,270,4.3,5,0,0,0,0,0,0,0,0,0,0,0,0
2018,4,1,4,0,,13.5,4.3,54,100910,0,0,329,0,0,0,0,0,0,0,270,4,7,0,0,0,0,0,0,0,0,0,0,0,0
2018,4,1,5,0,,13.5,3.8,52,100910,0,0,329,0,0,0,0,0,0,0,270,3,7,0,0,0,0,0,0,0,0,0,0,0,0
2018,4,1,6,0,,13.7,4.2,53,100910,0,0,336,0,0,0,0,0,0,0,270,4.2,8,0,0,0,0,0,0,0,0,0,0,0,0
2018,4,1,7,0,,14,4,51,100950,0,0,331,42,19,23,3890,1809,3125,0,270,4.3,7,0,0,0,0,0,0,0,0,0,0,0,0
2018,4,1,8,0,,15.5,3.9,46,101010,0,0,335,189,432,76,38111,43730,12022,0,270,3.9,6,0,0,0,0,0,0,0,0,0,0,0,0
2018,4,1,9,0,,17.5,5,44,101040,0,0,340,397,643,103,62444,65946,14093,0,270,3.9,4,0,0,0,0,0,0,0,0,0,0,0,0
2018,4,1,10,0,,18.7,6.5,45,101070,0,0,345,580,715,133,77658,73239,17382,0,250,4.7,3,0,0,0,0,0,0,0,0,0,0,0,0
2018,4,1,11,0,,19.3,8.3,49,101050,0,0,353,657,580,221,78396,57926,28582,0,250,5.4,4,0,0,0,0,0,0,0,0,0,0,0,0
2018,4,1,12,0,,19,8.3,50,100990,0,0,354,645,300,395,70189,29698,45197,0,200,4.8,5,0,0,0,0,0,0,0,0,0,0,0,0
2018,4,1,13,0,,17.6,13.3,76,100980,0,0,360,480,115,382,52018,10911,43627,0,200,4.3,7,0,0,0,0,0,0,0,0,0,0,0,0
2018,4,1,14,0,,18.6,13.2,71,100890,0,0,371,412,85,342,44151,8078,38922,0,230,4.8,8,0,0,0,0,0,0,0,0,0,0,0,0
2018,4,1,15,0,,17.1,13.9,82,100860,0,0,372,300,51,262,32126,4711,29842,0,230,6.5,9,0,0,0,0,0,0,0,0,0,0,0,0
2018,4,1,16,0,,18.1,13.7,76,100810,0,0,369,323,121,249,30941,10457,27882,0,230,5.8,8,0,0,0,0,0,0,0,0,0,0,0,0
2018,4,1,17,0,,17.8,13.7,77,100780,0,0,375,181,71,150,16758,4571,16376,0,250,5.1,9,0,0,0,0,0,0,0,0,0,0,0,0
2018,4,1,18,0,,17,13.3,79,100780,0,0,357,139,228,83,0,0,0,0,250,6,7,0,0,0,0,0,0,0,0,0,0,0,0
2018,4,1,19,0,,16.8,12.9,78,100820,0,0,354,32,10,22,0,0,0,0,250,6.1,7,0,0,0,0,0,0,0,0,0,0,0,0
2018,4,1,20,0,,16.5,13.2,81,100860,0,0,352,0,0,0,0,0,0,0,270,5.4,6,0,0,0,0,0,0,0,0,0,0,0,0
2018,4,1,21,0,,16.6,12.9,79,100900,0,0,351,0,0,0,0,0,0,0,270,4.7,6,0,0,0,0,0,0,0,0,0,0,0,0
2018,4,1,22,0,,16.5,12.6,78,100940,0,0,344,0,0,0,0,0,0,0,270,4.5,4,0,0,0,0,0,0,0,0,0,0,0,0
2018,4,1,23,0,,16.1,12,77,100900,0,0,336,0,0,0,0,0,0,0,270,5.8,2,0,0,0,0,0,0,0,0,0,0,0,0
2018,4,1,24,0,,16.1,11.2,73,100870,0,0,324,0,0,0,0,0,0,0,270,4.4,0,0,0,0,0,0,0,0,0,0,0,0,0
2018,4,2,1,0,,16.1,10.1,68,100880,0,0,323,0,0,0,0,0,0,0,270,4.8,0,0,0,0,0,0,0,0,0,0,0,0,0
2018,4,2,2,0,,16,11.1,73,100850,0,0,323,0,0,0,0,0,0,0,270,5,0,0,0,0,0,0,0,0,0,0,0,0,0
2018,4,2,3,0,,15.9,11,73,100830,0,0,323,0,0,0,0,0,0,0,270,4.8,0,0,0,0,0,0,0,0,0,0,0,0,0
2018,4,2,4,0,,15.6,11.7,78,100790,0,0,322,0,0,0,0,0,0,0,270,5.3,0,0,0,0,0,0,0,0,0,0,0,0,0
2018,4,2,5,0,,15.5,12.2,81,100810,0,0,322,0,0,0,0,0,0,0,270,5,0,0,0,0,0,0,0,0,0,0,0,0,0
2018,4,2,6,0,,15.3,12.7,85,100830,0,0,322,0,0,0,0,0,0,0,270,4.3,0,0,0,0,0,0,0,0,0,0,0,0,0
2018,4,2,7,0,,15.8,13,84,100890,0,0,325,56,32,24,4886,2794,3692,0,270,3.5,0,0,0,0,0,0,0,0,0,0,0,0,0
2018,4,2,8,0,,17.3,13.2,77,100890,0,0,332,213,562,64,44333,57900,9541,0,270,3.6,0,0,0,0,0,0,0,0,0,0,0,0,0
2018,4,2,9,0,,19,13.3,70,100930,0,0,340,400,640,105,63220,66066,14516,0,250,4,0,0,0,0,0,0,0,0,0,0,0,0,0
2018,4,2,10,0,,19.8,13.7,68,100980,0,0,355,558,640,156,75202,64101,22209,0,230,4,2,0,0,0,0,0,0,0,0,0,0,0,0
2018,4,2,11,0,,20,13.6,67,100990,0,0,351,646,540,237,76867,53302,30848,0,230,2.6,1,0,0,0,0,0,0,0,0,0,0,0,0
2018,4,2,12,0,,19.1,14.9,77,100940,0,0,353,668,329,392,72996,30789,46989,0,200,5.5,2,0,0,0,0,0,0,0,0,0,0,0,0
2018,4,2,13,0,,20,14.5,71,100880,0,0,346,709,447,324,73152,41969,40754,0,200,5.2,0,0,0,0,0,0,0,0,0,0,0,0,0
2018,4,2,14,0,,21,14.3,66,100820,0,0,350,724,551,266,67595,51258,34272,0,230,6,0,0,0,0,0,0,0,0,0,0,0,0,0
2018,4,2,15,0,,21,13.9,64,100770,0,0,350,665,612,207,54028,54966,27231,0,230,6.2,0,0,0,0,0,0,0,0,0,0,0,0,0
2018,4,2,16,0,,20.5,14.1,67,100750,0,0,348,520,560,174,35106,43069,22390,0,230,5.8,0,0,0,0,0,0,0,0,0,0,0,0,0
2018,4,2,17,0,,19.6,14.1,71,100750,0,0,343,356,521,124,15603,17046,14130,0,230,6.6,0,0,0,0,0,0,0,0,0,0,0,0,0
2018,4,2,18,0,,18.6,13.8,74,100740,0,0,338,190,495,66,0,0,0,0,230,7.4,0,0,0,0,0,0,0,0,0,0,0,0,0
2018,4,2,19,0,,17.8,14.1,79,100780,0,0,335,46,22,24,0,0,0,0,230,4.6,0,0,0,0,0,0,0,0,0,0,0,0,0
2018,4,2,20,0,,17.7,13.8,78,100820,0,0,334,0,0,0,0,0,0,0,250,4.4,0,0,0,0,0,0,0,0,0,0,0,0,0
2018,4,2,21,0,,17.4,14,81,100880,0,0,333,0,0,0,0,0,0,0,250,4.9,0,0,0,0,0,0,0,0,0,0,0,0,0
2018,4,2,22,0,,17,13.8,82,100920,0,0,337,0,0,0,0,0,0,0,270,4.2,1,0,0,0,0,0,0,0,0,0,0,0,0
2018,4,2,23,0,,16.8,14.2,85,100920,0,0,341,0,0,0,0,0,0,0,270,4.7,2,0,0,0,0,0,0,0,0,0,0,0,0
2018,4,2,24,0,,16.5,14.3,87,100950,0,0,344,0,0,0,0,0,0,0,270,4.6,3,0,0,0,0,0,0,0,0,0,0,0,0
2018,4,3,1,0,,16.5,14.4,88,100930,0,0,344,0,0,0,0,0,0,0,270,5.2,3,0,0,0,0,0,0,0,0,0,0,0,0
2018,4,3,2,0,,16.5,14.3,87,100900,0,0,344,0,0,0,0,0,0,0,290,4.9,3,0,0,0,0,0,0,0,0,0,0,0,0
2018,4,3,3,0,,16.3,14.1,87,100870,0,0,342,0,0,0,0,0,0,0,270,4.7,3,0,0,0,0,0,0,0,0,0,0,0,0
2018,4,3,4,0,,16.1,13.9,87,100870,0,0,327,0,0,0,0,0,0,0,270,5.5,0,0,0,0,0,0,0,0,0,0,0,0,0
2018,4,3,5,0,,15.7,13.7,88,100870,0,0,325,0,0,0,0,0,0,0,270,4.8,0,0,0,0,0,0,0,0,0,0,0,0,0
2018,4,3,6,0,,15.7,13.7,88,100920,0,0,325,0,0,0,0,0,0,0,270,5.8,0,0,0,0,0,0,0,0,0,0,0,0,0
2018,4,3,7,0,,15.9,14,89,100990,0,0,333,58,34,24,5012,2996,3719,0,270,5.7,1,0,0,0,0,0,0,0,0,0,0,0,0
2018,4,3,8,0,,17.8,14.1,79,101030,0,0,335,218,568,64,45127,58653,9633,0,270,3.3,0,0,0,0,0,0,0,0,0,0,0,0,0
2018,4,3,9,0,,19,14.4,75,101060,0,0,347,395,603,113,61761,62271,15609,0,200,3.2,1,0,0,0,0,0,0,0,0,0,0,0,0
2018,4,3,10,0,,20,14.7,72,101090,0,0,353,557,623,162,74712,62267,23007,0,200,3.9,1,0,0,0,0,0,0,0,0,0,0,0,0
2018,4,3,11,0,,20.1,15.1,73,101050,0,0,353,663,575,226,79083,56696,29942,0,200,6.3,1,0,0,0,0,0,0,0,0,0,0,0,0
2018,4,3,12,0,,20,14.7,72,101000,0,0,353,712,503,289,77658,47558,37338,0,230,5.9,1,0,0,0,0,0,0,0,0,0,0,0,0
2018,4,3,13,0,,19.4,14.4,73,100950,0,0,349,731,490,307,74736,46176,38958,0,230,8,1,0,0,0,0,0,0,0,0,0,0,0,0
2018,4,3,14,0,,21,15,69,100900,0,0,358,720,534,274,67627,49431,35356,0,230,6,1,0,0,0,0,0,0,0,0,0,0,0,0
2018,4,3,15,0,,20.5,15,71,100880,0,0,355,635,527,239,53862,46825,30909,0,200,6.6,1,0,0,0,0,0,0,0,0,0,0,0,0
2018,4,3,16,0,,20.3,14.6,70,100880,0,0,354,531,585,168,35268,45036,21850,0,230,6.1,1,0,0,0,0,0,0,0,0,0,0,0,0
2018,4,3,17,0,,19.7,14.2,71,100860,0,0,344,359,521,124,15858,17532,14294,0,230,6.9,0,0,0,0,0,0,0,0,0,0,0,0,0
2018,4,3,18,0,,19.1,14.3,74,100840,0,0,348,196,528,64,0,0,0,0,250,7.2,1,0,0,0,0,0,0,0,0,0,0,0,0
2018,4,3,19,0,,18.1,14.1,78,100860,0,0,351,49,25,23,0,0,0,0,230,7.8,3,0,0,0,0,0,0,0,0,0,0,0,0
2018,4,3,20,0,,18.1,14.1,78,100910,0,0,356,0,0,0,0,0,0,0,250,4.5,5,0,0,0,0,0,0,0,0,0,0,0,0
2018,4,3,21,0,,17.9,14,78,100970,0,0,363,0,0,0,0,0,0,0,250,4.2,7,0,0,0,0,0,0,0,0,0,0,0,0
2018,4,3,22,0,,17.7,13.8,78,100950,0,0,363,0,0,0,0,0,0,0,250,4.6,7,0,0,0,0,0,0,0,0,0,0,0,0
2018,4,3,23,0,,16.3,13.7,85,100940,0,0,358,0,0,0,0,0,0,0,250,2.2,8,0,0,0,0,0,0,0,0,0,0,0,0
2018,4,3,24,0,,17.3,13.6,79,100940,0,0,365,0,0,0,0,0,0,0,250,4,8,0,0,0,0,0,0,0,0,0,0,0,0
2018,4,4,1,0,,17.5,13.8,79,100900,0,0,371,0,0,0,0,0,0,0,270,2.7,9,0,0,0,0,0,0,0,0,0,0,0,0
2018,4,4,2,0,,17.5,14,80,100940,0,0,377,0,0,0,0,0,0,0,230,1.7,9,0,0,0,0,0,0,0,0,0,0,0,0
2018,4,4,3,0,,15.6,12.5,82,100920,0,0,373,0,0,0,0,0,0,0,50,2.9,10,0,0,0,0,0,0,0,0,0,0,0,0
2018,4,4,4,0,,14.1,11.4,84,100860,0,0,364,0,0,0,0,0,0,0,70,2.3,10,0,0,0,0,0,0,0,0,0,0,0,0
2018,4,4,5,0,,13.2,10.7,85,100840,0,0,359,0,0,0,0,0,0,0,90,2.1,10,0,0,0,0,0,0,0,0,0,0,0,0
2018,4,4,6,0,,12.5,9.8,84,100870,0,0,354,0,0,0,0,0,0,0,90,2.7,10,0,0,0,0,0,0,0,0,0,0,0,0
2018,4,4,7,0,,12.4,9.4,82,100910,0,0,353,15,1,14,1930,32,1917,0,90,2.9,10,0,0,0,0,0,0,0,0,0,0,0,0
2018,4,4,8,0,,12.6,9,79,100930,0,0,353,76,28,68,9716,2587,8140,0,110,3,10,0,0,0,0,0,0,0,0,0,0,0,0
2018,4,4,9,0,,12.8,8.8,77,100980,0,0,354,139,28,126,16759,2623,14804,0,90,2.6,10,0,0,0,0,0,0,0,0,0,0,0,0
2018,4,4,10,0,,13.4,9.2,76,101030,0,0,357,198,27,180,23219,2582,21066,0,70,1.6,10,0,0,0,0,0,0,0,0,0,0,0,0
2018,4,4,11,0,,12.5,8.9,79,101070,0,0,353,235,24,217,27161,2271,25185,0,90,3.2,10,0,0,0,0,0,0,0,0,0,0,0,0
2018,4,4,12,0,,11.5,9.9,90,101060,0,0,349,214,13,203,25596,919,24814,0,70,2.3,10,0,0,0,0,0,0,0,0,0,0,0,0
2018,4,4,13,0,,10.6,9.1,91,101090,0,0,344,188,8,181,22459,569,22017,0,70,2.6,10,0,0,0,0,0,0,0,0,0,0,0,0
2018,4,4,14,0,,10.1,8.6,91,101110,0,0,341,197,11,188,22740,768,22237,0,70,4,10,0,0,0,0,0,0,0,0,0,0,0,0
2018,4,4,15,0,,9.7,7.9,89,101120,0,0,338,189,14,179,20927,998,20435,0,50,5.2,10,0,0,0,0,0,0,0,0,0,0,0,0
2018,4,4,16,0,,9.6,7.8,89,101150,0,0,338,167,19,156,17323,1230,16953,0,50,5,10,0,0,0,0,0,0,0,0,0,0,0,0
2018,4,4,17,0,,9,7.4,90,101190,0,0,334,119,20,109,10995,969,10906,0,50,4.9,10,0,0,0,0,0,0,0,0,0,0,0,0
2018,4,4,18,0,,8.8,7.2,90,101240,0,0,333,68,26,62,0,0,0,0,50,4.8,10,0,0,0,0,0,0,0,0,0,0,0,0
2018,4,4,19,0,,8.7,7.1,90,101300,0,0,332,14,1,13,0,0,0,0,50,4.8,10,0,0,0,0,0,0,0,0,0,0,0,0
2018,4,4,20,0,,8.6,7,90,101270,0,0,332,0,0,0,0,0,0,0,70,4.3,10,0,0,0,0,0,0,0,0,0,0,0,0
2018,4,4,21,0,,8.8,6.7,87,101340,0,0,332,0,0,0,0,0,0,0,50,4.7,10,0,0,0,0,0,0,0,0,0,0,0,0
2018,4,4,22,0,,9,6.6,85,101360,0,0,333,0,0,0,0,0,0,0,50,4.6,10,0,0,0,0,0,0,0,0,0,0,0,0
2018,4,4,23,0,,8.7,6.8,88,101400,0,0,332,0,0,0,0,0,0,0,50,3.3,10,0,0,0,0,0,0,0,0,0,0,0,0
2018,4,4,24,0,,8.8,6.4,85,101400,0,0,332,0,0,0,0,0,0,0,50,4.1,10,0,0,0,0,0,0,0,0,0,0,0,0
2018,4,5,1,0,,8.8,6,83,101380,0,0,331,0,0,0,0,0,0,0,50,3.6,10,0,0,0,0,0,0,0,0,0,0,0,0
2018,4,5,2,0,,9,5.9,81,101370,0,0,332,0,0,0,0,0,0,0,50,4.3,10,0,0,0,0,0,0,0,0,0,0,0,0
2018,4,5,3,0,,9.1,6.1,82,101290,0,0,333,0,0,0,0,0,0,0,50,4.1,10,0,0,0,0,0,0,0,0,0,0,0,0
2018,4,5,4,0,,9.3,6,80,101260,0,0,334,0,0,0,0,0,0,0,50,3.9,10,0,0,0,0,0,0,0,0,0,0,0,0
2018,4,5,5,0,,9.4,5.5,77,101260,0,0,333,0,0,0,0,0,0,0,50,4.2,10,0,0,0,0,0,0,0,0,0,0,0,0
2018,4,5,6,0,,9.5,5.6,77,101260,0,0,334,0,0,0,0,0,0,0,50,4.6,10,0,0,0,0,0,0,0,0,0,0,0,0
2018,4,5,7,0,,9.6,5.5,76,101270,0,0,334,20,2,18,2467,73,2435,0,50,4.7,10,0,0,0,0,0,0,0,0,0,0,0,0
2018,4,5,8,0,,9.5,6,79,101300,0,0,335,81,32,72,11139,3215,9166,0,50,4.1,10,0,0,0,0,0,0,0,0,0,0,0,0
2018,4,5,9,0,,9.9,6,77,101250,0,0,336,156,37,138,18837,3566,16167,0,50,4,10,0,0,0,0,0,0,0,0,0,0,0,0
2018,4,5,10,0,,10.3,6,75,101230,0,0,338,211,32,190,24691,3072,22119,0,50,3.3,10,0,0,0,0,0,0,0,0,0,0,0,0
2018,4,5,11,0,,10.8,5.3,69,101170,0,0,340,272,35,245,31287,3428,28294,0,70,4,10,0,0,0,0,0,0,0,0,0,0,0,0
2018,4,5,12,0,,11.5,4.4,62,101070,0,0,342,334,45,296,37630,4369,33900,0,50,5,10,0,0,0,0,0,0,0,0,0,0,0,0
2018,4,5,13,0,,11,5.9,71,101030,0,0,341,296,29,271,33242,2840,31026,0,50,3.8,10,0,0,0,0,0,0,0,0,0,0,0,0
2018,4,5,14,0,,11.4,5.4,67,100860,0,0,343,301,34,272,33167,3349,30963,0,50,3.8,10,0,0,0,0,0,0,0,0,0,0,0,0
2018,4,5,15,0,,11.6,5.2,65,100870,0,0,343,243,27,222,26085,2208,24991,0,50,2.2,10,0,0,0,0,0,0,0,0,0,0,0,0
2018,4,5,16,0,,11.8,4.9,63,100760,0,0,344,208,34,187,20850,2561,20073,0,70,2.7,10,0,0,0,0,0,0,0,0,0,0,0,0
2018,4,5,17,0,,11.4,5.2,66,100690,0,0,342,145,35,129,12914,2242,12701,0,90,2.4,10,0,0,0,0,0,0,0,0,0,0,0,0
2018,4,5,18,0,,11,5.7,70,100620,0,0,341,72,30,64,0,0,0,0,70,1.9,10,0,0,0,0,0,0,0,0,0,0,0,0
2018,4,5,19,0,,10.8,6.7,76,100590,0,0,342,13,1,12,0,0,0,0,90,2.3,10,0,0,0,0,0,0,0,0,0,0,0,0
2018,4,5,20,0,,10.8,7.2,79,100590,0,0,342,0,0,0,0,0,0,0,70,1.1,10,0,0,0,0,0,0,0,0,0,0,0,0
2018,4,5,21,0,,10.8,7.2,79,100540,0,0,342,0,0,0,0,0,0,0,50,1.9,10,0,0,0,0,0,0,0,0,0,0,0,0
2018,4,5,22,0,,10.8,7.6,81,100480,0,0,343,0,0,0,0,0,0,0,50,2.4,10,0,0,0,0,0,0,0,0,0,0,0,0
2018,4,5,23,0,,10.8,8,83,100390,0,0,343,0,0,0,0,0,0,0,50,2.3,10,0,0,0,0,0,0,0,0,0,0,0,0
2018,4,5,24,0,,10.6,9.1,91,100300,0,0,344,0,0,0,0,0,0,0,50,2.2,10,0,0,0,0,0,0,0,0,0,0,0,0
2018,4,6,1,0,,10.6,9.5,93,100200,0,0,345,0,0,0,0,0,0,0,50,1.7,10,0,0,0,0,0,0,0,0,0,0,0,0
2018,4,6,2,0,,10.6,9.6,94,100060,0,0,345,0,0,0,0,0,0,0,70,2,10,0,0,0,0,0,0,0,0,0,0,0,0
2018,4,6,3,0,,10.5,9.7,95,99920,0,0,344,0,0,0,0,0,0,0,50,2.1,10,0,0,0,0,0,0,0,0,0,0,0,0
2018,4,6,4,0,,10.4,9.6,95,99810,0,0,344,0,0,0,0,0,0,0,50,2.3,10,0,0,0,0,0,0,0,0,0,0,0,0
2018,4,6,5,0,,9.2,8.5,96,99760,0,0,337,0,0,0,0,0,0,0,340,6.1,10,0,0,0,0,0,0,0,0,0,0,0,0
2018,4,6,6,0,,9.8,9.1,96,99760,0,0,340,0,0,0,0,0,0,0,110,1.3,10,0,0,0,0,0,0,0,0,0,0,0,0
2018,4,6,7,0,,9,8,94,99810,0,0,335,15,1,14,1896,29,1883,0,360,3.5,10,0,0,0,0,0,0,0,0,0,0,0,0
2018,4,6,8,0,,9.5,8,91,99880,0,0,337,70,20,64,8784,1833,7652,0,140,1.9,10,0,0,0,0,0,0,0,0,0,0,0,0
2018,4,6,9,0,,9.3,8.3,94,99960,0,0,337,115,16,108,13894,1470,12788,0,360,1.5,10,0,0,0,0,0,0,0,0,0,0,0,0
2018,4,6,10,0,,9.4,7.9,91,100030,0,0,337,185,22,171,21724,2067,19986,0,50,2.3,10,0,0,0,0,0,0,0,0,0,0,0,0
2018,4,6,11,0,,9.9,8.1,89,100070,0,0,339,230,22,213,26600,2075,24782,0,360,2.9,10,0,0,0,0,0,0,0,0,0,0,0,0
2018,4,6,12,0,,10.6,7.4,81,100150,0,0,342,266,24,246,30398,2273,28450,0,50,2.5,10,0,0,0,0,0,0,0,0,0,0,0,0
2018,4,6,13,0,,13.2,7.6,69,100130,0,0,328,634,234,429,66531,23060,48469,0,290,3,6,0,0,0,0,0,0,0,0,0,0,0,0
2018,4,6,14,0,,15.5,6.2,54,100110,0,0,337,653,295,404,64421,28860,45348,0,290,2.5,6,0,0,0,0,0,0,0,0,0,0,0,0
2018,4,6,15,0,,16.1,3.1,42,100110,0,0,321,739,768,155,57511,73436,20937,0,270,3.6,1,0,0,0,0,0,0,0,0,0,0,0,0
2018,4,6,16,0,,16,3.4,43,100050,0,0,325,582,713,134,35404,59821,17107,0,230,5.6,2,0,0,0,0,0,0,0,0,0,0,0,0
2018,4,6,17,0,,15.5,-1.1,32,100020,0,0,308,409,691,94,13620,30716,10627,0,290,5.2,0,0,0,0,0,0,0,0,0,0,0,0,0
2018,4,6,18,0,,13.8,-7,23,100020,0,0,294,233,720,45,0,0,0,0,290,8.7,0,0,0,0,0,0,0,0,0,0,0,0,0
2018,4,6,19,0,,12,-7.4,25,100060,0,0,306,46,26,20,0,0,0,0,290,6,6,0,0,0,0,0,0,0,0,0,0,0,0
2018,4,6,20,0,,10.3,-5.7,32,100170,0,0,304,0,0,0,0,0,0,0,290,5.3,7,0,0,0,0,0,0,0,0,0,0,0,0
2018,4,6,21,0,,8.7,-5.2,37,100280,0,0,302,0,0,0,0,0,0,0,290,9,8,0,0,0,0,0,0,0,0,0,0,0,0
2018,4,6,22,0,,7.8,-4.9,40,100330,0,0,301,0,0,0,0,0,0,0,290,8.4,8,0,0,0,0,0,0,0,0,0,0,0,0
2018,4,6,23,0,,7,-4.7,43,100370,0,0,300,0,0,0,0,0,0,0,290,7.4,9,0,0,0,0,0,0,0,0,0,0,0,0
2018,4,6,24,0,,6.7,-3.8,47,100390,0,0,301,0,0,0,0,0,0,0,290,7.7,9,0,0,0,0,0,0,0,0,0,0,0,0
2018,4,7,1,0,,5.7,-3.1,53,100360,0,0,298,0,0,0,0,0,0,0,290,8,9,0,0,0,0,0,0,0,0,0,0,0,0
2018,4,7,2,0,,5.6,-4,50,100380,0,0,296,0,0,0,0,0,0,0,290,7.7,9,0,0,0,0,0,0,0,0,0,0,0,0
2018,4,7,3,0,,5.3,-4.3,50,100360,0,0,295,0,0,0,0,0,0,0,290,6.7,9,0,0,0,0,0,0,0,0,0,0,0,0
2018,4,7,4,0,,5,-4.8,49,100370,0,0,293,0,0,0,0,0,0,0,290,6,9,0,0,0,0,0,0,0,0,0,0,0,0
2018,4,7,5,0,,4.7,-5.6,47,100280,0,0,273,0,0,0,0,0,0,0,290,9,4,0,0,0,0,0,0,0,0,0,0,0,0
2018,4,7,6,0,,4.2,-6.4,46,100210,0,0,268,0,0,0,0,0,0,0,270,10.6,3,0,0,0,0,0,0,0,0,0,0,0,0
2018,4,7,7,0,,4.1,-5.6,49,100310,0,0,262,74,53,21,5954,5156,3637,0,290,8.1,1,0,0,0,0,0,0,0,0,0,0,0,0
2018,4,7,8,0,,4.6,-6,46,100440,0,0,270,237,592,66,47145,60336,9637,0,360,4.5,3,0,0,0,0,0,0,0,0,0,0,0,0
2018,4,7,9,0,,5.9,-6.3,41,100470,0,0,285,327,296,183,46372,30348,23416,0,340,4.2,7,0,0,0,0,0,0,0,0,0,0,0,0
2018,4,7,10,0,,5.7,-6.5,41,100480,0,0,288,417,205,283,50352,21683,32042,0,270,7.5,8,0,0,0,0,0,0,0,0,0,0,0,0
2018,4,7,11,0,,6.8,-6.9,37,100450,0,0,288,573,274,361,65034,28943,39574,0,270,8,7,0,0,0,0,0,0,0,0,0,0,0,0
2018,4,7,12,0,,7.7,-6.8,35,100420,0,0,296,545,165,403,59606,17185,44832,0,270,6.1,8,0,0,0,0,0,0,0,0,0,0,0,0
2018,4,7,13,0,,8.8,-6.6,33,100400,0,0,297,686,294,428,70016,30749,45849,0,290,9.2,7,0,0,0,0,0,0,0,0,0,0,0,0
2018,4,7,14,0,,9.1,-7.5,30,100330,0,0,297,646,282,408,63769,28667,44749,0,270,9.5,7,0,0,0,0,0,0,0,0,0,0,0,0
2018,4,7,15,0,,10.1,-7.1,29,100360,0,0,302,566,283,350,52269,27718,38394,0,290,6.9,7,0,0,0,0,0,0,0,0,0,0,0,0
2018,4,7,16,0,,9.3,-8.3,28,100420,0,0,289,544,594,169,35820,51128,20049,0,270,5.8,4,0,0,0,0,0,0,0,0,0,0,0,0
2018,4,7,17,0,,9.1,-8.4,28,100500,0,0,288,390,610,110,14740,28055,11929,0,320,6,4,0,0,0,0,0,0,0,0,0,0,0,0
2018,4,7,18,0,,8.1,-8.4,30,100550,0,0,279,216,602,58,0,0,0,0,320,3.1,2,0,0,0,0,0,0,0,0,0,0,0,0
2018,4,7,19,0,,7.2,-9.6,29,100610,0,0,272,61,42,19,0,0,0,0,270,5,1,0,0,0,0,0,0,0,0,0,0,0,0
2018,4,7,20,0,,6.9,-10.3,28,100730,0,0,267,0,0,0,0,0,0,0,270,6.5,1,0,0,0,0,0,0,0,0,0,0,0,0
2018,4,7,21,0,,6.2,-10.1,30,100870,0,0,261,0,0,0,0,0,0,0,290,6.1,0,0,0,0,0,0,0,0,0,0,0,0,0
2018,4,7,22,0,,5.6,-11,29,100940,0,0,258,0,0,0,0,0,0,0,270,6.6,0,0,0,0,0,0,0,0,0,0,0,0,0
2018,4,7,23,0,,5.1,-10.2,32,100960,0,0,257,0,0,0,0,0,0,0,270,6.2,0,0,0,0,0,0,0,0,0,0,0,0,0
2018,4,7,24,0,,4.7,-9.1,36,100980,0,0,256,0,0,0,0,0,0,0,290,5.1,0,0,0,0,0,0,0,0,0,0,0,0,0
2018,4,8,1,0,,4.2,-7.9,41,100970,0,0,261,0,0,0,0,0,0,0,290,3.2,1,0,0,0,0,0,0,0,0,0,0,0,0
2018,4,8,2,0,,4.4,-5.9,47,100950,0,0,268,0,0,0,0,0,0,0,290,6.1,3,0,0,0,0,0,0,0,0,0,0,0,0
2018,4,8,3,0,,3.6,-4.6,55,100990,0,0,269,0,0,0,0,0,0,0,340,3.9,4,0,0,0,0,0,0,0,0,0,0,0,0
2018,4,8,4,0,,3.4,-4.5,56,100980,0,0,270,0,0,0,0,0,0,0,270,2.9,5,0,0,0,0,0,0,0,0,0,0,0,0
2018,4,8,5,0,,3.7,-5.2,52,100990,0,0,256,0,0,0,0,0,0,0,270,5.9,0,0,0,0,0,0,0,0,0,0,0,0,0
2018,4,8,6,0,,3.1,-4.8,56,101020,0,0,254,0,0,0,0,0,0,0,270,2.6,0,0,0,0,0,0,0,0,0,0,0,0,0
2018,4,8,7,0,,3.5,-4.7,55,101080,0,0,255,71,46,25,5646,4541,3586,0,290,1.8,0,0,0,0,0,0,0,0,0,0,0,0,0
2018,4,8,8,0,,5.8,-4.3,48,101140,0,0,265,254,666,59,50306,66804,8511,0,270,3.3,0,0,0,0,0,0,0,0,0,0,0,0,0
2018,4,8,9,0,,7,-4.7,43,101140,0,0,269,453,742,91,69430,74941,12466,0,270,2.9,0,0,0,0,0,0,0,0,0,0,0,0,0
2018,4,8,10,0,,8.1,-5.3,38,101120,0,0,273,635,787,120,83326,79558,15877,0,250,3.8,0,0,0,0,0,0,0,0,0,0,0,0,0
2018,4,8,11,0,,9.7,-4.6,36,101110,0,0,280,743,726,177,86442,73317,21723,0,270,3.5,0,0,0,0,0,0,0,0,0,0,0,0,0
2018,4,8,12,0,,10.5,-2.5,40,101020,0,0,285,806,682,221,87303,68945,27835,0,250,4.3,0,0,0,0,0,0,0,0,0,0,0,0,0
2018,4,8,13,0,,10.4,-2.6,40,100960,0,0,285,840,703,221,83451,70513,27843,0,200,7,0,0,0,0,0,0,0,0,0,0,0,0,0
2018,4,8,14,0,,10.6,-1.4,43,100920,0,0,287,781,643,235,71564,64403,28670,0,230,6.9,0,0,0,0,0,0,0,0,0,0,0,0,0
2018,4,8,15,0,,11.1,-0.1,46,100830,0,0,290,708,677,190,56589,65476,23646,0,200,9.3,0,0,0,0,0,0,0,0,0,0,0,0,0
2018,4,8,16,0,,10.8,1.8,54,100780,0,0,319,369,159,269,34203,14694,29633,0,250,8.7,8,0,0,0,0,0,0,0,0,0,0,0,0
2018,4,8,17,0,,11.5,3,56,100700,0,0,304,405,657,101,14609,29657,11558,0,230,6.7,2,0,0,0,0,0,0,0,0,0,0,0,0
2018,4,8,18,0,,11.5,3.5,58,100640,0,0,305,224,637,55,0,0,0,0,250,7.2,2,0,0,0,0,0,0,0,0,0,0,0,0
2018,4,8,19,0,,11.5,3.5,58,100640,0,0,310,59,37,21,0,0,0,0,230,7.5,4,0,0,0,0,0,0,0,0,0,0,0,0
2018,4,8,20,0,,11.7,3.4,57,100660,0,0,314,0,0,0,0,0,0,0,230,9.4,5,0,0,0,0,0,0,0,0,0,0,0,0
2018,4,8,21,0,,11.8,3.2,56,100690,0,0,320,0,0,0,0,0,0,0,250,6.8,7,0,0,0,0,0,0,0,0,0,0,0,0
2018,4,8,22,0,,11.8,3.7,58,100720,0,0,315,0,0,0,0,0,0,0,250,5.5,5,0,0,0,0,0,0,0,0,0,0,0,0
2018,4,8,23,0,,11.6,4,60,100690,0,0,311,0,0,0,0,0,0,0,270,8.6,4,0,0,0,0,0,0,0,0,0,0,0,0
2018,4,8,24,0,,11.5,4.4,62,100680,0,0,306,0,0,0,0,0,0,0,250,6.3,2,0,0,0,0,0,0,0,0,0,0,0,0
2018,4,9,1,0,,11.8,4.5,61,100680,0,0,313,0,0,0,0,0,0,0,270,8,4,0,0,0,0,0,0,0,0,0,0,0,0
2018,4,9,2,0,,11.8,5.4,65,100660,0,0,319,0,0,0,0,0,0,0,270,7.2,6,0,0,0,0,0,0,0,0,0,0,0,0
2018,4,9,3,0,,11.5,6.2,70,100680,0,0,328,0,0,0,0,0,0,0,250,5.2,8,0,0,0,0,0,0,0,0,0,0,0,0
2018,4,9,4,0,,11.3,6.2,71,100660,0,0,310,0,0,0,0,0,0,0,270,5.1,3,0,0,0,0,0,0,0,0,0,0,0,0
2018,4,9,5,0,,11.1,6.2,72,100670,0,0,317,0,0,0,0,0,0,0,270,5.5,6,0,0,0,0,0,0,0,0,0,0,0,0
2018,4,9,6,0,,10.9,6,72,100750,0,0,341,0,0,0,0,0,0,0,270,3.7,10,0,0,0,0,0,0,0,0,0,0,0,0
2018,4,9,7,0,,10.9,6.2,73,100810,0,0,316,55,27,28,4950,2613,3754,0,270,2.9,6,0,0,0,0,0,0,0,0,0,0,0,0
2018,4,9,8,0,,12.2,5.8,65,100870,0,0,301,241,569,71,47108,58325,10388,0,270,2.1,0,0,0,0,0,0,0,0,0,0,0,0,0
2018,4,9,9,0,,13.9,6,59,100880,0,0,319,426,632,115,64956,64785,15478,0,270,4.3,2,0,0,0,0,0,0,0,0,0,0,0,0
2018,4,9,10,0,,14.4,4.9,53,100910,0,0,319,592,656,160,78811,66728,22018,0,250,3.9,2,0,0,0,0,0,0,0,0,0,0,0,0
2018,4,9,11,0,,16.3,4.9,47,100910,0,0,331,694,597,227,81931,59942,28837,0,250,3.1,3,0,0,0,0,0,0,0,0,0,0,0,0
2018,4,9,12,0,,18.1,4.9,42,100900,0,0,348,673,300,415,72583,30322,46344,0,270,2.5,6,0,0,0,0,0,0,0,0,0,0,0,0
2018,4,9,13,0,,18,5.8,45,100860,0,0,343,759,511,307,76880,50474,36943,0,230,3.9,4,0,0,0,0,0,0,0,0,0,0,0,0
2018,4,9,14,0,,16.3,7.4,56,100840,0,0,340,640,266,413,63771,25884,46465,0,200,6.3,5,0,0,0,0,0,0,0,0,0,0,0,0
2018,4,9,15,0,,16.1,6.2,52,100840,0,0,340,512,204,356,49543,19194,39838,0,200,5.9,6,0,0,0,0,0,0,0,0,0,0,0,0
2018,4,9,16,0,,15.6,6.5,55,100850,0,0,316,521,513,195,36078,42411,22777,0,230,5.5,0,0,0,0,0,0,0,0,0,0,0,0,0
2018,4,9,17,0,,15.8,6.7,55,100860,0,0,317,381,558,122,16285,24429,13705,0,230,4,0,0,0,0,0,0,0,0,0,0,0,0,0
2018,4,9,18,0,,14.4,4.9,53,100940,0,0,309,212,550,65,0,0,0,0,230,3.4,0,0,0,0,0,0,0,0,0,0,0,0,0
2018,4,9,19,0,,13.1,5.4,60,101000,0,0,304,57,33,24,0,0,0,0,200,3,0,0,0,0,0,0,0,0,0,0,0,0,0
2018,4,9,20,0,,12.8,4.9,59,101010,0,0,302,0,0,0,0,0,0,0,230,1.8,0,0,0,0,0,0,0,0,0,0,0,0,0
2018,4,9,21,0,,12.3,4.7,60,101070,0,0,300,0,0,0,0,0,0,0,290,0.7,0,0,0,0,0,0,0,0,0,0,0,0,0
2018,4,9,22,0,,12.1,6.1,67,101110,0,0,301,0,0,0,0,0,0,0,200,3.1,0,0,0,0,0,0,0,0,0,0,0,0,0
2018,4,9,23,0,,11.6,5.4,66,101100,0,0,298,0,0,0,0,0,0,0,290,2,0,0,0,0,0,0,0,0,0,0,0,0,0
2018,4,9,24,0,,11.5,7.9,79,101120,0,0,300,0,0,0,0,0,0,0,180,2.1,0,0,0,0,0,0,0,0,0,0,0,0,0
2018,4,10,1,0,,10.7,4.5,66,101070,0,0,293,0,0,0,0,0,0,0,270,2,0,0,0,0,0,0,0,0,0,0,0,0,0
2018,4,10,2,0,,10.6,5.1,69,101080,0,0,293,0,0,0,0,0,0,0,230,2.2,0,0,0,0,0,0,0,0,0,0,0,0,0
2018,4,10,3,0,,10,2.1,58,101070,0,0,287,0,0,0,0,0,0,0,250,1.5,0,0,0,0,0,0,0,0,0,0,0,0,0
2018,4,10,4,0,,10.1,4,66,101050,0,0,290,0,0,0,0,0,0,0,290,2.7,0,0,0,0,0,0,0,0,0,0,0,0,0
2018,4,10,5,0,,10.5,5.4,71,101050,0,0,293,0,0,0,0,0,0,0,250,2.4,0,0,0,0,0,0,0,0,0,0,0,0,0
2018,4,10,6,0,,11.8,8.2,79,101070,0,0,312,0,0,0,0,0,0,0,250,4,2,0,0,0,0,0,0,0,0,0,0,0,0
2018,4,10,7,0,,12.6,9.2,80,101070,0,0,337,48,16,31,4486,1469,3808,0,250,4.7,8,0,0,0,0,0,0,0,0,0,0,0,0
2018,4,10,8,0,,14,10.4,79,101100,0,0,332,224,453,87,42508,45569,13643,0,250,4.8,5,0,0,0,0,0,0,0,0,0,0,0,0
2018,4,10,9,0,,15.2,10.9,76,101120,0,0,359,237,104,186,30407,10254,22539,0,230,4.9,9,0,0,0,0,0,0,0,0,0,0,0,0
2018,4,10,10,0,,16.3,12.2,77,101110,0,0,348,477,291,285,58684,28110,34668,0,230,6.5,6,0,0,0,0,0,0,0,0,0,0,0,0
2018,4,10,11,0,,16.1,12.2,78,101030,0,0,357,436,118,343,50398,11460,40214,0,230,5.8,8,0,0,0,0,0,0,0,0,0,0,0,0
2018,4,10,12,0,,16.8,12.5,76,100980,0,0,361,462,101,375,52150,9745,43691,0,230,5.2,8,0,0,0,0,0,0,0,0,0,0,0,0
2018,4,10,13,0,,17.8,13.7,77,100910,0,0,367,506,119,401,54781,11274,45831,0,250,7.8,8,0,0,0,0,0,0,0,0,0,0,0,0
2018,4,10,14,0,,17,13.7,81,100800,0,0,351,632,254,415,63635,23587,47807,0,230,7.3,5,0,0,0,0,0,0,0,0,0,0,0,0
2018,4,10,15,0,,16,13.6,86,100740,0,0,358,391,94,318,40487,8804,36013,0,230,7.4,8,0,0,0,0,0,0,0,0,0,0,0,0
2018,4,10,16,0,,17.4,12.7,74,100650,0,0,364,343,126,263,32943,11126,29425,0,200,8.5,8,0,0,0,0,0,0,0,0,0,0,0,0
2018,4,10,17,0,,17.5,12.5,73,100530,0,0,351,345,410,153,18925,14352,17370,0,230,7.1,5,0,0,0,0,0,0,0,0,0,0,0,0
2018,4,10,18,0,,16.8,11.7,72,100520,0,0,347,205,489,73,0,0,0,0,230,11.3,5,0,0,0,0,0,0,0,0,0,0,0,0
2018,4,10,19,0,,16.3,12,76,100500,0,0,349,47,24,23,0,0,0,0,250,8.8,6,0,0,0,0,0,0,0,0,0,0,0,0
2018,4,10,20,0,,15.4,12.7,84,100430,0,0,352,0,0,0,0,0,0,0,230,6.6,8,0,0,0,0,0,0,0,0,0,0,0,0
2018,4,10,21,0,,16.2,13.3,83,100440,0,0,367,0,0,0,0,0,0,0,250,11.6,9,0,0,0,0,0,0,0,0,0,0,0,0
2018,4,10,22,0,,16.3,13,81,100390,0,0,370,0,0,0,0,0,0,0,250,11.1,9,0,0,0,0,0,0,0,0,0,0,0,0
2018,4,10,23,0,,16.3,13,81,100380,0,0,373,0,0,0,0,0,0,0,230,13,10,0,0,0,0,0,0,0,0,0,0,0,0
2018,4,10,24,0,,16.1,12.8,81,100320,0,0,376,0,0,0,0,0,0,0,230,11.6,10,0,0,0,0,0,0,0,0,0,0,0,0
2018,4,11,1,0,,16.1,13.5,85,100250,0,0,377,0,0,0,0,0,0,0,250,12.7,10,0,0,0,0,0,0,0,0,0,0,0,0
2018,4,11,2,0,,16.5,13.5,83,100140,0,0,379,0,0,0,0,0,0,0,250,9.7,10,0,0,0,0,0,0,0,0,0,0,0,0
2018,4,11,3,0,,16.6,13.8,84,100040,0,0,380,0,0,0,0,0,0,0,230,12.2,10,0,0,0,0,0,0,0,0,0,0,0,0
2018,4,11,4,0,,16.7,13.9,84,100000,0,0,381,0,0,0,0,0,0,0,230,9,10,0,0,0,0,0,0,0,0,0,0,0,0
2018,4,11,5,0,,16.9,13.9,83,100000,0,0,382,0,0,0,0,0,0,0,230,8.8,10,0,0,0,0,0,0,0,0,0,0,0,0
2018,4,11,6,0,,16.8,13.8,83,100060,0,0,381,0,0,0,0,0,0,0,250,3.5,10,0,0,0,0,0,0,0,0,0,0,0,0
2018,4,11,7,0,,17.1,13.4,79,100080,0,0,382,29,4,25,3332,144,3265,0,250,7.4,10,0,0,0,0,0,0,0,0,0,0,0,0
2018,4,11,8,0,,17.4,13.5,78,100110,0,0,365,159,163,109,24520,15324,14754,0,270,7.3,8,0,0,0,0,0,0,0,0,0,0,0,0
2018,4,11,9,0,,18.4,13.8,75,100140,0,0,355,395,494,148,59338,49313,21328,0,270,6.8,4,0,0,0,0,0,0,0,0,0,0,0,0
2018,4,11,10,0,,20.1,13.7,67,100170,0,0,369,469,269,290,57606,25611,35643,0,270,4.3,6,0,0,0,0,0,0,0,0,0,0,0,0
2018,4,11,11,0,,20.3,12.7,62,100160,0,0,369,601,295,367,68900,28334,43636,0,250,6.7,6,0,0,0,0,0,0,0,0,0,0,0,0
2018,4,11,12,0,,21.1,13,60,100120,0,0,384,517,136,399,57761,12985,46454,0,250,5.3,8,0,0,0,0,0,0,0,0,0,0,0,0
2018,4,11,13,0,,21.2,12,56,100090,0,0,373,640,226,439,67519,21610,50309,0,200,5.5,6,0,0,0,0,0,0,0,0,0,0,0,0
2018,4,11,14,0,,21.4,10.2,49,100020,0,0,359,780,621,247,71614,59529,31522,0,230,8,2,0,0,0,0,0,0,0,0,0,0,0,0
2018,4,11,15,0,,21.5,9.3,46,100000,0,0,358,694,625,212,56746,58147,27057,0,230,7.8,2,0,0,0,0,0,0,0,0,0,0,0,0
2018,4,11,16,0,,21.5,9,45,99950,0,0,353,581,674,149,37017,55666,19276,0,230,7.6,1,0,0,0,0,0,0,0,0,0,0,0,0
2018,4,11,17,0,,21.2,7,40,99950,0,0,361,387,562,123,16758,25439,13934,0,230,7,4,0,0,0,0,0,0,0,0,0,0,0,0
2018,4,11,18,0,,20.5,6,39,99990,0,0,362,186,357,89,0,0,0,0,230,5.3,6,0,0,0,0,0,0,0,0,0,0,0,0
2018,4,11,19,0,,19.3,6.7,44,100050,0,0,355,50,28,22,0,0,0,0,270,5.8,6,0,0,0,0,0,0,0,0,0,0,0,0
2018,4,11,20,0,,18.5,6.3,45,100170,0,0,350,0,0,0,0,0,0,0,270,4.4,5,0,0,0,0,0,0,0,0,0,0,0,0
2018,4,11,21,0,,18.6,-0.7,27,100250,0,0,341,0,0,0,0,0,0,0,320,3.3,5,0,0,0,0,0,0,0,0,0,0,0,0
2018,4,11,22,0,,17.7,-1,28,100320,0,0,335,0,0,0,0,0,0,0,140,1.8,5,0,0,0,0,0,0,0,0,0,0,0,0
2018,4,11,23,0,,16.5,-0.7,31,100390,0,0,329,0,0,0,0,0,0,0,90,1.9,4,0,0,0,0,0,0,0,0,0,0,0,0
2018,4,11,24,0,,15.7,-1.4,31,100460,0,0,324,0,0,0,0,0,0,0,160,2.2,4,0,0,0,0,0,0,0,0,0,0,0,0
2018,4,12,1,0,,15,-3.3,28,100510,0,0,318,0,0,0,0,0,0,0,20,3.5,4,0,0,0,0,0,0,0,0,0,0,0,0
2018,4,12,2,0,,14.5,-5.3,25,100560,0,0,313,0,0,0,0,0,0,0,320,1.1,3,0,0,0,0,0,0,0,0,0,0,0,0
2018,4,12,3,0,,13.5,-5.6,26,100610,0,0,307,0,0,0,0,0,0,0,50,1.7,3,0,0,0,0,0,0,0,0,0,0,0,0
2018,4,12,4,0,,13.4,-6.2,25,100630,0,0,317,0,0,0,0,0,0,0,250,2.5,7,0,0,0,0,0,0,0,0,0,0,0,0
2018,4,12,5,0,,13.6,-8.9,20,100650,0,0,308,0,0,0,0,0,0,0,90,2.4,5,0,0,0,0,0,0,0,0,0,0,0,0
2018,4,12,6,0,,13.9,-9.3,19,100730,0,0,312,0,0,0,0,0,0,0,360,3.7,6,0,0,0,0,0,0,0,0,0,0,0,0
2018,4,12,7,0,,14.1,-7.3,22,100800,0,0,310,81,57,25,6814,5571,4195,0,20,3.7,4,0,0,0,0,0,0,0,0,0,0,0,0
2018,4,12,8,0,,16.5,-6.5,20,100830,0,0,319,280,721,56,54491,72421,8069,0,340,1,3,0,0,0,0,0,0,0,0,0,0,0,0
2018,4,12,9,0,,17.1,-5.4,21,100920,0,0,340,329,256,199,45433,26212,25139,0,340,2.1,8,0,0,0,0,0,0,0,0,0,0,0,0
2018,4,12,10,0,,18,-4.6,21,100940,0,0,345,440,217,295,53004,22812,33370,0,340,1.6,8,0,0,0,0,0,0,0,0,0,0,0,0
2018,4,12,11,0,,20,-3.6,20,100970,0,0,347,627,334,362,71286,34969,40006,0,290,1.6,6,0,0,0,0,0,0,0,0,0,0,0,0
2018,4,12,12,0,,21.1,-4.1,18,100890,0,0,355,665,276,424,71115,28920,45856,0,270,3.7,7,0,0,0,0,0,0,0,0,0,0,0,0
2018,4,12,13,0,,20.8,-4.4,18,100850,0,0,353,677,265,441,70355,27197,48629,0,230,5.2,7,0,0,0,0,0,0,0,0,0,0,0,0
2018,4,12,14,0,,20.9,-2.9,20,100830,0,0,356,619,233,419,62054,23494,46174,0,230,4.7,7,0,0,0,0,0,0,0,0,0,0,0,0
2018,4,12,15,0,,19.1,-1.9,24,100800,0,0,354,444,131,342,44745,13027,38063,0,250,5.3,8,0,0,0,0,0,0,0,0,0,0,0,0
2018,4,12,16,0,,18.2,0.7,31,100790,0,0,361,311,93,251,30560,8613,27793,0,230,5.7,9,0,0,0,0,0,0,0,0,0,0,0,0
2018,4,12,17,0,,18,3,37,100780,0,0,363,202,79,165,18575,5767,17920,0,200,5.1,9,0,0,0,0,0,0,0,0,0,0,0,0
2018,4,12,18,0,,16.5,4.5,45,100790,0,0,357,117,95,91,0,0,0,0,230,4.9,9,0,0,0,0,0,0,0,0,0,0,0,0
2018,4,12,19,0,,16.7,-0.9,30,100860,0,0,346,41,14,27,0,0,0,0,250,4.5,8,0,0,0,0,0,0,0,0,0,0,0,0
2018,4,12,20,0,,14.9,3.6,47,100960,0,0,339,0,0,0,0,0,0,0,180,2.1,8,0,0,0,0,0,0,0,0,0,0,0,0
2018,4,12,21,0,,15.2,-1.8,31,101050,0,0,330,0,0,0,0,0,0,0,290,3.2,7,0,0,0,0,0,0,0,0,0,0,0,0
2018,4,12,22,0,,14.6,0.4,38,101130,0,0,326,0,0,0,0,0,0,0,250,1.4,6,0,0,0,0,0,0,0,0,0,0,0,0
2018,4,12,23,0,,14,-1.2,35,101180,0,0,319,0,0,0,0,0,0,0,270,1.7,5,0,0,0,0,0,0,0,0,0,0,0,0
2018,4,12,24,0,,13.9,3.3,49,101250,0,0,321,0,0,0,0,0,0,0,70,2.6,4,0,0,0,0,0,0,0,0,0,0,0,0
2018,4,13,1,0,,13,-1.3,37,101350,0,0,315,0,0,0,0,0,0,0,50,2.7,5,0,0,0,0,0,0,0,0,0,0,0,0
2018,4,13,2,0,,12.5,-3.3,33,101360,0,0,315,0,0,0,0,0,0,0,50,2.4,7,0,0,0,0,0,0,0,0,0,0,0,0
2018,4,13,3,0,,12.3,-5.7,28,101410,0,0,318,0,0,0,0,0,0,0,50,3.1,8,0,0,0,0,0,0,0,0,0,0,0,0
2018,4,13,4,0,,12.1,-6.3,27,101440,0,0,305,0,0,0,0,0,0,0,50,2.7,5,0,0,0,0,0,0,0,0,0,0,0,0
2018,4,13,5,0,,11.7,-5.7,29,101480,0,0,304,0,0,0,0,0,0,0,50,2.7,5,0,0,0,0,0,0,0,0,0,0,0,0
2018,4,13,6,0,,11.7,-6.7,27,101520,0,0,298,0,0,0,0,0,0,0,50,2.9,3,0,0,0,0,0,0,0,0,0,0,0,0
2018,4,13,7,0,,12.8,-5.7,27,101570,0,0,309,77,47,30,6453,4725,4213,0,50,2.4,5,0,0,0,0,0,0,0,0,0,0,0,0
2018,4,13,8,0,,15.5,-3.9,26,101620,0,0,334,205,329,101,36577,33519,14968,0,70,3.1,8,0,0,0,0,0,0,0,0,0,0,0,0
2018,4,13,9,0,,16.5,0.1,33,101670,0,0,339,377,403,172,54272,40778,22564,0,70,3.1,7,0,0,0,0,0,0,0,0,0,0,0,0
2018,4,13,10,0,,17.1,-0.6,30,101720,0,0,341,503,322,286,62337,32579,34196,0,70,3.8,7,0,0,0,0,0,0,0,0,0,0,0,0
2018,4,13,11,0,,16.4,-0.7,31,101730,0,0,343,489,156,365,55625,16024,41246,0,70,4.1,8,0,0,0,0,0,0,0,0,0,0,0,0
2018,4,13,12,0,,16.6,2.2,38,101690,0,0,355,429,80,359,47717,7877,40816,0,70,3.5,9,0,0,0,0,0,0,0,0,0,0,0,0
2018,4,13,13,0,,16,3,42,101690,0,0,353,409,65,352,44971,6384,39855,0,70,3.1,9,0,0,0,0,0,0,0,0,0,0,0,0
2018,4,13,14,0,,14.7,3.1,46,101620,0,0,346,385,62,331,41541,6088,37412,0,90,4.9,9,0,0,0,0,0,0,0,0,0,0,0,0
2018,4,13,15,0,,14.5,3,46,101610,0,0,345,334,60,288,35286,5797,32298,0,70,3.7,9,0,0,0,0,0,0,0,0,0,0,0,0
2018,4,13,16,0,,14.5,4.7,52,101540,0,0,347,277,67,234,28023,6104,26047,0,70,4.3,9,0,0,0,0,0,0,0,0,0,0,0,0
2018,4,13,17,0,,13.9,1.8,44,101550,0,0,341,217,94,172,19469,7024,18652,0,70,3.9,9,0,0,0,0,0,0,0,0,0,0,0,0
2018,4,13,18,0,,13.6,1.2,43,101500,0,0,339,120,100,93,0,0,0,0,70,3.5,9,0,0,0,0,0,0,0,0,0,0,0,0
2018,4,13,19,0,,13,0.3,42,101440,0,0,335,32,7,25,0,0,0,0,50,5.1,9,0,0,0,0,0,0,0,0,0,0,0,0
2018,4,13,20,0,,12.7,2.8,51,101500,0,0,336,0,0,0,0,0,0,0,70,4.2,9,0,0,0,0,0,0,0,0,0,0,0,0
2018,4,13,21,0,,12.5,3.4,54,101490,0,0,336,0,0,0,0,0,0,0,70,3.5,9,0,0,0,0,0,0,0,0,0,0,0,0
2018,4,13,22,0,,12.4,3.5,55,101420,0,0,338,0,0,0,0,0,0,0,70,4.1,9,0,0,0,0,0,0,0,0,0,0,0,0
2018,4,13,23,0,,12.3,2.9,53,101390,0,0,340,0,0,0,0,0,0,0,50,4.7,10,0,0,0,0,0,0,0,0,0,0,0,0
2018,4,13,24,0,,12.2,3.6,56,101270,0,0,344,0,0,0,0,0,0,0,50,4.4,10,0,0,0,0,0,0,0,0,0,0,0,0
2018,4,14,1,0,,12.1,3.8,57,101110,0,0,344,0,0,0,0,0,0,0,70,4.5,10,0,0,0,0,0,0,0,0,0,0,0,0
2018,4,14,2,0,,12.1,4.3,59,100970,0,0,345,0,0,0,0,0,0,0,50,4.1,10,0,0,0,0,0,0,0,0,0,0,0,0
2018,4,14,3,0,,12.1,5,62,100850,0,0,346,0,0,0,0,0,0,0,70,3.8,10,0,0,0,0,0,0,0,0,0,0,0,0
2018,4,14,4,0,,12.1,5.2,63,100760,0,0,346,0,0,0,0,0,0,0,50,2.5,10,0,0,0,0,0,0,0,0,0,0,0,0
2018,4,14,5,0,,12.1,4.7,61,100610,0,0,345,0,0,0,0,0,0,0,70,3.4,10,0,0,0,0,0,0,0,0,0,0,0,0
2018,4,14,6,0,,11.6,6.9,73,100500,0,0,346,0,0,0,0,0,0,0,50,2.7,10,0,0,0,0,0,0,0,0,0,0,0,0
2018,4,14,7,0,,11.5,8.1,80,100390,0,0,347,25,2,23,3082,94,3037,0,50,2.6,10,0,0,0,0,0,0,0,0,0,0,0,0
2018,4,14,8,0,,11.1,9,87,100310,0,0,346,77,18,71,9557,1674,8472,0,70,2.1,10,0,0,0,0,0,0,0,0,0,0,0,0
2018,4,14,9,0,,11.2,10.2,94,100230,0,0,348,126,16,118,15177,1516,13993,0,50,2,10,0,0,0,0,0,0,0,0,0,0,0,0
2018,4,14,10,0,,11.3,10.5,95,100080,0,0,349,162,13,153,19126,1201,18085,0,50,2.2,10,0,0,0,0,0,0,0,0,0,0,0,0
2018,4,14,11,0,,11.6,10.9,96,99930,0,0,351,217,16,204,25274,1544,23884,0,70,2,10,0,0,0,0,0,0,0,0,0,0,0,0
2018,4,14,12,0,,11.9,11.2,96,99780,0,0,353,224,13,212,26708,898,25919,0,50,1.7,10,0,0,0,0,0,0,0,0,0,0,0,0
2018,4,14,13,0,,12.5,11.8,96,99570,0,0,357,258,18,242,29875,1303,28828,0,50,1.6,10,0,0,0,0,0,0,0,0,0,0,0,0
2018,4,14,14,0,,15.2,14.7,97,99400,0,0,374,294,29,269,32877,2718,31027,0,270,4.4,10,0,0,0,0,0,0,0,0,0,0,0,0
2018,4,14,15,0,,16.4,15.7,96,99290,0,0,381,323,54,281,34655,4901,32117,0,230,8.4,10,0,0,0,0,0,0,0,0,0,0,0,0
2018,4,14,16,0,,16.2,15.5,96,99200,0,0,380,229,39,203,22681,2866,21746,0,270,5,10,0,0,0,0,0,0,0,0,0,0,0,0
2018,4,14,17,0,,13.4,12.6,95,99270,0,0,362,116,16,108,11076,613,11003,0,360,3.9,10,0,0,0,0,0,0,0,0,0,0,0,0
2018,4,14,18,0,,12.9,12.1,95,99340,0,0,359,52,9,49,0,0,0,0,360,3.4,10,0,0,0,0,0,0,0,0,0,0,0,0
2018,4,14,19,0,,12.1,11.1,94,99480,0,0,354,11,0,11,0,0,0,0,360,4.4,10,0,0,0,0,0,0,0,0,0,0,0,0
2018,4,14,20,0,,12.4,11.4,94,99510,0,0,356,0,0,0,0,0,0,0,270,2.2,10,0,0,0,0,0,0,0,0,0,0,0,0
2018,4,14,21,0,,12.5,10.8,90,99670,0,0,355,0,0,0,0,0,0,0,340,2.5,10,0,0,0,0,0,0,0,0,0,0,0,0
2018,4,14,22,0,,12.2,10.4,89,99720,0,0,350,0,0,0,0,0,0,0,340,2.2,10,0,0,0,0,0,0,0,0,0,0,0,0
2018,4,14,23,0,,12,9.5,85,99800,0,0,344,0,0,0,0,0,0,0,360,1.6,9,0,0,0,0,0,0,0,0,0,0,0,0
2018,4,14,24,0,,11.6,8.8,83,99800,0,0,339,0,0,0,0,0,0,0,50,1.6,9,0,0,0,0,0,0,0,0,0,0,0,0
2018,4,15,1,0,,11.1,6.8,75,99890,0,0,337,0,0,0,0,0,0,0,140,2.3,9,0,0,0,0,0,0,0,0,0,0,0,0
2018,4,15,2,0,,10.7,5.8,72,99900,0,0,337,0,0,0,0,0,0,0,290,1.8,10,0,0,0,0,0,0,0,0,0,0,0,0
2018,4,15,3,0,,10.4,5.1,70,99940,0,0,338,0,0,0,0,0,0,0,340,2.8,10,0,0,0,0,0,0,0,0,0,0,0,0
2018,4,15,4,0,,10.1,5.2,72,99950,0,0,336,0,0,0,0,0,0,0,20,2.9,10,0,0,0,0,0,0,0,0,0,0,0,0
2018,4,15,5,0,,10.1,4.6,69,100020,0,0,336,0,0,0,0,0,0,0,50,2.3,10,0,0,0,0,0,0,0,0,0,0,0,0
2018,4,15,6,0,,9.7,4,68,100090,0,0,306,0,0,0,0,0,0,0,360,1.8,5,0,0,0,0,0,0,0,0,0,0,0,0
2018,4,15,7,0,,10.1,3.5,64,100160,0,0,295,86,55,31,7008,5404,4404,0,90,1.5,1,0,0,0,0,0,0,0,0,0,0,0,0
2018,4,15,8,0,,11.5,3.7,59,100230,0,0,301,269,605,73,51019,62024,10586,0,230,2,1,0,0,0,0,0,0,0,0,0,0,0,0
2018,4,15,9,0,,13,3,51,100240,0,0,311,452,644,120,67530,65875,15874,0,50,2.5,2,0,0,0,0,0,0,0,0,0,0,0,0
2018,4,15,10,0,,14.1,2.3,45,100260,0,0,305,626,690,157,80820,70189,19775,0,320,2.9,0,0,0,0,0,0,0,0,0,0,0,0,0
2018,4,15,11,0,,14.9,0.3,37,100260,0,0,307,761,710,190,90199,72310,24920,0,320,3.6,0,0,0,0,0,0,0,0,0,0,0,0,0
2018,4,15,12,0,,16.6,1,35,100200,0,0,328,804,627,253,86470,62824,31119,0,290,2.8,3,0,0,0,0,0,0,0,0,0,0,0,0
2018,4,15,13,0,,18.1,3.1,37,100170,0,0,335,844,664,246,83786,65977,30603,0,270,2.3,2,0,0,0,0,0,0,0,0,0,0,0,0
2018,4,15,14,0,,19,2.3,33,100100,0,0,327,829,710,213,75129,70084,27264,0,320,3.6,0,0,0,0,0,0,0,0,0,0,0,0,0
2018,4,15,15,0,,19.5,3.2,34,100070,0,0,330,726,679,195,58519,65194,24610,0,290,3.3,0,0,0,0,0,0,0,0,0,0,0,0,0
2018,4,15,16,0,,16.9,4.2,43,100100,0,0,320,549,554,188,38277,47139,22784,0,230,5.9,0,0,0,0,0,0,0,0,0,0,0,0,0
2018,4,15,17,0,,15.9,6,52,100130,0,0,317,388,535,132,18011,26148,14830,0,230,5,0,0,0,0,0,0,0,0,0,0,0,0,0
2018,4,15,18,0,,15.2,6.4,56,100160,0,0,315,206,433,83,0,0,0,0,230,3,0,0,0,0,0,0,0,0,0,0,0,0,0
2018,4,15,19,0,,14.1,7.1,63,100180,0,0,310,59,31,28,0,0,0,0,250,2,0,0,0,0,0,0,0,0,0,0,0,0,0
2018,4,15,20,0,,13.4,8.4,72,100270,0,0,309,0,0,0,0,0,0,0,250,1.8,0,0,0,0,0,0,0,0,0,0,0,0,0
2018,4,15,21,0,,14.1,2.3,45,100430,0,0,318,0,0,0,0,0,0,0,340,4.1,3,0,0,0,0,0,0,0,0,0,0,0,0
2018,4,15,22,0,,13.4,2.5,48,100520,0,0,332,0,0,0,0,0,0,0,360,4.7,8,0,0,0,0,0,0,0,0,0,0,0,0
2018,4,15,23,0,,13.1,2,47,100590,0,0,321,0,0,0,0,0,0,0,360,3.2,6,0,0,0,0,0,0,0,0,0,0,0,0
2018,4,15,24,0,,12.4,1.9,49,100630,0,0,322,0,0,0,0,0,0,0,160,2.2,7,0,0,0,0,0,0,0,0,0,0,0,0
2018,4,16,1,0,,11.2,2.9,57,100630,0,0,306,0,0,0,0,0,0,0,340,5.5,3,0,0,0,0,0,0,0,0,0,0,0,0
2018,4,16,2,0,,10.4,2.4,58,100670,0,0,289,0,0,0,0,0,0,0,340,4.7,0,0,0,0,0,0,0,0,0,0,0,0,0
2018,4,16,3,0,,9.7,2.7,62,100680,0,0,287,0,0,0,0,0,0,0,340,5,0,0,0,0,0,0,0,0,0,0,0,0,0
2018,4,16,4,0,,9.2,2.7,64,100730,0,0,285,0,0,0,0,0,0,0,360,4,0,0,0,0,0,0,0,0,0,0,0,0,0
2018,4,16,5,0,,9.2,1.8,60,100810,0,0,284,0,0,0,0,0,0,0,70,0.6,0,0,0,0,0,0,0,0,0,0,0,0,0
2018,4,16,6,0,,8.7,2.2,64,100870,0,0,282,0,0,0,0,0,0,0,290,0.9,0,0,0,0,0,0,0,0,0,0,0,0,0
2018,4,16,7,0,,9.8,2.1,59,100970,0,0,287,93,64,29,7931,6229,4906,0,70,1.9,0,0,0,0,0,0,0,0,0,0,0,0,0
2018,4,16,8,0,,12.2,2.6,52,101000,0,0,297,287,678,65,54254,68602,9293,0,50,3.2,0,0,0,0,0,0,0,0,0,0,0,0,0
2018,4,16,9,0,,14.3,3.4,48,101060,0,0,307,497,784,89,75072,79852,12202,0,50,3.5,0,0,0,0,0,0,0,0,0,0,0,0,0
2018,4,16,10,0,,16.1,5,48,101090,0,0,327,647,737,143,84129,75499,18248,0,50,2.9,2,0,0,0,0,0,0,0,0,0,0,0,0
2018,4,16,11,0,,16.1,5.6,50,101120,0,0,349,503,161,373,57279,16241,42574,0,110,3.5,8,0,0,0,0,0,0,0,0,0,0,0,0
2018,4,16,12,0,,16.1,4.4,46,101160,0,0,347,522,132,406,57655,13272,45929,0,90,3.6,8,0,0,0,0,0,0,0,0,0,0,0,0
2018,4,16,13,0,,16.5,3.8,43,101120,0,0,349,525,123,414,56556,12382,46546,0,90,3.9,8,0,0,0,0,0,0,0,0,0,0,0,0
2018,4,16,14,0,,15.1,2.9,44,101130,0,0,341,486,113,387,51200,11226,43507,0,90,5.2,8,0,0,0,0,0,0,0,0,0,0,0,0
2018,4,16,15,0,,15.6,2.7,42,101100,0,0,343,436,119,342,44319,11760,38175,0,90,4.2,8,0,0,0,0,0,0,0,0,0,0,0,0
2018,4,16,16,0,,15.6,4.6,48,101100,0,0,345,345,119,268,33347,10973,29714,0,70,3.4,8,0,0,0,0,0,0,0,0,0,0,0,0
2018,4,16,17,0,,14.6,5.6,55,101100,0,0,342,249,133,185,21355,9947,20118,0,90,3.4,8,0,0,0,0,0,0,0,0,0,0,0,0
2018,4,16,18,0,,13.6,5.9,60,101120,0,0,337,130,116,97,0,0,0,0,90,2.8,8,0,0,0,0,0,0,0,0,0,0,0,0
2018,4,16,19,0,,12.6,6.4,66,101220,0,0,333,34,7,27,0,0,0,0,50,3.2,8,0,0,0,0,0,0,0,0,0,0,0,0
2018,4,16,20,0,,12.3,6.5,68,101300,0,0,332,0,0,0,0,0,0,0,70,2.2,8,0,0,0,0,0,0,0,0,0,0,0,0
2018,4,16,21,0,,12.2,7.2,72,101340,0,0,332,0,0,0,0,0,0,0,70,2.6,8,0,0,0,0,0,0,0,0,0,0,0,0
2018,4,16,22,0,,12.1,7.3,73,101380,0,0,332,0,0,0,0,0,0,0,50,2.1,8,0,0,0,0,0,0,0,0,0,0,0,0
2018,4,16,23,0,,12.1,7.3,73,101400,0,0,332,0,0,0,0,0,0,0,70,2.5,8,0,0,0,0,0,0,0,0,0,0,0,0
2018,4,16,24,0,,11.9,7.4,74,101370,0,0,331,0,0,0,0,0,0,0,50,1.7,8,0,0,0,0,0,0,0,0,0,0,0,0
2018,4,17,1,0,,11.9,7.2,73,101330,0,0,331,0,0,0,0,0,0,0,50,2.2,8,0,0,0,0,0,0,0,0,0,0,0,0
2018,4,17,2,0,,11.8,7.6,76,101300,0,0,331,0,0,0,0,0,0,0,70,2,8,0,0,0,0,0,0,0,0,0,0,0,0
2018,4,17,3,0,,11.4,7.6,78,101290,0,0,329,0,0,0,0,0,0,0,50,1.2,8,0,0,0,0,0,0,0,0,0,0,0,0
2018,4,17,4,0,,11.3,7.5,78,101270,0,0,328,0,0,0,0,0,0,0,50,2.3,8,0,0,0,0,0,0,0,0,0,0,0,0
2018,4,17,5,0,,11.1,7.4,78,101220,0,0,327,0,0,0,0,0,0,0,20,3,8,0,0,0,0,0,0,0,0,0,0,0,0
2018,4,17,6,0,,11.1,7.2,77,101240,0,0,327,0,0,0,0,0,0,0,50,2.1,8,0,0,0,0,0,0,0,0,0,0,0,0
2018,4,17,7,0,,11.5,7.6,77,101260,0,0,329,53,14,39,5325,1284,4697,0,50,1.4,8,0,0,0,0,0,0,0,0,0,0,0,0
2018,4,17,8,0,,12.7,7.7,72,101270,0,0,352,105,39,92,14185,3923,11600,0,20,1.8,10,0,0,0,0,0,0,0,0,0,0,0,0
2018,4,17,9,0,,14.1,7.3,64,101260,0,0,358,190,47,165,22828,4480,19287,0,50,2.1,10,0,0,0,0,0,0,0,0,0,0,0,0
2018,4,17,10,0,,16.3,7.7,57,101270,0,0,347,458,222,306,55378,22201,35942,0,50,1.7,7,0,0,0,0,0,0,0,0,0,0,0,0
2018,4,17,11,0,,16.8,7.4,54,101260,0,0,355,482,141,367,55047,14117,42229,0,140,2.3,8,0,0,0,0,0,0,0,0,0,0,0,0
2018,4,17,12,0,,17.5,6.3,48,101210,0,0,351,622,212,434,67815,21178,49053,0,140,3.6,7,0,0,0,0,0,0,0,0,0,0,0,0
2018,4,17,13,0,,16.1,6.7,54,101180,0,0,350,485,98,396,52720,9664,44886,0,110,3.2,8,0,0,0,0,0,0,0,0,0,0,0,0
2018,4,17,14,0,,17.3,6.7,50,101150,0,0,344,662,269,427,65950,26279,47883,0,140,3.9,5,0,0,0,0,0,0,0,0,0,0,0,0
2018,4,17,15,0,,16.8,7.6,55,101070,0,0,340,594,290,366,55398,27252,41097,0,110,3.4,4,0,0,0,0,0,0,0,0,0,0,0,0
2018,4,17,16,0,,16.5,8.6,60,101040,0,0,323,549,543,194,38989,45499,23812,0,110,3.8,0,0,0,0,0,0,0,0,0,0,0,0,0
2018,4,17,17,0,,15.5,9.1,66,101010,0,0,319,378,482,145,19076,21488,16349,0,110,2.9,0,0,0,0,0,0,0,0,0,0,0,0,0
2018,4,17,18,0,,14.2,9.6,74,101000,0,0,314,211,445,83,0,0,0,0,90,2.4,0,0,0,0,0,0,0,0,0,0,0,0,0
2018,4,17,19,0,,13.4,9.8,79,101010,0,0,310,58,28,31,0,0,0,0,90,1.9,0,0,0,0,0,0,0,0,0,0,0,0,0
2018,4,17,20,0,,13.1,10,82,101040,0,0,309,0,0,0,0,0,0,0,70,1,0,0,0,0,0,0,0,0,0,0,0,0,0
2018,4,17,21,0,,12.9,10.4,85,101080,0,0,309,0,0,0,0,0,0,0,180,1.3,0,0,0,0,0,0,0,0,0,0,0,0,0
2018,4,17,22,0,,12.5,10.2,86,101090,0,0,307,0,0,0,0,0,0,0,270,1.2,0,0,0,0,0,0,0,0,0,0,0,0,0
2018,4,17,23,0,,13,10.5,85,101050,0,0,310,0,0,0,0,0,0,0,250,2.2,0,0,0,0,0,0,0,0,0,0,0,0,0
2018,4,17,24,0,,12.8,10.3,85,101010,0,0,309,0,0,0,0,0,0,0,270,3.1,0,0,0,0,0,0,0,0,0,0,0,0,0
2018,4,18,1,0,,12.5,9.1,80,100970,0,0,306,0,0,0,0,0,0,0,270,2.4,0,0,0,0,0,0,0,0,0,0,0,0,0
2018,4,18,2,0,,12.5,7.5,72,100890,0,0,304,0,0,0,0,0,0,0,320,4.3,0,0,0,0,0,0,0,0,0,0,0,0,0
2018,4,18,3,0,,12.2,7.8,75,100850,0,0,303,0,0,0,0,0,0,0,340,2.3,0,0,0,0,0,0,0,0,0,0,0,0,0
2018,4,18,4,0,,12.2,7.6,74,100830,0,0,303,0,0,0,0,0,0,0,290,3.3,0,0,0,0,0,0,0,0,0,0,0,0,0
2018,4,18,5,0,,12.2,6.8,70,100840,0,0,302,0,0,0,0,0,0,0,290,3.4,0,0,0,0,0,0,0,0,0,0,0,0,0
2018,4,18,6,0,,12.2,6.8,70,100880,0,0,302,0,0,0,0,0,0,0,320,5.1,0,0,0,0,0,0,0,0,0,0,0,0,0
2018,4,18,7,0,,12.8,7,68,100920,0,0,305,100,69,31,8528,6607,5269,0,340,4,0,0,0,0,0,0,0,0,0,0,0,0,0
2018,4,18,8,0,,15.2,7.4,60,100930,0,0,316,283,622,74,53121,64037,10717,0,160,1.4,0,0,0,0,0,0,0,0,0,0,0,0,0
2018,4,18,9,0,,17.3,8.1,55,100960,0,0,326,478,697,111,71846,71789,14881,0,110,1.5,0,0,0,0,0,0,0,0,0,0,0,0,0
2018,4,18,10,0,,18,8.5,54,100970,0,0,330,638,693,159,82364,70854,20141,0,200,3.3,0,0,0,0,0,0,0,0,0,0,0,0,0
2018,4,18,11,0,,18.4,9.9,58,101000,0,0,333,730,612,232,85531,61133,29870,0,200,3.5,0,0,0,0,0,0,0,0,0,0,0,0,0
2018,4,18,12,0,,19,8.6,51,100940,0,0,334,780,553,290,84164,54270,35960,0,200,3.9,0,0,0,0,0,0,0,0,0,0,0,0,0
2018,4,18,13,0,,18.7,9.4,55,100890,0,0,334,800,548,302,80592,53370,37207,0,200,5,0,0,0,0,0,0,0,0,0,0,0,0,0
2018,4,18,14,0,,18.1,9.6,58,100860,0,0,331,746,503,306,70704,48407,37317,0,200,4.9,0,0,0,0,0,0,0,0,0,0,0,0,0
2018,4,18,15,0,,17.7,7.9,53,100800,0,0,327,676,536,252,57544,50470,30944,0,230,6.7,0,0,0,0,0,0,0,0,0,0,0,0,0
2018,4,18,16,0,,17.7,5.9,46,100750,0,0,325,572,603,176,39077,51419,21801,0,230,6.5,0,0,0,0,0,0,0,0,0,0,0,0,0
2018,4,18,17,0,,17.3,6.1,48,100710,0,0,324,414,607,119,17871,31345,13809,0,200,5.7,0,0,0,0,0,0,0,0,0,0,0,0,0
2018,4,18,18,0,,16.3,3.3,42,100730,0,0,316,239,595,66,0,0,0,0,250,4.7,0,0,0,0,0,0,0,0,0,0,0,0,0
2018,4,18,19,0,,15.2,3,44,100730,0,0,311,69,45,24,0,0,0,0,250,4.8,0,0,0,0,0,0,0,0,0,0,0,0,0
2018,4,18,20,0,,14.8,1.3,40,100740,0,0,307,0,0,0,0,0,0,0,250,4.6,0,0,0,0,0,0,0,0,0,0,0,0,0
2018,4,18,21,0,,13.6,7.1,65,100770,0,0,308,0,0,0,0,0,0,0,230,3.4,0,0,0,0,0,0,0,0,0,0,0,0,0
2018,4,18,22,0,,13.5,5.8,60,100820,0,0,306,0,0,0,0,0,0,0,200,3.6,0,0,0,0,0,0,0,0,0,0,0,0,0
2018,4,18,23,0,,13.7,0.9,42,100810,0,0,302,0,0,0,0,0,0,0,230,2.7,0,0,0,0,0,0,0,0,0,0,0,0,0
2018,4,18,24,0,,13.8,1.7,44,100800,0,0,303,0,0,0,0,0,0,0,250,3.3,0,0,0,0,0,0,0,0,0,0,0,0,0
2018,4,19,1,0,,13.6,2.7,48,100790,0,0,303,0,0,0,0,0,0,0,230,2.6,0,0,0,0,0,0,0,0,0,0,0,0,0
2018,4,19,2,0,,13.3,4.4,55,100770,0,0,304,0,0,0,0,0,0,0,230,3.1,0,0,0,0,0,0,0,0,0,0,0,0,0
2018,4,19,3,0,,13,4.9,58,100730,0,0,303,0,0,0,0,0,0,0,250,3,0,0,0,0,0,0,0,0,0,0,0,0,0
2018,4,19,4,0,,12.3,4.7,60,100720,0,0,300,0,0,0,0,0,0,0,270,2.3,0,0,0,0,0,0,0,0,0,0,0,0,0
2018,4,19,5,0,,11.9,4.8,62,100730,0,0,298,0,0,0,0,0,0,0,290,3.1,0,0,0,0,0,0,0,0,0,0,0,0,0
2018,4,19,6,0,,11.5,4.6,63,100760,0,0,296,0,0,0,0,0,0,0,250,2,0,0,0,0,0,0,0,0,0,0,0,0,0
2018,4,19,7,0,,13.1,5.9,62,100820,0,0,305,106,76,30,8750,7338,5104,0,250,4,0,0,0,0,0,0,0,0,0,0,0,0,0
2018,4,19,8,0,,15.2,5.6,53,100890,0,0,314,302,698,65,56510,70994,9264,0,270,3.2,0,0,0,0,0,0,0,0,0,0,0,0,0
2018,4,19,9,0,,16.9,4.8,45,100920,0,0,320,500,757,98,74783,77234,13267,0,250,3.2,0,0,0,0,0,0,0,0,0,0,0,0,0
2018,4,19,10,0,,17.8,9.4,58,100950,0,0,330,643,698,159,83052,71490,20078,0,200,4.7,0,0,0,0,0,0,0,0,0,0,0,0,0
2018,4,19,11,0,,16.9,10.9,68,100970,0,0,327,699,530,267,81203,52412,33352,0,200,5.3,0,0,0,0,0,0,0,0,0,0,0,0,0
2018,4,19,12,0,,16.8,9.7,63,100930,0,0,325,760,499,315,82083,48730,38688,0,200,6.9,0,0,0,0,0,0,0,0,0,0,0,0,0
2018,4,19,13,0,,17.3,9.2,59,100880,0,0,327,772,480,334,78450,46763,40333,0,200,6.2,0,0,0,0,0,0,0,0,0,0,0,0,0
2018,4,19,14,0,,18.7,8,50,100810,0,0,332,802,626,253,73861,60876,31741,0,180,5.9,0,0,0,0,0,0,0,0,0,0,0,0,0
2018,4,19,15,0,,18,8.2,53,100750,0,0,329,698,586,234,58404,55234,29169,0,180,5.4,0,0,0,0,0,0,0,0,0,0,0,0,0
2018,4,19,16,0,,18.6,6.4,45,100720,0,0,330,584,632,168,39322,53933,21072,0,180,5.1,0,0,0,0,0,0,0,0,0,0,0,0,0
2018,4,19,17,0,,19,4.3,38,100710,0,0,329,434,674,105,17229,36035,12465,0,250,5.5,0,0,0,0,0,0,0,0,0,0,0,0,0
2018,4,19,18,0,,18.1,4.6,41,100710,0,0,326,255,680,57,0,0,0,0,230,4.5,0,0,0,0,0,0,0,0,0,0,0,0,0
2018,4,19,19,0,,17.7,3.9,40,100730,0,0,323,75,54,21,0,0,0,0,230,5.8,0,0,0,0,0,0,0,0,0,0,0,0,0
2018,4,19,20,0,,16.1,4.4,46,100790,0,0,316,0,0,0,0,0,0,0,230,3.6,0,0,0,0,0,0,0,0,0,0,0,0,0
2018,4,19,21,0,,16.2,4.5,46,100820,0,0,317,0,0,0,0,0,0,0,250,4.4,0,0,0,0,0,0,0,0,0,0,0,0,0
2018,4,19,22,0,,15.1,7.6,61,100870,0,0,315,0,0,0,0,0,0,0,230,3.4,0,0,0,0,0,0,0,0,0,0,0,0,0
2018,4,19,23,0,,14.7,6,56,100880,0,0,312,0,0,0,0,0,0,0,270,3.3,0,0,0,0,0,0,0,0,0,0,0,0,0
2018,4,19,24,0,,15.6,2,40,100900,0,0,311,0,0,0,0,0,0,0,320,3.1,0,0,0,0,0,0,0,0,0,0,0,0,0
2018,4,20,1,0,,16.1,1.7,38,100910,0,0,313,0,0,0,0,0,0,0,320,5,0,0,0,0,0,0,0,0,0,0,0,0,0
2018,4,20,2,0,,16.8,1.2,35,100930,0,0,316,0,0,0,0,0,0,0,320,4.9,0,0,0,0,0,0,0,0,0,0,0,0,0
2018,4,20,3,0,,17.2,1.1,34,100980,0,0,317,0,0,0,0,0,0,0,340,2.2,0,0,0,0,0,0,0,0,0,0,0,0,0
2018,4,20,4,0,,16.2,2.2,39,101020,0,0,314,0,0,0,0,0,0,0,110,1.6,0,0,0,0,0,0,0,0,0,0,0,0,0
2018,4,20,5,0,,14.8,4.1,49,101020,0,0,310,0,0,0,0,0,0,0,230,1.6,0,0,0,0,0,0,0,0,0,0,0,0,0
2018,4,20,6,0,,15.1,3.2,45,101060,0,0,310,0,0,0,0,0,0,0,50,1.8,0,0,0,0,0,0,0,0,0,0,0,0,0
2018,4,20,7,0,,15.4,5.3,51,101120,0,0,314,105,71,34,8339,6873,4900,0,90,1.2,0,0,0,0,0,0,0,0,0,0,0,0,0
2018,4,20,8,0,,17,8.1,56,101160,0,0,324,290,625,76,53949,64362,10909,0,250,1.3,0,0,0,0,0,0,0,0,0,0,0,0,0
2018,4,20,9,0,,19.1,7.8,48,101180,0,0,334,476,668,119,70794,68704,15872,0,230,1.2,0,0,0,0,0,0,0,0,0,0,0,0,0
2018,4,20,10,0,,19.8,6.8,43,101230,0,0,336,648,702,158,83350,71749,19958,0,230,2,0,0,0,0,0,0,0,0,0,0,0,0,0
2018,4,20,11,0,,22.4,6.5,36,101250,0,0,348,784,727,189,90671,73814,23105,0,230,1.9,0,0,0,0,0,0,0,0,0,0,0,0,0
2018,4,20,12,0,,22.7,8,39,101270,0,0,351,839,673,238,90258,67173,30288,0,200,3.1,0,0,0,0,0,0,0,0,0,0,0,0,0
2018,4,20,13,0,,22.7,7.2,37,101260,0,0,350,842,631,266,83733,62174,32920,0,230,2.6,0,0,0,0,0,0,0,0,0,0,0,0,0
2018,4,20,14,0,,23.4,7.4,36,101210,0,0,354,781,572,278,72801,55651,34176,0,200,2.4,0,0,0,0,0,0,0,0,0,0,0,0,0
2018,4,20,15,0,,23.1,7.2,36,101160,0,0,352,702,590,233,58692,55777,29045,0,200,2.8,0,0,0,0,0,0,0,0,0,0,0,0,0
2018,4,20,16,0,,23.3,6.9,35,101130,0,0,353,580,613,175,39630,52136,21863,0,230,2.3,0,0,0,0,0,0,0,0,0,0,0,0,0
2018,4,20,17,0,,22.2,5.5,34,101110,0,0,346,413,591,123,18554,31343,14328,0,230,2.8,0,0,0,0,0,0,0,0,0,0,0,0,0
2018,4,20,18,0,,20.4,5.2,37,101130,0,0,337,235,552,73,0,0,0,0,230,2.7,0,0,0,0,0,0,0,0,0,0,0,0,0
2018,4,20,19,0,,18.7,6.5,45,101130,0,0,330,65,36,29,0,0,0,0,230,1.9,0,0,0,0,0,0,0,0,0,0,0,0,0
2018,4,20,20,0,,18,4.8,42,101150,0,0,325,0,0,0,0,0,0,0,230,1.9,0,0,0,0,0,0,0,0,0,0,0,0,0
2018,4,20,21,0,,17.4,7.9,54,101190,0,0,326,0,0,0,0,0,0,0,230,2.9,0,0,0,0,0,0,0,0,0,0,0,0,0
2018,4,20,22,0,,16.9,10.2,65,101200,0,0,326,0,0,0,0,0,0,0,230,3.4,0,0,0,0,0,0,0,0,0,0,0,0,0
2018,4,20,23,0,,16.3,8.5,60,101170,0,0,322,0,0,0,0,0,0,0,230,1.5,0,0,0,0,0,0,0,0,0,0,0,0,0
2018,4,20,24,0,,15.4,8.6,64,101140,0,0,318,0,0,0,0,0,0,0,270,2.7,0,0,0,0,0,0,0,0,0,0,0,0,0
2018,4,21,1,0,,17,4.3,43,101100,0,0,320,0,0,0,0,0,0,0,270,3.5,0,0,0,0,0,0,0,0,0,0,0,0,0
2018,4,21,2,0,,17.2,1.5,35,101060,0,0,318,0,0,0,0,0,0,0,270,3,0,0,0,0,0,0,0,0,0,0,0,0,0
2018,4,21,3,0,,17,1,34,101030,0,0,316,0,0,0,0,0,0,0,0,0.4,0,0,0,0,0,0,0,0,0,0,0,0,0
2018,4,21,4,0,,15.4,6.3,55,101020,0,0,315,0,0,0,0,0,0,0,250,2.1,0,0,0,0,0,0,0,0,0,0,0,0,0
2018,4,21,5,0,,14,8.8,71,101010,0,0,312,0,0,0,0,0,0,0,230,2,0,0,0,0,0,0,0,0,0,0,0,0,0
2018,4,21,6,0,,14,7,63,101040,0,0,310,0,0,0,0,0,0,0,200,1.2,0,0,0,0,0,0,0,0,0,0,0,0,0
2018,4,21,7,0,,14.9,8.3,65,101110,0,0,315,106,69,37,8629,6631,5289,0,230,2.3,0,0,0,0,0,0,0,0,0,0,0,0,0
2018,4,21,8,0,,16.8,9.4,62,101150,0,0,325,299,649,73,55034,66359,10448,0,200,3.6,0,0,0,0,0,0,0,0,0,0,0,0,0
2018,4,21,9,0,,18.9,10.1,57,101130,0,0,335,491,705,112,73419,72809,15008,0,200,2.6,0,0,0,0,0,0,0,0,0,0,0,0,0
2018,4,21,10,0,,19.7,9.8,53,101140,0,0,339,653,708,158,84209,72501,19965,0,200,4.5,0,0,0,0,0,0,0,0,0,0,0,0,0
2018,4,21,11,0,,19.7,12.6,64,101160,0,0,342,727,583,248,84732,57711,31770,0,200,5.1,0,0,0,0,0,0,0,0,0,0,0,0,0
2018,4,21,12,0,,21,9.2,47,101150,0,0,344,821,626,260,88105,62051,32572,0,180,4.6,0,0,0,0,0,0,0,0,0,0,0,0,0
2018,4,21,13,0,,23,7.5,37,101100,0,0,352,857,658,254,85100,64982,31855,0,230,3.5,0,0,0,0,0,0,0,0,0,0,0,0,0
2018,4,21,14,0,,22.1,8.9,43,101070,0,0,349,829,675,233,75682,65814,29864,0,230,5.6,0,0,0,0,0,0,0,0,0,0,0,0,0
2018,4,21,15,0,,22.8,8.1,39,101030,0,0,363,717,622,222,59313,58632,28019,0,230,4.7,2,0,0,0,0,0,0,0,0,0,0,0,0
2018,4,21,16,0,,22.7,8,39,101010,0,0,363,579,606,178,39918,51405,22278,0,230,4.9,2,0,0,0,0,0,0,0,0,0,0,0,0
2018,4,21,17,0,,21.7,5.5,35,101020,0,0,364,380,463,152,20101,23016,16938,0,230,5.2,5,0,0,0,0,0,0,0,0,0,0,0,0
2018,4,21,18,0,,20.4,9.9,51,101020,0,0,370,168,216,104,0,0,0,0,230,4.1,7,0,0,0,0,0,0,0,0,0,0,0,0
2018,4,21,19,0,,19.3,11.3,60,101040,0,0,365,47,16,30,0,0,0,0,270,4.9,7,0,0,0,0,0,0,0,0,0,0,0,0
2018,4,21,20,0,,18.5,12.6,69,101080,0,0,361,0,0,0,0,0,0,0,250,5,6,0,0,0,0,0,0,0,0,0,0,0,0
2018,4,21,21,0,,18.8,13.2,70,101140,0,0,362,0,0,0,0,0,0,0,250,6.2,6,0,0,0,0,0,0,0,0,0,0,0,0
2018,4,21,22,0,,18.6,13.2,71,101170,0,0,363,0,0,0,0,0,0,0,270,5.3,7,0,0,0,0,0,0,0,0,0,0,0,0
2018,4,21,23,0,,18.2,13.2,73,101160,0,0,365,0,0,0,0,0,0,0,270,4.5,7,0,0,0,0,0,0,0,0,0,0,0,0
2018,4,21,24,0,,18.1,13.7,76,101150,0,0,369,0,0,0,0,0,0,0,270,4,8,0,0,0,0,0,0,0,0,0,0,0,0
2018,4,22,1,0,,18,14,78,101140,0,0,369,0,0,0,0,0,0,0,270,3.5,8,0,0,0,0,0,0,0,0,0,0,0,0
2018,4,22,2,0,,17.8,14.2,80,101110,0,0,368,0,0,0,0,0,0,0,250,3.2,8,0,0,0,0,0,0,0,0,0,0,0,0
2018,4,22,3,0,,17.5,14.5,83,101090,0,0,367,0,0,0,0,0,0,0,250,2.9,8,0,0,0,0,0,0,0,0,0,0,0,0
2018,4,22,4,0,,16.2,14.2,88,101090,0,0,368,0,0,0,0,0,0,0,250,1.4,9,0,0,0,0,0,0,0,0,0,0,0,0
2018,4,22,5,0,,16.7,14.5,87,101090,0,0,381,0,0,0,0,0,0,0,250,3.1,10,0,0,0,0,0,0,0,0,0,0,0,0
2018,4,22,6,0,,17.2,15,87,101100,0,0,366,1,0,1,139,0,139,0,270,3.7,8,0,0,0,0,0,0,0,0,0,0,0,0
2018,4,22,7,0,,18.1,15.1,83,101150,0,0,379,56,12,44,5888,1078,5341,0,270,3.3,9,0,0,0,0,0,0,0,0,0,0,0,0
2018,4,22,8,0,,18.2,15.6,85,101200,0,0,391,106,34,94,13347,3032,11301,0,230,2.5,10,0,0,0,0,0,0,0,0,0,0,0,0
2018,4,22,9,0,,18.8,15.8,83,101230,0,0,394,178,35,159,21396,3194,18824,0,230,3.5,10,0,0,0,0,0,0,0,0,0,0,0,0
2018,4,22,10,0,,20.1,15.5,75,101220,0,0,390,311,69,262,37604,6483,31843,0,230,4.2,9,0,0,0,0,0,0,0,0,0,0,0,0
2018,4,22,11,0,,21.3,15.3,69,101200,0,0,396,390,74,328,44476,6921,38109,0,200,3.3,9,0,0,0,0,0,0,0,0,0,0,0,0
2018,4,22,12,0,,21.2,15,68,101160,0,0,406,326,34,295,37153,3188,34293,0,160,2.4,10,0,0,0,0,0,0,0,0,0,0,0,0
2018,4,22,13,0,,19.9,15.5,76,101150,0,0,400,269,19,252,31064,1324,29977,0,160,1.4,10,0,0,0,0,0,0,0,0,0,0,0,0
2018,4,22,14,0,,16.8,10.8,68,101170,0,0,377,216,12,206,24956,836,24372,0,90,3.4,10,0,0,0,0,0,0,0,0,0,0,0,0
2018,4,22,15,0,,18,10.3,61,101070,0,0,372,297,40,265,32161,3736,30158,0,110,3.3,9,0,0,0,0,0,0,0,0,0,0,0,0
2018,4,22,16,0,,18.1,10.2,60,101040,0,0,359,385,150,285,36502,13666,31781,0,90,3.4,7,0,0,0,0,0,0,0,0,0,0,0,0
2018,4,22,17,0,,16.7,9.8,64,101030,0,0,365,214,79,175,20051,5858,19231,0,90,3.9,9,0,0,0,0,0,0,0,0,0,0,0,0
2018,4,22,18,0,,15.5,9.3,67,101020,0,0,358,110,61,92,0,0,0,0,90,3.5,9,0,0,0,0,0,0,0,0,0,0,0,0
2018,4,22,19,0,,14.9,8.5,66,101040,0,0,354,28,4,24,0,0,0,0,70,2,9,0,0,0,0,0,0,0,0,0,0,0,0
2018,4,22,20,0,,14.8,8.2,65,101080,0,0,353,0,0,0,0,0,0,0,70,2.9,9,0,0,0,0,0,0,0,0,0,0,0,0
2018,4,22,21,0,,14.8,7.3,61,101110,0,0,352,0,0,0,0,0,0,0,50,3.8,9,0,0,0,0,0,0,0,0,0,0,0,0
2018,4,22,22,0,,14.2,7.4,64,101120,0,0,352,0,0,0,0,0,0,0,70,5.2,9,0,0,0,0,0,0,0,0,0,0,0,0
2018,4,22,23,0,,13.8,7.7,67,101100,0,0,354,0,0,0,0,0,0,0,50,4.8,10,0,0,0,0,0,0,0,0,0,0,0,0
2018,4,22,24,0,,13.5,7.7,68,101110,0,0,356,0,0,0,0,0,0,0,50,4.8,10,0,0,0,0,0,0,0,0,0,0,0,0
2018,4,23,1,0,,13.4,7.8,69,101070,0,0,356,0,0,0,0,0,0,0,50,4.6,10,0,0,0,0,0,0,0,0,0,0,0,0
2018,4,23,2,0,,13.3,7.2,67,101050,0,0,354,0,0,0,0,0,0,0,50,3.6,10,0,0,0,0,0,0,0,0,0,0,0,0
2018,4,23,3,0,,13.1,7.7,70,101010,0,0,354,0,0,0,0,0,0,0,50,4.5,10,0,0,0,0,0,0,0,0,0,0,0,0
2018,4,23,4,0,,12.8,7.8,72,100980,0,0,353,0,0,0,0,0,0,0,50,3.9,10,0,0,0,0,0,0,0,0,0,0,0,0
2018,4,23,5,0,,12.7,7.7,72,100950,0,0,352,0,0,0,0,0,0,0,50,4.6,10,0,0,0,0,0,0,0,0,0,0,0,0
2018,4,23,6,0,,11.9,9,83,100970,0,0,350,0,0,0,0,0,0,0,50,5.1,10,0,0,0,0,0,0,0,0,0,0,0,0
2018,4,23,7,0,,11.3,9.7,90,100970,0,0,348,32,2,29,3884,102,3832,0,50,4.5,10,0,0,0,0,0,0,0,0,0,0,0,0
2018,4,23,8,0,,11.3,9.8,91,101030,0,0,348,84,17,78,10327,1542,9281,0,50,3.6,10,0,0,0,0,0,0,0,0,0,0,0,0
2018,4,23,9,0,,11.5,9.9,90,101030,0,0,349,158,25,145,18896,2324,17019,0,50,3.9,10,0,0,0,0,0,0,0,0,0,0,0,0
2018,4,23,10,0,,11.9,9.9,88,101010,0,0,351,210,23,194,24645,2177,22706,0,50,3.7,10,0,0,0,0,0,0,0,0,0,0,0,0
2018,4,23,11,0,,12.1,10.3,89,100990,0,0,353,257,24,238,29746,2239,27682,0,50,3.8,10,0,0,0,0,0,0,0,0,0,0,0,0
2018,4,23,12,0,,11.8,10.5,92,100900,0,0,352,261,18,244,29953,1745,28384,0,50,4.4,10,0,0,0,0,0,0,0,0,0,0,0,0
2018,4,23,13,0,,11.9,10.7,93,100830,0,0,352,262,17,246,30526,1273,29478,0,50,4.3,10,0,0,0,0,0,0,0,0,0,0,0,0
2018,4,23,14,0,,11.6,10.5,93,100780,0,0,351,242,16,228,27641,1181,26814,0,50,4,10,0,0,0,0,0,0,0,0,0,0,0,0
2018,4,23,15,0,,11.7,10.7,94,100680,0,0,351,231,20,216,25314,1502,24506,0,50,4.6,10,0,0,0,0,0,0,0,0,0,0,0,0
2018,4,23,16,0,,11.9,10.7,93,100610,0,0,352,187,20,173,19456,1390,18972,0,50,4.2,10,0,0,0,0,0,0,0,0,0,0,0,0
2018,4,23,17,0,,11.8,10.5,92,100600,0,0,352,142,25,130,13399,1274,13218,0,50,5.1,10,0,0,0,0,0,0,0,0,0,0,0,0
2018,4,23,18,0,,11.9,10.9,94,100540,0,0,353,78,23,71,0,0,0,0,50,3.8,10,0,0,0,0,0,0,0,0,0,0,0,0
2018,4,23,19,0,,11.8,10.8,94,100570,0,0,352,20,1,19,0,0,0,0,50,3.5,10,0,0,0,0,0,0,0,0,0,0,0,0
2018,4,23,20,0,,11.7,10.7,94,100600,0,0,351,0,0,0,0,0,0,0,50,4,10,0,0,0,0,0,0,0,0,0,0,0,0
2018,4,23,21,0,,11.5,10.5,94,100610,0,0,350,0,0,0,0,0,0,0,50,5.2,10,0,0,0,0,0,0,0,0,0,0,0,0
2018,4,23,22,0,,11.3,10.3,94,100530,0,0,349,0,0,0,0,0,0,0,50,5,10,0,0,0,0,0,0,0,0,0,0,0,0
2018,4,23,23,0,,11.1,10.1,94,100490,0,0,348,0,0,0,0,0,0,0,50,4.8,10,0,0,0,0,0,0,0,0,0,0,0,0
2018,4,23,24,0,,11,10,94,100400,0,0,347,0,0,0,0,0,0,0,50,5.3,10,0,0,0,0,0,0,0,0,0,0,0,0
2018,4,24,1,0,,11,9.9,93,100310,0,0,347,0,0,0,0,0,0,0,50,3.9,10,0,0,0,0,0,0,0,0,0,0,0,0
2018,4,24,2,0,,11,10,94,100230,0,0,347,0,0,0,0,0,0,0,50,4.6,10,0,0,0,0,0,0,0,0,0,0,0,0
2018,4,24,3,0,,11,10,94,100120,0,0,347,0,0,0,0,0,0,0,50,4.6,10,0,0,0,0,0,0,0,0,0,0,0,0
2018,4,24,4,0,,11.1,10.1,94,100110,0,0,348,0,0,0,0,0,0,0,50,4.6,10,0,0,0,0,0,0,0,0,0,0,0,0
2018,4,24,5,0,,11.2,10.2,94,100070,0,0,348,0,0,0,0,0,0,0,50,3.9,10,0,0,0,0,0,0,0,0,0,0,0,0
2018,4,24,6,0,,11.1,10.1,94,100040,0,0,348,0,0,0,0,0,0,0,50,4.4,10,0,0,0,0,0,0,0,0,0,0,0,0
2018,4,24,7,0,,11,10,94,100050,0,0,347,37,22,34,5596,2117,4508,0,50,4.8,10,0,0,0,0,0,0,0,0,0,0,0,0
2018,4,24,8,0,,10.9,9.9,94,100020,0,0,346,100,27,91,12487,2502,10783,0,50,5.3,10,0,0,0,0,0,0,0,0,0,0,0,0
2018,4,24,9,0,,11.4,10.4,94,100030,0,0,350,157,24,144,18825,2251,17000,0,50,4.2,10,0,0,0,0,0,0,0,0,0,0,0,0
2018,4,24,10,0,,11.9,10.6,92,100070,0,0,352,206,22,191,24192,2026,22381,0,50,4.1,10,0,0,0,0,0,0,0,0,0,0,0,0
2018,4,24,11,0,,12.2,10.6,90,100030,0,0,354,270,27,248,31195,2531,28855,0,50,5,10,0,0,0,0,0,0,0,0,0,0,0,0
2018,4,24,12,0,,13.8,11.1,84,99990,0,0,362,313,30,286,35642,2870,33056,0,50,4.1,10,0,0,0,0,0,0,0,0,0,0,0,0
2018,4,24,13,0,,14.1,10.3,78,99970,0,0,362,336,34,304,37679,3266,34982,0,50,4.8,10,0,0,0,0,0,0,0,0,0,0,0,0
2018,4,24,14,0,,14.2,10.2,77,99970,0,0,363,332,37,298,36628,3584,34111,0,50,4.6,10,0,0,0,0,0,0,0,0,0,0,0,0
2018,4,24,15,0,,14.2,9.6,74,99930,0,0,362,283,34,256,30240,2842,28705,0,50,5.7,10,0,0,0,0,0,0,0,0,0,0,0,0
2018,4,24,16,0,,13.6,9.8,78,99930,0,0,359,210,27,192,21566,2057,20846,0,50,6.3,10,0,0,0,0,0,0,0,0,0,0,0,0
2018,4,24,17,0,,12.8,9.2,79,99990,0,0,355,142,25,130,13488,1294,13300,0,50,4.6,10,0,0,0,0,0,0,0,0,0,0,0,0
2018,4,24,18,0,,12.4,8.8,79,100040,0,0,352,79,23,72,0,0,0,0,50,5,10,0,0,0,0,0,0,0,0,0,0,0,0
2018,4,24,19,0,,11.8,8,78,100080,0,0,348,21,2,20,0,0,0,0,50,5.3,10,0,0,0,0,0,0,0,0,0,0,0,0
2018,4,24,20,0,,11.6,7.6,77,100190,0,0,347,0,0,0,0,0,0,0,50,3.7,10,0,0,0,0,0,0,0,0,0,0,0,0
2018,4,24,21,0,,11.4,6.7,73,100340,0,0,344,0,0,0,0,0,0,0,20,4,10,0,0,0,0,0,0,0,0,0,0,0,0
2018,4,24,22,0,,11.1,6.4,73,100310,0,0,336,0,0,0,0,0,0,0,50,4.4,9,0,0,0,0,0,0,0,0,0,0,0,0
2018,4,24,23,0,,10.8,5.5,70,100250,0,0,328,0,0,0,0,0,0,0,50,3.8,9,0,0,0,0,0,0,0,0,0,0,0,0
2018,4,24,24,0,,10.7,3.2,60,100220,0,0,320,0,0,0,0,0,0,0,50,3.7,8,0,0,0,0,0,0,0,0,0,0,0,0
2018,4,25,1,0,,10.3,2.8,60,100220,0,0,311,0,0,0,0,0,0,0,50,1.7,6,0,0,0,0,0,0,0,0,0,0,0,0
2018,4,25,2,0,,9.7,1.8,58,100230,0,0,302,0,0,0,0,0,0,0,360,1.2,5,0,0,0,0,0,0,0,0,0,0,0,0
2018,4,25,3,0,,9.6,0.7,54,100230,0,0,297,0,0,0,0,0,0,0,70,1.5,3,0,0,0,0,0,0,0,0,0,0,0,0
2018,4,25,4,0,,8.4,0.1,56,100250,0,0,279,0,0,0,0,0,0,0,20,1.7,0,0,0,0,0,0,0,0,0,0,0,0,0
2018,4,25,5,0,,8.3,-2.3,47,100310,0,0,276,0,0,0,0,0,0,0,50,1.7,0,0,0,0,0,0,0,0,0,0,0,0,0
2018,4,25,6,0,,8.2,-3.9,42,100390,0,0,274,13,5,8,1103,452,956,0,70,0.7,0,0,0,0,0,0,0,0,0,0,0,0,0
2018,4,25,7,0,,10,-4,37,100470,0,0,282,132,643,31,37735,63720,4788,0,110,1.2,0,0,0,0,0,0,0,0,0,0,0,0,0
2018,4,25,8,0,,12.8,-3.9,31,100530,0,0,293,346,807,54,63430,81448,7733,0,50,3.1,0,0,0,0,0,0,0,0,0,0,0,0,0
2018,4,25,9,0,,14.8,-2.6,30,100560,0,0,303,556,870,76,82269,88349,10441,0,50,3,0,0,0,0,0,0,0,0,0,0,0,0,0
2018,4,25,10,0,,16.5,-3.6,25,100550,0,0,309,721,852,114,92328,86365,14962,0,50,2.7,0,0,0,0,0,0,0,0,0,0,0,0,0
2018,4,25,11,0,,17.9,-4.1,22,100510,0,0,315,830,798,165,95374,81174,20159,0,70,2.9,0,0,0,0,0,0,0,0,0,0,0,0,0
2018,4,25,12,0,,16.7,5,46,100500,0,0,320,809,577,287,86296,57312,34527,0,110,4.2,0,0,0,0,0,0,0,0,0,0,0,0,0
2018,4,25,13,0,,17.4,6.2,48,100500,0,0,324,804,521,322,81158,51475,38565,0,110,3.7,0,0,0,0,0,0,0,0,0,0,0,0,0
2018,4,25,14,0,,18.2,6,45,100460,0,0,328,774,532,301,72829,52101,36132,0,90,3.1,0,0,0,0,0,0,0,0,0,0,0,0,0
2018,4,25,15,0,,18.4,5.5,43,100430,0,0,328,711,586,239,59779,56055,29378,0,110,2.8,0,0,0,0,0,0,0,0,0,0,0,0,0
2018,4,25,16,0,,17.8,6.3,47,100410,0,0,326,579,583,188,40898,50299,23169,0,110,3.4,0,0,0,0,0,0,0,0,0,0,0,0,0
2018,4,25,17,0,,16.8,5,46,100470,0,0,320,412,548,136,20252,30984,15675,0,110,3.6,0,0,0,0,0,0,0,0,0,0,0,0,0
2018,4,25,18,0,,15.3,4.3,48,100480,0,0,313,240,522,80,0,0,0,0,110,2.4,0,0,0,0,0,0,0,0,0,0,0,0,0
2018,4,25,19,0,,13.9,3.6,50,100510,0,0,306,70,39,31,0,0,0,0,110,1.9,0,0,0,0,0,0,0,0,0,0,0,0,0
2018,4,25,20,0,,13.1,3.4,52,100590,0,0,302,0,0,0,0,0,0,0,90,1.9,0,0,0,0,0,0,0,0,0,0,0,0,0
2018,4,25,21,0,,12.4,3.5,55,100680,0,0,299,0,0,0,0,0,0,0,140,1.4,0,0,0,0,0,0,0,0,0,0,0,0,0
2018,4,25,22,0,,11.9,2.8,54,100710,0,0,296,0,0,0,0,0,0,0,140,0.9,0,0,0,0,0,0,0,0,0,0,0,0,0
2018,4,25,23,0,,11.1,3.1,58,100690,0,0,293,0,0,0,0,0,0,0,0,0.1,0,0,0,0,0,0,0,0,0,0,0,0,0
2018,4,25,24,0,,10.9,3.4,60,100670,0,0,293,0,0,0,0,0,0,0,0,0,0,0,0,0,0,0,0,0,0,0,0,0,0
2018,4,26,1,0,,10.8,3.3,60,100660,0,0,292,0,0,0,0,0,0,0,90,0.9,0,0,0,0,0,0,0,0,0,0,0,0,0
2018,4,26,2,0,,10.3,3.7,64,100630,0,0,291,0,0,0,0,0,0,0,0,0.1,0,0,0,0,0,0,0,0,0,0,0,0,0
2018,4,26,3,0,,10,3.9,66,100600,0,0,290,0,0,0,0,0,0,0,160,0.5,0,0,0,0,0,0,0,0,0,0,0,0,0
2018,4,26,4,0,,9.7,3.6,66,100620,0,0,288,0,0,0,0,0,0,0,0,0,0,0,0,0,0,0,0,0,0,0,0,0,0
2018,4,26,5,0,,9.6,3.9,68,100640,0,0,288,0,0,0,0,0,0,0,0,0.2,0,0,0,0,0,0,0,0,0,0,0,0,0
2018,4,26,6,0,,9.4,3.3,66,100640,0,0,286,13,5,8,1177,403,1045,0,360,0.6,0,0,0,0,0,0,0,0,0,0,0,0,0
2018,4,26,7,0,,11,3.7,61,100690,0,0,309,118,470,43,31509,47710,6690,0,270,1.6,4,0,0,0,0,0,0,0,0,0,0,0,0
2018,4,26,8,0,,13.1,4.5,56,100730,0,0,324,258,378,120,43672,38302,17372,0,270,0.5,6,0,0,0,0,0,0,0,0,0,0,0,0
2018,4,26,9,0,,14.9,5.9,55,100740,0,0,343,347,214,229,45209,21701,27511,0,200,2.3,8,0,0,0,0,0,0,0,0,0,0,0,0
2018,4,26,10,0,,16.8,6.5,51,100710,0,0,348,509,263,321,61128,26495,37333,0,200,2.4,7,0,0,0,0,0,0,0,0,0,0,0,0
2018,4,26,11,0,,16.8,7.1,53,100700,0,0,345,622,265,401,70194,26604,45487,0,200,4.3,6,0,0,0,0,0,0,0,0,0,0,0,0
2018,4,26,12,0,,17.1,9.5,61,100650,0,0,359,523,120,414,58077,11765,47427,0,200,4,8,0,0,0,0,0,0,0,0,0,0,0,0
2018,4,26,13,0,,17.6,9.4,59,100580,0,0,355,591,156,446,63335,15245,50691,0,200,4.3,7,0,0,0,0,0,0,0,0,0,0,0,0
2018,4,26,14,0,,17.1,9.2,60,100560,0,0,353,563,156,424,58648,15036,48028,0,200,5.2,7,0,0,0,0,0,0,0,0,0,0,0,0
2018,4,26,15,0,,17.2,9.1,59,100490,0,0,353,499,158,371,49993,15348,41637,0,200,5.2,7,0,0,0,0,0,0,0,0,0,0,0,0
2018,4,26,16,0,,17.5,7.8,53,100470,0,0,346,499,313,288,41805,26768,32309,0,200,4.3,5,0,0,0,0,0,0,0,0,0,0,0,0
2018,4,26,17,0,,17.1,8.7,58,100420,0,0,340,406,520,144,20541,27011,16481,0,200,3.9,3,0,0,0,0,0,0,0,0,0,0,0,0
2018,4,26,18,0,,16.5,9.8,65,100390,0,0,346,193,290,103,0,0,0,0,230,3.1,6,0,0,0,0,0,0,0,0,0,0,0,0
2018,4,26,19,0,,15.3,9.1,67,100400,0,0,342,50,17,33,0,0,0,0,250,3.7,7,0,0,0,0,0,0,0,0,0,0,0,0
2018,4,26,20,0,,14.8,10.4,75,100400,0,0,345,0,0,0,0,0,0,0,250,2.1,7,0,0,0,0,0,0,0,0,0,0,0,0
2018,4,26,21,0,,14.5,10.1,75,100430,0,0,347,0,0,0,0,0,0,0,250,0.7,8,0,0,0,0,0,0,0,0,0,0,0,0
2018,4,26,22,0,,15.5,7.2,58,100430,0,0,348,0,0,0,0,0,0,0,250,4,8,0,0,0,0,0,0,0,0,0,0,0,0
2018,4,26,23,0,,15.8,4.1,46,100400,0,0,346,0,0,0,0,0,0,0,270,3.6,8,0,0,0,0,0,0,0,0,0,0,0,0
2018,4,26,24,0,,16,4.6,47,100350,0,0,347,0,0,0,0,0,0,0,270,3.4,8,0,0,0,0,0,0,0,0,0,0,0,0
2018,4,27,1,0,,15.7,6.1,53,100310,0,0,348,0,0,0,0,0,0,0,270,3,8,0,0,0,0,0,0,0,0,0,0,0,0
2018,4,27,2,0,,15.2,7.4,60,100290,0,0,347,0,0,0,0,0,0,0,250,2.1,8,0,0,0,0,0,0,0,0,0,0,0,0
2018,4,27,3,0,,14.7,7.9,64,100270,0,0,345,0,0,0,0,0,0,0,270,2,8,0,0,0,0,0,0,0,0,0,0,0,0
2018,4,27,4,0,,14.7,9.2,70,100260,0,0,347,0,0,0,0,0,0,0,250,2.2,8,0,0,0,0,0,0,0,0,0,0,0,0
2018,4,27,5,0,,15,7,59,100290,0,0,345,0,0,0,0,0,0,0,270,1.8,8,0,0,0,0,0,0,0,0,0,0,0,0
2018,4,27,6,0,,14.6,6.4,58,100340,0,0,337,9,1,8,1068,41,1054,0,320,1.8,7,0,0,0,0,0,0,0,0,0,0,0,0
2018,4,27,7,0,,15.1,6.1,55,100380,0,0,330,119,451,45,31010,45826,7032,0,360,2.8,4,0,0,0,0,0,0,0,0,0,0,0,0
2018,4,27,8,0,,15.4,5.8,53,100430,0,0,331,282,480,105,49238,48685,15675,0,360,2.7,4,0,0,0,0,0,0,0,0,0,0,0,0
2018,4,27,9,0,,17.2,3.1,39,100480,0,0,346,378,274,226,51038,27483,28558,0,20,2.1,7,0,0,0,0,0,0,0,0,0,0,0,0
2018,4,27,10,0,,16.9,3.8,42,100490,0,0,341,512,263,323,61268,26875,37073,0,360,1.4,6,0,0,0,0,0,0,0,0,0,0,0,0
2018,4,27,11,0,,20.5,5.2,37,100470,0,0,337,805,729,194,92292,73889,23525,0,290,2.8,0,0,0,0,0,0,0,0,0,0,0,0,0
2018,4,27,12,0,,21.9,5.7,35,100440,0,0,345,873,708,229,93595,71061,29133,0,340,3.1,0,0,0,0,0,0,0,0,0,0,0,0,0
2018,4,27,13,0,,22.7,5.1,32,100440,0,0,354,934,795,196,92258,79954,25794,0,290,4.1,1,0,0,0,0,0,0,0,0,0,0,0,0
2018,4,27,14,0,,22,8.1,41,100490,0,0,363,776,527,305,73194,51084,37014,0,90,3.2,3,0,0,0,0,0,0,0,0,0,0,0,0
2018,4,27,15,0,,19,9.1,53,100560,0,0,341,635,322,374,58779,30214,42267,0,70,3.2,1,0,0,0,0,0,0,0,0,0,0,0,0
2018,4,27,16,0,,17.8,8.3,54,100580,0,0,335,508,328,287,42185,27954,32204,0,90,3.4,1,0,0,0,0,0,0,0,0,0,0,0,0
2018,4,27,17,0,,16.3,8,58,100630,0,0,321,364,365,179,22900,19151,19973,0,110,3.9,0,0,0,0,0,0,0,0,0,0,0,0,0
2018,4,27,18,0,,14.9,6.6,58,100680,0,0,313,235,474,87,0,0,0,0,110,3.9,0,0,0,0,0,0,0,0,0,0,0,0,0
2018,4,27,19,0,,14.1,6.6,61,100730,0,0,310,71,39,32,0,0,0,0,110,3.2,0,0,0,0,0,0,0,0,0,0,0,0,0
2018,4,27,20,0,,13.6,6.2,61,100810,0,0,307,0,0,0,0,0,0,0,110,2.6,0,0,0,0,0,0,0,0,0,0,0,0,0
2018,4,27,21,0,,13.4,6.4,63,100920,0,0,307,0,0,0,0,0,0,0,110,2.2,0,0,0,0,0,0,0,0,0,0,0,0,0
2018,4,27,22,0,,13.1,7.1,67,100960,0,0,306,0,0,0,0,0,0,0,90,1.7,0,0,0,0,0,0,0,0,0,0,0,0,0
2018,4,27,23,0,,12.8,6.3,65,100970,0,0,304,0,0,0,0,0,0,0,110,1.7,0,0,0,0,0,0,0,0,0,0,0,0,0
2018,4,27,24,0,,12.4,4.3,58,101010,0,0,300,0,0,0,0,0,0,0,140,1.2,0,0,0,0,0,0,0,0,0,0,0,0,0
2018,4,28,1,0,,11.9,3.6,57,101030,0,0,297,0,0,0,0,0,0,0,0,0.1,0,0,0,0,0,0,0,0,0,0,0,0,0
2018,4,28,2,0,,11.5,5.3,66,101020,0,0,297,0,0,0,0,0,0,0,0,0,0,0,0,0,0,0,0,0,0,0,0,0,0
2018,4,28,3,0,,11.5,5.5,67,101010,0,0,298,0,0,0,0,0,0,0,290,1,0,0,0,0,0,0,0,0,0,0,0,0,0
2018,4,28,4,0,,11.2,6.1,71,100970,0,0,297,0,0,0,0,0,0,0,290,1.6,0,0,0,0,0,0,0,0,0,0,0,0,0
2018,4,28,5,0,,11.5,6,69,100960,0,0,298,0,0,0,0,0,0,0,320,2.9,0,0,0,0,0,0,0,0,0,0,0,0,0
2018,4,28,6,0,,11.6,5.2,65,100980,0,0,298,17,9,9,1491,777,1231,0,320,2.5,0,0,0,0,0,0,0,0,0,0,0,0,0
2018,4,28,7,0,,12.8,5.2,60,101010,0,0,303,132,553,39,35121,55361,5988,0,90,0.5,0,0,0,0,0,0,0,0,0,0,0,0,0
2018,4,28,8,0,,15.7,0.2,35,101030,0,0,310,342,749,64,61601,75819,9130,0,320,1.5,0,0,0,0,0,0,0,0,0,0,0,0,0
2018,4,28,9,0,,18,4.8,42,101010,0,0,325,545,807,93,80235,82508,12549,0,250,3.5,0,0,0,0,0,0,0,0,0,0,0,0,0
2018,4,28,10,0,,18.6,7,47,101010,0,0,331,693,759,147,88850,77913,18540,0,250,3.9,0,0,0,0,0,0,0,0,0,0,0,0,0
2018,4,28,11,0,,19.3,9.1,52,100950,0,0,336,789,686,213,92107,68989,27765,0,230,4.9,0,0,0,0,0,0,0,0,0,0,0,0,0
2018,4,28,12,0,,19.8,11,57,100890,0,0,341,814,574,291,86997,56398,35731,0,180,4.6,0,0,0,0,0,0,0,0,0,0,0,0,0
2018,4,28,13,0,,18.3,11.3,64,100840,0,0,334,795,488,341,80753,47021,41578,0,200,6.1,0,0,0,0,0,0,0,0,0,0,0,0,0
2018,4,28,14,0,,19.9,11.8,60,100780,0,0,342,774,517,310,73317,49247,38342,0,230,5.7,0,0,0,0,0,0,0,0,0,0,0,0,0
2018,4,28,15,0,,20.2,12.4,61,100730,0,0,344,683,505,274,58611,46555,33072,0,230,5.6,0,0,0,0,0,0,0,0,0,0,0,0,0
2018,4,28,16,0,,20.3,12,59,100650,0,0,344,606,640,172,41717,53942,22334,0,230,5,0,0,0,0,0,0,0,0,0,0,0,0,0
2018,4,28,17,0,,19.9,11.8,60,100610,0,0,342,431,595,128,20772,33003,15644,0,230,5.5,0,0,0,0,0,0,0,0,0,0,0,0,0
2018,4,28,18,0,,18.2,12.6,70,100600,0,0,335,246,524,82,0,0,0,0,230,5.7,0,0,0,0,0,0,0,0,0,0,0,0,0
2018,4,28,19,0,,17,12.5,75,100610,0,0,329,71,38,34,0,0,0,0,230,3.3,0,0,0,0,0,0,0,0,0,0,0,0,0
2018,4,28,20,0,,16.9,11.1,69,100630,0,0,327,0,0,0,0,0,0,0,250,4.1,0,0,0,0,0,0,0,0,0,0,0,0,0
2018,4,28,21,0,,16.6,11.3,71,100680,0,0,326,0,0,0,0,0,0,0,250,3.1,0,0,0,0,0,0,0,0,0,0,0,0,0
2018,4,28,22,0,,16.3,11,71,100700,0,0,325,0,0,0,0,0,0,0,250,4.2,0,0,0,0,0,0,0,0,0,0,0,0,0
2018,4,28,23,0,,16,11.1,73,100680,0,0,323,0,0,0,0,0,0,0,270,4.6,0,0,0,0,0,0,0,0,0,0,0,0,0
2018,4,28,24,0,,15.8,11.9,78,100690,0,0,323,0,0,0,0,0,0,0,250,2.7,0,0,0,0,0,0,0,0,0,0,0,0,0
2018,4,29,1,0,,15.7,12.2,80,100630,0,0,323,0,0,0,0,0,0,0,270,4.7,0,0,0,0,0,0,0,0,0,0,0,0,0
2018,4,29,2,0,,15.3,12.4,83,100620,0,0,322,0,0,0,0,0,0,0,270,3.7,0,0,0,0,0,0,0,0,0,0,0,0,0
2018,4,29,3,0,,15.2,12.3,83,100580,0,0,321,0,0,0,0,0,0,0,270,5.4,0,0,0,0,0,0,0,0,0,0,0,0,0
2018,4,29,4,0,,15,11.5,80,100580,0,0,319,0,0,0,0,0,0,0,270,4.5,0,0,0,0,0,0,0,0,0,0,0,0,0
2018,4,29,5,0,,14.8,10.7,77,100590,0,0,318,0,0,0,0,0,0,0,270,4.4,0,0,0,0,0,0,0,0,0,0,0,0,0
2018,4,29,6,0,,14.5,10.7,78,100620,0,0,316,18,9,9,1584,796,1316,0,270,5,0,0,0,0,0,0,0,0,0,0,0,0,0
2018,4,29,7,0,,15.7,9.8,68,100660,0,0,321,136,562,40,36066,56780,6021,0,270,4.6,0,0,0,0,0,0,0,0,0,0,0,0,0
2018,4,29,8,0,,16.7,10.5,67,100700,0,0,337,311,590,89,54883,60836,12623,0,270,4.7,2,0,0,0,0,0,0,0,0,0,0,0,0
2018,4,29,9,0,,18.2,8.4,53,100690,0,0,347,483,603,144,70750,61190,20411,0,270,4.6,4,0,0,0,0,0,0,0,0,0,0,0,0
2018,4,29,10,0,,19.8,7.8,46,100720,0,0,354,650,640,188,83585,64613,25142,0,250,5.9,4,0,0,0,0,0,0,0,0,0,0,0,0
2018,4,29,11,0,,21,10.1,50,100690,0,0,360,783,668,221,91255,66865,28765,0,200,6.1,3,0,0,0,0,0,0,0,0,0,0,0,0
2018,4,29,12,0,,19.3,10.2,56,100670,0,0,337,828,599,280,88467,59180,34564,0,230,7.8,0,0,0,0,0,0,0,0,0,0,0,0,0
2018,4,29,13,0,,19.6,9.1,51,100620,0,0,338,820,538,318,82615,52450,38823,0,230,7,0,0,0,0,0,0,0,0,0,0,0,0,0
2018,4,29,14,0,,20.7,9.2,48,100550,0,0,354,768,499,319,72936,48180,38629,0,230,5.9,2,0,0,0,0,0,0,0,0,0,0,0,0
2018,4,29,15,0,,20.6,7.5,43,100500,0,0,347,742,644,220,61457,61218,27749,0,230,6.5,1,0,0,0,0,0,0,0,0,0,0,0,0
2018,4,29,16,0,,19.6,8.5,49,100460,0,0,354,546,468,228,41195,40080,26703,0,230,5.7,4,0,0,0,0,0,0,0,0,0,0,0,0
2018,4,29,17,0,,18.5,11.7,65,100420,0,0,353,387,434,166,22649,22237,19138,0,250,8.7,4,0,0,0,0,0,0,0,0,0,0,0,0
2018,4,29,18,0,,17.6,11.1,66,100400,0,0,345,245,506,85,0,0,0,0,230,9.3,3,0,0,0,0,0,0,0,0,0,0,0,0
2018,4,29,19,0,,16.8,10.6,67,100410,0,0,342,74,40,34,0,0,0,0,230,8.2,4,0,0,0,0,0,0,0,0,0,0,0,0
2018,4,29,20,0,,16.2,11.1,72,100460,0,0,342,0,0,0,0,0,0,0,230,6,4,0,0,0,0,0,0,0,0,0,0,0,0
2018,4,29,21,0,,15.8,10.9,73,100510,0,0,341,0,0,0,0,0,0,0,230,3.3,5,0,0,0,0,0,0,0,0,0,0,0,0
2018,4,29,22,0,,15.5,10.6,73,100520,0,0,344,0,0,0,0,0,0,0,270,5.5,6,0,0,0,0,0,0,0,0,0,0,0,0
2018,4,29,23,0,,15.3,10.8,75,100530,0,0,349,0,0,0,0,0,0,0,250,4.6,8,0,0,0,0,0,0,0,0,0,0,0,0
2018,4,29,24,0,,15.3,11,76,100530,0,0,359,0,0,0,0,0,0,0,270,5.4,9,0,0,0,0,0,0,0,0,0,0,0,0
2018,4,30,1,0,,15.3,11,76,100520,0,0,362,0,0,0,0,0,0,0,270,5.6,9,0,0,0,0,0,0,0,0,0,0,0,0
2018,4,30,2,0,,15.6,10.7,73,100520,0,0,367,0,0,0,0,0,0,0,250,5.7,10,0,0,0,0,0,0,0,0,0,0,0,0
2018,4,30,3,0,,16.1,9.5,65,100490,0,0,372,0,0,0,0,0,0,0,270,4.2,10,0,0,0,0,0,0,0,0,0,0,0,0
2018,4,30,4,0,,16.4,10.2,67,100550,0,0,374,0,0,0,0,0,0,0,270,5.2,10,0,0,0,0,0,0,0,0,0,0,0,0
2018,4,30,5,0,,16.8,9.9,64,100560,0,0,376,0,0,0,0,0,0,0,250,5.2,10,0,0,0,0,0,0,0,0,0,0,0,0
2018,4,30,6,0,,16.6,9.9,65,100560,0,0,347,16,5,11,1485,454,1331,0,270,6.2,6,0,0,0,0,0,0,0,0,0,0,0,0
2018,4,30,7,0,,17.1,11.3,69,100650,0,0,345,126,441,49,31589,45096,7599,0,270,4.3,4,0,0,0,0,0,0,0,0,0,0,0,0
2018,4,30,8,0,,18.4,12.6,69,100720,0,0,359,258,356,123,43101,35629,18262,0,270,5.4,6,0,0,0,0,0,0,0,0,0,0,0,0
2018,4,30,9,0,,20.1,13.3,65,100760,0,0,369,410,335,220,55985,32046,29549,0,250,5.4,6,0,0,0,0,0,0,0,0,0,0,0,0
2018,4,30,10,0,,21.4,13.3,60,100760,0,0,366,649,629,192,83210,62933,26160,0,250,4.5,3,0,0,0,0,0,0,0,0,0,0,0,0
2018,4,30,11,0,,20.7,14.1,66,100790,0,0,355,744,569,264,85988,56024,33525,0,200,6.3,1,0,0,0,0,0,0,0,0,0,0,0,0
2018,4,30,12,0,,20.8,14.8,69,100780,0,0,368,717,285,455,78022,26728,53630,0,230,6.9,4,0,0,0,0,0,0,0,0,0,0,0,0
2018,4,30,13,0,,21.4,15,67,100750,0,0,377,636,186,462,68074,17365,53544,0,230,5.7,6,0,0,0,0,0,0,0,0,0,0,0,0
2018,4,30,14,0,,21.8,15.1,66,100700,0,0,370,743,439,347,71083,40543,42138,0,230,5.1,3,0,0,0,0,0,0,0,0,0,0,0,0
2018,4,30,15,0,,21,15.3,70,100680,0,0,369,642,326,377,59736,29067,43673,0,230,6.6,4,0,0,0,0,0,0,0,0,0,0,0,0
2018,4,30,16,0,,21.8,14.9,65,100650,0,0,373,528,412,247,41977,33059,29949,0,230,5.9,4,0,0,0,0,0,0,0,0,0,0,0,0
2018,4,30,17,0,,21.8,14.9,65,100650,0,0,355,426,564,136,21884,30725,16956,0,230,5.2,0,0,0,0,0,0,0,0,0,0,0,0,0
2018,4,30,18,0,,20.5,14.8,70,100640,0,0,348,256,556,79,0,0,0,0,230,5,0,0,0,0,0,0,0,0,0,0,0,0,0
2018,4,30,19,0,,19.1,14.3,74,100650,0,0,341,78,44,34,0,0,0,0,200,4.6,0,0,0,0,0,0,0,0,0,0,0,0,0
2018,4,30,20,0,,19.2,14,72,100700,0,0,341,0,0,0,0,0,0,0,270,4.9,0,0,0,0,0,0,0,0,0,0,0,0,0
2018,4,30,21,0,,18.7,13.9,74,100780,0,0,339,0,0,0,0,0,0,0,270,4.4,0,0,0,0,0,0,0,0,0,0,0,0,0
2018,4,30,22,0,,18.5,12.4,68,100840,0,0,336,0,0,0,0,0,0,0,270,5.5,0,0,0,0,0,0,0,0,0,0,0,0,0
2018,4,30,23,0,,18.1,12.5,70,100820,0,0,334,0,0,0,0,0,0,0,270,5.5,0,0,0,0,0,0,0,0,0,0,0,0,0
2018,4,30,24,0,,18.2,11,63,100840,0,0,333,0,0,0,0,0,0,0,270,4.9,0,0,0,0,0,0,0,0,0,0,0,0,0
2008,5,1,1,0,,16.7,13,79,100620,0,0,346,0,0,0,0,0,0,0,270,4.7,4,0,0,0,0,0,0,0,0,0,0,0,0
2008,5,1,2,0,,16.8,12.7,77,100590,0,0,347,0,0,0,0,0,0,0,250,4.8,5,0,0,0,0,0,0,0,0,0,0,0,0
2008,5,1,3,0,,16.7,12.6,77,100580,0,0,348,0,0,0,0,0,0,0,270,3.8,5,0,0,0,0,0,0,0,0,0,0,0,0
2008,5,1,4,0,,15.2,13.9,92,100590,0,0,373,0,0,0,0,0,0,0,180,3.9,10,0,0,0,0,0,0,0,0,0,0,0,0
2008,5,1,5,0,,14.2,13.8,98,100530,0,0,368,0,0,0,0,0,0,0,230,1.6,10,0,0,0,0,0,0,0,0,0,0,0,0
2008,5,1,6,0,,14,13.6,98,100540,0,0,367,0,0,0,0,0,0,0,230,1.2,10,0,0,0,0,0,0,0,0,0,0,0,0
2008,5,1,7,0,,14.1,13.9,99,100590,0,0,367,30,8,29,3897,681,3532,0,0,0.2,10,0,0,0,0,0,0,0,0,0,0,0,0
2008,5,1,8,0,,16.6,14.2,86,100570,0,0,352,237,261,138,37252,24688,19954,0,50,0.9,6,0,0,0,0,0,0,0,0,0,0,0,0
2008,5,1,9,0,,16.2,13.1,82,100580,0,0,349,363,223,236,47173,21321,29519,0,200,1.4,6,0,0,0,0,0,0,0,0,0,0,0,0
2008,5,1,10,0,,16.3,13.2,82,100590,0,0,347,506,240,331,60792,22999,39879,0,200,1.8,5,0,0,0,0,0,0,0,0,0,0,0,0
2008,5,1,11,0,,20.5,14.8,70,100590,0,0,363,715,495,296,82065,46867,38057,0,180,2.5,3,0,0,0,0,0,0,0,0,0,0,0,0
2008,5,1,12,0,,20.6,14.2,67,100540,0,0,366,759,436,358,82084,41337,44257,0,200,3.2,4,0,0,0,0,0,0,0,0,0,0,0,0
2008,5,1,13,0,,22.2,13.7,59,100500,0,0,374,820,530,324,82705,50221,40561,0,180,2.6,4,0,0,0,0,0,0,0,0,0,0,0,0
2008,5,1,14,0,,21.6,12.4,56,100480,0,0,369,697,278,446,69670,26191,50904,0,110,1.7,4,0,0,0,0,0,0,0,0,0,0,0,0
2008,5,1,15,0,,22.1,12.3,54,100390,0,0,365,696,524,269,60488,48380,33617,0,140,2.8,2,0,0,0,0,0,0,0,0,0,0,0,0
2008,5,1,16,0,,20.8,12.2,58,100330,0,0,358,527,405,250,41963,33592,29636,0,110,1.9,2,0,0,0,0,0,0,0,0,0,0,0,0
2008,5,1,17,0,,20.1,12.8,63,100300,0,0,362,360,320,196,24770,17603,21885,0,70,1.4,4,0,0,0,0,0,0,0,0,0,0,0,0
2008,5,1,18,0,,18.4,13,71,100310,0,0,360,172,178,115,0,0,0,0,70,1.5,6,0,0,0,0,0,0,0,0,0,0,0,0
2008,5,1,19,0,,17.6,13.1,75,100290,0,0,350,70,40,30,0,0,0,0,50,2.4,4,0,0,0,0,0,0,0,0,0,0,0,0
2008,5,1,20,0,,17.5,12.8,74,100340,0,0,343,0,0,0,0,0,0,0,70,1.3,2,0,0,0,0,0,0,0,0,0,0,0,0
2008,5,1,21,0,,17.4,13.1,76,100400,0,0,332,0,0,0,0,0,0,0,70,1.5,0,0,0,0,0,0,0,0,0,0,0,0,0
2008,5,1,22,0,,17.4,12.9,75,100410,0,0,336,0,0,0,0,0,0,0,70,1.3,1,0,0,0,0,0,0,0,0,0,0,0,0
2008,5,1,23,0,,17.2,12.9,76,100400,0,0,339,0,0,0,0,0,0,0,20,1.6,1,0,0,0,0,0,0,0,0,0,0,0,0
2008,5,1,24,0,,17.5,13,75,100370,0,0,343,0,0,0,0,0,0,0,70,1.2,2,0,0,0,0,0,0,0,0,0,0,0,0
2008,5,2,1,0,,17.2,12.9,76,100330,0,0,339,0,0,0,0,0,0,0,20,1,1,0,0,0,0,0,0,0,0,0,0,0,0
2008,5,2,2,0,,16.8,12.7,77,100340,0,0,333,0,0,0,0,0,0,0,0,0.2,1,0,0,0,0,0,0,0,0,0,0,0,0
2008,5,2,3,0,,16.4,12.9,80,100320,0,0,327,0,0,0,0,0,0,0,180,0.7,0,0,0,0,0,0,0,0,0,0,0,0,0
2008,5,2,4,0,,15.9,12.8,82,100280,0,0,325,0,0,0,0,0,0,0,0,0,0,0,0,0,0,0,0,0,0,0,0,0,0
2008,5,2,5,0,,15.8,12.7,82,100260,0,0,324,0,0,0,0,0,0,0,0,0,0,0,0,0,0,0,0,0,0,0,0,0,0
2008,5,2,6,0,,15.6,12.3,81,100310,0,0,323,20,9,11,1865,748,1604,0,0,0.4,0,0,0,0,0,0,0,0,0,0,0,0,0
2008,5,2,7,0,,16.4,12.7,79,100350,0,0,327,134,468,49,33412,47956,7585,0,0,0.2,0,0,0,0,0,0,0,0,0,0,0,0,0
2008,5,2,8,0,,19.3,12.5,65,100370,0,0,340,328,635,85,58243,65737,12028,0,0,0.4,0,0,0,0,0,0,0,0,0,0,0,0,0
2008,5,2,9,0,,20.8,11.1,54,100370,0,0,346,516,682,126,75001,70266,16672,0,250,1.1,0,0,0,0,0,0,0,0,0,0,0,0,0
2008,5,2,10,0,,22.4,12.6,54,100380,0,0,355,687,717,164,87687,73612,20611,0,200,3.2,0,0,0,0,0,0,0,0,0,0,0,0,0
2008,5,2,11,0,,23.4,11.7,48,100340,0,0,359,788,663,226,91502,66121,29299,0,200,3.5,0,0,0,0,0,0,0,0,0,0,0,0,0
2008,5,2,12,0,,22.8,12.4,52,100330,0,0,357,825,579,292,87977,56771,35933,0,180,4,0,0,0,0,0,0,0,0,0,0,0,0,0
2008,5,2,13,0,,23.4,11.1,46,100270,0,0,358,829,544,318,83327,52449,39224,0,180,4,0,0,0,0,0,0,0,0,0,0,0,0,0
2008,5,2,14,0,,23.2,11.2,47,100240,0,0,357,775,503,320,73619,47941,39184,0,200,3.7,0,0,0,0,0,0,0,0,0,0,0,0,0
2008,5,2,15,0,,23.6,12.2,49,100220,0,0,361,690,505,277,59414,46666,33402,0,160,2,0,0,0,0,0,0,0,0,0,0,0,0,0
2008,5,2,16,0,,22.1,12.3,54,100170,0,0,353,546,453,235,42047,37661,28145,0,160,1.2,0,0,0,0,0,0,0,0,0,0,0,0,0
2008,5,2,17,0,,21.2,10.6,51,100140,0,0,347,400,462,162,22844,25067,18674,0,90,0.8,0,0,0,0,0,0,0,0,0,0,0,0,0
2008,5,2,18,0,,20.9,11.2,54,100130,0,0,346,247,489,89,0,0,0,0,160,1,0,0,0,0,0,0,0,0,0,0,0,0,0
2008,5,2,19,0,,19.6,11.3,59,100140,0,0,340,81,46,35,0,0,0,0,90,0.6,0,0,0,0,0,0,0,0,0,0,0,0,0
2008,5,2,20,0,,19,11.2,61,100200,0,0,337,0,0,0,0,0,0,0,50,0.5,0,0,0,0,0,0,0,0,0,0,0,0,0
2008,5,2,21,0,,18.9,9.6,55,100250,0,0,335,0,0,0,0,0,0,0,180,1.2,0,0,0,0,0,0,0,0,0,0,0,0,0
2008,5,2,22,0,,18.3,9,55,100280,0,0,331,0,0,0,0,0,0,0,200,1.6,0,0,0,0,0,0,0,0,0,0,0,0,0
2008,5,2,23,0,,17.7,10,61,100270,0,0,330,0,0,0,0,0,0,0,230,1.4,0,0,0,0,0,0,0,0,0,0,0,0,0
2008,5,2,24,0,,17.3,10.6,65,100270,0,0,329,0,0,0,0,0,0,0,290,1.6,0,0,0,0,0,0,0,0,0,0,0,0,0
2008,5,3,1,0,,17,10.5,66,100240,0,0,327,0,0,0,0,0,0,0,250,1.4,0,0,0,0,0,0,0,0,0,0,0,0,0
2008,5,3,2,0,,17.2,10.7,66,100210,0,0,328,0,0,0,0,0,0,0,290,0.9,0,0,0,0,0,0,0,0,0,0,0,0,0
2008,5,3,3,0,,17.3,11.1,67,100180,0,0,329,0,0,0,0,0,0,0,230,1.2,0,0,0,0,0,0,0,0,0,0,0,0,0
2008,5,3,4,0,,17.3,11.5,69,100170,0,0,330,0,0,0,0,0,0,0,230,1.2,0,0,0,0,0,0,0,0,0,0,0,0,0
2008,5,3,5,0,,17.1,11.7,71,100170,0,0,329,0,0,0,0,0,0,0,320,1.8,0,0,0,0,0,0,0,0,0,0,0,0,0
2008,5,3,6,0,,18.7,11.7,64,100230,0,0,336,26,13,13,2223,1166,1814,0,320,3.4,0,0,0,0,0,0,0,0,0,0,0,0,0
2008,5,3,7,0,,19.4,11.9,62,100280,0,0,340,152,611,39,39559,62113,5948,0,340,3,0,0,0,0,0,0,0,0,0,0,0,0,0
2008,5,3,8,0,,20.3,11.4,57,100330,0,0,344,348,711,73,62010,73282,10324,0,340,4.6,0,0,0,0,0,0,0,0,0,0,0,0,0
2008,5,3,9,0,,22.8,11.8,50,100360,0,0,375,474,542,163,68067,54405,22795,0,20,0.9,4,0,0,0,0,0,0,0,0,0,0,0,0
2008,5,3,10,0,,24.5,12.1,46,100390,0,0,377,667,658,185,85417,65973,25182,0,90,0.5,2,0,0,0,0,0,0,0,0,0,0,0,0
2008,5,3,11,0,,24.1,12.7,49,100370,0,0,364,761,593,256,87739,58648,32468,0,200,1.9,0,0,0,0,0,0,0,0,0,0,0,0,0
2008,5,3,12,0,,24.5,13.6,51,100350,0,0,386,736,302,457,79556,28581,53307,0,200,2.2,4,0,0,0,0,0,0,0,0,0,0,0,0
2008,5,3,13,0,,24.9,13.4,49,100340,0,0,381,786,446,366,80322,42221,44749,0,200,2.3,2,0,0,0,0,0,0,0,0,0,0,0,0
2008,5,3,14,0,,24.7,14.4,53,100330,0,0,369,752,449,346,71749,41676,41739,0,200,1.5,0,0,0,0,0,0,0,0,0,0,0,0,0
2008,5,3,15,0,,25.8,13.6,47,100270,0,0,373,703,531,268,61072,48513,33937,0,160,1.8,0,0,0,0,0,0,0,0,0,0,0,0,0
2008,5,3,16,0,,25,10.8,41,100200,0,0,366,587,562,201,42989,47902,25202,0,110,2.2,0,0,0,0,0,0,0,0,0,0,0,0,0
2008,5,3,17,0,,23.5,13,52,100230,0,0,377,396,442,167,23526,23271,19598,0,160,0.9,3,0,0,0,0,0,0,0,0,0,0,0,0
2008,5,3,18,0,,22.7,13.1,55,100270,0,0,357,241,446,96,0,0,0,0,0,0.2,0,0,0,0,0,0,0,0,0,0,0,0,0
2008,5,3,19,0,,21.5,12,55,100280,0,0,350,84,49,35,0,0,0,0,50,1.1,0,0,0,0,0,0,0,0,0,0,0,0,0
2008,5,3,20,0,,20.4,12.1,59,100280,0,0,345,0,0,0,0,0,0,0,50,1.2,0,0,0,0,0,0,0,0,0,0,0,0,0
2008,5,3,21,0,,19.8,12.3,62,100320,0,0,342,0,0,0,0,0,0,0,50,2.1,0,0,0,0,0,0,0,0,0,0,0,0,0
2008,5,3,22,0,,19.2,12.9,67,100320,0,0,340,0,0,0,0,0,0,0,50,1.5,0,0,0,0,0,0,0,0,0,0,0,0,0
2008,5,3,23,0,,18.8,12.9,69,100300,0,0,338,0,0,0,0,0,0,0,50,1.8,0,0,0,0,0,0,0,0,0,0,0,0,0
2008,5,3,24,0,,19.3,12.7,66,100290,0,0,340,0,0,0,0,0,0,0,0,0.4,0,0,0,0,0,0,0,0,0,0,0,0,0
2008,5,4,1,0,,19.1,12.1,64,100200,0,0,339,0,0,0,0,0,0,0,0,0.4,0,0,0,0,0,0,0,0,0,0,0,0,0
2008,5,4,2,0,,18,13.4,75,100150,0,0,335,0,0,0,0,0,0,0,50,1.8,0,0,0,0,0,0,0,0,0,0,0,0,0
2008,5,4,3,0,,17.9,13.1,74,100100,0,0,334,0,0,0,0,0,0,0,50,0.6,0,0,0,0,0,0,0,0,0,0,0,0,0
2008,5,4,4,0,,17.7,12.7,73,100030,0,0,333,0,0,0,0,0,0,0,0,0.2,0,0,0,0,0,0,0,0,0,0,0,0,0
2008,5,4,5,0,,17.5,11.7,69,99960,0,0,331,0,0,0,0,0,0,0,0,0.3,0,0,0,0,0,0,0,0,0,0,0,0,0
2008,5,4,6,0,,17.4,11.6,69,99970,0,0,353,18,5,13,1709,412,1563,0,290,1,6,0,0,0,0,0,0,0,0,0,0,0,0
2008,5,4,7,0,,17.9,11.6,67,99980,0,0,365,87,137,62,16792,12882,9790,0,270,2,8,0,0,0,0,0,0,0,0,0,0,0,0
2008,5,4,8,0,,18.9,12.8,68,99960,0,0,391,125,38,110,15529,3499,13053,0,200,1.5,10,0,0,0,0,0,0,0,0,0,0,0,0
2008,5,4,9,0,,20.4,12.3,60,99970,0,0,398,221,52,191,26424,4871,22362,0,180,1.7,10,0,0,0,0,0,0,0,0,0,0,0,0
2008,5,4,10,0,,21.2,12.8,59,99950,0,0,403,296,52,258,34461,4851,30023,0,180,3,10,0,0,0,0,0,0,0,0,0,0,0,0
2008,5,4,11,0,,20.4,14,67,99970,0,0,400,320,39,287,36824,3634,33393,0,180,3.9,10,0,0,0,0,0,0,0,0,0,0,0,0
2008,5,4,12,0,,19.5,13.2,67,99920,0,0,394,307,27,283,35150,2507,32843,0,200,5.5,10,0,0,0,0,0,0,0,0,0,0,0,0
2008,5,4,13,0,,19.5,14.3,72,99850,0,0,396,277,19,259,32038,1347,30901,0,250,3.7,10,0,0,0,0,0,0,0,0,0,0,0,0
2008,5,4,14,0,,18.8,14.2,75,99730,0,0,392,271,20,253,30592,1504,29507,0,180,5,10,0,0,0,0,0,0,0,0,0,0,0,0
2008,5,4,15,0,,19.6,12.1,62,99720,0,0,394,288,33,261,30871,2738,29334,0,200,4.4,10,0,0,0,0,0,0,0,0,0,0,0,0
2008,5,4,16,0,,18.4,14.6,79,99710,0,0,390,206,24,190,21367,1697,20733,0,200,5.4,10,0,0,0,0,0,0,0,0,0,0,0,0
2008,5,4,17,0,,18,14.6,81,99660,0,0,388,146,23,134,14050,1187,13846,0,200,4.5,10,0,0,0,0,0,0,0,0,0,0,0,0
2008,5,4,18,0,,17.3,15.6,90,99570,0,0,386,77,17,72,0,0,0,0,200,4.1,10,0,0,0,0,0,0,0,0,0,0,0,0
2008,5,4,19,0,,17.2,15.3,89,99480,0,0,385,24,1,22,0,0,0,0,230,2,10,0,0,0,0,0,0,0,0,0,0,0,0
2008,5,4,20,0,,17.8,14.1,79,99530,0,0,387,0,0,0,0,0,0,0,230,5.5,10,0,0,0,0,0,0,0,0,0,0,0,0
2008,5,4,21,0,,16.8,15.6,93,99550,0,0,383,0,0,0,0,0,0,0,200,1.2,10,0,0,0,0,0,0,0,0,0,0,0,0
2008,5,4,22,0,,16.6,15.6,94,99550,0,0,382,0,0,0,0,0,0,0,200,7.2,10,0,0,0,0,0,0,0,0,0,0,0,0
2008,5,4,23,0,,16.2,15.5,96,99520,0,0,380,0,0,0,0,0,0,0,200,4.9,10,0,0,0,0,0,0,0,0,0,0,0,0
2008,5,4,24,0,,16,15.5,97,99410,0,0,379,0,0,0,0,0,0,0,180,2.8,10,0,0,0,0,0,0,0,0,0,0,0,0
2008,5,5,1,0,,16.1,15.7,98,99270,0,0,380,0,0,0,0,0,0,0,200,6.9,10,0,0,0,0,0,0,0,0,0,0,0,0
2008,5,5,2,0,,16.3,15.9,98,99180,0,0,381,0,0,0,0,0,0,0,230,6.5,10,0,0,0,0,0,0,0,0,0,0,0,0
2008,5,5,3,0,,16.3,15.9,98,99100,0,0,381,0,0,0,0,0,0,0,230,4.2,10,0,0,0,0,0,0,0,0,0,0,0,0
2008,5,5,4,0,,16.1,15.7,98,99100,0,0,380,0,0,0,0,0,0,0,180,2.5,10,0,0,0,0,0,0,0,0,0,0,0,0
2008,5,5,5,0,,15.1,14.7,98,99120,0,0,374,0,0,0,0,0,0,0,180,2.5,10,0,0,0,0,0,0,0,0,0,0,0,0
2008,5,5,6,0,,16.8,16.3,97,99150,0,0,384,3,0,3,409,0,409,0,320,1.5,10,0,0,0,0,0,0,0,0,0,0,0,0
2008,5,5,7,0,,17.2,15.1,88,99250,0,0,385,50,26,45,7335,2447,5999,0,360,2.5,10,0,0,0,0,0,0,0,0,0,0,0,0
2008,5,5,8,0,,16.6,12.5,77,99370,0,0,378,140,51,120,18572,4975,15042,0,360,5.9,10,0,0,0,0,0,0,0,0,0,0,0,0
2008,5,5,9,0,,17.3,11.5,69,99520,0,0,357,345,179,241,44295,17440,29715,0,360,4.1,7,0,0,0,0,0,0,0,0,0,0,0,0
2008,5,5,10,0,,17.4,10.2,63,99620,0,0,351,491,210,337,58547,20659,39614,0,360,4.4,6,0,0,0,0,0,0,0,0,0,0,0,0
2008,5,5,11,0,,19.7,8,47,99730,0,0,337,772,610,250,88867,60890,31286,0,320,3.5,0,0,0,0,0,0,0,0,0,0,0,0,0
2008,5,5,12,0,,18.1,12,68,99810,0,0,334,758,328,454,81417,31655,52245,0,50,1.7,0,0,0,0,0,0,0,0,0,0,0,0,0
2008,5,5,13,0,,18.8,11.3,62,99790,0,0,336,803,477,353,81484,45933,42636,0,110,3,0,0,0,0,0,0,0,0,0,0,0,0,0
2008,5,5,14,0,,16.5,10.1,66,99860,0,0,324,705,280,451,70375,26882,50925,0,110,3.9,0,0,0,0,0,0,0,0,0,0,0,0,0
2008,5,5,15,0,,16.9,10.9,68,99860,0,0,333,628,290,390,59337,26948,44160,0,110,2.2,1,0,0,0,0,0,0,0,0,0,0,0,0
2008,5,5,16,0,,16.5,10.7,69,99910,0,0,325,531,400,255,42673,33995,29904,0,110,3.8,0,0,0,0,0,0,0,0,0,0,0,0,0
2008,5,5,17,0,,15.3,10,71,99970,0,0,319,406,465,163,23397,26417,18809,0,90,2.6,0,0,0,0,0,0,0,0,0,0,0,0,0
2008,5,5,18,0,,15.3,10.6,74,100020,0,0,320,247,457,96,0,0,0,0,70,1.4,0,0,0,0,0,0,0,0,0,0,0,0,0
2008,5,5,19,0,,14.5,11.2,81,100070,0,0,317,83,43,40,0,0,0,0,160,0.8,0,0,0,0,0,0,0,0,0,0,0,0,0
2008,5,5,20,0,,14.1,10.8,81,100160,0,0,315,0,0,0,0,0,0,0,180,1.8,0,0,0,0,0,0,0,0,0,0,0,0,0
2008,5,5,21,0,,14.2,11.1,82,100240,0,0,315,0,0,0,0,0,0,0,180,1,0,0,0,0,0,0,0,0,0,0,0,0,0
2008,5,5,22,0,,14.1,11.6,85,100300,0,0,316,0,0,0,0,0,0,0,320,1,0,0,0,0,0,0,0,0,0,0,0,0,0
2008,5,5,23,0,,14.1,11.9,87,100330,0,0,316,0,0,0,0,0,0,0,250,3.3,0,0,0,0,0,0,0,0,0,0,0,0,0
2008,5,5,24,0,,14.1,11.9,87,100350,0,0,316,0,0,0,0,0,0,0,270,1.8,0,0,0,0,0,0,0,0,0,0,0,0,0
2008,5,6,1,0,,13.6,11.2,86,100360,0,0,313,0,0,0,0,0,0,0,250,2.3,0,0,0,0,0,0,0,0,0,0,0,0,0
2008,5,6,2,0,,14.2,8.1,67,100360,0,0,312,0,0,0,0,0,0,0,110,1.2,0,0,0,0,0,0,0,0,0,0,0,0,0
2008,5,6,3,0,,13.7,8.1,69,100360,0,0,310,0,0,0,0,0,0,0,250,2.2,0,0,0,0,0,0,0,0,0,0,0,0,0
2008,5,6,4,0,,14,5.6,57,100360,0,0,308,0,0,0,0,0,0,0,340,4.3,0,0,0,0,0,0,0,0,0,0,0,0,0
2008,5,6,5,0,,13.5,5.3,58,100380,0,0,306,0,0,0,0,0,0,0,290,2.2,0,0,0,0,0,0,0,0,0,0,0,0,0
2008,5,6,6,0,,13.6,3.6,51,100410,0,0,304,28,14,15,2500,1252,2051,0,320,2.2,0,0,0,0,0,0,0,0,0,0,0,0,0
2008,5,6,7,0,,14.5,1.3,41,100430,0,0,306,162,634,40,40728,63389,5967,0,290,3.3,0,0,0,0,0,0,0,0,0,0,0,0,0
2008,5,6,8,0,,17.1,1.4,35,100470,0,0,317,363,741,70,63384,75154,9896,0,160,0.9,0,0,0,0,0,0,0,0,0,0,0,0,0
2008,5,6,9,0,,18.2,-1.6,26,100470,0,0,319,566,806,98,81644,81832,13083,0,250,2,0,0,0,0,0,0,0,0,0,0,0,0,0
2008,5,6,10,0,,21.1,-0.8,23,100490,0,0,333,756,866,116,95876,88041,15042,0,180,3.1,0,0,0,0,0,0,0,0,0,0,0,0,0
2008,5,6,11,0,,20.9,4.4,34,100480,0,0,338,828,736,198,94283,74528,23691,0,180,4.6,0,0,0,0,0,0,0,0,0,0,0,0,0
2008,5,6,12,0,,21.1,7.3,41,100460,0,0,343,865,651,262,92126,64750,32359,0,230,4.4,0,0,0,0,0,0,0,0,0,0,0,0,0
2008,5,6,13,0,,20.9,2.6,30,100400,0,0,336,864,605,292,86365,60619,35001,0,230,5.6,0,0,0,0,0,0,0,0,0,0,0,0,0
2008,5,6,14,0,,21.1,0.2,25,100300,0,0,334,856,670,246,78188,65986,30334,0,200,7.1,0,0,0,0,0,0,0,0,0,0,0,0,0
2008,5,6,15,0,,21.8,-0.8,22,100250,0,0,336,785,716,195,64108,69183,25016,0,230,7,0,0,0,0,0,0,0,0,0,0,0,0,0
2008,5,6,16,0,,21.1,-0.8,23,100180,0,0,333,651,723,151,43765,65614,18978,0,200,7,0,0,0,0,0,0,0,0,0,0,0,0,0
2008,5,6,17,0,,20.1,0.4,27,100190,0,0,330,477,701,109,21258,45753,13200,0,230,7.5,0,0,0,0,0,0,0,0,0,0,0,0,0
2008,5,6,18,0,,19.4,-0.1,27,100240,0,0,326,292,682,65,0,0,0,0,230,7.4,0,0,0,0,0,0,0,0,0,0,0,0,0
2008,5,6,19,0,,18.3,0.4,30,100250,0,0,322,104,75,28,0,0,0,0,230,5.7,0,0,0,0,0,0,0,0,0,0,0,0,0
2008,5,6,20,0,,17.6,3,38,100290,0,0,321,0,0,0,0,0,0,0,200,4.6,0,0,0,0,0,0,0,0,0,0,0,0,0
2008,5,6,21,0,,17.3,3.1,39,100300,0,0,320,0,0,0,0,0,0,0,270,7.5,0,0,0,0,0,0,0,0,0,0,0,0,0
2008,5,6,22,0,,17.3,0,31,100350,0,0,317,0,0,0,0,0,0,0,230,4,0,0,0,0,0,0,0,0,0,0,0,0,0
2008,5,6,23,0,,17.3,1.2,34,100270,0,0,318,0,0,0,0,0,0,0,270,9,0,0,0,0,0,0,0,0,0,0,0,0,0
2008,5,6,24,0,,16.8,2.7,39,100270,0,0,318,0,0,0,0,0,0,0,270,7.9,0,0,0,0,0,0,0,0,0,0,0,0,0
2008,5,7,1,0,,16.3,4,44,100330,0,0,317,0,0,0,0,0,0,0,270,6.9,0,0,0,0,0,0,0,0,0,0,0,0,0
2008,5,7,2,0,,16,4,45,100280,0,0,315,0,0,0,0,0,0,0,270,6.7,0,0,0,0,0,0,0,0,0,0,0,0,0
2008,5,7,3,0,,16.3,3,41,100330,0,0,316,0,0,0,0,0,0,0,270,5.8,0,0,0,0,0,0,0,0,0,0,0,0,0
2008,5,7,4,0,,15.9,4.2,46,100300,0,0,315,0,0,0,0,0,0,0,270,4.5,0,0,0,0,0,0,0,0,0,0,0,0,0
2008,5,7,5,0,,15.8,5,49,100310,0,0,316,0,0,0,0,0,0,0,270,4.7,0,0,0,0,0,0,0,0,0,0,0,0,0
2008,5,7,6,0,,16.1,1.7,38,100330,0,0,313,32,19,14,2492,1731,1866,0,270,2.8,0,0,0,0,0,0,0,0,0,0,0,0,0
2008,5,7,7,0,,15.7,9.5,67,100390,0,0,320,148,490,52,35466,50082,7888,0,180,2,0,0,0,0,0,0,0,0,0,0,0,0,0
2008,5,7,8,0,,17,11.6,71,100400,0,0,328,329,582,97,56378,59997,13558,0,180,3.3,0,0,0,0,0,0,0,0,0,0,0,0,0
2008,5,7,9,0,,17.8,12.2,70,100400,0,0,333,481,535,169,68460,53689,23383,0,160,2.4,0,0,0,0,0,0,0,0,0,0,0,0,0
2008,5,7,10,0,,18.6,9.9,57,100390,0,0,334,654,602,208,82837,60435,27253,0,180,3.3,0,0,0,0,0,0,0,0,0,0,0,0,0
2008,5,7,11,0,,18.7,12.4,67,100380,0,0,337,745,539,282,85282,53136,34872,0,180,5.5,0,0,0,0,0,0,0,0,0,0,0,0,0
2008,5,7,12,0,,20.6,9.8,50,100330,0,0,343,847,607,283,90037,59892,34665,0,200,4.7,0,0,0,0,0,0,0,0,0,0,0,0,0
2008,5,7,13,0,,21,10.1,50,100260,0,0,345,875,625,283,86685,61233,34707,0,200,5.2,0,0,0,0,0,0,0,0,0,0,0,0,0
2008,5,7,14,0,,22.3,10.7,48,100190,0,0,352,835,620,270,77324,59565,34028,0,180,3.5,0,0,0,0,0,0,0,0,0,0,0,0,0
2008,5,7,15,0,,22.9,10.9,47,100120,0,0,367,727,574,253,62209,53649,31794,0,200,3,2,0,0,0,0,0,0,0,0,0,0,0,0
2008,5,7,16,0,,23.4,8.2,38,100100,0,0,373,587,542,210,43738,47226,25798,0,230,2.9,4,0,0,0,0,0,0,0,0,0,0,0,0
2008,5,7,17,0,,18.1,12,68,100060,0,0,351,364,300,206,26111,17647,22960,0,180,4.9,4,0,0,0,0,0,0,0,0,0,0,0,0
2008,5,7,18,0,,17.1,12.6,75,100060,0,0,353,180,176,121,0,0,0,0,180,5,6,0,0,0,0,0,0,0,0,0,0,0,0
2008,5,7,19,0,,16,12.7,81,100070,0,0,349,59,17,42,0,0,0,0,200,4.2,6,0,0,0,0,0,0,0,0,0,0,0,0
2008,5,7,20,0,,15.8,12.1,79,100080,0,0,348,0,0,0,0,0,0,0,180,2.4,7,0,0,0,0,0,0,0,0,0,0,0,0
2008,5,7,21,0,,15.8,12.3,80,100150,0,0,350,0,0,0,0,0,0,0,180,2.9,7,0,0,0,0,0,0,0,0,0,0,0,0
2008,5,7,22,0,,17.1,9.9,63,100190,0,0,354,0,0,0,0,0,0,0,250,3.9,7,0,0,0,0,0,0,0,0,0,0,0,0
2008,5,7,23,0,,18,10.1,60,100140,0,0,358,0,0,0,0,0,0,0,270,5.6,7,0,0,0,0,0,0,0,0,0,0,0,0
2008,5,7,24,0,,17.3,10.8,66,100170,0,0,356,0,0,0,0,0,0,0,270,4,7,0,0,0,0,0,0,0,0,0,0,0,0
2008,5,8,1,0,,16.5,11.4,72,100150,0,0,351,0,0,0,0,0,0,0,250,3.1,7,0,0,0,0,0,0,0,0,0,0,0,0
2008,5,8,2,0,,16.3,11.8,75,100110,0,0,349,0,0,0,0,0,0,0,200,3.5,6,0,0,0,0,0,0,0,0,0,0,0,0
2008,5,8,3,0,,16.4,11.3,72,100080,0,0,348,0,0,0,0,0,0,0,200,2.4,6,0,0,0,0,0,0,0,0,0,0,0,0
2008,5,8,4,0,,16.1,10.8,71,100060,0,0,346,0,0,0,0,0,0,0,230,2.5,6,0,0,0,0,0,0,0,0,0,0,0,0
2008,5,8,5,0,,16.4,11.1,71,100100,0,0,352,0,0,0,0,0,0,0,200,3.1,7,0,0,0,0,0,0,0,0,0,0,0,0
2008,5,8,6,0,,16.1,11,72,100130,0,0,350,18,4,14,1861,357,1732,0,250,2.3,7,0,0,0,0,0,0,0,0,0,0,0,0
2008,5,8,7,0,,16.6,11.5,72,100190,0,0,353,107,210,66,21288,19841,10319,0,200,1.6,7,0,0,0,0,0,0,0,0,0,0,0,0
2008,5,8,8,0,,18.8,10.8,60,100240,0,0,377,183,102,142,24662,9979,17521,0,70,1.5,9,0,0,0,0,0,0,0,0,0,0,0,0
2008,5,8,9,0,,20.3,10.1,52,100230,0,0,384,297,112,231,37002,11099,27664,0,110,0.7,9,0,0,0,0,0,0,0,0,0,0,0,0
2008,5,8,10,0,,19.2,11.9,63,100240,0,0,391,279,43,248,32560,4016,28861,0,200,2.2,10,0,0,0,0,0,0,0,0,0,0,0,0
2008,5,8,11,0,,21.2,9.4,47,100270,0,0,380,490,121,387,55882,11887,44588,0,110,1,8,0,0,0,0,0,0,0,0,0,0,0,0
2008,5,8,12,0,,22.8,7.7,38,100260,0,0,376,691,241,467,74809,23772,52798,0,90,2.1,6,0,0,0,0,0,0,0,0,0,0,0,0
2008,5,8,13,0,,21.5,7.6,41,100230,0,0,398,396,49,350,43927,4735,39900,0,110,2.2,10,0,0,0,0,0,0,0,0,0,0,0,0
2008,5,8,14,0,,21.2,6.3,38,100180,0,0,376,517,114,413,54727,11236,46541,0,90,2.7,8,0,0,0,0,0,0,0,0,0,0,0,0
2008,5,8,15,0,,21,6.8,40,100190,0,0,383,366,62,314,38851,5993,35442,0,90,2.7,9,0,0,0,0,0,0,0,0,0,0,0,0
2008,5,8,16,0,,20.9,7.4,42,100180,0,0,376,377,121,293,36950,11301,32633,0,90,2,8,0,0,0,0,0,0,0,0,0,0,0,0
2008,5,8,17,0,,20.3,5.5,38,100190,0,0,364,328,213,215,25898,13350,23482,0,70,2.2,7,0,0,0,0,0,0,0,0,0,0,0,0
2008,5,8,18,0,,19.5,6.9,44,100190,0,0,362,191,204,122,0,0,0,0,90,1.8,7,0,0,0,0,0,0,0,0,0,0,0,0
2008,5,8,19,0,,18.8,6.9,46,100190,0,0,360,69,26,43,0,0,0,0,70,1.6,7,0,0,0,0,0,0,0,0,0,0,0,0
2008,5,8,20,0,,17.6,8.1,54,100230,0,0,357,0,0,0,0,0,0,0,70,1.8,8,0,0,0,0,0,0,0,0,0,0,0,0
2008,5,8,21,0,,18.1,6.2,46,100240,0,0,360,0,0,0,0,0,0,0,70,2.3,8,0,0,0,0,0,0,0,0,0,0,0,0
2008,5,8,22,0,,18.4,3.4,37,100310,0,0,360,0,0,0,0,0,0,0,50,3,8,0,0,0,0,0,0,0,0,0,0,0,0
2008,5,8,23,0,,18.4,4.1,39,100330,0,0,363,0,0,0,0,0,0,0,70,1.3,9,0,0,0,0,0,0,0,0,0,0,0,0
2008,5,8,24,0,,17.8,5.3,44,100320,0,0,365,0,0,0,0,0,0,0,70,1.4,9,0,0,0,0,0,0,0,0,0,0,0,0
2008,5,9,1,0,,17,6.7,51,100350,0,0,357,0,0,0,0,0,0,0,70,1.6,8,0,0,0,0,0,0,0,0,0,0,0,0
2008,5,9,2,0,,16,7.4,57,100330,0,0,349,0,0,0,0,0,0,0,50,2.7,8,0,0,0,0,0,0,0,0,0,0,0,0
2008,5,9,3,0,,16.5,6.3,51,100300,0,0,346,0,0,0,0,0,0,0,50,3.7,7,0,0,0,0,0,0,0,0,0,0,0,0
2008,5,9,4,0,,16.3,6.9,54,100300,0,0,342,0,0,0,0,0,0,0,50,4.3,6,0,0,0,0,0,0,0,0,0,0,0,0
2008,5,9,5,0,,16.5,7.9,57,100340,0,0,344,0,0,0,0,0,0,0,50,4.1,6,0,0,0,0,0,0,0,0,0,0,0,0
2008,5,9,6,0,,16.4,6.2,51,100400,0,0,351,19,4,14,1911,383,1770,0,50,3.7,8,0,0,0,0,0,0,0,0,0,0,0,0
2008,5,9,7,0,,16.5,5.7,49,100480,0,0,346,124,317,60,27476,31861,9795,0,50,4.2,7,0,0,0,0,0,0,0,0,0,0,0,0
2008,5,9,8,0,,17,4.3,43,100550,0,0,359,197,123,147,27399,12526,18412,0,50,4.8,9,0,0,0,0,0,0,0,0,0,0,0,0
2008,5,9,9,0,,18,7.1,49,100580,0,0,368,288,102,228,35740,10271,27083,0,50,5.2,9,0,0,0,0,0,0,0,0,0,0,0,0
2008,5,9,10,0,,19,8.3,50,100630,0,0,375,387,103,310,45672,10276,36190,0,50,5.2,9,0,0,0,0,0,0,0,0,0,0,0,0
2008,5,9,11,0,,18.9,8.2,50,100670,0,0,385,357,50,313,40678,4864,36050,0,50,5.3,10,0,0,0,0,0,0,0,0,0,0,0,0
2008,5,9,12,0,,18.1,7.2,49,100650,0,0,369,469,82,393,52233,8016,44800,0,50,6.1,9,0,0,0,0,0,0,0,0,0,0,0,0
2008,5,9,13,0,,18.8,0.8,30,100610,0,0,374,424,58,368,46644,5806,41698,0,50,7.1,10,0,0,0,0,0,0,0,0,0,0,0,0
2008,5,9,14,0,,18.8,0.3,29,100640,0,0,374,398,56,347,43145,5541,39099,0,50,6.3,10,0,0,0,0,0,0,0,0,0,0,0,0
2008,5,9,15,0,,18.3,1.7,33,100600,0,0,373,351,55,306,37414,5416,34324,0,50,5.6,10,0,0,0,0,0,0,0,0,0,0,0,0
2008,5,9,16,0,,18,0.1,30,100610,0,0,369,297,62,254,30523,5916,28251,0,50,7.6,10,0,0,0,0,0,0,0,0,0,0,0,0
2008,5,9,17,0,,16.9,1.3,35,100690,0,0,365,200,52,172,19708,4188,18940,0,50,6.5,10,0,0,0,0,0,0,0,0,0,0,0,0
2008,5,9,18,0,,16.4,2.7,40,100720,0,0,364,128,63,106,0,0,0,0,50,6.9,10,0,0,0,0,0,0,0,0,0,0,0,0
2008,5,9,19,0,,15.9,3.3,43,100720,0,0,363,45,7,38,0,0,0,0,50,6.2,10,0,0,0,0,0,0,0,0,0,0,0,0
2008,5,9,20,0,,15.5,3.9,46,100780,0,0,361,0,0,0,0,0,0,0,50,6.2,10,0,0,0,0,0,0,0,0,0,0,0,0
2008,5,9,21,0,,15.3,4.3,48,100810,0,0,361,0,0,0,0,0,0,0,50,7,10,0,0,0,0,0,0,0,0,0,0,0,0
2008,5,9,22,0,,14.9,5.3,53,100850,0,0,360,0,0,0,0,0,0,0,50,5.9,10,0,0,0,0,0,0,0,0,0,0,0,0
2008,5,9,23,0,,14.5,7.5,63,100850,0,0,361,0,0,0,0,0,0,0,50,5.3,10,0,0,0,0,0,0,0,0,0,0,0,0
2008,5,9,24,0,,14.3,7.3,63,100800,0,0,359,0,0,0,0,0,0,0,50,5.6,10,0,0,0,0,0,0,0,0,0,0,0,0
2008,5,10,1,0,,14.1,6.6,61,100790,0,0,358,0,0,0,0,0,0,0,50,5.1,10,0,0,0,0,0,0,0,0,0,0,0,0
2008,5,10,2,0,,13.9,6.4,61,100750,0,0,356,0,0,0,0,0,0,0,50,5.5,10,0,0,0,0,0,0,0,0,0,0,0,0
2008,5,10,3,0,,13.8,5.6,58,100740,0,0,355,0,0,0,0,0,0,0,50,5.6,10,0,0,0,0,0,0,0,0,0,0,0,0
2008,5,10,4,0,,13.7,6.5,62,100750,0,0,355,0,0,0,0,0,0,0,50,5.6,10,0,0,0,0,0,0,0,0,0,0,0,0
2008,5,10,5,0,,13.4,7.1,66,100760,0,0,355,0,0,0,0,0,0,0,50,5.2,10,0,0,0,0,0,0,0,0,0,0,0,0
2008,5,10,6,0,,13.3,7.5,68,100740,0,0,355,9,1,9,1173,17,1166,0,50,5.1,10,0,0,0,0,0,0,0,0,0,0,0,0
2008,5,10,7,0,,13.3,7.2,67,100780,0,0,354,64,43,55,9478,4256,7108,0,50,5.8,10,0,0,0,0,0,0,0,0,0,0,0,0
2008,5,10,8,0,,12,9.5,85,100750,0,0,351,114,26,103,13951,2416,12213,0,50,4.7,10,0,0,0,0,0,0,0,0,0,0,0,0
2008,5,10,9,0,,12.2,9.9,86,100780,0,0,353,172,24,157,20407,2254,18503,0,50,6.2,10,0,0,0,0,0,0,0,0,0,0,0,0
2008,5,10,10,0,,12.3,9.1,81,100790,0,0,352,228,24,210,26588,2266,24493,0,50,6.3,10,0,0,0,0,0,0,0,0,0,0,0,0
2008,5,10,11,0,,12.3,9.1,81,100770,0,0,352,287,28,263,33008,2642,30491,0,50,6.8,10,0,0,0,0,0,0,0,0,0,0,0,0
2008,5,10,12,0,,12.8,7.8,72,100730,0,0,353,327,31,298,37093,2949,34355,0,50,5.3,10,0,0,0,0,0,0,0,0,0,0,0,0
2008,5,10,13,0,,13.1,7.3,68,100770,0,0,354,368,39,330,40977,3836,37704,0,50,6.7,10,0,0,0,0,0,0,0,0,0,0,0,0
2008,5,10,14,0,,13.2,7.8,70,100800,0,0,355,349,39,314,38459,3769,35701,0,50,6,10,0,0,0,0,0,0,0,0,0,0,0,0
2008,5,10,15,0,,13.3,6.3,63,100780,0,0,353,304,37,274,32996,3570,30953,0,50,4.6,10,0,0,0,0,0,0,0,0,0,0,0,0
2008,5,10,16,0,,13.4,6.9,65,100790,0,0,354,233,31,211,24009,2561,23020,0,50,3.5,10,0,0,0,0,0,0,0,0,0,0,0,0
2008,5,10,17,0,,13.3,6.6,64,100800,0,0,337,283,135,211,25189,11052,23137,0,50,5.5,8,0,0,0,0,0,0,0,0,0,0,0,0
2008,5,10,18,0,,13.7,6.3,61,100790,0,0,329,229,351,109,0,0,0,0,50,4.6,6,0,0,0,0,0,0,0,0,0,0,0,0
2008,5,10,19,0,,12.6,6.4,66,100810,0,0,320,92,48,44,0,0,0,0,50,5.1,5,0,0,0,0,0,0,0,0,0,0,0,0
2008,5,10,20,0,,12.1,6.5,69,100840,0,0,315,0,0,0,0,0,0,0,50,4.6,3,0,0,0,0,0,0,0,0,0,0,0,0
2008,5,10,21,0,,11.9,6.5,70,100910,0,0,310,0,0,0,0,0,0,0,50,3.8,2,0,0,0,0,0,0,0,0,0,0,0,0
2008,5,10,22,0,,11.9,6.3,69,100940,0,0,310,0,0,0,0,0,0,0,50,5,2,0,0,0,0,0,0,0,0,0,0,0,0
2008,5,10,23,0,,11.6,6.5,71,100930,0,0,309,0,0,0,0,0,0,0,50,4.8,2,0,0,0,0,0,0,0,0,0,0,0,0
2008,5,10,24,0,,11.1,6.4,73,100960,0,0,307,0,0,0,0,0,0,0,50,2.7,2,0,0,0,0,0,0,0,0,0,0,0,0
2008,5,11,1,0,,11.1,6.4,73,100920,0,0,305,0,0,0,0,0,0,0,20,3.9,2,0,0,0,0,0,0,0,0,0,0,0,0
2008,5,11,2,0,,10.8,6.1,73,100910,0,0,302,0,0,0,0,0,0,0,20,3.5,1,0,0,0,0,0,0,0,0,0,0,0,0
2008,5,11,3,0,,10.7,6,73,100940,0,0,300,0,0,0,0,0,0,0,20,3.4,1,0,0,0,0,0,0,0,0,0,0,0,0
2008,5,11,4,0,,10.7,5.8,72,100950,0,0,304,0,0,0,0,0,0,0,20,3.9,2,0,0,0,0,0,0,0,0,0,0,0,0
2008,5,11,5,0,,10.5,6.2,75,100980,0,0,294,0,0,0,0,0,0,0,20,3.7,0,0,0,0,0,0,0,0,0,0,0,0,0
2008,5,11,6,0,,10.8,6.3,74,100990,0,0,301,34,17,17,2869,1579,2283,0,20,4.3,1,0,0,0,0,0,0,0,0,0,0,0,0
2008,5,11,7,0,,11.3,6.6,73,100980,0,0,313,150,440,59,33880,44815,8831,0,50,4.7,4,0,0,0,0,0,0,0,0,0,0,0,0
2008,5,11,8,0,,12.7,6.5,66,100970,0,0,314,344,611,95,58365,62727,13142,0,50,4.1,2,0,0,0,0,0,0,0,0,0,0,0,0
2008,5,11,9,0,,13.8,6.1,60,100950,0,0,324,498,563,164,70731,57118,22409,0,50,5.6,4,0,0,0,0,0,0,0,0,0,0,0,0
2008,5,11,10,0,,14.9,5.3,53,100940,0,0,328,648,570,222,81378,57360,28288,0,50,5,4,0,0,0,0,0,0,0,0,0,0,0,0
2008,5,11,11,0,,16.1,5,48,101000,0,0,333,741,514,296,84843,51341,35853,0,50,4.3,4,0,0,0,0,0,0,0,0,0,0,0,0
2008,5,11,12,0,,16.3,5.2,48,100980,0,0,329,837,572,303,89563,57074,36482,0,70,4.5,2,0,0,0,0,0,0,0,0,0,0,0,0
2008,5,11,13,0,,16.6,4.9,46,101020,0,0,330,843,543,325,84675,54036,38491,0,70,3.9,2,0,0,0,0,0,0,0,0,0,0,0,0
2008,5,11,14,0,,16.4,4.7,46,100960,0,0,318,799,525,317,75400,51803,37413,0,70,3.7,0,0,0,0,0,0,0,0,0,0,0,0,0
2008,5,11,15,0,,16.7,5.9,49,100940,0,0,327,711,520,278,61947,49895,33298,0,70,3.3,1,0,0,0,0,0,0,0,0,0,0,0,0
2008,5,11,16,0,,16,6.4,53,100890,0,0,324,587,524,219,43718,46841,25535,0,70,3.9,1,0,0,0,0,0,0,0,0,0,0,0,0
2008,5,11,17,0,,15.1,5.5,53,100860,0,0,319,433,522,154,23787,33091,17567,0,70,3.8,1,0,0,0,0,0,0,0,0,0,0,0,0
2008,5,11,18,0,,14.2,6,58,100910,0,0,320,268,514,92,0,0,0,0,70,4.4,2,0,0,0,0,0,0,0,0,0,0,0,0
2008,5,11,19,0,,13.1,7.1,67,100940,0,0,315,100,60,40,0,0,0,0,50,4.2,2,0,0,0,0,0,0,0,0,0,0,0,0
2008,5,11,20,0,,12.3,6.3,67,101020,0,0,309,0,0,0,0,0,0,0,50,3.9,1,0,0,0,0,0,0,0,0,0,0,0,0
2008,5,11,21,0,,12.2,6.4,68,101030,0,0,307,0,0,0,0,0,0,0,50,4.7,1,0,0,0,0,0,0,0,0,0,0,0,0
2008,5,11,22,0,,12,6.4,69,101040,0,0,305,0,0,0,0,0,0,0,50,4.6,1,0,0,0,0,0,0,0,0,0,0,0,0
2008,5,11,23,0,,11.8,6.7,71,101030,0,0,302,0,0,0,0,0,0,0,50,4.3,0,0,0,0,0,0,0,0,0,0,0,0,0
2008,5,11,24,0,,11.7,7,73,100990,0,0,300,0,0,0,0,0,0,0,50,5.1,0,0,0,0,0,0,0,0,0,0,0,0,0
2008,5,12,1,0,,11.4,6.9,74,100880,0,0,303,0,0,0,0,0,0,0,50,4.8,1,0,0,0,0,0,0,0,0,0,0,0,0
2008,5,12,2,0,,11.4,7.3,76,100850,0,0,306,0,0,0,0,0,0,0,50,4.5,1,0,0,0,0,0,0,0,0,0,0,0,0
2008,5,12,3,0,,11.6,7.5,76,100850,0,0,310,0,0,0,0,0,0,0,50,4.5,2,0,0,0,0,0,0,0,0,0,0,0,0
2008,5,12,4,0,,11.8,7.6,76,100850,0,0,311,0,0,0,0,0,0,0,50,4.5,2,0,0,0,0,0,0,0,0,0,0,0,0
2008,5,12,5,0,,12,7.8,76,100850,0,0,312,0,0,0,0,0,0,0,50,5.3,2,0,0,0,0,0,0,0,0,0,0,0,0
2008,5,12,6,0,,12.3,7.9,75,100870,0,0,314,35,18,17,2936,1622,2331,0,50,4.2,2,0,0,0,0,0,0,0,0,0,0,0,0
2008,5,12,7,0,,12.8,7.4,70,100820,0,0,321,156,480,56,35918,48946,8468,0,50,5.4,4,0,0,0,0,0,0,0,0,0,0,0,0
2008,5,12,8,0,,14.1,7.3,64,100860,0,0,327,317,491,117,53050,49741,17108,0,50,3.9,4,0,0,0,0,0,0,0,0,0,0,0,0
2008,5,12,9,0,,14.1,7.6,65,100880,0,0,329,442,384,214,59961,38002,27756,0,70,4.6,5,0,0,0,0,0,0,0,0,0,0,0,0
2008,5,12,10,0,,15.6,8.3,62,100880,0,0,344,497,203,344,58770,20297,39957,0,70,5.2,7,0,0,0,0,0,0,0,0,0,0,0,0
2008,5,12,11,0,,16.2,8.9,62,100860,0,0,338,707,432,332,80670,42449,40112,0,70,5.1,4,0,0,0,0,0,0,0,0,0,0,0,0
2008,5,12,12,0,,15.8,8,60,100800,0,0,335,759,314,465,81075,31299,51926,0,70,5.7,4,0,0,0,0,0,0,0,0,0,0,0,0
2008,5,12,13,0,,17.1,8.2,56,100740,0,0,339,816,482,356,82516,47253,42065,0,70,4.9,3,0,0,0,0,0,0,0,0,0,0,0,0
2008,5,12,14,0,,17,7.3,53,100690,0,0,334,803,532,314,75845,51991,37639,0,50,5,2,0,0,0,0,0,0,0,0,0,0,0,0
2008,5,12,15,0,,16.5,6,50,100640,0,0,326,742,590,250,63264,56799,30551,0,70,5.5,1,0,0,0,0,0,0,0,0,0,0,0,0
2008,5,12,16,0,,16.6,6.1,50,100620,0,0,327,595,544,213,44681,48314,25828,0,70,4.6,1,0,0,0,0,0,0,0,0,0,0,0,0
2008,5,12,17,0,,16.3,5.5,49,100540,0,0,318,451,577,142,24020,38072,16776,0,50,4.9,0,0,0,0,0,0,0,0,0,0,0,0,0
2008,5,12,18,0,,14.7,6.2,57,100490,0,0,318,283,578,83,0,0,0,0,50,7.1,1,0,0,0,0,0,0,0,0,0,0,0,0
2008,5,12,19,0,,13.8,6.6,62,100630,0,0,323,101,59,42,0,0,0,0,50,4.7,3,0,0,0,0,0,0,0,0,0,0,0,0
2008,5,12,20,0,,13.5,6.5,63,100710,0,0,327,5,0,4,0,0,0,0,50,5.3,6,0,0,0,0,0,0,0,0,0,0,0,0
2008,5,12,21,0,,13.3,6.6,64,100640,0,0,337,0,0,0,0,0,0,0,50,5,8,0,0,0,0,0,0,0,0,0,0,0,0
2008,5,12,22,0,,13,6.5,65,100590,0,0,328,0,0,0,0,0,0,0,50,5.3,7,0,0,0,0,0,0,0,0,0,0,0,0
2008,5,12,23,0,,12.7,6.5,66,100550,0,0,323,0,0,0,0,0,0,0,50,5.3,5,0,0,0,0,0,0,0,0,0,0,0,0
2008,5,12,24,0,,12.5,6.9,69,100460,0,0,319,0,0,0,0,0,0,0,50,6,4,0,0,0,0,0,0,0,0,0,0,0,0
2008,5,13,1,0,,12.5,7.1,70,100450,0,0,324,0,0,0,0,0,0,0,50,4.3,6,0,0,0,0,0,0,0,0,0,0,0,0
2008,5,13,2,0,,12.8,7,68,100420,0,0,335,0,0,0,0,0,0,0,20,3.3,8,0,0,0,0,0,0,0,0,0,0,0,0
2008,5,13,3,0,,12.6,7.4,71,100390,0,0,351,0,0,0,0,0,0,0,360,2.5,10,0,0,0,0,0,0,0,0,0,0,0,0
2008,5,13,4,0,,9.7,8.7,94,100410,0,0,339,0,0,0,0,0,0,0,360,5.4,10,0,0,0,0,0,0,0,0,0,0,0,0
2008,5,13,5,0,,9.7,8.9,95,100350,0,0,340,0,0,0,0,0,0,0,340,7.7,10,0,0,0,0,0,0,0,0,0,0,0,0
2008,5,13,6,0,,9.9,8.9,94,100330,0,0,340,4,0,4,618,3,617,0,340,3.7,10,0,0,0,0,0,0,0,0,0,0,0,0
2008,5,13,7,0,,9.9,9.1,95,100300,0,0,308,158,478,57,36114,48898,8603,0,340,7.1,3,0,0,0,0,0,0,0,0,0,0,0,0
2008,5,13,8,0,,11,8.9,87,100330,0,0,309,336,563,104,56217,57774,14380,0,340,6.6,2,0,0,0,0,0,0,0,0,0,0,0,0
2008,5,13,9,0,,12.8,9.4,80,100380,0,0,313,486,516,178,68281,51952,24183,0,320,2.1,1,0,0,0,0,0,0,0,0,0,0,0,0
2008,5,13,10,0,,14,8.6,70,100430,0,0,325,638,534,237,79515,53348,30002,0,270,3.9,3,0,0,0,0,0,0,0,0,0,0,0,0
2008,5,13,11,0,,16.3,7.4,56,100420,0,0,331,780,598,261,89313,59730,32170,0,360,2,2,0,0,0,0,0,0,0,0,0,0,0,0
2008,5,13,12,0,,18.2,8.7,54,100390,0,0,348,820,527,325,87652,51737,39404,0,320,2.4,4,0,0,0,0,0,0,0,0,0,0,0,0
2008,5,13,13,0,,16.5,9.8,65,100360,0,0,335,849,551,323,85274,53641,39281,0,180,6.1,2,0,0,0,0,0,0,0,0,0,0,0,0
2008,5,13,14,0,,16.9,10.4,66,100380,0,0,346,686,245,460,69306,23465,52027,0,200,6.8,5,0,0,0,0,0,0,0,0,0,0,0,0
2008,5,13,15,0,,17.1,9.9,63,100350,0,0,341,666,330,391,62078,30954,44196,0,200,5.7,3,0,0,0,0,0,0,0,0,0,0,0,0
2008,5,13,16,0,,16.1,8.5,61,100350,0,0,343,479,230,317,43379,20064,35509,0,200,5.7,6,0,0,0,0,0,0,0,0,0,0,0,0
2008,5,13,17,0,,16.9,9,60,100350,0,0,342,407,420,180,25594,25905,20605,0,290,3,4,0,0,0,0,0,0,0,0,0,0,0,0
2008,5,13,18,0,,15,9.1,68,100390,0,0,342,191,185,127,0,0,0,0,180,5.2,7,0,0,0,0,0,0,0,0,0,0,0,0
2008,5,13,19,0,,14.1,8.7,70,100410,0,0,339,74,27,47,0,0,0,0,180,5.9,7,0,0,0,0,0,0,0,0,0,0,0,0
2008,5,13,20,0,,12.4,8,75,100470,0,0,332,1,0,1,0,0,0,0,360,3.4,8,0,0,0,0,0,0,0,0,0,0,0,0
2008,5,13,21,0,,11.9,7.9,77,100510,0,0,332,0,0,0,0,0,0,0,20,2.5,8,0,0,0,0,0,0,0,0,0,0,0,0
2008,5,13,22,0,,11.8,8.8,82,100520,0,0,335,0,0,0,0,0,0,0,20,1.8,8,0,0,0,0,0,0,0,0,0,0,0,0
2008,5,13,23,0,,11.7,8.5,81,100500,0,0,336,0,0,0,0,0,0,0,50,1.6,9,0,0,0,0,0,0,0,0,0,0,0,0
2008,5,13,24,0,,11.6,8.4,81,100470,0,0,338,0,0,0,0,0,0,0,50,2.6,9,0,0,0,0,0,0,0,0,0,0,0,0
2008,5,14,1,0,,11.5,7.7,78,100480,0,0,332,0,0,0,0,0,0,0,50,1.3,8,0,0,0,0,0,0,0,0,0,0,0,0
2008,5,14,2,0,,11.5,7.7,78,100450,0,0,328,0,0,0,0,0,0,0,20,2.2,8,0,0,0,0,0,0,0,0,0,0,0,0
2008,5,14,3,0,,10.7,8.6,87,100460,0,0,322,0,0,0,0,0,0,0,340,3.1,7,0,0,0,0,0,0,0,0,0,0,0,0
2008,5,14,4,0,,10.7,7.9,83,100500,0,0,326,0,0,0,0,0,0,0,360,1.3,8,0,0,0,0,0,0,0,0,0,0,0,0
2008,5,14,5,0,,10.4,7.8,84,100560,0,0,308,0,0,0,0,0,0,0,340,1.4,3,0,0,0,0,0,0,0,0,0,0,0,0
2008,5,14,6,0,,10.5,8,85,100650,0,0,314,28,12,17,2713,1074,2308,0,320,1,5,0,0,0,0,0,0,0,0,0,0,0,0
2008,5,14,7,0,,11.7,8.1,79,100700,0,0,314,155,437,61,34327,44579,9169,0,160,1.4,3,0,0,0,0,0,0,0,0,0,0,0,0
2008,5,14,8,0,,12.2,7.6,74,100760,0,0,316,317,474,121,52475,48018,17630,0,360,1.8,3,0,0,0,0,0,0,0,0,0,0,0,0
2008,5,14,9,0,,15.2,6.7,57,100800,0,0,331,499,551,170,70411,55718,23042,0,140,2.3,4,0,0,0,0,0,0,0,0,0,0,0,0
2008,5,14,10,0,,14.4,8.7,69,100840,0,0,335,531,243,347,62853,24226,40338,0,180,3.6,6,0,0,0,0,0,0,0,0,0,0,0,0
2008,5,14,11,0,,16.1,8.5,61,100820,0,0,340,684,304,420,76611,30265,47621,0,180,2.8,5,0,0,0,0,0,0,0,0,0,0,0,0
2008,5,14,12,0,,16.2,8.6,61,100790,0,0,341,706,248,473,76316,24453,53482,0,200,4.2,5,0,0,0,0,0,0,0,0,0,0,0,0
2008,5,14,13,0,,14.8,8.5,66,100790,0,0,337,661,191,478,69906,18761,53795,0,180,5.4,6,0,0,0,0,0,0,0,0,0,0,0,0
2008,5,14,14,0,,15.5,8.7,64,100740,0,0,332,734,299,458,72863,29049,51428,0,180,5.2,3,0,0,0,0,0,0,0,0,0,0,0,0
2008,5,14,15,0,,17.1,8.5,57,100720,0,0,339,710,506,286,61696,48662,33500,0,200,5.5,3,0,0,0,0,0,0,0,0,0,0,0,0
2008,5,14,16,0,,16.3,9.2,63,100720,0,0,329,616,591,198,45312,52020,24805,0,200,6.9,1,0,0,0,0,0,0,0,0,0,0,0,0
2008,5,14,17,0,,16.3,9.2,63,100710,0,0,323,462,601,137,24396,39320,16735,0,200,6.2,0,0,0,0,0,0,0,0,0,0,0,0,0
2008,5,14,18,0,,15.8,9.2,65,100700,0,0,320,275,519,93,0,0,0,0,180,5.3,0,0,0,0,0,0,0,0,0,0,0,0,0
2008,5,14,19,0,,14.5,9.7,73,100750,0,0,315,109,68,40,0,0,0,0,180,4.3,0,0,0,0,0,0,0,0,0,0,0,0,0
2008,5,14,20,0,,14,9,72,100780,0,0,312,10,3,7,0,0,0,0,200,3.5,0,0,0,0,0,0,0,0,0,0,0,0,0
2008,5,14,21,0,,13.8,8.8,72,100840,0,0,311,0,0,0,0,0,0,0,230,3.2,0,0,0,0,0,0,0,0,0,0,0,0,0
2008,5,14,22,0,,13.4,9.4,77,100880,0,0,310,0,0,0,0,0,0,0,270,1.9,0,0,0,0,0,0,0,0,0,0,0,0,0
2008,5,14,23,0,,13.3,9.3,77,100890,0,0,309,0,0,0,0,0,0,0,230,1.9,0,0,0,0,0,0,0,0,0,0,0,0,0
2008,5,14,24,0,,12.8,9,78,100900,0,0,307,0,0,0,0,0,0,0,250,1.7,0,0,0,0,0,0,0,0,0,0,0,0,0
2008,5,15,1,0,,12.5,9.6,83,100910,0,0,306,0,0,0,0,0,0,0,250,2,0,0,0,0,0,0,0,0,0,0,0,0,0
2008,5,15,2,0,,12.4,9.4,82,100880,0,0,306,0,0,0,0,0,0,0,250,1.6,0,0,0,0,0,0,0,0,0,0,0,0,0
2008,5,15,3,0,,12.3,9.3,82,100870,0,0,305,0,0,0,0,0,0,0,270,1.6,0,0,0,0,0,0,0,0,0,0,0,0,0
2008,5,15,4,0,,12.7,8.7,77,100880,0,0,306,0,0,0,0,0,0,0,270,0.5,0,0,0,0,0,0,0,0,0,0,0,0,0
2008,5,15,5,0,,12.2,9.5,84,100900,0,0,305,0,0,0,0,0,0,0,290,1.6,0,0,0,0,0,0,0,0,0,0,0,0,0
2008,5,15,6,0,,12.1,8.9,81,100920,0,0,304,36,16,19,3191,1471,2634,0,270,1.3,0,0,0,0,0,0,0,0,0,0,0,0,0
2008,5,15,7,0,,13.9,9.3,74,100930,0,0,312,167,519,55,38353,53136,8278,0,140,1.1,0,0,0,0,0,0,0,0,0,0,0,0,0
2008,5,15,8,0,,15.3,9.4,68,100980,0,0,318,351,611,97,59200,62895,13470,0,290,1.8,0,0,0,0,0,0,0,0,0,0,0,0,0
2008,5,15,9,0,,17,8.9,59,100990,0,0,325,547,694,131,77834,71373,17066,0,200,2.3,0,0,0,0,0,0,0,0,0,0,0,0,0
2008,5,15,10,0,,18.6,8.2,51,100950,0,0,332,689,657,193,87302,66297,25612,0,360,2.3,0,0,0,0,0,0,0,0,0,0,0,0,0
2008,5,15,11,0,,20.1,5.6,39,100940,0,0,336,814,668,232,93720,67249,29228,0,360,1.5,0,0,0,0,0,0,0,0,0,0,0,0,0
2008,5,15,12,0,,18.3,12.2,68,100900,0,0,341,813,508,336,87056,48879,41356,0,180,6.2,1,0,0,0,0,0,0,0,0,0,0,0,0
2008,5,15,13,0,,20.1,12,60,100850,0,0,350,856,561,319,85901,53918,39529,0,180,6.6,1,0,0,0,0,0,0,0,0,0,0,0,0
2008,5,15,14,0,,18.7,12.2,66,100830,0,0,343,769,448,356,73621,42805,41973,0,200,7.1,1,0,0,0,0,0,0,0,0,0,0,0,0
2008,5,15,15,0,,18.7,11.7,64,100770,0,0,347,712,508,286,61843,47557,34206,0,180,6.1,2,0,0,0,0,0,0,0,0,0,0,0,0
2008,5,15,16,0,,17.9,11.2,65,100720,0,0,343,561,437,251,44617,37669,29693,0,200,6.1,2,0,0,0,0,0,0,0,0,0,0,0,0
2008,5,15,17,0,,17.6,10.7,64,100700,0,0,330,444,536,153,24642,33188,18101,0,200,5,0,0,0,0,0,0,0,0,0,0,0,0,0
2008,5,15,18,0,,16.8,7.9,56,100700,0,0,330,282,547,89,0,0,0,0,230,5.3,1,0,0,0,0,0,0,0,0,0,0,0,0
2008,5,15,19,0,,15.6,7.8,60,100710,0,0,322,113,485,40,0,0,0,0,230,3.6,1,0,0,0,0,0,0,0,0,0,0,0,0
2008,5,15,20,0,,14.8,8.9,68,100740,0,0,318,11,3,8,0,0,0,0,180,3.1,0,0,0,0,0,0,0,0,0,0,0,0,0
2008,5,15,21,0,,14.8,8.3,65,100770,0,0,315,0,0,0,0,0,0,0,270,2.5,0,0,0,0,0,0,0,0,0,0,0,0,0
2008,5,15,22,0,,14.5,8.7,68,100750,0,0,314,0,0,0,0,0,0,0,270,4.8,0,0,0,0,0,0,0,0,0,0,0,0,0
2008,5,15,23,0,,14.6,5.1,53,100710,0,0,310,0,0,0,0,0,0,0,250,3,0,0,0,0,0,0,0,0,0,0,0,0,0
2008,5,15,24,0,,14.3,5.4,55,100670,0,0,309,0,0,0,0,0,0,0,230,2.5,0,0,0,0,0,0,0,0,0,0,0,0,0
2008,5,16,1,0,,15,6.7,58,100610,0,0,314,0,0,0,0,0,0,0,320,2.2,0,0,0,0,0,0,0,0,0,0,0,0,0
2008,5,16,2,0,,14,9.2,73,100550,0,0,312,0,0,0,0,0,0,0,200,1.4,0,0,0,0,0,0,0,0,0,0,0,0,0
2008,5,16,3,0,,13.8,7.7,67,100500,0,0,310,0,0,0,0,0,0,0,20,1.6,0,0,0,0,0,0,0,0,0,0,0,0,0
2008,5,16,4,0,,14.5,7.5,63,100550,0,0,313,0,0,0,0,0,0,0,270,1.2,0,0,0,0,0,0,0,0,0,0,0,0,0
2008,5,16,5,0,,13.5,9.1,75,100600,0,0,310,0,0,0,0,0,0,0,270,1.4,0,0,0,0,0,0,0,0,0,0,0,0,0
2008,5,16,6,0,,13.6,8.2,70,100630,0,0,310,37,19,19,3226,1701,2578,0,290,1.9,0,0,0,0,0,0,0,0,0,0,0,0,0
2008,5,16,7,0,,14.1,8.7,70,100670,0,0,312,163,475,59,36443,48530,8898,0,320,1.8,0,0,0,0,0,0,0,0,0,0,0,0,0
2008,5,16,8,0,,16.1,8.8,62,100670,0,0,321,352,610,98,59279,62806,13527,0,270,1.4,0,0,0,0,0,0,0,0,0,0,0,0,0
2008,5,16,9,0,,17.9,9.5,58,100660,0,0,330,532,643,146,74887,65865,18729,0,180,1.7,0,0,0,0,0,0,0,0,0,0,0,0,0
2008,5,16,10,0,,18.9,9.6,55,100620,0,0,355,621,479,259,76654,46978,32888,0,180,3.2,5,0,0,0,0,0,0,0,0,0,0,0,0
2008,5,16,11,0,,19.2,8.8,51,100610,0,0,359,654,261,427,73283,25879,48437,0,180,3.6,6,0,0,0,0,0,0,0,0,0,0,0,0
2008,5,16,12,0,,20.4,9.6,50,100600,0,0,370,643,187,466,70165,18318,53017,0,180,3.4,7,0,0,0,0,0,0,0,0,0,0,0,0
2008,5,16,13,0,,20.9,10.3,51,100520,0,0,369,711,234,486,74618,22667,55094,0,180,4,6,0,0,0,0,0,0,0,0,0,0,0,0
2008,5,16,14,0,,20.2,9.7,51,100470,0,0,365,645,202,459,66160,19425,51770,0,200,3.7,6,0,0,0,0,0,0,0,0,0,0,0,0
2008,5,16,15,0,,20.2,8.8,48,100420,0,0,364,568,198,402,56114,18733,45196,0,200,3.5,6,0,0,0,0,0,0,0,0,0,0,0,0
2008,5,16,16,0,,19.4,8.9,51,100360,0,0,360,461,200,319,42780,17460,35829,0,180,3,6,0,0,0,0,0,0,0,0,0,0,0,0
2008,5,16,17,0,,19.1,7.8,48,100320,0,0,348,429,480,168,25435,30742,19307,0,200,3.3,3,0,0,0,0,0,0,0,0,0,0,0,0
2008,5,16,18,0,,17.7,9.8,60,100320,0,0,347,251,386,114,0,0,0,0,200,3.6,4,0,0,0,0,0,0,0,0,0,0,0,0
2008,5,16,19,0,,16.9,12.4,75,100300,0,0,349,89,281,46,0,0,0,0,200,3.2,5,0,0,0,0,0,0,0,0,0,0,0,0
2008,5,16,20,0,,16.5,12.2,76,100310,0,0,352,5,0,5,0,0,0,0,200,1.7,7,0,0,0,0,0,0,0,0,0,0,0,0
2008,5,16,21,0,,16.5,12.4,77,100360,0,0,359,0,0,0,0,0,0,0,0,0.4,8,0,0,0,0,0,0,0,0,0,0,0,0
2008,5,16,22,0,,16.9,11.8,72,100360,0,0,361,0,0,0,0,0,0,0,180,0.6,8,0,0,0,0,0,0,0,0,0,0,0,0
2008,5,16,23,0,,16.8,12.3,75,100330,0,0,361,0,0,0,0,0,0,0,160,0.7,8,0,0,0,0,0,0,0,0,0,0,0,0
2008,5,16,24,0,,16.5,13,80,100330,0,0,360,0,0,0,0,0,0,0,0,0.2,8,0,0,0,0,0,0,0,0,0,0,0,0
2008,5,17,1,0,,16.1,13.2,83,100300,0,0,347,0,0,0,0,0,0,0,200,0.9,5,0,0,0,0,0,0,0,0,0,0,0,0
2008,5,17,2,0,,15.9,13.1,84,100280,0,0,338,0,0,0,0,0,0,0,0,0.3,3,0,0,0,0,0,0,0,0,0,0,0,0
2008,5,17,3,0,,15.7,11.4,76,100270,0,0,322,0,0,0,0,0,0,0,290,0.6,0,0,0,0,0,0,0,0,0,0,0,0,0
2008,5,17,4,0,,15.8,10.5,71,100250,0,0,322,0,0,0,0,0,0,0,250,0.6,0,0,0,0,0,0,0,0,0,0,0,0,0
2008,5,17,5,0,,15.6,11.9,79,100310,0,0,323,0,0,0,0,0,0,0,90,1.1,0,0,0,0,0,0,0,0,0,0,0,0,0
2008,5,17,6,0,,15.8,11.3,75,100330,0,0,323,37,17,20,3332,1539,2743,0,70,0.5,0,0,0,0,0,0,0,0,0,0,0,0,0
2008,5,17,7,0,,16.4,10.4,68,100350,0,0,324,175,553,53,39799,56215,7808,0,70,1.4,0,0,0,0,0,0,0,0,0,0,0,0,0
2008,5,17,8,0,,17.9,10,60,100390,0,0,348,320,467,124,52485,47017,18174,0,0,0.4,4,0,0,0,0,0,0,0,0,0,0,0,0
2008,5,17,9,0,,19.7,10.6,56,100400,0,0,346,528,626,151,74137,64182,19340,0,110,1.1,1,0,0,0,0,0,0,0,0,0,0,0,0
2008,5,17,10,0,,21.3,11,52,100380,0,0,348,688,648,197,87041,65116,26309,0,160,1.7,0,0,0,0,0,0,0,0,0,0,0,0,0
2008,5,17,11,0,,21.9,11.5,52,100390,0,0,351,784,594,265,89693,58874,33107,0,160,1.8,0,0,0,0,0,0,0,0,0,0,0,0,0
2008,5,17,12,0,,21.5,12,55,100410,0,0,357,836,553,316,89224,53256,39311,0,180,3.5,1,0,0,0,0,0,0,0,0,0,0,0,0
2008,5,17,13,0,,21.9,12.9,57,100360,0,0,365,799,334,478,82407,31775,54999,0,180,3.3,2,0,0,0,0,0,0,0,0,0,0,0,0
2008,5,17,14,0,,21.5,13.6,61,100350,0,0,373,673,227,463,68754,21220,53004,0,180,3.9,5,0,0,0,0,0,0,0,0,0,0,0,0
2008,5,17,15,0,,19.8,13.7,68,100330,0,0,372,464,112,370,48087,10634,41871,0,200,3.2,7,0,0,0,0,0,0,0,0,0,0,0,0
2008,5,17,16,0,,19.5,14.3,72,100300,0,0,371,386,120,301,38260,10943,33882,0,200,4.2,7,0,0,0,0,0,0,0,0,0,0,0,0
2008,5,17,17,0,,18.5,13.7,74,100270,0,0,365,282,123,215,25842,9847,23858,0,180,4.7,7,0,0,0,0,0,0,0,0,0,0,0,0
2008,5,17,18,0,,17.8,13.5,76,100240,0,0,361,179,141,129,13598,9529,13575,0,200,2.3,7,0,0,0,0,0,0,0,0,0,0,0,0
2008,5,17,19,0,,17,13.3,79,100240,0,0,357,73,144,51,0,0,0,0,200,2.5,7,0,0,0,0,0,0,0,0,0,0,0,0
2008,5,17,20,0,,16.6,12.3,76,100240,0,0,354,6,1,6,0,0,0,0,230,2.2,7,0,0,0,0,0,0,0,0,0,0,0,0
2008,5,17,21,0,,16.8,10.1,65,100300,0,0,352,0,0,0,0,0,0,0,200,2,7,0,0,0,0,0,0,0,0,0,0,0,0
2008,5,17,22,0,,16.8,9.7,63,100340,0,0,349,0,0,0,0,0,0,0,180,1.3,6,0,0,0,0,0,0,0,0,0,0,0,0
2008,5,17,23,0,,16.7,10.5,67,100360,0,0,347,0,0,0,0,0,0,0,180,2.2,6,0,0,0,0,0,0,0,0,0,0,0,0
2008,5,17,24,0,,16.1,12.2,78,100340,0,0,344,0,0,0,0,0,0,0,160,1.2,5,0,0,0,0,0,0,0,0,0,0,0,0
2008,5,18,1,0,,15.7,12.4,81,100300,0,0,342,0,0,0,0,0,0,0,0,0.1,5,0,0,0,0,0,0,0,0,0,0,0,0
2008,5,18,2,0,,15.1,7.1,59,100290,0,0,332,0,0,0,0,0,0,0,270,1.6,4,0,0,0,0,0,0,0,0,0,0,0,0
2008,5,18,3,0,,15.3,7.3,59,100250,0,0,332,0,0,0,0,0,0,0,250,0.6,4,0,0,0,0,0,0,0,0,0,0,0,0
2008,5,18,4,0,,15.5,6.4,55,100270,0,0,335,0,0,0,0,0,0,0,200,0.7,5,0,0,0,0,0,0,0,0,0,0,0,0
2008,5,18,5,0,,15.4,12.3,82,100260,0,0,344,0,0,0,0,0,0,0,200,1.6,6,0,0,0,0,0,0,0,0,0,0,0,0
2008,5,18,6,0,,15.5,11.8,79,100290,0,0,354,21,4,17,2188,333,2060,0,250,1.9,8,0,0,0,0,0,0,0,0,0,0,0,0
2008,5,18,7,0,,16.1,12.6,80,100280,0,0,358,102,125,74,16954,11690,10285,0,180,1.9,8,0,0,0,0,0,0,0,0,0,0,0,0
2008,5,18,8,0,,17.1,13.2,78,100280,0,0,363,211,129,156,29379,12327,20368,0,180,1.8,8,0,0,0,0,0,0,0,0,0,0,0,0
2008,5,18,9,0,,18.3,12.9,71,100270,0,0,363,374,195,256,47701,18768,31657,0,180,2.4,7,0,0,0,0,0,0,0,0,0,0,0,0
2008,5,18,10,0,,20,12.7,63,100230,0,0,367,555,271,349,66001,26089,41641,0,180,3.6,6,0,0,0,0,0,0,0,0,0,0,0,0
2008,5,18,11,0,,20.2,13.4,65,100260,0,0,399,343,43,305,39363,4067,35450,0,180,4.8,10,0,0,0,0,0,0,0,0,0,0,0,0
2008,5,18,12,0,,20,12.2,61,100240,0,0,377,558,126,439,61992,12104,50634,0,200,6.5,8,0,0,0,0,0,0,0,0,0,0,0,0
2008,5,18,13,0,,20.8,13.4,63,100160,0,0,383,533,104,433,58042,9958,49441,0,200,5.8,8,0,0,0,0,0,0,0,0,0,0,0,0
2008,5,18,14,0,,20.7,15.2,71,100110,0,0,384,492,95,404,52809,8941,46160,0,230,5.4,8,0,0,0,0,0,0,0,0,0,0,0,0
2008,5,18,15,0,,19.9,15.3,75,100050,0,0,399,289,31,263,31095,2439,29666,0,200,5.5,10,0,0,0,0,0,0,0,0,0,0,0,0
2008,5,18,16,0,,19.2,16,82,99980,0,0,397,216,24,199,22538,1748,21836,0,200,5.6,10,0,0,0,0,0,0,0,0,0,0,0,0
2008,5,18,17,0,,19.1,16.3,84,99940,0,0,396,155,23,143,15122,1241,14869,0,230,6.1,10,0,0,0,0,0,0,0,0,0,0,0,0
2008,5,18,18,0,,19.1,16.5,85,99870,0,0,397,99,26,90,7983,3822,7964,0,230,5,10,0,0,0,0,0,0,0,0,0,0,0,0
2008,5,18,19,0,,19.2,16.4,84,99860,0,0,397,46,36,40,0,0,0,0,200,6.8,10,0,0,0,0,0,0,0,0,0,0,0,0
2008,5,18,20,0,,18.7,16.4,87,99850,0,0,394,2,0,2,0,0,0,0,200,9.4,10,0,0,0,0,0,0,0,0,0,0,0,0
2008,5,18,21,0,,18.7,16.4,87,99880,0,0,394,0,0,0,0,0,0,0,200,11,10,0,0,0,0,0,0,0,0,0,0,0,0
2008,5,18,22,0,,18.9,16.6,87,99850,0,0,396,0,0,0,0,0,0,0,200,11.1,10,0,0,0,0,0,0,0,0,0,0,0,0
2008,5,18,23,0,,19.3,17,87,99830,0,0,398,0,0,0,0,0,0,0,200,11.3,10,0,0,0,0,0,0,0,0,0,0,0,0
2008,5,18,24,0,,19.1,17,88,99830,0,0,397,0,0,0,0,0,0,0,200,12.4,10,0,0,0,0,0,0,0,0,0,0,0,0
2008,5,19,1,0,,18.7,17.1,91,99790,0,0,395,0,0,0,0,0,0,0,200,8.9,10,0,0,0,0,0,0,0,0,0,0,0,0
2008,5,19,2,0,,16.1,15.4,96,99760,0,0,380,0,0,0,0,0,0,0,270,6.2,10,0,0,0,0,0,0,0,0,0,0,0,0
2008,5,19,3,0,,15.9,15.5,98,99700,0,0,379,0,0,0,0,0,0,0,250,3.8,10,0,0,0,0,0,0,0,0,0,0,0,0
2008,5,19,4,0,,15.8,15.3,97,99660,0,0,378,0,0,0,0,0,0,0,270,4.9,10,0,0,0,0,0,0,0,0,0,0,0,0
2008,5,19,5,0,,15.7,15.3,98,99690,0,0,377,0,0,0,0,0,0,0,270,4.1,10,0,0,0,0,0,0,0,0,0,0,0,0
2008,5,19,6,0,,15.5,15,97,99720,0,0,376,10,0,9,1274,12,1269,0,250,6.1,10,0,0,0,0,0,0,0,0,0,0,0,0
2008,5,19,7,0,,15.3,14.8,97,99770,0,0,375,54,20,50,7062,1803,6031,0,250,3.1,10,0,0,0,0,0,0,0,0,0,0,0,0
2008,5,19,8,0,,15.5,14.8,96,99840,0,0,376,112,22,103,13782,1978,12334,0,230,3.6,10,0,0,0,0,0,0,0,0,0,0,0,0
2008,5,19,9,0,,15.9,14.7,93,99860,0,0,378,179,25,164,21358,2266,19419,0,270,3.4,10,0,0,0,0,0,0,0,0,0,0,0,0
2008,5,19,10,0,,16.3,12.4,78,99840,0,0,376,234,24,216,27411,2277,25283,0,290,2.5,10,0,0,0,0,0,0,0,0,0,0,0,0
2008,5,19,11,0,,17.2,10.3,64,99880,0,0,368,393,62,338,44714,5973,38961,0,290,2,9,0,0,0,0,0,0,0,0,0,0,0,0
2008,5,19,12,0,,18.3,11.3,64,99830,0,0,375,440,66,378,49329,6325,43388,0,360,1.9,9,0,0,0,0,0,0,0,0,0,0,0,0
2008,5,19,13,0,,18.8,11.1,61,99790,0,0,377,471,75,400,51828,7189,45610,0,270,3.4,9,0,0,0,0,0,0,0,0,0,0,0,0
2008,5,19,14,0,,19.9,10.5,55,99730,0,0,382,463,80,389,49908,7752,44133,0,270,3,9,0,0,0,0,0,0,0,0,0,0,0,0
2008,5,19,15,0,,19.3,8,48,99660,0,0,376,410,79,343,43162,7674,38652,0,270,3,9,0,0,0,0,0,0,0,0,0,0,0,0
2008,5,19,16,0,,19.8,10.2,54,99600,0,0,373,408,138,310,39829,12896,34621,0,250,4.1,8,0,0,0,0,0,0,0,0,0,0,0,0
2008,5,19,17,0,,19.2,9.6,54,99580,0,0,364,335,198,226,27765,12965,25096,0,200,3.5,7,0,0,0,0,0,0,0,0,0,0,0,0
2008,5,19,18,0,,18.5,7.5,49,99570,0,0,348,278,490,101,8928,0,8928,0,230,5.2,4,0,0,0,0,0,0,0,0,0,0,0,0
2008,5,19,19,0,,17.3,10.8,66,99570,0,0,342,114,420,46,0,0,0,0,200,5.1,3,0,0,0,0,0,0,0,0,0,0,0,0
2008,5,19,20,0,,16.8,10.1,65,99580,0,0,334,15,6,9,0,0,0,0,230,4.5,1,0,0,0,0,0,0,0,0,0,0,0,0
2008,5,19,21,0,,16.4,9,62,99570,0,0,323,0,0,0,0,0,0,0,230,4.7,0,0,0,0,0,0,0,0,0,0,0,0,0
2008,5,19,22,0,,16.2,8.9,62,99590,0,0,322,0,0,0,0,0,0,0,250,7.1,0,0,0,0,0,0,0,0,0,0,0,0,0
2008,5,19,23,0,,15.6,10.7,73,99600,0,0,321,0,0,0,0,0,0,0,270,4.6,0,0,0,0,0,0,0,0,0,0,0,0,0
2008,5,19,24,0,,15.2,6.7,57,99610,0,0,315,0,0,0,0,0,0,0,270,4.2,0,0,0,0,0,0,0,0,0,0,0,0,0
2008,5,20,1,0,,12.8,3.7,54,99630,0,0,301,0,0,0,0,0,0,0,290,6.1,0,0,0,0,0,0,0,0,0,0,0,0,0
2008,5,20,2,0,,12.1,4.3,59,99630,0,0,299,0,0,0,0,0,0,0,290,3.3,0,0,0,0,0,0,0,0,0,0,0,0,0
2008,5,20,3,0,,11.8,3.5,57,99670,0,0,297,0,0,0,0,0,0,0,270,3.7,0,0,0,0,0,0,0,0,0,0,0,0,0
2008,5,20,4,0,,11.4,3.1,57,99710,0,0,294,0,0,0,0,0,0,0,270,1.4,0,0,0,0,0,0,0,0,0,0,0,0,0
2008,5,20,5,0,,11.1,3.6,60,99790,0,0,294,0,0,0,0,0,0,0,50,1.3,0,0,0,0,0,0,0,0,0,0,0,0,0
2008,5,20,6,0,,10.8,4.2,64,99890,0,0,293,40,20,20,3447,1905,2709,0,360,2.1,0,0,0,0,0,0,0,0,0,0,0,0,0
2008,5,20,7,0,,11.6,4.5,62,99910,0,0,297,188,619,48,42886,62339,7157,0,320,6.2,0,0,0,0,0,0,0,0,0,0,0,0,0
2008,5,20,8,0,,13.3,4.9,57,100010,0,0,305,365,638,95,61090,65499,13063,0,250,2.4,0,0,0,0,0,0,0,0,0,0,0,0,0
2008,5,20,9,0,,14.6,5.6,55,100030,0,0,311,549,679,138,77231,69508,17673,0,360,3.6,0,0,0,0,0,0,0,0,0,0,0,0,0
2008,5,20,10,0,,16.3,5.2,48,100060,0,0,318,711,698,181,88335,70930,21974,0,320,3.5,0,0,0,0,0,0,0,0,0,0,0,0,0
2008,5,20,11,0,,18.3,5.4,43,100070,0,0,327,833,698,221,96046,70429,28148,0,290,3.2,0,0,0,0,0,0,0,0,0,0,0,0,0
2008,5,20,12,0,,19.4,6.4,43,100030,0,0,334,919,723,235,97853,72587,29595,0,270,4.6,0,0,0,0,0,0,0,0,0,0,0,0,0
2008,5,20,13,0,,19.1,9,52,100000,0,0,335,902,646,279,89301,63598,34218,0,180,7.9,0,0,0,0,0,0,0,0,0,0,0,0,0
2008,5,20,14,0,,19.2,7.6,47,99980,0,0,334,846,603,285,78959,58964,34949,0,200,6.7,0,0,0,0,0,0,0,0,0,0,0,0,0
2008,5,20,15,0,,19.3,8.6,50,99940,0,0,336,750,583,258,64563,55485,31862,0,200,7.3,0,0,0,0,0,0,0,0,0,0,0,0,0
2008,5,20,16,0,,20.3,9.2,49,99930,0,0,341,641,633,188,46622,56159,23838,0,200,4.8,0,0,0,0,0,0,0,0,0,0,0,0,0
2008,5,20,17,0,,20.2,8.8,48,99930,0,0,340,476,614,137,25594,41747,16911,0,230,4.5,0,0,0,0,0,0,0,0,0,0,0,0,0
2008,5,20,18,0,,19.3,10.5,57,99980,0,0,338,303,603,84,8072,0,8072,0,200,3.9,0,0,0,0,0,0,0,0,0,0,0,0,0
2008,5,20,19,0,,17.7,10.7,64,100030,0,0,331,119,462,44,0,0,0,0,180,3.8,0,0,0,0,0,0,0,0,0,0,0,0,0
2008,5,20,20,0,,16.5,11.4,72,100100,0,0,326,15,5,9,0,0,0,0,200,3.3,0,0,0,0,0,0,0,0,0,0,0,0,0
2008,5,20,21,0,,16.6,10.6,68,100190,0,0,325,0,0,0,0,0,0,0,200,2.5,0,0,0,0,0,0,0,0,0,0,0,0,0
2008,5,20,22,0,,16.1,10.1,68,100190,0,0,323,0,0,0,0,0,0,0,250,3.1,0,0,0,0,0,0,0,0,0,0,0,0,0
2008,5,20,23,0,,16.1,10.1,68,100190,0,0,323,0,0,0,0,0,0,0,230,2.7,0,0,0,0,0,0,0,0,0,0,0,0,0
2008,5,20,24,0,,16.1,9.9,67,100210,0,0,322,0,0,0,0,0,0,0,200,1.7,0,0,0,0,0,0,0,0,0,0,0,0,0
2008,5,21,1,0,,16.2,10,67,100210,0,0,323,0,0,0,0,0,0,0,160,0.8,0,0,0,0,0,0,0,0,0,0,0,0,0
2008,5,21,2,0,,15.9,9.5,66,100190,0,0,321,0,0,0,0,0,0,0,340,2.6,0,0,0,0,0,0,0,0,0,0,0,0,0
2008,5,21,3,0,,15.7,10.2,70,100200,0,0,321,0,0,0,0,0,0,0,250,1.5,0,0,0,0,0,0,0,0,0,0,0,0,0
2008,5,21,4,0,,14.8,10.9,78,100250,0,0,318,0,0,0,0,0,0,0,270,2.4,0,0,0,0,0,0,0,0,0,0,0,0,0
2008,5,21,5,0,,14.9,10.6,76,100290,0,0,344,0,0,0,0,0,0,0,250,1.4,7,0,0,0,0,0,0,0,0,0,0,0,0
2008,5,21,6,0,,14.9,11.2,79,100330,0,0,345,26,7,19,2582,611,2345,0,180,2.1,7,0,0,0,0,0,0,0,0,0,0,0,0
2008,5,21,7,0,,15.5,11.6,78,100370,0,0,344,138,295,71,28426,29461,11504,0,230,3,6,0,0,0,0,0,0,0,0,0,0,0,0
2008,5,21,8,0,,17,11.4,70,100390,0,0,345,324,462,127,52737,46451,18630,0,250,2.3,4,0,0,0,0,0,0,0,0,0,0,0,0
2008,5,21,9,0,,18.4,11.2,63,100420,0,0,352,505,541,176,70700,54303,24121,0,250,4.5,4,0,0,0,0,0,0,0,0,0,0,0,0
2008,5,21,10,0,,19.8,13,65,100410,0,0,343,693,649,199,87499,64967,26661,0,180,4,0,0,0,0,0,0,0,0,0,0,0,0,0
2008,5,21,11,0,,19.5,12.5,64,100430,0,0,341,778,571,277,88778,56372,34382,0,180,5.9,0,0,0,0,0,0,0,0,0,0,0,0,0
2008,5,21,12,0,,20.8,10.2,51,100420,0,0,345,858,589,300,90807,58000,36209,0,200,5.3,0,0,0,0,0,0,0,0,0,0,0,0,0
2008,5,21,13,0,,21.1,9.3,47,100400,0,0,345,872,580,313,87309,56535,38279,0,230,6,0,0,0,0,0,0,0,0,0,0,0,0,0
2008,5,21,14,0,,21.9,9.4,45,100340,0,0,349,858,628,274,79718,60847,34220,0,230,5.5,0,0,0,0,0,0,0,0,0,0,0,0,0
2008,5,21,15,0,,21.2,8.1,43,100290,0,0,359,737,549,273,64173,52284,33277,0,230,6.8,3,0,0,0,0,0,0,0,0,0,0,0,0
2008,5,21,16,0,,20.1,11.8,59,100250,0,0,364,524,282,321,46340,24320,36428,0,230,6.6,5,0,0,0,0,0,0,0,0,0,0,0,0
2008,5,21,17,0,,19.9,11.6,59,100240,0,0,357,430,458,177,26879,29001,20786,0,230,4.9,3,0,0,0,0,0,0,0,0,0,0,0,0
2008,5,21,18,0,,19,12.7,67,100290,0,0,359,242,330,122,12283,0,12283,0,230,4.4,5,0,0,0,0,0,0,0,0,0,0,0,0
2008,5,21,19,0,,18,12.4,70,100350,0,0,354,102,344,45,0,0,0,0,200,3.8,5,0,0,0,0,0,0,0,0,0,0,0,0
2008,5,21,20,0,,17.2,12.7,75,100420,0,0,350,12,3,9,0,0,0,0,180,2.7,5,0,0,0,0,0,0,0,0,0,0,0,0
2008,5,21,21,0,,17.3,11.5,69,100450,0,0,349,0,0,0,0,0,0,0,230,4.3,5,0,0,0,0,0,0,0,0,0,0,0,0
2008,5,21,22,0,,17,10.8,67,100480,0,0,347,0,0,0,0,0,0,0,230,4.8,5,0,0,0,0,0,0,0,0,0,0,0,0
2008,5,21,23,0,,16.6,11.9,74,100520,0,0,346,0,0,0,0,0,0,0,270,3.1,5,0,0,0,0,0,0,0,0,0,0,0,0
2008,5,21,24,0,,16.2,11.7,75,100500,0,0,344,0,0,0,0,0,0,0,250,3.4,5,0,0,0,0,0,0,0,0,0,0,0,0
2008,5,22,1,0,,16,12.5,80,100480,0,0,344,0,0,0,0,0,0,0,250,4.8,5,0,0,0,0,0,0,0,0,0,0,0,0
2008,5,22,2,0,,16,12.5,80,100500,0,0,344,0,0,0,0,0,0,0,230,3,5,0,0,0,0,0,0,0,0,0,0,0,0
2008,5,22,3,0,,16,12.9,82,100520,0,0,345,0,0,0,0,0,0,0,270,3.6,5,0,0,0,0,0,0,0,0,0,0,0,0
2008,5,22,4,0,,15.9,13.3,85,100520,0,0,345,0,0,0,0,0,0,0,270,2.8,5,0,0,0,0,0,0,0,0,0,0,0,0
2008,5,22,5,0,,15.9,13.7,87,100580,0,0,345,0,0,0,0,0,0,0,270,3.4,5,0,0,0,0,0,0,0,0,0,0,0,0
2008,5,22,6,0,,16,14,88,100610,0,0,346,34,15,19,3149,1298,2642,0,250,2.7,5,0,0,0,0,0,0,0,0,0,0,0,0
2008,5,22,7,0,,16.8,14.4,86,100650,0,0,350,144,331,68,30151,32837,11254,0,200,1.9,5,0,0,0,0,0,0,0,0,0,0,0,0
2008,5,22,8,0,,18,14.8,82,100700,0,0,360,275,274,158,41515,25824,22527,0,180,3.9,6,0,0,0,0,0,0,0,0,0,0,0,0
2008,5,22,9,0,,19.4,14.4,73,100730,0,0,358,510,553,173,71531,55174,24157,0,180,4.1,3,0,0,0,0,0,0,0,0,0,0,0,0
2008,5,22,10,0,,20,15.2,74,100730,0,0,364,612,439,277,75085,41504,36185,0,200,3.7,4,0,0,0,0,0,0,0,0,0,0,0,0
2008,5,22,11,0,,21.2,15.2,69,100700,0,0,373,689,298,427,77691,27832,50811,0,200,5.3,5,0,0,0,0,0,0,0,0,0,0,0,0
2008,5,22,12,0,,22,15.8,68,100690,0,0,375,795,450,368,85593,42154,45871,0,180,6.6,4,0,0,0,0,0,0,0,0,0,0,0,0
2008,5,22,13,0,,21.4,15.2,68,100660,0,0,371,786,311,486,81960,28856,56903,0,200,6.1,4,0,0,0,0,0,0,0,0,0,0,0,0
2008,5,22,14,0,,22.1,15.4,66,100610,0,0,372,772,340,456,77068,31197,53701,0,200,5.5,3,0,0,0,0,0,0,0,0,0,0,0,0
2008,5,22,15,0,,21.7,15.7,69,100570,0,0,374,650,286,407,62247,25616,47069,0,180,6.5,4,0,0,0,0,0,0,0,0,0,0,0,0
2008,5,22,16,0,,21.2,14.5,66,100530,0,0,376,474,207,325,44432,17398,37310,0,200,4.8,6,0,0,0,0,0,0,0,0,0,0,0,0
2008,5,22,17,0,,20.9,14.9,69,100530,0,0,385,273,106,214,25634,8471,23837,0,200,4,8,0,0,0,0,0,0,0,0,0,0,0,0
2008,5,22,18,0,,20.1,13.7,67,100530,0,0,379,178,124,132,14076,7965,13962,0,200,5.3,8,0,0,0,0,0,0,0,0,0,0,0,0
2008,5,22,19,0,,19.6,13.7,69,100610,0,0,377,76,129,54,0,0,0,0,200,5.6,8,0,0,0,0,0,0,0,0,0,0,0,0
2008,5,22,20,0,,19.1,13.7,71,100660,0,0,374,8,1,7,0,0,0,0,250,4.7,8,0,0,0,0,0,0,0,0,0,0,0,0
2008,5,22,21,0,,18.8,13.8,73,100700,0,0,373,0,0,0,0,0,0,0,270,4,8,0,0,0,0,0,0,0,0,0,0,0,0
2008,5,22,22,0,,18.4,14.4,78,100710,0,0,363,0,0,0,0,0,0,0,270,4,6,0,0,0,0,0,0,0,0,0,0,0,0
2008,5,22,23,0,,17.9,14.1,79,100670,0,0,354,0,0,0,0,0,0,0,250,4.4,5,0,0,0,0,0,0,0,0,0,0,0,0
2008,5,22,24,0,,18,14.4,80,100690,0,0,351,0,0,0,0,0,0,0,270,5.6,3,0,0,0,0,0,0,0,0,0,0,0,0
2008,5,23,1,0,,17.7,14.7,83,100680,0,0,346,0,0,0,0,0,0,0,250,4.1,2,0,0,0,0,0,0,0,0,0,0,0,0
2008,5,23,2,0,,17.5,14.5,83,100680,0,0,340,0,0,0,0,0,0,0,270,4.4,1,0,0,0,0,0,0,0,0,0,0,0,0
2008,5,23,3,0,,17.3,14.5,84,100640,0,0,333,0,0,0,0,0,0,0,250,3.4,0,0,0,0,0,0,0,0,0,0,0,0,0
2008,5,23,4,0,,17,15.1,89,100650,0,0,343,0,0,0,0,0,0,0,270,3.1,2,0,0,0,0,0,0,0,0,0,0,0,0
2008,5,23,5,0,,16.9,15.4,91,100650,0,0,347,0,0,0,0,0,0,0,250,2.9,3,0,0,0,0,0,0,0,0,0,0,0,0
2008,5,23,6,0,,17.3,15.2,88,100660,0,0,361,26,7,19,2609,544,2396,0,180,1.6,7,0,0,0,0,0,0,0,0,0,0,0,0
2008,5,23,7,0,,18.2,15.6,85,100680,0,0,362,140,293,72,28598,28987,11885,0,200,3.1,6,0,0,0,0,0,0,0,0,0,0,0,0
2008,5,23,8,0,,19.4,15.8,80,100690,0,0,356,346,545,113,57370,54512,17241,0,180,2.4,2,0,0,0,0,0,0,0,0,0,0,0,0
2008,5,23,9,0,,20.7,15.6,73,100670,0,0,365,500,519,183,69725,51597,25380,0,200,2.6,3,0,0,0,0,0,0,0,0,0,0,0,0
2008,5,23,10,0,,22.1,15.4,66,100640,0,0,372,656,550,236,81839,54320,30884,0,180,3.4,3,0,0,0,0,0,0,0,0,0,0,0,0
2008,5,23,11,0,,22.8,15.6,64,100610,0,0,376,755,514,303,85940,48393,39162,0,180,4.4,3,0,0,0,0,0,0,0,0,0,0,0,0
2008,5,23,12,0,,22.4,15.4,65,100580,0,0,377,762,302,476,82419,28018,55991,0,180,5.1,4,0,0,0,0,0,0,0,0,0,0,0,0
2008,5,23,13,0,,23.1,15.6,63,100520,0,0,384,725,242,492,76359,22355,56922,0,200,4.5,5,0,0,0,0,0,0,0,0,0,0,0,0
2008,5,23,14,0,,23.4,16.1,64,100440,0,0,389,641,192,462,66673,17502,53540,0,180,4.6,6,0,0,0,0,0,0,0,0,0,0,0,0
2008,5,23,15,0,,23.3,15.8,63,100400,0,0,399,476,117,377,49354,10913,42872,0,180,5.3,8,0,0,0,0,0,0,0,0,0,0,0,0
2008,5,23,16,0,,21.4,15.6,70,100350,0,0,388,348,86,286,35582,7796,32376,0,180,4.2,8,0,0,0,0,0,0,0,0,0,0,0,0
2008,5,23,17,0,,20.8,15.7,73,100260,0,0,405,148,19,137,14641,998,14427,0,200,3.4,10,0,0,0,0,0,0,0,0,0,0,0,0
2008,5,23,18,0,,20.2,15.8,76,100280,0,0,402,89,18,83,7601,1581,7575,0,200,4.1,10,0,0,0,0,0,0,0,0,0,0,0,0
2008,5,23,19,0,,19.9,15.5,76,100310,0,0,400,42,22,38,0,0,0,0,180,4.3,10,0,0,0,0,0,0,0,0,0,0,0,0
2008,5,23,20,0,,19.7,15.5,77,100320,0,0,399,2,0,2,0,0,0,0,180,4.1,10,0,0,0,0,0,0,0,0,0,0,0,0
2008,5,23,21,0,,19.6,15.6,78,100290,0,0,398,0,0,0,0,0,0,0,230,2.3,10,0,0,0,0,0,0,0,0,0,0,0,0
2008,5,23,22,0,,18.7,16.3,86,100340,0,0,394,0,0,0,0,0,0,0,230,3,10,0,0,0,0,0,0,0,0,0,0,0,0
2008,5,23,23,0,,18.4,13.4,73,100330,0,0,389,0,0,0,0,0,0,0,230,4,10,0,0,0,0,0,0,0,0,0,0,0,0
2008,5,23,24,0,,18.2,14,77,100290,0,0,389,0,0,0,0,0,0,0,270,3.2,10,0,0,0,0,0,0,0,0,0,0,0,0
2008,5,24,1,0,,17.3,14.7,85,100290,0,0,385,0,0,0,0,0,0,0,290,3.4,10,0,0,0,0,0,0,0,0,0,0,0,0
2008,5,24,2,0,,16.7,15.2,91,100200,0,0,382,0,0,0,0,0,0,0,20,2.2,10,0,0,0,0,0,0,0,0,0,0,0,0
2008,5,24,3,0,,16.6,15.6,94,100120,0,0,382,0,0,0,0,0,0,0,50,3.1,10,0,0,0,0,0,0,0,0,0,0,0,0
2008,5,24,4,0,,16.7,16,96,100100,0,0,383,0,0,0,0,0,0,0,20,2.4,10,0,0,0,0,0,0,0,0,0,0,0,0
2008,5,24,5,0,,16.3,15.6,96,100070,0,0,381,0,0,0,0,0,0,0,50,2.7,10,0,0,0,0,0,0,0,0,0,0,0,0
2008,5,24,6,0,,16.1,15.4,96,99990,0,0,380,9,0,8,1134,9,1130,0,70,2.3,10,0,0,0,0,0,0,0,0,0,0,0,0
2008,5,24,7,0,,16.4,15.5,95,99990,0,0,381,57,21,52,7385,1840,6322,0,50,2.2,10,0,0,0,0,0,0,0,0,0,0,0,0
2008,5,24,8,0,,16.5,15.8,96,99950,0,0,382,112,20,103,13655,1820,12313,0,50,2.3,10,0,0,0,0,0,0,0,0,0,0,0,0
2008,5,24,9,0,,16.9,16,95,99910,0,0,384,165,19,154,19756,1733,18265,0,50,2.8,10,0,0,0,0,0,0,0,0,0,0,0,0
2008,5,24,10,0,,16.8,16.1,96,99910,0,0,384,191,13,180,22537,1209,21402,0,50,1,10,0,0,0,0,0,0,0,0,0,0,0,0
2008,5,24,11,0,,17.1,16.6,97,99860,0,0,386,249,17,233,29048,1583,27517,0,20,3.1,10,0,0,0,0,0,0,0,0,0,0,0,0
2008,5,24,12,0,,17.1,16.7,98,99830,0,0,386,264,16,249,31288,1066,30282,0,50,2.4,10,0,0,0,0,0,0,0,0,0,0,0,0
2008,5,24,13,0,,17.1,16.7,98,99790,0,0,386,269,16,254,31402,1095,30449,0,50,2.8,10,0,0,0,0,0,0,0,0,0,0,0,0
2008,5,24,14,0,,17.2,16.8,98,99740,0,0,387,245,14,232,28110,951,27395,0,50,2.3,10,0,0,0,0,0,0,0,0,0,0,0,0
2008,5,24,15,0,,17.3,16.9,98,99670,0,0,388,217,13,206,24224,931,23669,0,50,2.7,10,0,0,0,0,0,0,0,0,0,0,0,0
2008,5,24,16,0,,17.1,16.6,97,99610,0,0,386,188,16,176,20005,1036,19577,0,50,2.1,10,0,0,0,0,0,0,0,0,0,0,0,0
2008,5,24,17,0,,17.2,16.5,96,99590,0,0,387,155,22,143,15237,1160,14986,0,20,4,10,0,0,0,0,0,0,0,0,0,0,0,0
2008,5,24,18,0,,17.2,16.3,95,99580,0,0,386,90,18,84,7714,1541,7685,0,20,1.8,10,0,0,0,0,0,0,0,0,0,0,0,0
2008,5,24,19,0,,17.2,16.5,96,99600,0,0,387,38,17,35,0,0,0,0,340,2.1,10,0,0,0,0,0,0,0,0,0,0,0,0
2008,5,24,20,0,,17.4,16,92,99590,0,0,387,1,0,1,0,0,0,0,70,0.7,10,0,0,0,0,0,0,0,0,0,0,0,0
2008,5,24,21,0,,17.1,16.2,95,99620,0,0,386,0,0,0,0,0,0,0,320,1.7,10,0,0,0,0,0,0,0,0,0,0,0,0
2008,5,24,22,0,,17.1,16.2,95,99640,0,0,378,0,0,0,0,0,0,0,0,0.3,9,0,0,0,0,0,0,0,0,0,0,0,0
2008,5,24,23,0,,17,16.3,96,99630,0,0,372,0,0,0,0,0,0,0,0,0.3,9,0,0,0,0,0,0,0,0,0,0,0,0
2008,5,24,24,0,,16.8,15.9,95,99600,0,0,365,0,0,0,0,0,0,0,230,0.7,8,0,0,0,0,0,0,0,0,0,0,0,0
2008,5,25,1,0,,17,16,94,99590,0,0,361,0,0,0,0,0,0,0,320,2,7,0,0,0,0,0,0,0,0,0,0,0,0
2008,5,25,2,0,,17.1,16.1,94,99570,0,0,357,0,0,0,0,0,0,0,290,2.7,6,0,0,0,0,0,0,0,0,0,0,0,0
2008,5,25,3,0,,17,16,94,99550,0,0,353,0,0,0,0,0,0,0,270,2.5,5,0,0,0,0,0,0,0,0,0,0,0,0
2008,5,25,4,0,,17,16,94,99560,0,0,353,0,0,0,0,0,0,0,270,3.8,5,0,0,0,0,0,0,0,0,0,0,0,0
2008,5,25,5,0,,17,16,94,99550,0,0,353,0,0,0,0,0,0,0,290,4.3,5,0,0,0,0,0,0,0,0,0,0,0,0
2008,5,25,6,0,,17,15.8,93,99590,0,0,344,42,19,22,3757,1682,3094,0,180,2.8,2,0,0,0,0,0,0,0,0,0,0,0,0
2008,5,25,7,0,,17.6,16.4,93,99620,0,0,343,176,485,63,38474,50052,9520,0,340,3.6,1,0,0,0,0,0,0,0,0,0,0,0,0
2008,5,25,8,0,,19.2,16.2,83,99710,0,0,344,347,537,115,57116,53609,17565,0,340,2.2,0,0,0,0,0,0,0,0,0,0,0,0,0
2008,5,25,9,0,,20.6,15.5,73,99750,0,0,350,519,571,170,72832,56870,23872,0,200,2.3,0,0,0,0,0,0,0,0,0,0,0,0,0
2008,5,25,10,0,,22.3,16.3,69,99760,0,0,366,673,587,223,84216,58040,29688,0,200,2.1,1,0,0,0,0,0,0,0,0,0,0,0,0
2008,5,25,11,0,,22.8,17.2,71,99780,0,0,369,769,541,292,87734,52639,36771,0,200,3.7,1,0,0,0,0,0,0,0,0,0,0,0,0
2008,5,25,12,0,,23.4,16.6,66,99760,0,0,380,787,333,471,84901,30461,56116,0,200,2.8,3,0,0,0,0,0,0,0,0,0,0,0,0
2008,5,25,13,0,,22.7,16.7,69,99730,0,0,380,722,237,493,76217,21663,57337,0,200,2.5,4,0,0,0,0,0,0,0,0,0,0,0,0
2008,5,25,14,0,,22.1,17.2,74,99730,0,0,377,683,229,469,70173,20646,54630,0,200,3.4,4,0,0,0,0,0,0,0,0,0,0,0,0
2008,5,25,15,0,,23.1,16.8,68,99690,0,0,363,709,473,307,63014,41880,38011,0,200,4.9,0,0,0,0,0,0,0,0,0,0,0,0,0
2008,5,25,16,0,,22.1,17,73,99650,0,0,359,574,436,258,46764,35513,32039,0,230,3.4,0,0,0,0,0,0,0,0,0,0,0,0,0
2008,5,25,17,0,,20.8,16.6,77,99670,0,0,352,429,434,186,28321,25925,22665,0,200,4,0,0,0,0,0,0,0,0,0,0,0,0,0
2008,5,25,18,0,,19.8,16.8,83,99660,0,0,347,266,389,121,12958,0,12958,0,230,3.5,0,0,0,0,0,0,0,0,0,0,0,0,0
2008,5,25,19,0,,19,16.5,86,99720,0,0,343,116,346,56,0,0,0,0,230,2.7,0,0,0,0,0,0,0,0,0,0,0,0,0
2008,5,25,20,0,,18.5,16.2,87,99750,0,0,341,18,7,11,0,0,0,0,200,3.3,0,0,0,0,0,0,0,0,0,0,0,0,0
2008,5,25,21,0,,17.9,16.2,90,99810,0,0,338,0,0,0,0,0,0,0,200,3.5,0,0,0,0,0,0,0,0,0,0,0,0,0
2008,5,25,22,0,,17.5,16.1,92,99860,0,0,340,0,0,0,0,0,0,0,200,1.8,1,0,0,0,0,0,0,0,0,0,0,0,0
2008,5,25,23,0,,17.4,16,92,99880,0,0,344,0,0,0,0,0,0,0,230,2.1,1,0,0,0,0,0,0,0,0,0,0,0,0
2008,5,25,24,0,,17.1,16.1,94,99890,0,0,345,0,0,0,0,0,0,0,250,2.4,2,0,0,0,0,0,0,0,0,0,0,0,0
2008,5,26,1,0,,16.6,15.9,96,99880,0,0,340,0,0,0,0,0,0,0,230,3.2,1,0,0,0,0,0,0,0,0,0,0,0,0
2008,5,26,2,0,,16.4,15.9,97,99870,0,0,335,0,0,0,0,0,0,0,250,2.6,1,0,0,0,0,0,0,0,0,0,0,0,0
2008,5,26,3,0,,17.2,16,93,99890,0,0,334,0,0,0,0,0,0,0,230,1.7,0,0,0,0,0,0,0,0,0,0,0,0,0
2008,5,26,4,0,,19.7,13.3,67,99920,0,0,343,0,0,0,0,0,0,0,360,3.7,0,0,0,0,0,0,0,0,0,0,0,0,0
2008,5,26,5,0,,21.1,13.5,62,99950,0,0,350,0,0,0,0,0,0,0,360,3.9,0,0,0,0,0,0,0,0,0,0,0,0,0
2008,5,26,6,0,,20.7,13.1,62,99980,0,0,347,50,33,17,3833,2824,2718,0,20,1.7,0,0,0,0,0,0,0,0,0,0,0,0,0
2008,5,26,7,0,,20.8,13.2,62,100030,0,0,348,189,568,55,41872,58210,8149,0,110,1.9,0,0,0,0,0,0,0,0,0,0,0,0,0
2008,5,26,8,0,,21.8,13.9,61,100040,0,0,354,354,562,111,58095,57989,15270,0,180,2.7,0,0,0,0,0,0,0,0,0,0,0,0,0
2008,5,26,9,0,,23.3,12.5,51,100080,0,0,359,544,643,149,76233,66140,19250,0,20,2.8,0,0,0,0,0,0,0,0,0,0,0,0,0
2008,5,26,10,0,,23.9,13.4,52,100110,0,0,363,680,603,218,85142,60017,28719,0,320,1.8,0,0,0,0,0,0,0,0,0,0,0,0,0
2008,5,26,11,0,,25.3,13.1,47,100060,0,0,370,807,626,254,92417,61986,32361,0,320,2,0,0,0,0,0,0,0,0,0,0,0,0,0
2008,5,26,12,0,,26.3,10,36,100020,0,0,372,884,636,279,93786,62917,34279,0,290,3.4,0,0,0,0,0,0,0,0,0,0,0,0,0
2008,5,26,13,0,,24.7,12.9,48,100080,0,0,367,830,480,365,84336,45631,44521,0,110,2.8,0,0,0,0,0,0,0,0,0,0,0,0,0
2008,5,26,14,0,,24.2,13.1,50,100110,0,0,365,781,447,363,74973,42211,43144,0,110,3.6,0,0,0,0,0,0,0,0,0,0,0,0,0
2008,5,26,15,0,,22.9,12.8,53,100130,0,0,365,650,281,411,62362,25795,46925,0,110,2.1,1,0,0,0,0,0,0,0,0,0,0,0,0
2008,5,26,16,0,,22.2,12.9,56,100110,0,0,354,564,406,270,46650,34808,32157,0,90,2,0,0,0,0,0,0,0,0,0,0,0,0,0
2008,5,26,17,0,,20.7,12.6,60,100080,0,0,368,354,216,233,29302,14253,26164,0,90,2,5,0,0,0,0,0,0,0,0,0,0,0,0
2008,5,26,18,0,,19,13.6,71,100130,0,0,360,224,232,137,14258,0,14258,0,90,2,5,0,0,0,0,0,0,0,0,0,0,0,0
2008,5,26,19,0,,18.4,13.8,75,100150,0,0,356,107,318,51,0,0,0,0,70,2,4,0,0,0,0,0,0,0,0,0,0,0,0
2008,5,26,20,0,,17.9,13.8,77,100210,0,0,351,17,5,12,0,0,0,0,70,1.8,4,0,0,0,0,0,0,0,0,0,0,0,0
2008,5,26,21,0,,17.7,13.4,76,100240,0,0,348,0,0,0,0,0,0,0,70,2.5,3,0,0,0,0,0,0,0,0,0,0,0,0
2008,5,26,22,0,,17.7,13.4,76,100280,0,0,348,0,0,0,0,0,0,0,90,1.5,3,0,0,0,0,0,0,0,0,0,0,0,0
2008,5,26,23,0,,17.8,13.3,75,100280,0,0,348,0,0,0,0,0,0,0,70,0.9,3,0,0,0,0,0,0,0,0,0,0,0,0
2008,5,26,24,0,,17.6,12.6,73,100240,0,0,347,0,0,0,0,0,0,0,0,0.4,3,0,0,0,0,0,0,0,0,0,0,0,0
2008,5,27,1,0,,16.9,14.1,84,100190,0,0,342,0,0,0,0,0,0,0,50,1.5,2,0,0,0,0,0,0,0,0,0,0,0,0
2008,5,27,2,0,,16.8,14.4,86,100160,0,0,337,0,0,0,0,0,0,0,50,1.1,1,0,0,0,0,0,0,0,0,0,0,0,0
2008,5,27,3,0,,16.7,14.5,87,100190,0,0,330,0,0,0,0,0,0,0,50,1.1,0,0,0,0,0,0,0,0,0,0,0,0,0
2008,5,27,4,0,,16.1,14.4,90,100190,0,0,328,0,0,0,0,0,0,0,0,0.1,0,0,0,0,0,0,0,0,0,0,0,0,0
2008,5,27,5,0,,16.3,14.6,90,100180,0,0,329,0,0,0,0,0,0,0,50,1.2,0,0,0,0,0,0,0,0,0,0,0,0,0
2008,5,27,6,0,,16.1,14.9,93,100200,0,0,328,41,24,17,3462,2019,2663,0,0,0.2,0,0,0,0,0,0,0,0,0,0,0,0,0
2008,5,27,7,0,,16.7,15.3,92,100180,0,0,331,171,434,68,36295,43030,11334,0,70,0.5,0,0,0,0,0,0,0,0,0,0,0,0,0
2008,5,27,8,0,,16.6,15.1,91,100220,0,0,345,308,373,147,47214,35091,21275,0,50,0.9,3,0,0,0,0,0,0,0,0,0,0,0,0
2008,5,27,9,0,,18.9,14.9,78,100190,0,0,352,496,497,191,68729,49394,26143,0,110,0.9,2,0,0,0,0,0,0,0,0,0,0,0,0
2008,5,27,10,0,,20.2,14.9,72,100160,0,0,354,649,523,248,80492,51603,31947,0,140,1.5,1,0,0,0,0,0,0,0,0,0,0,0,0
2008,5,27,11,0,,20.6,16,75,100130,0,0,371,667,265,434,75597,24497,51846,0,180,3.2,5,0,0,0,0,0,0,0,0,0,0,0,0
2008,5,27,12,0,,22,15.5,67,100100,0,0,381,673,206,477,73630,19174,55480,0,200,2.3,6,0,0,0,0,0,0,0,0,0,0,0,0
2008,5,27,13,0,,23.3,14.8,59,100020,0,0,381,803,326,486,83327,30403,56769,0,180,3.2,4,0,0,0,0,0,0,0,0,0,0,0,0
2008,5,27,14,0,,23.8,15.2,59,99950,0,0,377,822,535,321,78245,49816,40620,0,180,2.9,2,0,0,0,0,0,0,0,0,0,0,0,0
2008,5,27,15,0,,24,15.7,60,99930,0,0,382,694,432,325,62936,38760,39684,0,180,2.1,3,0,0,0,0,0,0,0,0,0,0,0,0
2008,5,27,16,0,,23.7,14.1,55,99900,0,0,385,532,284,326,47471,24051,37417,0,200,3,5,0,0,0,0,0,0,0,0,0,0,0,0
2008,5,27,17,0,,22.6,14.6,61,99910,0,0,383,355,216,234,29619,13985,26514,0,200,2,6,0,0,0,0,0,0,0,0,0,0,0,0
2008,5,27,18,0,,21.9,15.2,66,99880,0,0,385,195,149,138,15022,9246,14788,0,180,1.9,7,0,0,0,0,0,0,0,0,0,0,0,0
2008,5,27,19,0,,20.1,15.5,75,99900,0,0,379,66,70,53,0,0,0,0,180,2.3,8,0,0,0,0,0,0,0,0,0,0,0,0
2008,5,27,20,0,,19,15.8,82,99900,0,0,379,7,1,7,0,0,0,0,180,2.2,8,0,0,0,0,0,0,0,0,0,0,0,0
2008,5,27,21,0,,18.5,16.2,87,99940,0,0,382,0,0,0,0,0,0,0,200,1.8,9,0,0,0,0,0,0,0,0,0,0,0,0
2008,5,27,22,0,,18.5,16.2,87,99950,0,0,386,0,0,0,0,0,0,0,230,2,9,0,0,0,0,0,0,0,0,0,0,0,0
2008,5,27,23,0,,18.5,16.4,88,99920,0,0,389,0,0,0,0,0,0,0,180,3.5,10,0,0,0,0,0,0,0,0,0,0,0,0
2008,5,27,24,0,,18.4,16.7,90,99910,0,0,393,0,0,0,0,0,0,0,200,2.9,10,0,0,0,0,0,0,0,0,0,0,0,0
2008,5,28,1,0,,18.5,15.5,83,99850,0,0,392,0,0,0,0,0,0,0,230,1.4,10,0,0,0,0,0,0,0,0,0,0,0,0
2008,5,28,2,0,,18.9,15.7,82,99790,0,0,395,0,0,0,0,0,0,0,230,5.4,10,0,0,0,0,0,0,0,0,0,0,0,0
2008,5,28,3,0,,18.5,16.1,86,99720,0,0,393,0,0,0,0,0,0,0,180,3.1,10,0,0,0,0,0,0,0,0,0,0,0,0
2008,5,28,4,0,,18.8,17.4,92,99670,0,0,396,0,0,0,0,0,0,0,200,3.7,10,0,0,0,0,0,0,0,0,0,0,0,0
2008,5,28,5,0,,18.3,17.6,96,99660,0,0,394,0,0,0,0,0,0,0,270,2.2,10,0,0,0,0,0,0,0,0,0,0,0,0
2008,5,28,6,0,,16.1,15.2,95,99690,0,0,379,9,0,9,1225,9,1221,0,290,5.1,10,0,0,0,0,0,0,0,0,0,0,0,0
2008,5,28,7,0,,16.2,15.7,97,99710,0,0,380,43,9,41,5422,758,4982,0,270,2.4,10,0,0,0,0,0,0,0,0,0,0,0,0
2008,5,28,8,0,,16.5,15.3,93,99650,0,0,381,95,13,90,11630,1129,10794,0,340,1,10,0,0,0,0,0,0,0,0,0,0,0,0
2008,5,28,9,0,,16,15.3,96,99610,0,0,379,155,16,146,18559,1430,17325,0,50,1.7,10,0,0,0,0,0,0,0,0,0,0,0,0
2008,5,28,10,0,,16.4,15.7,96,99520,0,0,381,211,17,197,24798,1580,23311,0,50,2.4,10,0,0,0,0,0,0,0,0,0,0,0,0
2008,5,28,11,0,,16.3,15.8,97,99440,0,0,381,213,11,203,25925,704,25242,0,50,2.3,10,0,0,0,0,0,0,0,0,0,0,0,0
2008,5,28,12,0,,16.6,16.1,97,99330,0,0,383,264,16,249,31284,1060,30280,0,50,2.8,10,0,0,0,0,0,0,0,0,0,0,0,0
2008,5,28,13,0,,16.9,16.5,98,99300,0,0,385,244,12,233,28803,802,28102,0,20,2,10,0,0,0,0,0,0,0,0,0,0,0,0
2008,5,28,14,0,,16.8,16.4,98,99220,0,0,385,259,16,244,29604,1130,28749,0,50,3.7,10,0,0,0,0,0,0,0,0,0,0,0,0
2008,5,28,15,0,,17.2,16.8,98,99150,0,0,387,259,22,240,28321,1602,27357,0,50,4.9,10,0,0,0,0,0,0,0,0,0,0,0,0
2008,5,28,16,0,,17.5,17,97,99140,0,0,389,222,24,204,23190,1749,22456,0,20,4.7,10,0,0,0,0,0,0,0,0,0,0,0,0
2008,5,28,17,0,,17.6,16.9,96,99060,0,0,389,167,26,152,16277,1464,15950,0,50,4,10,0,0,0,0,0,0,0,0,0,0,0,0
2008,5,28,18,0,,17.5,16.8,96,99070,0,0,389,106,27,96,8931,2438,8864,0,50,4.7,10,0,0,0,0,0,0,0,0,0,0,0,0
2008,5,28,19,0,,17.5,16.8,96,99060,0,0,389,41,18,38,0,0,0,0,50,2.4,10,0,0,0,0,0,0,0,0,0,0,0,0
2008,5,28,20,0,,17.3,16.6,96,99190,0,0,387,3,0,3,0,0,0,0,20,5.5,10,0,0,0,0,0,0,0,0,0,0,0,0
2008,5,28,21,0,,17.2,16.7,97,99250,0,0,387,0,0,0,0,0,0,0,20,3.5,10,0,0,0,0,0,0,0,0,0,0,0,0
2008,5,28,22,0,,17.2,16.5,96,99230,0,0,387,0,0,0,0,0,0,0,20,2.8,10,0,0,0,0,0,0,0,0,0,0,0,0
2008,5,28,23,0,,17.3,16.4,95,99220,0,0,387,0,0,0,0,0,0,0,20,4.2,10,0,0,0,0,0,0,0,0,0,0,0,0
2008,5,28,24,0,,17.3,16.3,94,99200,0,0,387,0,0,0,0,0,0,0,20,1.4,10,0,0,0,0,0,0,0,0,0,0,0,0
2008,5,29,1,0,,17.3,16.1,93,99200,0,0,368,0,0,0,0,0,0,0,110,0.9,8,0,0,0,0,0,0,0,0,0,0,0,0
2008,5,29,2,0,,17,16,94,99210,0,0,357,0,0,0,0,0,0,0,20,1,6,0,0,0,0,0,0,0,0,0,0,0,0
2008,5,29,3,0,,16.6,15.7,95,99220,0,0,349,0,0,0,0,0,0,0,50,1.5,4,0,0,0,0,0,0,0,0,0,0,0,0
2008,5,29,4,0,,16.7,15.8,95,99300,0,0,365,0,0,0,0,0,0,0,20,1.9,8,0,0,0,0,0,0,0,0,0,0,0,0
2008,5,29,5,0,,16.6,15.6,94,99330,0,0,351,0,0,0,0,0,0,0,20,2.9,5,0,0,0,0,0,0,0,0,0,0,0,0
2008,5,29,6,0,,16.8,15.3,91,99420,0,0,365,22,4,19,2426,310,2302,0,50,1.8,8,0,0,0,0,0,0,0,0,0,0,0,0
2008,5,29,7,0,,17.3,15.6,90,99480,0,0,375,84,58,70,12362,5415,9214,0,50,2.1,9,0,0,0,0,0,0,0,0,0,0,0,0
2008,5,29,8,0,,17.8,15.7,88,99580,0,0,378,164,58,139,21600,5438,17574,0,20,2,9,0,0,0,0,0,0,0,0,0,0,0,0
2008,5,29,9,0,,18.9,16.1,84,99620,0,0,384,264,69,222,32890,6469,27306,0,20,3.6,9,0,0,0,0,0,0,0,0,0,0,0,0
2008,5,29,10,0,,19.2,16.2,83,99670,0,0,386,343,67,292,39865,6130,34092,0,20,4.3,9,0,0,0,0,0,0,0,0,0,0,0,0
2008,5,29,11,0,,19.9,15.7,77,99700,0,0,389,408,67,349,46541,6214,40509,0,20,4.6,9,0,0,0,0,0,0,0,0,0,0,0,0
2008,5,29,12,0,,21.4,15.4,69,99720,0,0,388,548,116,437,61433,10845,51151,0,50,4.8,8,0,0,0,0,0,0,0,0,0,0,0,0
2008,5,29,13,0,,21.1,15.1,69,99710,0,0,380,622,154,473,67290,14329,54746,0,50,5.7,7,0,0,0,0,0,0,0,0,0,0,0,0
2008,5,29,14,0,,22.2,15.2,65,99680,0,0,378,709,253,472,72085,23271,54455,0,50,3.5,5,0,0,0,0,0,0,0,0,0,0,0,0
2008,5,29,15,0,,22.8,15.1,62,99660,0,0,378,678,315,408,64205,28436,47067,0,20,4.4,4,0,0,0,0,0,0,0,0,0,0,0,0
2008,5,29,16,0,,22.7,15,62,99640,0,0,378,571,416,268,47267,34902,32562,0,50,3,4,0,0,0,0,0,0,0,0,0,0,0,0
2008,5,29,17,0,,21.8,15.8,69,99730,0,0,380,351,204,235,29822,13084,26868,0,50,2.2,6,0,0,0,0,0,0,0,0,0,0,0,0
2008,5,29,18,0,,19.8,14.5,72,99760,0,0,368,220,208,141,14803,0,14803,0,50,3.6,6,0,0,0,0,0,0,0,0,0,0,0,0
2008,5,29,19,0,,18.8,15,79,99860,0,0,363,92,175,60,0,0,0,0,90,1.4,6,0,0,0,0,0,0,0,0,0,0,0,0
2008,5,29,20,0,,17.6,15,85,99930,0,0,356,16,4,12,0,0,0,0,70,1.7,5,0,0,0,0,0,0,0,0,0,0,0,0
2008,5,29,21,0,,17.5,14.7,84,100030,0,0,354,0,0,0,0,0,0,0,70,2.2,5,0,0,0,0,0,0,0,0,0,0,0,0
2008,5,29,22,0,,17.8,14.2,80,100030,0,0,355,0,0,0,0,0,0,0,50,4.4,5,0,0,0,0,0,0,0,0,0,0,0,0
2008,5,29,23,0,,17.8,13.7,77,99980,0,0,354,0,0,0,0,0,0,0,50,3,5,0,0,0,0,0,0,0,0,0,0,0,0
2008,5,29,24,0,,17.2,14.2,83,99950,0,0,352,0,0,0,0,0,0,0,70,2.7,5,0,0,0,0,0,0,0,0,0,0,0,0
2008,5,30,1,0,,17.3,14,81,99960,0,0,355,0,0,0,0,0,0,0,50,4.2,6,0,0,0,0,0,0,0,0,0,0,0,0
2008,5,30,2,0,,17.2,14,82,99920,0,0,359,0,0,0,0,0,0,0,50,3.5,7,0,0,0,0,0,0,0,0,0,0,0,0
2008,5,30,3,0,,17.2,14,82,99950,0,0,365,0,0,0,0,0,0,0,50,1.9,8,0,0,0,0,0,0,0,0,0,0,0,0
2008,5,30,4,0,,17,14.2,84,99880,0,0,364,0,0,0,0,0,0,0,50,2.5,8,0,0,0,0,0,0,0,0,0,0,0,0
2008,5,30,5,0,,17,13.8,82,99890,0,0,382,0,0,0,0,0,0,0,70,1.7,10,0,0,0,0,0,0,0,0,0,0,0,0
2008,5,30,6,0,,16.8,14.4,86,99930,0,0,382,11,1,10,1421,16,1414,0,20,3.3,10,0,0,0,0,0,0,0,0,0,0,0,0
2008,5,30,7,0,,16.9,14.7,87,99940,0,0,383,58,20,53,7407,1739,6395,0,20,2.7,10,0,0,0,0,0,0,0,0,0,0,0,0
2008,5,30,8,0,,17.5,14.3,82,99920,0,0,385,126,27,114,15458,2503,13603,0,20,1.9,10,0,0,0,0,0,0,0,0,0,0,0,0
2008,5,30,9,0,,18.6,14.2,76,99940,0,0,391,209,36,187,24812,3280,21979,0,20,3.2,10,0,0,0,0,0,0,0,0,0,0,0,0
2008,5,30,10,0,,18.1,14.5,80,99930,0,0,389,251,28,229,29363,2601,26912,0,90,1.3,10,0,0,0,0,0,0,0,0,0,0,0,0
2008,5,30,11,0,,18.9,14.5,76,99900,0,0,393,273,22,254,31696,2069,29686,0,90,1.1,10,0,0,0,0,0,0,0,0,0,0,0,0
2008,5,30,12,0,,18.8,14.8,78,99870,0,0,393,294,21,274,33856,1977,31980,0,110,2,10,0,0,0,0,0,0,0,0,0,0,0,0
2008,5,30,13,0,,18.3,14.9,81,99840,0,0,390,279,17,262,32472,1227,31396,0,110,1.7,10,0,0,0,0,0,0,0,0,0,0,0,0
2008,5,30,14,0,,19.1,15.3,79,99760,0,0,395,268,17,252,30557,1265,29598,0,140,1.6,10,0,0,0,0,0,0,0,0,0,0,0,0
2008,5,30,15,0,,18.8,14.8,78,99750,0,0,393,255,21,238,28098,1568,27151,0,180,2,10,0,0,0,0,0,0,0,0,0,0,0,0
2008,5,30,16,0,,18.9,15.1,79,99730,0,0,394,229,26,210,23903,1958,23075,0,180,3.4,10,0,0,0,0,0,0,0,0,0,0,0,0
2008,5,30,17,0,,18.7,15.7,83,99700,0,0,393,167,25,153,16414,1494,16074,0,180,3.2,10,0,0,0,0,0,0,0,0,0,0,0,0
2008,5,30,18,0,,18,15.6,86,99680,0,0,371,158,79,128,13947,4670,13800,0,200,1.5,8,0,0,0,0,0,0,0,0,0,0,0,0
2008,5,30,19,0,,17.2,15.7,91,99730,0,0,367,74,90,58,0,0,0,0,180,3.7,8,0,0,0,0,0,0,0,0,0,0,0,0
2008,5,30,20,0,,17,15.3,90,99750,0,0,366,10,1,9,0,0,0,0,200,2.7,8,0,0,0,0,0,0,0,0,0,0,0,0
2008,5,30,21,0,,17.1,15.2,89,99780,0,0,366,0,0,0,0,0,0,0,200,1,8,0,0,0,0,0,0,0,0,0,0,0,0
2008,5,30,22,0,,17.5,15.3,87,99830,0,0,373,0,0,0,0,0,0,0,180,1.6,9,0,0,0,0,0,0,0,0,0,0,0,0
2008,5,30,23,0,,18.1,15.1,83,99840,0,0,382,0,0,0,0,0,0,0,20,0.5,9,0,0,0,0,0,0,0,0,0,0,0,0
2008,5,30,24,0,,17.5,15.3,87,99830,0,0,387,0,0,0,0,0,0,0,230,1.4,10,0,0,0,0,0,0,0,0,0,0,0,0
2008,5,31,1,0,,17.2,11,67,99830,0,0,379,0,0,0,0,0,0,0,290,1.6,10,0,0,0,0,0,0,0,0,0,0,0,0
2008,5,31,2,0,,16.8,8.4,58,99820,0,0,346,0,0,0,0,0,0,0,250,1.1,6,0,0,0,0,0,0,0,0,0,0,0,0
2008,5,31,3,0,,16,7.9,59,99860,0,0,330,0,0,0,0,0,0,0,160,2.5,2,0,0,0,0,0,0,0,0,0,0,0,0
2008,5,31,4,0,,16,4.9,48,99910,0,0,316,0,0,0,0,0,0,0,20,1.6,0,0,0,0,0,0,0,0,0,0,0,0,0
2008,5,31,5,0,,15.2,5.3,52,99940,0,0,313,0,0,0,0,0,0,0,340,2.8,0,0,0,0,0,0,0,0,0,0,0,0,0
2008,5,31,6,0,,15.1,7.1,59,100000,0,0,315,48,27,21,3850,2554,2831,0,340,2.1,0,0,0,0,0,0,0,0,0,0,0,0,0
2008,5,31,7,0,,15.9,5.1,49,100030,0,0,316,195,580,55,42239,58513,8152,0,230,0.9,0,0,0,0,0,0,0,0,0,0,0,0,0
2008,5,31,8,0,,16.9,6.9,52,100070,0,0,337,350,531,118,57254,53910,17294,0,290,1.2,3,0,0,0,0,0,0,0,0,0,0,0,0
2008,5,31,9,0,,18,4.8,42,100110,0,0,339,528,585,167,74009,59401,22682,0,320,1.6,3,0,0,0,0,0,0,0,0,0,0,0,0
2008,5,31,10,0,,19.2,1.1,30,100120,0,0,341,712,677,191,89948,68951,24944,0,290,3.4,3,0,0,0,0,0,0,0,0,0,0,0,0
2008,5,31,11,0,,20.7,3.3,32,100120,0,0,347,838,691,227,96431,69800,28591,0,290,3.4,2,0,0,0,0,0,0,0,0,0,0,0,0
2008,5,31,12,0,,21.6,3.2,30,100090,0,0,340,928,724,237,98835,72929,29586,0,290,4.4,0,0,0,0,0,0,0,0,0,0,0,0,0
2008,5,31,13,0,,23.5,2.3,25,100050,0,0,348,930,686,263,92019,68354,32059,0,50,1.5,0,0,0,0,0,0,0,0,0,0,0,0,0
2008,5,31,14,0,,22.1,6.7,37,100050,0,0,347,872,638,273,81264,62621,33683,0,180,4.9,0,0,0,0,0,0,0,0,0,0,0,0,0
2008,5,31,15,0,,21.9,4.4,32,100050,0,0,343,780,622,246,66805,60521,30167,0,180,5.6,0,0,0,0,0,0,0,0,0,0,0,0,0
2008,5,31,16,0,,20.9,12,57,100090,0,0,347,589,458,255,47339,39948,30384,0,180,4.6,0,0,0,0,0,0,0,0,0,0,0,0,0
2008,5,31,17,0,,20.9,6.4,39,100100,0,0,341,490,607,145,27783,43980,17697,0,200,4.4,0,0,0,0,0,0,0,0,0,0,0,0,0
2008,5,31,18,0,,20.5,4.9,36,100140,0,0,337,325,620,87,9084,8870,8788,0,230,3.7,0,0,0,0,0,0,0,0,0,0,0,0,0
2008,5,31,19,0,,19.1,7.8,48,100170,0,0,334,143,515,47,0,0,0,0,200,3.2,0,0,0,0,0,0,0,0,0,0,0,0,0
2008,5,31,20,0,,18.3,7.3,49,100190,0,0,330,26,11,15,0,0,0,0,230,2.5,0,0,0,0,0,0,0,0,0,0,0,0,0
2008,5,31,21,0,,18.3,4.4,40,100230,0,0,326,0,0,0,0,0,0,0,270,3.1,0,0,0,0,0,0,0,0,0,0,0,0,0
2008,5,31,22,0,,18.1,7.2,49,100250,0,0,329,0,0,0,0,0,0,0,200,1.8,0,0,0,0,0,0,0,0,0,0,0,0,0
2008,5,31,23,0,,17,10.5,66,100270,0,0,327,0,0,0,0,0,0,0,270,2,0,0,0,0,0,0,0,0,0,0,0,0,0
2008,5,31,24,0,,17.8,6.3,47,100280,0,0,326,0,0,0,0,0,0,0,290,0.6,0,0,0,0,0,0,0,0,0,0,0,0,0
2018,6,1,1,0,,17.5,11.7,69,100520,0,0,331,0,0,0,0,0,0,0,320,2.5,0,0,0,0,0,0,0,0,0,0,0,0,0
2018,6,1,2,0,,17.9,11.2,65,100500,0,0,332,0,0,0,0,0,0,0,320,3.7,0,0,0,0,0,0,0,0,0,0,0,0,0
2018,6,1,3,0,,18,11.9,68,100460,0,0,333,0,0,0,0,0,0,0,290,3.2,0,0,0,0,0,0,0,0,0,0,0,0,0
2018,6,1,4,0,,17.7,11.4,67,100470,0,0,331,0,0,0,0,0,0,0,270,1.9,0,0,0,0,0,0,0,0,0,0,0,0,0
2018,6,1,5,0,,18.3,10.1,59,100490,0,0,333,0,0,0,0,0,0,0,320,5.2,0,0,0,0,0,0,0,0,0,0,0,0,0
2018,6,1,6,0,,18.3,11.1,63,100530,0,0,334,51,32,19,4069,2867,2925,0,360,3.6,0,0,0,0,0,0,0,0,0,0,0,0,0
2018,6,1,7,0,,19.7,12.9,65,100600,0,0,342,193,559,58,42244,57520,8724,0,110,1,0,0,0,0,0,0,0,0,0,0,0,0,0
2018,6,1,8,0,,22.6,13,55,100640,0,0,357,389,685,90,64938,70844,12414,0,140,1.2,0,0,0,0,0,0,0,0,0,0,0,0,0
2018,6,1,9,0,,24.9,13.7,50,100660,0,0,369,590,767,117,84315,79728,15409,0,140,2,0,0,0,0,0,0,0,0,0,0,0,0,0
2018,6,1,10,0,,24.8,13.6,50,100690,0,0,368,719,691,186,89620,70764,22891,0,110,1.7,0,0,0,0,0,0,0,0,0,0,0,0,0
2018,6,1,11,0,,24.8,14.5,53,100700,0,0,369,790,580,277,89986,56912,34656,0,110,4,0,0,0,0,0,0,0,0,0,0,0,0,0
2018,6,1,12,0,,24.5,12.1,46,100710,0,0,372,819,488,353,87557,46827,43075,0,110,4.1,1,0,0,0,0,0,0,0,0,0,0,0,0
2018,6,1,13,0,,24.5,12.4,47,100690,0,0,365,828,468,373,84209,44626,45040,0,110,4,0,0,0,0,0,0,0,0,0,0,0,0,0
2018,6,1,14,0,,24.7,12.9,48,100690,0,0,367,800,478,351,77081,45154,42742,0,110,4,0,0,0,0,0,0,0,0,0,0,0,0,0
2018,6,1,15,0,,24.8,12,45,100650,0,0,366,756,564,272,65992,52714,34037,0,140,3.9,0,0,0,0,0,0,0,0,0,0,0,0,0
2018,6,1,16,0,,24.9,11,42,100620,0,0,366,632,566,217,48529,49998,27260,0,110,2.6,0,0,0,0,0,0,0,0,0,0,0,0,0
2018,6,1,17,0,,23.5,13.6,54,100620,0,0,362,460,506,172,28296,33010,20691,0,200,2.8,0,0,0,0,0,0,0,0,0,0,0,0,0
2018,6,1,18,0,,22.2,13.7,59,100620,0,0,355,292,468,112,12119,0,12119,0,200,2,0,0,0,0,0,0,0,0,0,0,0,0,0
2018,6,1,19,0,,21.5,13.9,62,100650,0,0,352,135,429,54,0,0,0,0,200,2,0,0,0,0,0,0,0,0,0,0,0,0,0
2018,6,1,20,0,,20.4,11.5,57,100700,0,0,344,26,15,11,0,0,0,0,200,1.4,0,0,0,0,0,0,0,0,0,0,0,0,0
2018,6,1,21,0,,20,10.1,53,100740,0,0,341,0,0,0,0,0,0,0,290,1.6,0,0,0,0,0,0,0,0,0,0,0,0,0
2018,6,1,22,0,,20.4,9,48,100780,0,0,341,0,0,0,0,0,0,0,270,0.7,0,0,0,0,0,0,0,0,0,0,0,0,0
2018,6,1,23,0,,19.9,8.5,48,100780,0,0,338,0,0,0,0,0,0,0,180,0.5,0,0,0,0,0,0,0,0,0,0,0,0,0
2018,6,1,24,0,,19.8,8.4,48,100750,0,0,338,0,0,0,0,0,0,0,0,0,0,0,0,0,0,0,0,0,0,0,0,0,0
2018,6,2,1,0,,19.6,7.9,47,100740,0,0,336,0,0,0,0,0,0,0,0,0,0,0,0,0,0,0,0,0,0,0,0,0,0
2018,6,2,2,0,,19.8,8.7,49,100720,0,0,338,0,0,0,0,0,0,0,340,1.1,0,0,0,0,0,0,0,0,0,0,0,0,0
2018,6,2,3,0,,20.5,9.1,48,100670,0,0,342,0,0,0,0,0,0,0,340,3.1,0,0,0,0,0,0,0,0,0,0,0,0,0
2018,6,2,4,0,,21.3,9.2,46,100640,0,0,346,0,0,0,0,0,0,0,340,3.8,0,0,0,0,0,0,0,0,0,0,0,0,0
2018,6,2,5,0,,21,11,53,100650,0,0,346,0,0,0,0,0,0,0,360,4.2,0,0,0,0,0,0,0,0,0,0,0,0,0
2018,6,2,6,0,,21.1,11.6,55,100690,0,0,348,52,33,19,4095,2868,2949,0,360,2.8,0,0,0,0,0,0,0,0,0,0,0,0,0
2018,6,2,7,0,,22.3,12.8,55,100700,0,0,355,199,600,54,43771,61416,7955,0,320,2.6,0,0,0,0,0,0,0,0,0,0,0,0,0
2018,6,2,8,0,,24.3,13.8,52,100720,0,0,366,389,683,90,65013,70820,12483,0,360,2.7,0,0,0,0,0,0,0,0,0,0,0,0,0
2018,6,2,9,0,,27.2,14.2,45,100710,0,0,381,590,765,117,84392,79695,15487,0,160,2,0,0,0,0,0,0,0,0,0,0,0,0,0
2018,6,2,10,0,,26,15.3,52,100710,0,0,376,710,670,194,89366,66660,26481,0,200,3.5,0,0,0,0,0,0,0,0,0,0,0,0,0
2018,6,2,11,0,,26,14.7,50,100700,0,0,376,767,528,300,87098,49892,38568,0,160,2.2,0,0,0,0,0,0,0,0,0,0,0,0,0
2018,6,2,12,0,,26.7,15.4,50,100670,0,0,380,806,459,367,86590,42974,45739,0,200,4,0,0,0,0,0,0,0,0,0,0,0,0,0
2018,6,2,13,0,,24,16.7,64,100660,0,0,368,788,303,493,82631,27524,58449,0,200,6.4,0,0,0,0,0,0,0,0,0,0,0,0,0
2018,6,2,14,0,,24,16.2,62,100640,0,0,367,752,298,471,75272,27191,54565,0,200,5.3,0,0,0,0,0,0,0,0,0,0,0,0,0
2018,6,2,15,0,,24.3,17.2,65,100610,0,0,370,682,317,410,64775,27906,47822,0,200,4.6,0,0,0,0,0,0,0,0,0,0,0,0,0
2018,6,2,16,0,,23.6,17.3,68,100580,0,0,366,590,455,257,47834,37134,31982,0,200,3.9,0,0,0,0,0,0,0,0,0,0,0,0,0
2018,6,2,17,0,,24.1,16.6,63,100530,0,0,375,466,520,168,28412,32452,20880,0,200,3.2,1,0,0,0,0,0,0,0,0,0,0,0,0
2018,6,2,18,0,,23,16.2,66,100510,0,0,381,272,370,129,14073,0,14073,0,230,3,4,0,0,0,0,0,0,0,0,0,0,0,0
2018,6,2,19,0,,22,16.4,71,100510,0,0,376,129,367,59,0,0,0,0,230,2.5,4,0,0,0,0,0,0,0,0,0,0,0,0
2018,6,2,20,0,,20.8,16.6,77,100540,0,0,370,21,8,14,0,0,0,0,250,2,4,0,0,0,0,0,0,0,0,0,0,0,0
2018,6,2,21,0,,20.7,15.4,72,100580,0,0,368,0,0,0,0,0,0,0,270,2.7,4,0,0,0,0,0,0,0,0,0,0,0,0
2018,6,2,22,0,,21.2,15.5,70,100620,0,0,371,0,0,0,0,0,0,0,250,1.2,4,0,0,0,0,0,0,0,0,0,0,0,0
2018,6,2,23,0,,20.3,16.3,78,100610,0,0,367,0,0,0,0,0,0,0,250,1.6,4,0,0,0,0,0,0,0,0,0,0,0,0
2018,6,2,24,0,,19.5,16.3,82,100550,0,0,363,0,0,0,0,0,0,0,250,2.2,4,0,0,0,0,0,0,0,0,0,0,0,0
2018,6,3,1,0,,19.3,16.3,83,100530,0,0,361,0,0,0,0,0,0,0,250,2,4,0,0,0,0,0,0,0,0,0,0,0,0
2018,6,3,2,0,,19.6,15.8,79,100530,0,0,361,0,0,0,0,0,0,0,230,2.2,3,0,0,0,0,0,0,0,0,0,0,0,0
2018,6,3,3,0,,18.7,16.4,87,100510,0,0,357,0,0,0,0,0,0,0,250,2.3,3,0,0,0,0,0,0,0,0,0,0,0,0
2018,6,3,4,0,,18.7,16.6,88,100500,0,0,353,0,0,0,0,0,0,0,230,3.3,2,0,0,0,0,0,0,0,0,0,0,0,0
2018,6,3,5,0,,18.8,16.9,89,100510,0,0,361,0,0,0,0,0,0,0,250,2.5,4,0,0,0,0,0,0,0,0,0,0,0,0
2018,6,3,6,0,,19,16.2,84,100540,0,0,371,30,9,22,2984,710,2700,0,200,2.1,7,0,0,0,0,0,0,0,0,0,0,0,0
2018,6,3,7,0,,19.5,16.3,82,100580,0,0,369,145,273,79,28441,26866,12764,0,230,1.9,6,0,0,0,0,0,0,0,0,0,0,0,0
2018,6,3,8,0,,20.3,16.3,78,100600,0,0,384,220,127,164,30464,11717,21770,0,230,2.1,8,0,0,0,0,0,0,0,0,0,0,0,0
2018,6,3,9,0,,21.6,15.6,69,100600,0,0,390,343,139,257,42455,13119,31108,0,250,3.3,8,0,0,0,0,0,0,0,0,0,0,0,0
2018,6,3,10,0,,23.5,16.2,64,100590,0,0,401,458,146,346,54106,13610,41262,0,200,4.2,8,0,0,0,0,0,0,0,0,0,0,0,0
2018,6,3,11,0,,23.3,16.8,67,100580,0,0,400,505,118,400,58105,10951,47448,0,200,3.4,8,0,0,0,0,0,0,0,0,0,0,0,0
2018,6,3,12,0,,24.1,17.1,65,100590,0,0,394,676,205,480,74088,18808,56197,0,200,4.6,6,0,0,0,0,0,0,0,0,0,0,0,0
2018,6,3,13,0,,23.7,18.1,71,100540,0,0,384,782,294,495,82523,26247,59441,0,200,5.2,3,0,0,0,0,0,0,0,0,0,0,0,0
2018,6,3,14,0,,23.6,17.3,68,100550,0,0,382,757,304,471,75696,27360,54832,0,200,6,3,0,0,0,0,0,0,0,0,0,0,0,0
2018,6,3,15,0,,24.7,16.1,59,100470,0,0,387,710,453,320,63884,40533,39210,0,200,4.9,3,0,0,0,0,0,0,0,0,0,0,0,0
2018,6,3,16,0,,23.6,14.5,57,100460,0,0,375,623,539,228,47705,45857,28061,0,230,7.4,2,0,0,0,0,0,0,0,0,0,0,0,0
2018,6,3,17,0,,23.1,16.1,65,100440,0,0,375,474,541,163,29354,36382,20849,0,200,5.4,2,0,0,0,0,0,0,0,0,0,0,0,0
2018,6,3,18,0,,22.5,15.8,66,100430,0,0,366,305,512,106,11481,4835,11297,0,200,4.6,1,0,0,0,0,0,0,0,0,0,0,0,0
2018,6,3,19,0,,20.8,17,79,100470,0,0,357,136,419,56,0,0,0,0,200,4.8,1,0,0,0,0,0,0,0,0,0,0,0,0
2018,6,3,20,0,,20.2,17.2,83,100540,0,0,352,25,12,13,0,0,0,0,180,4.3,0,0,0,0,0,0,0,0,0,0,0,0,0
2018,6,3,21,0,,19.9,16.3,80,100560,0,0,347,0,0,0,0,0,0,0,200,4.2,0,0,0,0,0,0,0,0,0,0,0,0,0
2018,6,3,22,0,,19.7,15.5,77,100590,0,0,345,0,0,0,0,0,0,0,230,2.2,0,0,0,0,0,0,0,0,0,0,0,0,0
2018,6,3,23,0,,19.2,17.1,88,100580,0,0,345,0,0,0,0,0,0,0,250,2.6,0,0,0,0,0,0,0,0,0,0,0,0,0
2018,6,3,24,0,,20,13.2,65,100540,0,0,344,0,0,0,0,0,0,0,230,1.5,0,0,0,0,0,0,0,0,0,0,0,0,0
2018,6,4,1,0,,19.6,13.9,70,100500,0,0,343,0,0,0,0,0,0,0,230,2.4,0,0,0,0,0,0,0,0,0,0,0,0,0
2018,6,4,2,0,,18.5,16.8,90,100520,0,0,341,0,0,0,0,0,0,0,230,3.4,0,0,0,0,0,0,0,0,0,0,0,0,0
2018,6,4,3,0,,18.1,16.6,91,100530,0,0,339,0,0,0,0,0,0,0,230,2.7,0,0,0,0,0,0,0,0,0,0,0,0,0
2018,6,4,4,0,,18.3,16.7,91,100530,0,0,352,0,0,0,0,0,0,0,230,2.4,2,0,0,0,0,0,0,0,0,0,0,0,0
2018,6,4,5,0,,17.4,16.4,94,100560,0,0,350,0,0,0,0,0,0,0,250,2.3,3,0,0,0,0,0,0,0,0,0,0,0,0
2018,6,4,6,0,,17,16.3,96,100580,0,0,385,9,0,9,1199,9,1195,0,250,1.6,10,0,0,0,0,0,0,0,0,0,0,0,0
2018,6,4,7,0,,18.3,17.6,96,100590,0,0,369,120,151,83,21238,13660,13263,0,200,2,7,0,0,0,0,0,0,0,0,0,0,0,0
2018,6,4,8,0,,19.6,16.2,81,100620,0,0,374,258,203,169,36204,18670,22346,0,250,3.2,7,0,0,0,0,0,0,0,0,0,0,0,0
2018,6,4,9,0,,22.9,14.9,61,100590,0,0,385,469,401,221,62695,37923,29886,0,250,3.2,6,0,0,0,0,0,0,0,0,0,0,0,0
2018,6,4,10,0,,24,14.6,56,100560,0,0,384,684,601,220,85333,59585,29082,0,230,4.8,4,0,0,0,0,0,0,0,0,0,0,0,0
2018,6,4,11,0,,25.2,16,57,100540,0,0,395,743,470,326,84495,43919,41735,0,200,4.2,5,0,0,0,0,0,0,0,0,0,0,0,0
2018,6,4,12,0,,25.7,15.3,53,100520,0,0,405,651,184,475,71530,17158,55199,0,200,4.5,7,0,0,0,0,0,0,0,0,0,0,0,0
2018,6,4,13,0,,24.4,15.8,59,100500,0,0,399,622,152,474,67404,14016,55066,0,200,5.8,7,0,0,0,0,0,0,0,0,0,0,0,0
2018,6,4,14,0,,25.2,14.3,51,100450,0,0,408,528,108,426,56363,10303,48496,0,230,5.3,8,0,0,0,0,0,0,0,0,0,0,0,0
2018,6,4,15,0,,25.5,15.5,54,100420,0,0,411,481,114,383,50000,10690,43479,0,230,5.3,8,0,0,0,0,0,0,0,0,0,0,0,0
2018,6,4,16,0,,25.5,15.2,53,100380,0,0,410,432,146,325,42332,13343,36597,0,230,6,8,0,0,0,0,0,0,0,0,0,0,0,0
2018,6,4,17,0,,24.3,16,60,100340,0,0,394,386,258,238,31174,16878,27202,0,200,5.1,6,0,0,0,0,0,0,0,0,0,0,0,0
2018,6,4,18,0,,23.9,15.6,60,100380,0,0,402,200,144,144,15859,8814,15508,0,250,6.2,8,0,0,0,0,0,0,0,0,0,0,0,0
2018,6,4,19,0,,23.2,14.9,60,100400,0,0,395,92,146,64,0,0,0,0,250,5.8,8,0,0,0,0,0,0,0,0,0,0,0,0
2018,6,4,20,0,,22.8,14.6,60,100420,0,0,390,19,5,14,0,0,0,0,230,4.7,7,0,0,0,0,0,0,0,0,0,0,0,0
2018,6,4,21,0,,22.5,14.5,61,100460,0,0,387,0,0,0,0,0,0,0,250,3.4,7,0,0,0,0,0,0,0,0,0,0,0,0
2018,6,4,22,0,,22.1,14.9,64,100470,0,0,389,0,0,0,0,0,0,0,270,3.7,8,0,0,0,0,0,0,0,0,0,0,0,0
2018,6,4,23,0,,22.1,15.6,67,100450,0,0,395,0,0,0,0,0,0,0,270,3.1,8,0,0,0,0,0,0,0,0,0,0,0,0
2018,6,4,24,0,,21.9,15.7,68,100440,0,0,400,0,0,0,0,0,0,0,270,4.8,9,0,0,0,0,0,0,0,0,0,0,0,0
2018,6,5,1,0,,21.7,15.2,67,100430,0,0,401,0,0,0,0,0,0,0,270,4.3,9,0,0,0,0,0,0,0,0,0,0,0,0
2018,6,5,2,0,,21.5,15.3,68,100380,0,0,404,0,0,0,0,0,0,0,270,3.3,10,0,0,0,0,0,0,0,0,0,0,0,0
2018,6,5,3,0,,20.7,16.7,78,100380,0,0,406,0,0,0,0,0,0,0,200,2.6,10,0,0,0,0,0,0,0,0,0,0,0,0
2018,6,5,4,0,,20,17,83,100400,0,0,402,0,0,0,0,0,0,0,250,1.7,10,0,0,0,0,0,0,0,0,0,0,0,0
2018,6,5,5,0,,19.8,17.3,86,100440,0,0,402,0,0,0,0,0,0,0,230,1.7,10,0,0,0,0,0,0,0,0,0,0,0,0
2018,6,5,6,0,,19.6,17.5,88,100470,0,0,401,10,0,10,1365,12,1360,0,200,2.8,10,0,0,0,0,0,0,0,0,0,0,0,0
2018,6,5,7,0,,19.3,18.1,93,100510,0,0,400,59,19,54,7549,1682,6567,0,320,2.4,10,0,0,0,0,0,0,0,0,0,0,0,0
2018,6,5,8,0,,19.8,18.4,92,100560,0,0,403,105,16,98,12911,1411,11864,0,0,0,10,0,0,0,0,0,0,0,0,0,0,0,0
2018,6,5,9,0,,19.5,18.5,94,100590,0,0,402,158,16,148,18991,1439,17746,0,230,1.9,10,0,0,0,0,0,0,0,0,0,0,0,0
2018,6,5,10,0,,19,18.1,95,100620,0,0,398,187,12,178,22194,1091,21164,0,200,1.6,10,0,0,0,0,0,0,0,0,0,0,0,0
2018,6,5,11,0,,19,18.3,96,100630,0,0,399,195,9,187,23785,502,23296,0,0,0.1,10,0,0,0,0,0,0,0,0,0,0,0,0
2018,6,5,12,0,,19.2,18,93,100610,0,0,399,260,15,246,30822,972,29897,0,110,1.9,10,0,0,0,0,0,0,0,0,0,0,0,0
2018,6,5,13,0,,19.3,17.9,92,100560,0,0,400,271,16,256,31610,1075,30663,0,90,1.5,10,0,0,0,0,0,0,0,0,0,0,0,0
2018,6,5,14,0,,19.9,17.8,88,100490,0,0,403,279,19,261,31551,1366,30507,0,70,1.8,10,0,0,0,0,0,0,0,0,0,0,0,0
2018,6,5,15,0,,20.2,17.4,84,100460,0,0,404,249,19,232,27390,1367,26554,0,90,2,10,0,0,0,0,0,0,0,0,0,0,0,0
2018,6,5,16,0,,20.4,17,81,100420,0,0,404,226,25,208,23698,1804,22921,0,110,1.9,10,0,0,0,0,0,0,0,0,0,0,0,0
2018,6,5,17,0,,20.8,16.4,76,100400,0,0,395,228,57,195,23028,4539,21953,0,110,1.7,9,0,0,0,0,0,0,0,0,0,0,0,0
2018,6,5,18,0,,20.6,16.2,76,100360,0,0,385,186,114,141,15491,6908,15204,0,90,1.8,8,0,0,0,0,0,0,0,0,0,0,0,0
2018,6,5,19,0,,19.8,15.6,77,100390,0,0,376,99,176,65,0,0,0,0,70,2,7,0,0,0,0,0,0,0,0,0,0,0,0
2018,6,5,20,0,,19.4,15.4,78,100410,0,0,370,17,4,14,0,0,0,0,90,1.7,7,0,0,0,0,0,0,0,0,0,0,0,0
2018,6,5,21,0,,18.8,15.6,82,100430,0,0,365,0,0,0,0,0,0,0,90,1.3,6,0,0,0,0,0,0,0,0,0,0,0,0
2018,6,5,22,0,,18.8,15.4,81,100430,0,0,369,0,0,0,0,0,0,0,90,1.2,7,0,0,0,0,0,0,0,0,0,0,0,0
2018,6,5,23,0,,18.8,16,84,100400,0,0,375,0,0,0,0,0,0,0,0,0.3,8,0,0,0,0,0,0,0,0,0,0,0,0
2018,6,5,24,0,,18.8,15.8,83,100350,0,0,383,0,0,0,0,0,0,0,0,0,9,0,0,0,0,0,0,0,0,0,0,0,0
2018,6,6,1,0,,19.1,16.5,85,100340,0,0,383,0,0,0,0,0,0,0,0,0.3,9,0,0,0,0,0,0,0,0,0,0,0,0
2018,6,6,2,0,,18.9,16.6,87,100290,0,0,379,0,0,0,0,0,0,0,0,0.1,8,0,0,0,0,0,0,0,0,0,0,0,0
2018,6,6,3,0,,18.5,16.4,88,100290,0,0,374,0,0,0,0,0,0,0,230,0.7,8,0,0,0,0,0,0,0,0,0,0,0,0
2018,6,6,4,0,,18.5,16.9,91,100300,0,0,375,0,0,0,0,0,0,0,320,0.9,8,0,0,0,0,0,0,0,0,0,0,0,0
2018,6,6,5,0,,18.4,16.1,87,100320,0,0,368,0,0,0,0,0,0,0,360,3.7,7,0,0,0,0,0,0,0,0,0,0,0,0
2018,6,6,6,0,,18.8,16.2,85,100370,0,0,376,28,7,22,2874,551,2653,0,340,4.8,8,0,0,0,0,0,0,0,0,0,0,0,0
2018,6,6,7,0,,19.8,16.4,81,100380,0,0,375,136,217,83,24706,19910,13075,0,360,2.4,7,0,0,0,0,0,0,0,0,0,0,0,0
2018,6,6,8,0,,21.2,16.7,76,100410,0,0,383,265,218,169,37245,19932,22444,0,360,2.8,7,0,0,0,0,0,0,0,0,0,0,0,0
2018,6,6,9,0,,24,17,65,100400,0,0,384,528,578,170,73730,57366,24079,0,140,1.4,3,0,0,0,0,0,0,0,0,0,0,0,0
2018,6,6,10,0,,25.6,17.2,60,100400,0,0,414,479,165,352,56559,15198,42203,0,180,2.6,8,0,0,0,0,0,0,0,0,0,0,0,0
2018,6,6,11,0,,24.8,18.4,68,100410,0,0,404,586,178,428,66653,16097,50969,0,200,3.4,7,0,0,0,0,0,0,0,0,0,0,0,0
2018,6,6,12,0,,24.8,18.4,68,100380,0,0,404,589,139,456,65977,12588,53981,0,200,4.2,7,0,0,0,0,0,0,0,0,0,0,0,0
2018,6,6,13,0,,24.8,18.9,70,100370,0,0,400,629,156,477,68534,13877,56298,0,200,3.4,6,0,0,0,0,0,0,0,0,0,0,0,0
2018,6,6,14,0,,23.6,18.4,73,100350,0,0,404,441,66,378,48274,6081,43619,0,200,3.2,8,0,0,0,0,0,0,0,0,0,0,0,0
2018,6,6,15,0,,24.5,18.8,71,100300,0,0,385,681,309,414,65069,26745,48693,0,200,3.8,2,0,0,0,0,0,0,0,0,0,0,0,0
2018,6,6,16,0,,23.8,17.5,68,100330,0,0,375,590,444,263,48419,36300,32717,0,200,3.9,1,0,0,0,0,0,0,0,0,0,0,0,0
2018,6,6,17,0,,22.5,18.4,78,100320,0,0,362,461,488,179,29567,29841,22451,0,230,4.5,0,0,0,0,0,0,0,0,0,0,0,0,0
2018,6,6,18,0,,22.2,18.7,81,100320,0,0,368,282,394,127,14471,0,14471,0,200,2.2,1,0,0,0,0,0,0,0,0,0,0,0,0
2018,6,6,19,0,,21.6,18.7,84,100360,0,0,363,136,385,60,0,0,0,0,230,1.6,1,0,0,0,0,0,0,0,0,0,0,0,0
2018,6,6,20,0,,20.9,18,84,100390,0,0,357,28,16,13,0,0,0,0,250,2.6,0,0,0,0,0,0,0,0,0,0,0,0,0
2018,6,6,21,0,,20.4,18.1,87,100450,0,0,352,0,0,0,0,0,0,0,230,2.7,0,0,0,0,0,0,0,0,0,0,0,0,0
2018,6,6,22,0,,20.1,18.4,90,100460,0,0,351,0,0,0,0,0,0,0,230,2.5,0,0,0,0,0,0,0,0,0,0,0,0,0
2018,6,6,23,0,,19.7,18.1,91,100460,0,0,348,0,0,0,0,0,0,0,230,2.4,0,0,0,0,0,0,0,0,0,0,0,0,0
2018,6,6,24,0,,19.3,17.9,92,100450,0,0,346,0,0,0,0,0,0,0,200,1.9,0,0,0,0,0,0,0,0,0,0,0,0,0
2018,6,7,1,0,,19.2,17.5,90,100440,0,0,345,0,0,0,0,0,0,0,230,2.2,0,0,0,0,0,0,0,0,0,0,0,0,0
2018,6,7,2,0,,19.8,16.4,81,100450,0,0,347,0,0,0,0,0,0,0,250,2.8,0,0,0,0,0,0,0,0,0,0,0,0,0
2018,6,7,3,0,,19.5,16.9,85,100450,0,0,346,0,0,0,0,0,0,0,270,2.6,0,0,0,0,0,0,0,0,0,0,0,0,0
2018,6,7,4,0,,19.4,16.4,83,100430,0,0,345,0,0,0,0,0,0,0,290,3.4,0,0,0,0,0,0,0,0,0,0,0,0,0
2018,6,7,5,0,,19,16.5,86,100400,0,0,343,0,0,0,0,0,0,0,270,2.1,0,0,0,0,0,0,0,0,0,0,0,0,0
2018,6,7,6,0,,18.9,16.8,88,100430,0,0,343,45,21,25,4132,1775,3419,0,250,1.1,0,0,0,0,0,0,0,0,0,0,0,0,0
2018,6,7,7,0,,20.1,17.3,84,100430,0,0,349,182,465,68,38295,47981,10260,0,250,1.4,0,0,0,0,0,0,0,0,0,0,0,0,0
2018,6,7,8,0,,22.3,17,72,100400,0,0,360,369,594,107,60657,61564,14934,0,230,1.7,0,0,0,0,0,0,0,0,0,0,0,0,0
2018,6,7,9,0,,25,17.7,64,100390,0,0,374,569,698,136,80718,72519,17943,0,290,2.2,0,0,0,0,0,0,0,0,0,0,0,0,0
2018,6,7,10,0,,24.4,18.5,70,100410,0,0,372,685,601,220,85550,59052,29759,0,230,3.1,0,0,0,0,0,0,0,0,0,0,0,0,0
2018,6,7,11,0,,23.6,18.6,74,100400,0,0,368,740,463,330,84355,42280,43144,0,200,4.7,0,0,0,0,0,0,0,0,0,0,0,0,0
2018,6,7,12,0,,22.5,19,81,100410,0,0,375,751,278,484,82363,24589,58918,0,200,7.6,2,0,0,0,0,0,0,0,0,0,0,0,0
2018,6,7,13,0,,23.3,19,77,100390,0,0,367,782,292,497,82888,25710,60201,0,200,6.1,0,0,0,0,0,0,0,0,0,0,0,0,0
2018,6,7,14,0,,23.5,19,76,100290,0,0,368,771,318,470,78476,27798,57171,0,200,5.5,0,0,0,0,0,0,0,0,0,0,0,0,0
2018,6,7,15,0,,24.1,19.1,74,100230,0,0,371,719,466,316,64480,39967,39962,0,200,4.6,0,0,0,0,0,0,0,0,0,0,0,0,0
2018,6,7,16,0,,23.7,18.9,75,100210,0,0,369,609,491,247,48423,39265,31387,0,200,5.1,0,0,0,0,0,0,0,0,0,0,0,0,0
2018,6,7,17,0,,23.1,18.4,75,100180,0,0,365,467,506,175,29454,31092,21994,0,200,4.6,0,0,0,0,0,0,0,0,0,0,0,0,0
2018,6,7,18,0,,22.9,18.2,75,100180,0,0,364,301,475,114,13116,282,13103,0,230,3,0,0,0,0,0,0,0,0,0,0,0,0,0
2018,6,7,19,0,,21.9,17.6,77,100190,0,0,358,141,418,58,0,0,0,0,230,2.8,0,0,0,0,0,0,0,0,0,0,0,0,0
2018,6,7,20,0,,20.9,17.8,83,100240,0,0,354,29,16,13,0,0,0,0,230,3.3,0,0,0,0,0,0,0,0,0,0,0,0,0
2018,6,7,21,0,,20.4,18.1,87,100210,0,0,352,0,0,0,0,0,0,0,230,3.6,0,0,0,0,0,0,0,0,0,0,0,0,0
2018,6,7,22,0,,20.2,17,82,100260,0,0,350,0,0,0,0,0,0,0,200,2.4,0,0,0,0,0,0,0,0,0,0,0,0,0
2018,6,7,23,0,,20.9,17.1,79,100270,0,0,353,0,0,0,0,0,0,0,250,3.6,0,0,0,0,0,0,0,0,0,0,0,0,0
2018,6,7,24,0,,20.8,15.3,71,100190,0,0,350,0,0,0,0,0,0,0,270,3.8,0,0,0,0,0,0,0,0,0,0,0,0,0
2018,6,8,1,0,,20.7,14.1,66,100160,0,0,349,0,0,0,0,0,0,0,270,4,0,0,0,0,0,0,0,0,0,0,0,0,0
2018,6,8,2,0,,20.9,12.5,59,100090,0,0,348,0,0,0,0,0,0,0,290,2.9,0,0,0,0,0,0,0,0,0,0,0,0,0
2018,6,8,3,0,,21.2,13.1,60,100060,0,0,350,0,0,0,0,0,0,0,340,4.5,0,0,0,0,0,0,0,0,0,0,0,0,0
2018,6,8,4,0,,21.2,13.6,62,100010,0,0,350,0,0,0,0,0,0,0,360,3.5,0,0,0,0,0,0,0,0,0,0,0,0,0
2018,6,8,5,0,,21.2,13.6,62,100000,0,0,350,0,0,0,0,0,0,0,290,1.7,0,0,0,0,0,0,0,0,0,0,0,0,0
2018,6,8,6,0,,21,14.6,67,100000,0,0,369,47,23,24,4100,2032,3284,0,290,2.9,4,0,0,0,0,0,0,0,0,0,0,0,0
2018,6,8,7,0,,22,16.4,71,99990,0,0,376,179,438,71,37003,43265,11722,0,320,1.9,4,0,0,0,0,0,0,0,0,0,0,0,0
2018,6,8,8,0,,23.4,16.9,67,100060,0,0,387,322,405,144,50758,40023,21032,0,290,2.4,5,0,0,0,0,0,0,0,0,0,0,0,0
2018,6,8,9,0,,22.9,17.5,72,100040,0,0,393,376,181,264,48060,16435,33832,0,200,3.9,7,0,0,0,0,0,0,0,0,0,0,0,0
2018,6,8,10,0,,23.3,16.8,67,99960,0,0,389,514,201,359,61552,18434,44132,0,230,2.4,6,0,0,0,0,0,0,0,0,0,0,0,0
2018,6,8,11,0,,25.8,16.9,58,99910,0,0,414,487,106,392,56221,9824,46642,0,230,1.5,8,0,0,0,0,0,0,0,0,0,0,0,0
2018,6,8,12,0,,26.3,18.1,61,99890,0,0,419,561,122,445,63205,11025,52688,0,200,3,8,0,0,0,0,0,0,0,0,0,0,0,0
2018,6,8,13,0,,24.1,17.3,66,99890,0,0,414,431,56,376,48067,5137,43531,0,230,3.4,9,0,0,0,0,0,0,0,0,0,0,0,0
2018,6,8,14,0,,25.4,18.5,66,99840,0,0,423,401,51,353,44422,4681,40830,0,230,2.6,9,0,0,0,0,0,0,0,0,0,0,0,0
2018,6,8,15,0,,23.7,19.2,76,99820,0,0,414,316,36,285,34980,3221,33000,0,230,3,9,0,0,0,0,0,0,0,0,0,0,0,0
2018,6,8,16,0,,24.5,19.3,73,99860,0,0,404,432,143,326,42639,12709,37108,0,200,3.6,7,0,0,0,0,0,0,0,0,0,0,0,0
2018,6,8,17,0,,24.6,19.2,72,99810,0,0,390,425,341,227,31782,21594,26569,0,230,2.4,3,0,0,0,0,0,0,0,0,0,0,0,0
2018,6,8,18,0,,23.7,19.4,77,99840,0,0,388,283,386,130,14923,0,14923,0,230,2.4,4,0,0,0,0,0,0,0,0,0,0,0,0
2018,6,8,19,0,,22.9,19.4,81,99890,0,0,380,134,353,64,0,0,0,0,230,2.2,3,0,0,0,0,0,0,0,0,0,0,0,0
2018,6,8,20,0,,21.8,19.3,86,99890,0,0,369,27,12,15,0,0,0,0,270,0.6,1,0,0,0,0,0,0,0,0,0,0,0,0
2018,6,8,21,0,,22.2,17.5,75,99970,0,0,360,0,0,0,0,0,0,0,90,3.1,0,0,0,0,0,0,0,0,0,0,0,0,0
2018,6,8,22,0,,21.3,16.6,75,100060,0,0,357,0,0,0,0,0,0,0,70,2.3,0,0,0,0,0,0,0,0,0,0,0,0,0
2018,6,8,23,0,,21.3,14.9,67,100060,0,0,357,0,0,0,0,0,0,0,70,2.4,1,0,0,0,0,0,0,0,0,0,0,0,0
2018,6,8,24,0,,21.6,14.2,63,100040,0,0,360,0,0,0,0,0,0,0,50,3.4,1,0,0,0,0,0,0,0,0,0,0,0,0
2018,6,9,1,0,,21.5,13.9,62,100010,0,0,359,0,0,0,0,0,0,0,50,3.1,1,0,0,0,0,0,0,0,0,0,0,0,0
2018,6,9,2,0,,21.4,13.3,60,99980,0,0,358,0,0,0,0,0,0,0,50,2.2,1,0,0,0,0,0,0,0,0,0,0,0,0
2018,6,9,3,0,,21,13.9,64,99950,0,0,356,0,0,0,0,0,0,0,50,2.1,1,0,0,0,0,0,0,0,0,0,0,0,0
2018,6,9,4,0,,19.8,14.8,73,99970,0,0,352,0,0,0,0,0,0,0,90,3.2,1,0,0,0,0,0,0,0,0,0,0,0,0
2018,6,9,5,0,,18.8,15,79,100000,0,0,347,0,0,0,0,0,0,0,70,2.7,1,0,0,0,0,0,0,0,0,0,0,0,0
2018,6,9,6,0,,18.8,15.2,80,100060,0,0,358,41,21,21,3587,1802,2864,0,50,2.6,4,0,0,0,0,0,0,0,0,0,0,0,0
2018,6,9,7,0,,19.7,15.1,75,100070,0,0,360,179,436,71,36932,43196,11690,0,50,3.1,3,0,0,0,0,0,0,0,0,0,0,0,0
2018,6,9,8,0,,20.7,15,70,100070,0,0,368,343,488,128,55078,48651,18944,0,70,5.1,4,0,0,0,0,0,0,0,0,0,0,0,0
2018,6,9,9,0,,21.5,14.8,66,100100,0,0,388,352,149,260,43602,14158,31345,0,50,3.7,8,0,0,0,0,0,0,0,0,0,0,0,0
2018,6,9,10,0,,21.5,14.8,66,100100,0,0,396,370,80,308,43979,7624,36773,0,50,4.3,9,0,0,0,0,0,0,0,0,0,0,0,0
2018,6,9,11,0,,22.2,14.8,63,100080,0,0,381,633,222,436,71837,20792,51558,0,50,5.1,6,0,0,0,0,0,0,0,0,0,0,0,0
2018,6,9,12,0,,23.3,15,60,100030,0,0,378,793,331,476,85264,30859,55811,0,70,3.3,3,0,0,0,0,0,0,0,0,0,0,0,0
2018,6,9,13,0,,23.8,15.2,59,100010,0,0,381,828,458,380,84647,42887,46745,0,90,4.1,3,0,0,0,0,0,0,0,0,0,0,0,0
2018,6,9,14,0,,23.9,15.1,58,100020,0,0,377,811,490,348,78251,45612,43211,0,70,4.1,2,0,0,0,0,0,0,0,0,0,0,0,0
2018,6,9,15,0,,24.3,14.6,55,100010,0,0,386,689,318,414,65402,28806,47668,0,70,3.2,4,0,0,0,0,0,0,0,0,0,0,0,0
2018,6,9,16,0,,23.8,14.7,57,99960,0,0,377,617,505,242,48526,43094,29720,0,70,4,2,0,0,0,0,0,0,0,0,0,0,0,0
2018,6,9,17,0,,23.3,15,60,99910,0,0,374,476,527,170,29280,34776,20838,0,50,4.6,2,0,0,0,0,0,0,0,0,0,0,0,0
2018,6,9,18,0,,21.9,14,61,99900,0,0,366,299,456,118,13178,3179,13026,0,50,3.6,2,0,0,0,0,0,0,0,0,0,0,0,0
2018,6,9,19,0,,20.3,13.4,65,99980,0,0,365,134,337,66,0,0,0,0,50,3.7,4,0,0,0,0,0,0,0,0,0,0,0,0
2018,6,9,20,0,,19.6,13.2,67,100010,0,0,369,18,4,15,0,0,0,0,50,3.7,7,0,0,0,0,0,0,0,0,0,0,0,0
2018,6,9,21,0,,19.5,13.6,69,100050,0,0,384,0,0,0,0,0,0,0,50,3.9,9,0,0,0,0,0,0,0,0,0,0,0,0
2018,6,9,22,0,,19.2,13.8,71,100030,0,0,386,0,0,0,0,0,0,0,50,4.6,9,0,0,0,0,0,0,0,0,0,0,0,0
2018,6,9,23,0,,19.2,13.8,71,100060,0,0,390,0,0,0,0,0,0,0,50,4.2,10,0,0,0,0,0,0,0,0,0,0,0,0
2018,6,9,24,0,,19,13.8,72,100020,0,0,393,0,0,0,0,0,0,0,50,4.9,10,0,0,0,0,0,0,0,0,0,0,0,0
2018,6,10,1,0,,18.8,13.6,72,99930,0,0,391,0,0,0,0,0,0,0,50,4.4,10,0,0,0,0,0,0,0,0,0,0,0,0
2018,6,10,2,0,,18.6,13.8,74,99940,0,0,390,0,0,0,0,0,0,0,50,4,10,0,0,0,0,0,0,0,0,0,0,0,0
2018,6,10,3,0,,18.4,14,76,99870,0,0,390,0,0,0,0,0,0,0,50,2.8,10,0,0,0,0,0,0,0,0,0,0,0,0
2018,6,10,4,0,,18.4,13.6,74,99740,0,0,389,0,0,0,0,0,0,0,50,4.7,10,0,0,0,0,0,0,0,0,0,0,0,0
2018,6,10,5,0,,18.5,13.7,74,99760,0,0,390,0,0,0,0,0,0,0,50,4.1,10,0,0,0,0,0,0,0,0,0,0,0,0
2018,6,10,6,0,,18.2,14.2,78,99740,0,0,389,16,1,14,1933,41,1917,0,50,4.3,10,0,0,0,0,0,0,0,0,0,0,0,0
2018,6,10,7,0,,18.8,14.2,75,99790,0,0,392,75,38,66,10636,3564,8553,0,50,4.2,10,0,0,0,0,0,0,0,0,0,0,0,0
2018,6,10,8,0,,19.1,14.3,74,99860,0,0,394,141,36,125,17231,3268,14804,0,50,4.1,10,0,0,0,0,0,0,0,0,0,0,0,0
2018,6,10,9,0,,20.1,14.8,72,99880,0,0,400,216,38,192,25626,3509,22588,0,50,3.4,10,0,0,0,0,0,0,0,0,0,0,0,0
2018,6,10,10,0,,21.5,15.1,67,99820,0,0,397,375,83,310,44597,7895,37135,0,50,3.7,9,0,0,0,0,0,0,0,0,0,0,0,0
2018,6,10,11,0,,22.2,15.2,65,99750,0,0,401,445,83,371,50541,7790,42940,0,50,4.1,9,0,0,0,0,0,0,0,0,0,0,0,0
2018,6,10,12,0,,23.5,15.5,61,99680,0,0,400,570,127,448,63635,11820,52349,0,50,3.9,8,0,0,0,0,0,0,0,0,0,0,0,0
2018,6,10,13,0,,23.1,15.6,63,99610,0,0,406,471,71,402,52067,6624,46208,0,50,4.4,9,0,0,0,0,0,0,0,0,0,0,0,0
2018,6,10,14,0,,21.5,14.8,66,99560,0,0,408,314,26,289,35285,2433,33414,0,50,4.1,10,0,0,0,0,0,0,0,0,0,0,0,0
2018,6,10,15,0,,20.7,15.2,71,99550,0,0,404,243,17,228,26950,1279,26161,0,50,4.4,10,0,0,0,0,0,0,0,0,0,0,0,0
2018,6,10,16,0,,20.1,14.6,71,99570,0,0,400,202,17,189,21598,1249,21051,0,50,4.9,10,0,0,0,0,0,0,0,0,0,0,0,0
2018,6,10,17,0,,20.1,14.2,69,99510,0,0,399,172,25,157,16991,1575,16607,0,50,3.7,10,0,0,0,0,0,0,0,0,0,0,0,0
2018,6,10,18,0,,19,14.8,77,99520,0,0,394,114,28,103,9862,1868,9769,0,50,5.1,10,0,0,0,0,0,0,0,0,0,0,0,0
2018,6,10,19,0,,17.8,15.9,89,99520,0,0,389,45,17,42,0,0,0,0,50,4.6,10,0,0,0,0,0,0,0,0,0,0,0,0
2018,6,10,20,0,,17.2,15.8,92,99570,0,0,386,4,0,4,0,0,0,0,50,3.2,10,0,0,0,0,0,0,0,0,0,0,0,0
2018,6,10,21,0,,17.1,15.9,93,99580,0,0,385,0,0,0,0,0,0,0,50,2.6,10,0,0,0,0,0,0,0,0,0,0,0,0
2018,6,10,22,0,,17.1,15.9,93,99600,0,0,385,0,0,0,0,0,0,0,50,3.8,10,0,0,0,0,0,0,0,0,0,0,0,0
2018,6,10,23,0,,17.1,16.2,95,99570,0,0,386,0,0,0,0,0,0,0,20,3.4,10,0,0,0,0,0,0,0,0,0,0,0,0
2018,6,10,24,0,,17.1,15.9,93,99480,0,0,385,0,0,0,0,0,0,0,50,2.7,10,0,0,0,0,0,0,0,0,0,0,0,0
2018,6,11,1,0,,17,15.8,93,99380,0,0,385,0,0,0,0,0,0,0,50,2.4,10,0,0,0,0,0,0,0,0,0,0,0,0
2018,6,11,2,0,,17,15.6,92,99310,0,0,384,0,0,0,0,0,0,0,20,2.6,10,0,0,0,0,0,0,0,0,0,0,0,0
2018,6,11,3,0,,16.8,15.6,93,99300,0,0,383,0,0,0,0,0,0,0,50,2.7,10,0,0,0,0,0,0,0,0,0,0,0,0
2018,6,11,4,0,,16.3,15.4,95,99280,0,0,381,0,0,0,0,0,0,0,50,3.8,10,0,0,0,0,0,0,0,0,0,0,0,0
2018,6,11,5,0,,16.1,15.2,95,99240,0,0,379,0,0,0,0,0,0,0,50,3.7,10,0,0,0,0,0,0,0,0,0,0,0,0
2018,6,11,6,0,,16,15.1,95,99220,0,0,379,11,1,11,1471,16,1464,0,50,3.2,10,0,0,0,0,0,0,0,0,0,0,0,0
2018,6,11,7,0,,15.7,15,96,99310,0,0,377,56,16,52,7104,1449,6258,0,50,2.2,10,0,0,0,0,0,0,0,0,0,0,0,0
2018,6,11,8,0,,15.6,14.9,96,99350,0,0,376,113,20,105,13825,1769,12511,0,50,3.4,10,0,0,0,0,0,0,0,0,0,0,0,0
2018,6,11,9,0,,15.9,15.2,96,99370,0,0,378,163,18,152,19489,1606,18098,0,50,2.8,10,0,0,0,0,0,0,0,0,0,0,0,0
2018,6,11,10,0,,16,15.3,96,99370,0,0,379,210,17,197,24772,1557,23300,0,20,2.3,10,0,0,0,0,0,0,0,0,0,0,0,0
2018,6,11,11,0,,16.6,15.7,95,99350,0,0,382,246,17,232,28745,1512,27269,0,50,1.5,10,0,0,0,0,0,0,0,0,0,0,0,0
2018,6,11,12,0,,16.9,15.9,94,99340,0,0,384,265,16,250,31485,1061,30471,0,50,2.6,10,0,0,0,0,0,0,0,0,0,0,0,0
2018,6,11,13,0,,17.7,15.5,87,99270,0,0,388,325,26,300,36969,2392,34852,0,50,4,10,0,0,0,0,0,0,0,0,0,0,0,0
2018,6,11,14,0,,18.7,15.7,83,99240,0,0,393,318,27,293,35777,2503,33850,0,50,2.5,10,0,0,0,0,0,0,0,0,0,0,0,0
2018,6,11,15,0,,19,15.8,82,99220,0,0,395,295,29,269,31953,2345,30505,0,50,2.9,10,0,0,0,0,0,0,0,0,0,0,0,0
2018,6,11,16,0,,21.1,14.9,68,99200,0,0,394,351,80,292,36217,7285,33021,0,70,2.1,9,0,0,0,0,0,0,0,0,0,0,0,0
2018,6,11,17,0,,20.2,15.4,74,99140,0,0,401,186,31,168,18077,2014,17583,0,50,2.4,10,0,0,0,0,0,0,0,0,0,0,0,0
2018,6,11,18,0,,18.9,14.5,76,99220,0,0,393,119,31,107,10210,2187,10100,0,50,2.9,10,0,0,0,0,0,0,0,0,0,0,0,0
2018,6,11,19,0,,18.2,14,77,99250,0,0,378,66,47,56,0,0,0,0,50,2.9,9,0,0,0,0,0,0,0,0,0,0,0,0
2018,6,11,20,0,,17.7,13.8,78,99290,0,0,367,15,2,13,0,0,0,0,50,1.8,8,0,0,0,0,0,0,0,0,0,0,0,0
2018,6,11,21,0,,17.2,13.5,79,99350,0,0,359,0,0,0,0,0,0,0,50,2.4,7,0,0,0,0,0,0,0,0,0,0,0,0
2018,6,11,22,0,,17,12.7,76,99370,0,0,362,0,0,0,0,0,0,0,50,3.4,8,0,0,0,0,0,0,0,0,0,0,0,0
2018,6,11,23,0,,16.9,12.2,74,99390,0,0,369,0,0,0,0,0,0,0,50,2.2,9,0,0,0,0,0,0,0,0,0,0,0,0
2018,6,11,24,0,,16.8,12.3,75,99390,0,0,379,0,0,0,0,0,0,0,50,2.4,10,0,0,0,0,0,0,0,0,0,0,0,0
2018,6,12,1,0,,16.7,12.4,76,99360,0,0,379,0,0,0,0,0,0,0,50,1.5,10,0,0,0,0,0,0,0,0,0,0,0,0
2018,6,12,2,0,,16.7,12.4,76,99380,0,0,379,0,0,0,0,0,0,0,50,1.5,10,0,0,0,0,0,0,0,0,0,0,0,0
2018,6,12,3,0,,16.6,12.5,77,99400,0,0,378,0,0,0,0,0,0,0,50,1.1,10,0,0,0,0,0,0,0,0,0,0,0,0
2018,6,12,4,0,,16.5,11.4,72,99420,0,0,376,0,0,0,0,0,0,0,50,2.4,10,0,0,0,0,0,0,0,0,0,0,0,0
2018,6,12,5,0,,16.3,11.2,72,99450,0,0,375,0,0,0,0,0,0,0,50,1,10,0,0,0,0,0,0,0,0,0,0,0,0
2018,6,12,6,0,,16.3,11.2,72,99490,0,0,375,13,1,12,1655,25,1645,0,50,1.1,10,0,0,0,0,0,0,0,0,0,0,0,0
2018,6,12,7,0,,16.4,11.7,74,99570,0,0,366,94,71,76,13714,6817,9733,0,50,1.5,9,0,0,0,0,0,0,0,0,0,0,0,0
2018,6,12,8,0,,17.2,12.3,73,99600,0,0,381,133,31,120,16291,2853,14172,0,20,1,10,0,0,0,0,0,0,0,0,0,0,0,0
2018,6,12,9,0,,18.1,12.5,70,99620,0,0,386,221,41,196,26211,3815,22908,0,110,2,10,0,0,0,0,0,0,0,0,0,0,0,0
2018,6,12,10,0,,18.7,12.4,67,99590,0,0,389,272,35,245,31700,3261,28617,0,110,1.5,10,0,0,0,0,0,0,0,0,0,0,0,0
2018,6,12,11,0,,19.6,13.2,67,99620,0,0,395,322,35,292,37086,3259,33905,0,110,2.5,10,0,0,0,0,0,0,0,0,0,0,0,0
2018,6,12,12,0,,20.2,13.6,66,99620,0,0,399,332,29,304,37900,2740,35282,0,140,2.2,10,0,0,0,0,0,0,0,0,0,0,0,0
2018,6,12,13,0,,21,13.6,63,99640,0,0,403,371,37,335,41739,3498,38641,0,180,2.8,10,0,0,0,0,0,0,0,0,0,0,0,0
2018,6,12,14,0,,20.1,14.8,72,99680,0,0,400,305,24,282,34321,1840,32903,0,160,2.4,10,0,0,0,0,0,0,0,0,0,0,0,0
2018,6,12,15,0,,20.5,14.6,69,99620,0,0,402,283,26,261,30913,2091,29619,0,110,2.3,10,0,0,0,0,0,0,0,0,0,0,0,0
2018,6,12,16,0,,19.2,14.4,74,99600,0,0,394,211,20,197,22466,1433,21836,0,110,3.3,10,0,0,0,0,0,0,0,0,0,0,0,0
2018,6,12,17,0,,19.3,14.3,73,99600,0,0,370,325,146,240,29706,12166,26705,0,110,2.8,7,0,0,0,0,0,0,0,0,0,0,0,0
2018,6,12,18,0,,18.9,14.7,77,99610,0,0,382,141,49,122,13369,2872,13219,0,110,2.3,9,0,0,0,0,0,0,0,0,0,0,0,0
2018,6,12,19,0,,18.2,14.2,78,99660,0,0,378,71,56,59,0,0,0,0,90,2.3,9,0,0,0,0,0,0,0,0,0,0,0,0
2018,6,12,20,0,,18,14.2,79,99720,0,0,377,11,1,10,0,0,0,0,90,1.6,9,0,0,0,0,0,0,0,0,0,0,0,0
2018,6,12,21,0,,17.8,13.5,76,99790,0,0,375,0,0,0,0,0,0,0,90,1.8,9,0,0,0,0,0,0,0,0,0,0,0,0
2018,6,12,22,0,,17.8,13.5,76,99840,0,0,375,0,0,0,0,0,0,0,90,1.8,9,0,0,0,0,0,0,0,0,0,0,0,0
2018,6,12,23,0,,17.7,12.5,72,99850,0,0,373,0,0,0,0,0,0,0,90,2.1,9,0,0,0,0,0,0,0,0,0,0,0,0
2018,6,12,24,0,,17.7,12.3,71,99850,0,0,373,0,0,0,0,0,0,0,70,1.4,9,0,0,0,0,0,0,0,0,0,0,0,0
2018,6,13,1,0,,17.6,12.2,71,99880,0,0,372,0,0,0,0,0,0,0,50,0.7,9,0,0,0,0,0,0,0,0,0,0,0,0
2018,6,13,2,0,,17.7,12.3,71,99910,0,0,373,0,0,0,0,0,0,0,140,1.3,9,0,0,0,0,0,0,0,0,0,0,0,0
2018,6,13,3,0,,17.6,12.2,71,99850,0,0,372,0,0,0,0,0,0,0,90,1.7,9,0,0,0,0,0,0,0,0,0,0,0,0
2018,6,13,4,0,,17.6,12.2,71,99880,0,0,372,0,0,0,0,0,0,0,50,1.5,9,0,0,0,0,0,0,0,0,0,0,0,0
2018,6,13,5,0,,17.5,13,75,99900,0,0,373,0,0,0,0,0,0,0,20,1.1,9,0,0,0,0,0,0,0,0,0,0,0,0
2018,6,13,6,0,,17.6,12.9,74,99930,0,0,373,22,3,19,2478,108,2435,0,50,1.5,9,0,0,0,0,0,0,0,0,0,0,0,0
2018,6,13,7,0,,18.2,12.6,70,99950,0,0,376,94,73,77,14580,6829,10594,0,70,1.1,9,0,0,0,0,0,0,0,0,0,0,0,0
2018,6,13,8,0,,19.3,13,67,100020,0,0,382,190,82,153,24868,7961,18959,0,90,1.4,9,0,0,0,0,0,0,0,0,0,0,0,0
2018,6,13,9,0,,19.9,13.8,68,100080,0,0,386,281,80,232,34730,7658,28102,0,90,2.4,9,0,0,0,0,0,0,0,0,0,0,0,0
2018,6,13,10,0,,21.2,15,68,100130,0,0,395,365,77,305,43441,7337,36504,0,110,3.2,9,0,0,0,0,0,0,0,0,0,0,0,0
2018,6,13,11,0,,21.4,15.6,70,100180,0,0,397,414,69,353,47185,6371,40965,0,110,3.5,9,0,0,0,0,0,0,0,0,0,0,0,0
2018,6,13,12,0,,22.2,16,68,100180,0,0,402,439,63,379,49432,5823,43865,0,90,2.7,9,0,0,0,0,0,0,0,0,0,0,0,0
2018,6,13,13,0,,22.7,16.7,69,100110,0,0,397,518,91,429,56899,8524,49345,0,90,2.5,8,0,0,0,0,0,0,0,0,0,0,0,0
2018,6,13,14,0,,22.2,16.2,69,100040,0,0,402,404,52,355,44518,4804,40812,0,110,2.7,9,0,0,0,0,0,0,0,0,0,0,0,0
2018,6,13,15,0,,22.4,15.7,66,100000,0,0,394,445,90,367,47011,8429,41789,0,110,3,8,0,0,0,0,0,0,0,0,0,0,0,0
2018,6,13,16,0,,22.4,15.9,67,99970,0,0,394,367,90,301,37659,8149,34066,0,90,3.2,8,0,0,0,0,0,0,0,0,0,0,0,0
2018,6,13,17,0,,21.3,15.8,71,99940,0,0,369,434,383,210,31558,25134,25330,0,90,3.1,3,0,0,0,0,0,0,0,0,0,0,0,0
2018,6,13,18,0,,20.2,15.6,75,100010,0,0,363,281,359,137,15280,2625,15140,0,70,2.7,3,0,0,0,0,0,0,0,0,0,0,0,0
2018,6,13,19,0,,19.4,15.4,78,100080,0,0,364,123,284,64,0,0,0,0,70,2.6,5,0,0,0,0,0,0,0,0,0,0,0,0
2018,6,13,20,0,,19.1,15.3,79,100070,0,0,370,19,4,15,0,0,0,0,70,2.6,7,0,0,0,0,0,0,0,0,0,0,0,0
2018,6,13,21,0,,19,14.8,77,100110,0,0,383,0,0,0,0,0,0,0,70,3.3,9,0,0,0,0,0,0,0,0,0,0,0,0
2018,6,13,22,0,,18.8,14.8,78,100200,0,0,365,0,0,0,0,0,0,0,70,2.5,6,0,0,0,0,0,0,0,0,0,0,0,0
2018,6,13,23,0,,18.8,15.2,80,100180,0,0,358,0,0,0,0,0,0,0,70,2.8,4,0,0,0,0,0,0,0,0,0,0,0,0
2018,6,13,24,0,,18.2,14.6,80,100160,0,0,344,0,0,0,0,0,0,0,50,3.5,1,0,0,0,0,0,0,0,0,0,0,0,0
2018,6,14,1,0,,17.9,14.1,79,100120,0,0,350,0,0,0,0,0,0,0,50,2.9,3,0,0,0,0,0,0,0,0,0,0,0,0
2018,6,14,2,0,,17.7,14.7,83,100110,0,0,355,0,0,0,0,0,0,0,50,2.1,5,0,0,0,0,0,0,0,0,0,0,0,0
2018,6,14,3,0,,17.8,14.8,83,100080,0,0,363,0,0,0,0,0,0,0,50,3,7,0,0,0,0,0,0,0,0,0,0,0,0
2018,6,14,4,0,,18,15.2,84,100090,0,0,370,0,0,0,0,0,0,0,50,3.1,8,0,0,0,0,0,0,0,0,0,0,0,0
2018,6,14,5,0,,18,14.8,82,100110,0,0,364,0,0,0,0,0,0,0,50,3.5,7,0,0,0,0,0,0,0,0,0,0,0,0
2018,6,14,6,0,,18.3,15.1,82,100150,0,0,362,39,17,22,3634,1503,3032,0,50,3.7,6,0,0,0,0,0,0,0,0,0,0,0,0
2018,6,14,7,0,,19.4,15.8,80,100170,0,0,365,168,361,79,33564,35633,12773,0,50,3,5,0,0,0,0,0,0,0,0,0,0,0,0
2018,6,14,8,0,,20.2,15.6,75,100200,0,0,376,260,206,170,36485,19101,22313,0,70,2.4,7,0,0,0,0,0,0,0,0,0,0,0,0
2018,6,14,9,0,,20.7,15.4,72,100170,0,0,385,335,130,255,41490,12280,30863,0,70,3.5,8,0,0,0,0,0,0,0,0,0,0,0,0
2018,6,14,10,0,,21.3,15.3,69,100160,0,0,396,353,71,299,40991,6585,34766,0,90,3.4,9,0,0,0,0,0,0,0,0,0,0,0,0
2018,6,14,11,0,,21.6,15.4,68,100140,0,0,398,396,61,342,45220,5647,39707,0,70,2.7,9,0,0,0,0,0,0,0,0,0,0,0,0
2018,6,14,12,0,,22.5,15.8,66,100110,0,0,395,530,104,431,59786,9721,50489,0,70,3.2,8,0,0,0,0,0,0,0,0,0,0,0,0
2018,6,14,13,0,,23.3,15,60,100100,0,0,387,693,203,495,73797,18859,57075,0,90,3.2,6,0,0,0,0,0,0,0,0,0,0,0,0
2018,6,14,14,0,,22.9,14.9,61,100070,0,0,376,783,331,470,78508,30585,54892,0,90,4.4,3,0,0,0,0,0,0,0,0,0,0,0,0
2018,6,14,15,0,,22.9,15.9,65,100040,0,0,380,655,267,424,63794,23933,48945,0,70,3.8,4,0,0,0,0,0,0,0,0,0,0,0,0
2018,6,14,16,0,,22.7,15,62,100010,0,0,384,486,196,341,46532,16667,39166,0,70,3.6,6,0,0,0,0,0,0,0,0,0,0,0,0
2018,6,14,17,0,,21.9,14.5,63,100020,0,0,384,334,156,243,30294,13071,27041,0,70,3.8,7,0,0,0,0,0,0,0,0,0,0,0,0
2018,6,14,18,0,,20.9,14.3,66,99980,0,0,384,193,117,146,16213,7278,15818,0,50,3.6,8,0,0,0,0,0,0,0,0,0,0,0,0
2018,6,14,19,0,,19.7,14.2,71,100010,0,0,366,115,224,69,0,0,0,0,70,3.6,6,0,0,0,0,0,0,0,0,0,0,0,0
2018,6,14,20,0,,18.9,13.9,73,100040,0,0,355,31,17,14,0,0,0,0,70,3.6,3,0,0,0,0,0,0,0,0,0,0,0,0
2018,6,14,21,0,,18.5,13.7,74,100110,0,0,344,0,0,0,0,0,0,0,50,4.2,1,0,0,0,0,0,0,0,0,0,0,0,0
2018,6,14,22,0,,18.2,13.6,75,100130,0,0,344,0,0,0,0,0,0,0,50,4.9,1,0,0,0,0,0,0,0,0,0,0,0,0
2018,6,14,23,0,,17.9,13.8,77,100170,0,0,345,0,0,0,0,0,0,0,50,2.8,2,0,0,0,0,0,0,0,0,0,0,0,0
2018,6,14,24,0,,17.8,13.3,75,100130,0,0,345,0,0,0,0,0,0,0,50,3.5,2,0,0,0,0,0,0,0,0,0,0,0,0
2018,6,15,1,0,,17.9,13.6,76,100140,0,0,348,0,0,0,0,0,0,0,50,3.6,3,0,0,0,0,0,0,0,0,0,0,0,0
2018,6,15,2,0,,17.6,12.6,73,100090,0,0,348,0,0,0,0,0,0,0,50,3.6,3,0,0,0,0,0,0,0,0,0,0,0,0
2018,6,15,3,0,,17.5,12.3,72,100100,0,0,349,0,0,0,0,0,0,0,50,3.6,4,0,0,0,0,0,0,0,0,0,0,0,0
2018,6,15,4,0,,17.3,12.1,72,100110,0,0,350,0,0,0,0,0,0,0,50,3.5,5,0,0,0,0,0,0,0,0,0,0,0,0
2018,6,15,5,0,,17.2,12.1,72,100120,0,0,344,0,0,0,0,0,0,0,50,3,3,0,0,0,0,0,0,0,0,0,0,0,0
2018,6,15,6,0,,17.4,11.8,70,100170,0,0,337,51,30,21,4310,2596,3271,0,50,3.5,1,0,0,0,0,0,0,0,0,0,0,0,0
2018,6,15,7,0,,18.6,12.7,69,100230,0,0,344,197,561,59,42497,57666,8870,0,50,3.3,1,0,0,0,0,0,0,0,0,0,0,0,0
2018,6,15,8,0,,19.9,12.8,64,100250,0,0,358,371,601,106,60607,62023,14605,0,50,4.6,3,0,0,0,0,0,0,0,0,0,0,0,0
2018,6,15,9,0,,20.2,12.9,63,100270,0,0,363,508,518,187,70171,51719,25422,0,50,5.2,4,0,0,0,0,0,0,0,0,0,0,0,0
2018,6,15,10,0,,20.5,12.9,62,100270,0,0,380,444,133,341,52267,12807,40161,0,50,4.2,8,0,0,0,0,0,0,0,0,0,0,0,0
2018,6,15,11,0,,21.6,12.7,57,100280,0,0,386,504,117,400,57514,11231,46547,0,70,3.8,8,0,0,0,0,0,0,0,0,0,0,0,0
2018,6,15,12,0,,23,13.4,55,100280,0,0,388,631,168,471,69495,15938,54248,0,70,2.6,7,0,0,0,0,0,0,0,0,0,0,0,0
2018,6,15,13,0,,22.3,14.4,61,100280,0,0,392,543,103,442,59253,9813,50547,0,70,3.2,8,0,0,0,0,0,0,0,0,0,0,0,0
2018,6,15,14,0,,23,13.7,56,100280,0,0,395,521,103,424,55806,9785,48245,0,70,3.1,8,0,0,0,0,0,0,0,0,0,0,0,0
2018,6,15,15,0,,21.7,14,62,100310,0,0,388,441,88,365,46613,8287,41464,0,70,3.4,8,0,0,0,0,0,0,0,0,0,0,0,0
2018,6,15,16,0,,21.4,13.3,60,100300,0,0,380,442,149,331,43382,13858,37244,0,50,3.2,7,0,0,0,0,0,0,0,0,0,0,0,0
2018,6,15,17,0,,21,13.9,64,100290,0,0,378,324,142,240,29771,11936,26787,0,70,2.7,7,0,0,0,0,0,0,0,0,0,0,0,0
2018,6,15,18,0,,19.8,12.7,64,100300,0,0,376,196,120,147,16317,7624,15894,0,50,3.9,8,0,0,0,0,0,0,0,0,0,0,0,0
2018,6,15,19,0,,18.8,12.5,67,100350,0,0,371,92,111,68,0,0,0,0,70,4.1,8,0,0,0,0,0,0,0,0,0,0,0,0
2018,6,15,20,0,,18.1,11.6,66,100450,0,0,366,17,3,15,0,0,0,0,50,2.9,8,0,0,0,0,0,0,0,0,0,0,0,0
2018,6,15,21,0,,17.6,11.1,66,100490,0,0,363,0,0,0,0,0,0,0,50,3.4,8,0,0,0,0,0,0,0,0,0,0,0,0
2018,6,15,22,0,,17.4,10.5,64,100520,0,0,364,0,0,0,0,0,0,0,50,4,8,0,0,0,0,0,0,0,0,0,0,0,0
2018,6,15,23,0,,17.4,11.6,69,100540,0,0,368,0,0,0,0,0,0,0,50,3.3,9,0,0,0,0,0,0,0,0,0,0,0,0
2018,6,15,24,0,,17.4,11.8,70,100550,0,0,371,0,0,0,0,0,0,0,50,3.2,9,0,0,0,0,0,0,0,0,0,0,0,0
2018,6,16,1,0,,17.4,11.4,68,100560,0,0,370,0,0,0,0,0,0,0,50,3.9,9,0,0,0,0,0,0,0,0,0,0,0,0
2018,6,16,2,0,,17.3,11.5,69,100520,0,0,370,0,0,0,0,0,0,0,50,3.6,9,0,0,0,0,0,0,0,0,0,0,0,0
2018,6,16,3,0,,17.2,11.2,68,100510,0,0,369,0,0,0,0,0,0,0,50,3.8,9,0,0,0,0,0,0,0,0,0,0,0,0
2018,6,16,4,0,,17,11.6,71,100500,0,0,369,0,0,0,0,0,0,0,50,3.1,9,0,0,0,0,0,0,0,0,0,0,0,0
2018,6,16,5,0,,16.9,10.7,67,100520,0,0,367,0,0,0,0,0,0,0,50,4.1,9,0,0,0,0,0,0,0,0,0,0,0,0
2018,6,16,6,0,,16.9,11.1,69,100580,0,0,367,22,3,19,2451,294,2334,0,50,3.4,9,0,0,0,0,0,0,0,0,0,0,0,0
2018,6,16,7,0,,17.2,11.4,69,100560,0,0,380,75,37,65,10549,3618,8440,0,50,3.5,10,0,0,0,0,0,0,0,0,0,0,0,0
2018,6,16,8,0,,17.8,11.5,67,100580,0,0,373,192,86,154,25195,8389,18976,0,50,3.2,9,0,0,0,0,0,0,0,0,0,0,0,0
2018,6,16,9,0,,18,12.2,69,100640,0,0,385,213,37,190,25259,3464,22262,0,50,3.8,10,0,0,0,0,0,0,0,0,0,0,0,0
2018,6,16,10,0,,18.8,12,65,100640,0,0,389,286,40,256,33312,3772,29747,0,50,3.5,10,0,0,0,0,0,0,0,0,0,0,0,0
2018,6,16,11,0,,19.9,12.8,64,100620,0,0,385,410,67,351,46643,6317,40474,0,70,1.9,9,0,0,0,0,0,0,0,0,0,0,0,0
2018,6,16,12,0,,20.2,12.6,62,100600,0,0,378,535,107,433,59776,10234,49982,0,50,3,8,0,0,0,0,0,0,0,0,0,0,0,0
2018,6,16,13,0,,21.9,13.2,58,100550,0,0,372,789,298,498,82163,28262,57076,0,70,2.7,4,0,0,0,0,0,0,0,0,0,0,0,0
2018,6,16,14,0,,22.7,13.7,57,100520,0,0,376,770,312,474,76832,29172,54268,0,50,2.4,4,0,0,0,0,0,0,0,0,0,0,0,0
2018,6,16,15,0,,22.7,13.7,57,100520,0,0,373,738,496,306,65494,45884,36950,0,70,3.3,3,0,0,0,0,0,0,0,0,0,0,0,0
2018,6,16,16,0,,21.5,13.4,60,100490,0,0,363,613,483,253,49221,42045,30558,0,90,4.2,2,0,0,0,0,0,0,0,0,0,0,0,0
2018,6,16,17,0,,20.6,13.3,63,100430,0,0,354,457,448,194,30880,30886,23129,0,90,3.8,1,0,0,0,0,0,0,0,0,0,0,0,0
2018,6,16,18,0,,19.6,13,66,100420,0,0,349,299,427,126,14140,5275,13842,0,90,3.1,1,0,0,0,0,0,0,0,0,0,0,0,0
2018,6,16,19,0,,18.2,12.8,71,100450,0,0,342,149,416,62,0,0,0,0,70,3,1,0,0,0,0,0,0,0,0,0,0,0,0
2018,6,16,20,0,,17.4,12.9,75,100450,0,0,338,33,19,14,0,0,0,0,70,3,1,0,0,0,0,0,0,0,0,0,0,0,0
2018,6,16,21,0,,17,12.7,76,100520,0,0,336,0,0,0,0,0,0,0,70,3.4,1,0,0,0,0,0,0,0,0,0,0,0,0
2018,6,16,22,0,,16.8,12.7,77,100520,0,0,340,0,0,0,0,0,0,0,50,2.9,2,0,0,0,0,0,0,0,0,0,0,0,0
2018,6,16,23,0,,16.5,12.8,79,100500,0,0,342,0,0,0,0,0,0,0,50,3.1,3,0,0,0,0,0,0,0,0,0,0,0,0
2018,6,16,24,0,,16.2,12.9,81,100480,0,0,343,0,0,0,0,0,0,0,50,2.4,4,0,0,0,0,0,0,0,0,0,0,0,0
2018,6,17,1,0,,15.9,12.4,80,100480,0,0,337,0,0,0,0,0,0,0,50,2.6,3,0,0,0,0,0,0,0,0,0,0,0,0
2018,6,17,2,0,,15.5,12.6,83,100470,0,0,331,0,0,0,0,0,0,0,50,2.3,1,0,0,0,0,0,0,0,0,0,0,0,0
2018,6,17,3,0,,15.2,12.3,83,100450,0,0,321,0,0,0,0,0,0,0,50,1.7,0,0,0,0,0,0,0,0,0,0,0,0,0
2018,6,17,4,0,,15.1,12.4,84,100410,0,0,321,0,0,0,0,0,0,0,50,2.4,0,0,0,0,0,0,0,0,0,0,0,0,0
2018,6,17,5,0,,15.3,12.4,83,100410,0,0,328,0,0,0,0,0,0,0,50,3,1,0,0,0,0,0,0,0,0,0,0,0,0
2018,6,17,6,0,,15.5,12.6,83,100420,0,0,349,32,10,23,3099,832,2767,0,50,2,7,0,0,0,0,0,0,0,0,0,0,0,0
2018,6,17,7,0,,16.9,13.2,79,100440,0,0,357,137,215,84,24609,20228,12829,0,50,2.2,7,0,0,0,0,0,0,0,0,0,0,0,0
2018,6,17,8,0,,19.4,13.7,70,100440,0,0,362,328,431,138,51926,42988,20071,0,70,2.2,5,0,0,0,0,0,0,0,0,0,0,0,0
2018,6,17,9,0,,21.7,14.3,63,100410,0,0,372,523,563,174,72780,56199,24182,0,90,1.5,4,0,0,0,0,0,0,0,0,0,0,0,0
2018,6,17,10,0,,23.4,15.9,63,100410,0,0,385,646,504,257,79716,49448,32980,0,140,3,5,0,0,0,0,0,0,0,0,0,0,0,0
2018,6,17,11,0,,23.2,16.4,66,100390,0,0,385,690,287,435,77949,26406,52158,0,110,3.1,5,0,0,0,0,0,0,0,0,0,0,0,0
2018,6,17,12,0,,23.6,16.8,66,100360,0,0,396,599,145,460,66707,13331,53946,0,110,3.8,7,0,0,0,0,0,0,0,0,0,0,0,0
2018,6,17,13,0,,23.8,16.5,64,100250,0,0,411,429,55,375,47874,5075,43366,0,110,2.4,9,0,0,0,0,0,0,0,0,0,0,0,0
2018,6,17,14,0,,24.1,15,57,100220,0,0,402,504,94,415,54276,8848,47427,0,90,2.8,8,0,0,0,0,0,0,0,0,0,0,0,0
2018,6,17,15,0,,25,15.8,57,100200,0,0,408,483,111,386,50425,10445,43920,0,90,2.7,8,0,0,0,0,0,0,0,0,0,0,0,0
2018,6,17,16,0,,24.5,15.9,59,100140,0,0,414,324,63,277,34018,5661,31500,0,90,1.7,9,0,0,0,0,0,0,0,0,0,0,0,0
2018,6,17,17,0,,24.6,16,59,100090,0,0,415,254,71,212,25266,5797,23805,0,140,1.6,9,0,0,0,0,0,0,0,0,0,0,0,0
2018,6,17,18,0,,24.3,14.9,56,100080,0,0,412,165,73,135,14977,4394,14725,0,70,1.2,9,0,0,0,0,0,0,0,0,0,0,0,0
2018,6,17,19,0,,23.8,15.8,61,100100,0,0,407,79,70,64,0,0,0,0,140,0.7,9,0,0,0,0,0,0,0,0,0,0,0,0
2018,6,17,20,0,,22.8,16.1,66,100130,0,0,399,18,3,15,0,0,0,0,290,0.7,8,0,0,0,0,0,0,0,0,0,0,0,0
2018,6,17,21,0,,21.6,17.5,78,100130,0,0,392,0,0,0,0,0,0,0,50,1.9,8,0,0,0,0,0,0,0,0,0,0,0,0
2018,6,17,22,0,,20.6,17.7,84,100130,0,0,389,0,0,0,0,0,0,0,50,1.7,8,0,0,0,0,0,0,0,0,0,0,0,0
2018,6,17,23,0,,20.6,17.4,82,100120,0,0,392,0,0,0,0,0,0,0,20,1.2,9,0,0,0,0,0,0,0,0,0,0,0,0
2018,6,17,24,0,,20.2,17,82,100090,0,0,392,0,0,0,0,0,0,0,50,1.7,9,0,0,0,0,0,0,0,0,0,0,0,0
2018,6,18,1,0,,20.1,16.3,79,100050,0,0,391,0,0,0,0,0,0,0,50,1.8,9,0,0,0,0,0,0,0,0,0,0,0,0
2018,6,18,2,0,,20.2,16,77,100020,0,0,391,0,0,0,0,0,0,0,70,0.9,9,0,0,0,0,0,0,0,0,0,0,0,0
2018,6,18,3,0,,20.2,15.8,76,100000,0,0,391,0,0,0,0,0,0,0,50,1.5,9,0,0,0,0,0,0,0,0,0,0,0,0
2018,6,18,4,0,,20.2,14.9,72,99990,0,0,390,0,0,0,0,0,0,0,90,1.1,9,0,0,0,0,0,0,0,0,0,0,0,0
2018,6,18,5,0,,19.8,14.8,73,100010,0,0,373,0,0,0,0,0,0,0,360,0.6,7,0,0,0,0,0,0,0,0,0,0,0,0
2018,6,18,6,0,,20.1,14.4,70,100010,0,0,380,27,6,21,2834,508,2632,0,50,1.7,8,0,0,0,0,0,0,0,0,0,0,0,0
2018,6,18,7,0,,22,15.1,65,100030,0,0,385,146,270,80,27087,25026,12526,0,50,1.9,7,0,0,0,0,0,0,0,0,0,0,0,0
2018,6,18,8,0,,23,15.8,64,100050,0,0,397,239,162,168,33273,14947,22204,0,90,2.3,8,0,0,0,0,0,0,0,0,0,0,0,0
2018,6,18,9,0,,24.5,16.4,61,100040,0,0,406,371,175,263,47297,16103,33376,0,110,2.5,8,0,0,0,0,0,0,0,0,0,0,0,0
2018,6,18,10,0,,24.8,16.5,60,100060,0,0,417,384,90,315,45827,8345,37941,0,110,4,9,0,0,0,0,0,0,0,0,0,0,0,0
2018,6,18,11,0,,24.1,16.8,64,100030,0,0,405,476,101,387,55129,9307,46038,0,110,3.5,8,0,0,0,0,0,0,0,0,0,0,0,0
2018,6,18,12,0,,25.4,18,64,99990,0,0,396,741,266,486,81375,23857,58532,0,110,2.9,4,0,0,0,0,0,0,0,0,0,0,0,0
2018,6,18,13,0,,24.6,18.9,71,99960,0,0,410,499,82,418,55121,7521,48438,0,110,4.4,8,0,0,0,0,0,0,0,0,0,0,0,0
2018,6,18,14,0,,25.2,19.1,69,99910,0,0,414,490,87,408,53190,7936,47042,0,110,2.5,8,0,0,0,0,0,0,0,0,0,0,0,0
2018,6,18,15,0,,25.7,19.5,69,99910,0,0,410,499,122,393,51973,11072,45069,0,110,2.2,7,0,0,0,0,0,0,0,0,0,0,0,0
2018,6,18,16,0,,26,19.3,67,99900,0,0,418,392,106,313,39914,9345,35750,0,140,1.1,8,0,0,0,0,0,0,0,0,0,0,0,0
2018,6,18,17,0,,25.7,19.3,68,99870,0,0,410,339,159,245,30844,12805,27607,0,180,1.7,7,0,0,0,0,0,0,0,0,0,0,0,0
2018,6,18,18,0,,24.1,19.1,74,99850,0,0,408,182,95,143,16015,5553,15691,0,200,2.5,8,0,0,0,0,0,0,0,0,0,0,0,0
2018,6,18,19,0,,23,17.8,73,99850,0,0,400,83,80,66,0,0,0,0,200,2.1,8,0,0,0,0,0,0,0,0,0,0,0,0
2018,6,18,20,0,,22.6,17.5,73,99830,0,0,397,16,2,14,0,0,0,0,200,1.6,8,0,0,0,0,0,0,0,0,0,0,0,0
2018,6,18,21,0,,22.1,17.4,75,99910,0,0,395,0,0,0,0,0,0,0,200,2.7,8,0,0,0,0,0,0,0,0,0,0,0,0
2018,6,18,22,0,,21.6,18.1,81,99970,0,0,395,0,0,0,0,0,0,0,230,3.8,8,0,0,0,0,0,0,0,0,0,0,0,0
2018,6,18,23,0,,21.1,18.4,85,99970,0,0,396,0,0,0,0,0,0,0,200,3.5,9,0,0,0,0,0,0,0,0,0,0,0,0
2018,6,18,24,0,,20.4,19,92,99930,0,0,396,0,0,0,0,0,0,0,200,3,9,0,0,0,0,0,0,0,0,0,0,0,0
2018,6,19,1,0,,20,18.9,94,99840,0,0,394,0,0,0,0,0,0,0,0,0.2,9,0,0,0,0,0,0,0,0,0,0,0,0
2018,6,19,2,0,,20,18.8,93,99790,0,0,394,0,0,0,0,0,0,0,0,0,9,0,0,0,0,0,0,0,0,0,0,0,0
2018,6,19,3,0,,20,18.8,93,99780,0,0,394,0,0,0,0,0,0,0,230,3.3,9,0,0,0,0,0,0,0,0,0,0,0,0
2018,6,19,4,0,,20,18.8,93,99740,0,0,394,0,0,0,0,0,0,0,200,2.4,9,0,0,0,0,0,0,0,0,0,0,0,0
2018,6,19,5,0,,20,18.9,94,99750,0,0,394,0,0,0,0,0,0,0,230,2.3,9,0,0,0,0,0,0,0,0,0,0,0,0
2018,6,19,6,0,,20.1,18.7,92,99770,0,0,394,18,2,16,2140,54,2118,0,270,1.1,9,0,0,0,0,0,0,0,0,0,0,0,0
2018,6,19,7,0,,20.8,18.5,87,99770,0,0,397,83,51,70,11973,4581,9311,0,0,0.4,9,0,0,0,0,0,0,0,0,0,0,0,0
2018,6,19,8,0,,21.5,18.6,84,99790,0,0,413,140,36,124,17180,3147,14851,0,180,2.9,10,0,0,0,0,0,0,0,0,0,0,0,0
2018,6,19,9,0,,22.8,18.3,76,99830,0,0,420,211,37,189,25217,3267,22394,0,200,2,10,0,0,0,0,0,0,0,0,0,0,0,0
2018,6,19,10,0,,22.2,19.1,83,99840,0,0,417,257,30,234,30195,2650,27691,0,180,3.5,10,0,0,0,0,0,0,0,0,0,0,0,0
2018,6,19,11,0,,23.2,18.9,77,99850,0,0,423,311,32,283,36092,2829,33329,0,200,3.6,10,0,0,0,0,0,0,0,0,0,0,0,0
2018,6,19,12,0,,23.2,18.5,75,99810,0,0,422,307,24,284,35416,2120,33386,0,200,2.8,10,0,0,0,0,0,0,0,0,0,0,0,0
2018,6,19,13,0,,23,18.1,74,99840,0,0,420,337,28,310,38425,2582,36129,0,200,4.9,10,0,0,0,0,0,0,0,0,0,0,0,0
2018,6,19,14,0,,25.3,17.4,62,99770,0,0,421,465,75,393,50637,6943,45254,0,200,4.3,9,0,0,0,0,0,0,0,0,0,0,0,0
2018,6,19,15,0,,24.5,19.1,72,99690,0,0,419,394,64,339,42599,5800,38978,0,200,4.6,9,0,0,0,0,0,0,0,0,0,0,0,0
2018,6,19,16,0,,22.8,18.5,77,99660,0,0,420,231,25,213,24243,1788,23445,0,230,3.5,10,0,0,0,0,0,0,0,0,0,0,0,0
2018,6,19,17,0,,22.4,19.7,85,99610,0,0,419,119,9,114,12472,362,12380,0,200,1.2,10,0,0,0,0,0,0,0,0,0,0,0,0
2018,6,19,18,0,,21.2,19.6,91,99670,0,0,412,87,12,82,8026,313,8008,0,200,3.7,10,0,0,0,0,0,0,0,0,0,0,0,0
2018,6,19,19,0,,20.7,19.8,95,99630,0,0,410,39,9,37,0,0,0,0,200,1.5,10,0,0,0,0,0,0,0,0,0,0,0,0
2018,6,19,20,0,,20.4,19.7,96,99640,0,0,408,5,0,5,0,0,0,0,180,2.3,10,0,0,0,0,0,0,0,0,0,0,0,0
2018,6,19,21,0,,20.4,19.7,96,99620,0,0,408,0,0,0,0,0,0,0,0,0,10,0,0,0,0,0,0,0,0,0,0,0,0
2018,6,19,22,0,,20.6,19.7,95,99610,0,0,409,0,0,0,0,0,0,0,0,0,10,0,0,0,0,0,0,0,0,0,0,0,0
2018,6,19,23,0,,20.6,19.7,95,99570,0,0,409,0,0,0,0,0,0,0,0,0,10,0,0,0,0,0,0,0,0,0,0,0,0
2018,6,19,24,0,,20.3,19.8,97,99450,0,0,408,0,0,0,0,0,0,0,20,0.7,10,0,0,0,0,0,0,0,0,0,0,0,0
2018,6,20,1,0,,20.1,19.6,97,99490,0,0,406,0,0,0,0,0,0,0,290,1.6,10,0,0,0,0,0,0,0,0,0,0,0,0
2018,6,20,2,0,,19.9,19.2,96,99310,0,0,389,0,0,0,0,0,0,0,360,2.6,9,0,0,0,0,0,0,0,0,0,0,0,0
2018,6,20,3,0,,19.8,18.9,95,99420,0,0,378,0,0,0,0,0,0,0,270,1.4,7,0,0,0,0,0,0,0,0,0,0,0,0
2018,6,20,4,0,,19.8,18.9,95,99450,0,0,368,0,0,0,0,0,0,0,320,2.3,4,0,0,0,0,0,0,0,0,0,0,0,0
2018,6,20,5,0,,19.9,18.7,93,99440,0,0,379,0,0,0,0,0,0,0,340,1.6,7,0,0,0,0,0,0,0,0,0,0,0,0
2018,6,20,6,0,,19.6,17.9,90,99440,0,0,348,46,22,24,4100,1865,3358,0,20,1.9,0,0,0,0,0,0,0,0,0,0,0,0,0
2018,6,20,7,0,,20.7,17.7,83,99440,0,0,364,180,456,69,37559,44884,11492,0,180,1.9,2,0,0,0,0,0,0,0,0,0,0,0,0
2018,6,20,8,0,,22.4,17.7,75,99480,0,0,373,351,530,119,57063,52621,18139,0,340,2,2,0,0,0,0,0,0,0,0,0,0,0,0
2018,6,20,9,0,,24.2,17.4,66,99470,0,0,386,531,591,166,74302,58620,23663,0,340,1.4,3,0,0,0,0,0,0,0,0,0,0,0,0
2018,6,20,10,0,,26.3,18.4,62,99490,0,0,398,683,600,220,85426,58928,29757,0,140,3.1,3,0,0,0,0,0,0,0,0,0,0,0,0
2018,6,20,11,0,,25.2,17.3,62,99500,0,0,397,683,279,435,77457,25317,52728,0,200,4,5,0,0,0,0,0,0,0,0,0,0,0,0
2018,6,20,12,0,,25.9,16.7,57,99510,0,0,397,776,308,481,84197,28051,57327,0,200,3.5,4,0,0,0,0,0,0,0,0,0,0,0,0
2018,6,20,13,0,,25.7,16.8,58,99450,0,0,414,509,87,424,56008,8060,48840,0,200,3.1,8,0,0,0,0,0,0,0,0,0,0,0,0
2018,6,20,14,0,,26.1,16.9,57,99420,0,0,416,524,104,426,56313,9690,48796,0,200,3.3,8,0,0,0,0,0,0,0,0,0,0,0,0
2018,6,20,15,0,,25.2,16.8,60,99430,0,0,411,442,87,366,46855,8070,41812,0,200,3.6,8,0,0,0,0,0,0,0,0,0,0,0,0
2018,6,20,16,0,,25.7,16.2,56,99430,0,0,413,388,102,312,39458,9245,35325,0,230,1.9,8,0,0,0,0,0,0,0,0,0,0,0,0
2018,6,20,17,0,,24.3,16.5,62,99440,0,0,426,181,28,165,17807,1740,17364,0,200,3,10,0,0,0,0,0,0,0,0,0,0,0,0
2018,6,20,18,0,,23.6,18,71,99450,0,0,412,148,53,127,14098,3037,13916,0,180,2.6,9,0,0,0,0,0,0,0,0,0,0,0,0
2018,6,20,19,0,,22.9,16.6,68,99510,0,0,406,70,48,60,0,0,0,0,230,1.9,9,0,0,0,0,0,0,0,0,0,0,0,0
2018,6,20,20,0,,22.4,15.9,67,99570,0,0,403,13,1,12,0,0,0,0,250,2.4,9,0,0,0,0,0,0,0,0,0,0,0,0
2018,6,20,21,0,,22,17.1,74,99610,0,0,402,0,0,0,0,0,0,0,230,1.3,9,0,0,0,0,0,0,0,0,0,0,0,0
2018,6,20,22,0,,21.8,16.9,74,99630,0,0,398,0,0,0,0,0,0,0,200,2,9,0,0,0,0,0,0,0,0,0,0,0,0
2018,6,20,23,0,,21.5,18.2,82,99640,0,0,395,0,0,0,0,0,0,0,200,1,8,0,0,0,0,0,0,0,0,0,0,0,0
2018,6,20,24,0,,22.2,17.1,73,99620,0,0,395,0,0,0,0,0,0,0,340,2.2,8,0,0,0,0,0,0,0,0,0,0,0,0
2018,6,21,1,0,,22,17.5,76,99600,0,0,394,0,0,0,0,0,0,0,270,1.7,8,0,0,0,0,0,0,0,0,0,0,0,0
2018,6,21,2,0,,22.2,16.6,71,99610,0,0,394,0,0,0,0,0,0,0,360,3.3,8,0,0,0,0,0,0,0,0,0,0,0,0
2018,6,21,3,0,,22.1,16.8,72,99570,0,0,394,0,0,0,0,0,0,0,360,3.2,8,0,0,0,0,0,0,0,0,0,0,0,0
2018,6,21,4,0,,22.6,16.3,68,99630,0,0,396,0,0,0,0,0,0,0,360,3.4,8,0,0,0,0,0,0,0,0,0,0,0,0
2018,6,21,5,0,,22.1,14.9,64,99670,0,0,385,0,0,0,0,0,0,0,340,1.9,7,0,0,0,0,0,0,0,0,0,0,0,0
2018,6,21,6,0,,21.6,15.6,69,99690,0,0,390,26,6,21,2760,461,2577,0,290,0.8,8,0,0,0,0,0,0,0,0,0,0,0,0
2018,6,21,7,0,,22.2,15.2,65,99740,0,0,401,92,70,75,13561,6554,9759,0,290,1.3,9,0,0,0,0,0,0,0,0,0,0,0,0
2018,6,21,8,0,,22.8,15.3,63,99800,0,0,396,223,133,165,30811,12355,21678,0,360,2.1,8,0,0,0,0,0,0,0,0,0,0,0,0
2018,6,21,9,0,,25.8,12.9,45,99800,0,0,395,501,503,191,69135,50134,25845,0,340,3.1,5,0,0,0,0,0,0,0,0,0,0,0,0
2018,6,21,10,0,,27.6,13.1,41,99790,0,0,405,657,536,244,81395,53008,31330,0,320,2.8,5,0,0,0,0,0,0,0,0,0,0,0,0
2018,6,21,11,0,,28.5,13.1,39,99780,0,0,400,848,709,220,97847,70667,28823,0,290,3.2,2,0,0,0,0,0,0,0,0,0,0,0,0
2018,6,21,12,0,,29.2,12.1,35,99760,0,0,397,907,670,265,96602,66139,33238,0,290,2.7,1,0,0,0,0,0,0,0,0,0,0,0,0
2018,6,21,13,0,,29.9,13.6,37,99720,0,0,408,881,567,326,88684,53617,40983,0,360,2.6,2,0,0,0,0,0,0,0,0,0,0,0,0
2018,6,21,14,0,,28.8,16.6,48,99700,0,0,424,627,170,466,66234,15336,54329,0,200,5.8,7,0,0,0,0,0,0,0,0,0,0,0,0
2018,6,21,15,0,,27.8,12.5,39,99740,0,0,405,642,247,427,62908,22773,48663,0,230,4.1,5,0,0,0,0,0,0,0,0,0,0,0,0
2018,6,21,16,0,,28.8,14.2,41,99740,0,0,406,616,482,255,49638,41365,31117,0,230,4.8,3,0,0,0,0,0,0,0,0,0,0,0,0
2018,6,21,17,0,,27.8,14,43,99750,0,0,404,467,469,190,31135,32065,22957,0,250,5.4,4,0,0,0,0,0,0,0,0,0,0,0,0
2018,6,21,18,0,,26.8,13.5,44,99790,0,0,398,319,499,115,13367,6968,12945,0,250,5.3,4,0,0,0,0,0,0,0,0,0,0,0,0
2018,6,21,19,0,,25.7,10.6,39,99820,0,0,384,169,547,52,0,0,0,0,250,7.9,3,0,0,0,0,0,0,0,0,0,0,0,0
2018,6,21,20,0,,24.9,10.3,40,99860,0,0,374,40,23,17,0,0,0,0,250,3.9,1,0,0,0,0,0,0,0,0,0,0,0,0
2018,6,21,21,0,,22.9,16.6,68,99910,0,0,362,0,0,0,0,0,0,0,180,2,0,0,0,0,0,0,0,0,0,0,0,0,0
2018,6,21,22,0,,22.2,16.6,71,100010,0,0,369,0,0,0,0,0,0,0,200,1.6,2,0,0,0,0,0,0,0,0,0,0,0,0
2018,6,21,23,0,,21.3,17.8,81,100030,0,0,372,0,0,0,0,0,0,0,230,1.9,3,0,0,0,0,0,0,0,0,0,0,0,0
2018,6,21,24,0,,21.3,16,72,100010,0,0,375,0,0,0,0,0,0,0,270,1.2,5,0,0,0,0,0,0,0,0,0,0,0,0
2018,6,22,1,0,,21.5,15.3,68,100010,0,0,378,0,0,0,0,0,0,0,0,0,6,0,0,0,0,0,0,0,0,0,0,0,0
2018,6,22,2,0,,21,18.3,85,99990,0,0,384,0,0,0,0,0,0,0,340,0.8,7,0,0,0,0,0,0,0,0,0,0,0,0
2018,6,22,3,0,,21,17.4,80,100010,0,0,389,0,0,0,0,0,0,0,0,0,8,0,0,0,0,0,0,0,0,0,0,0,0
2018,6,22,4,0,,21.2,14.5,66,100040,0,0,380,0,0,0,0,0,0,0,360,0.7,7,0,0,0,0,0,0,0,0,0,0,0,0
2018,6,22,5,0,,21,14.6,67,100040,0,0,379,0,0,0,0,0,0,0,20,0.9,7,0,0,0,0,0,0,0,0,0,0,0,0
2018,6,22,6,0,,21.2,13.3,61,100100,0,0,385,28,7,22,2868,579,2639,0,110,0.9,8,0,0,0,0,0,0,0,0,0,0,0,0
2018,6,22,7,0,,22.1,13.1,57,100130,0,0,389,122,157,83,21339,14702,12819,0,250,0.5,8,0,0,0,0,0,0,0,0,0,0,0,0
2018,6,22,8,0,,24.3,12.8,49,100170,0,0,401,253,193,168,35347,18424,21738,0,230,0.8,8,0,0,0,0,0,0,0,0,0,0,0,0
2018,6,22,9,0,,25.5,13,46,100160,0,0,408,375,182,263,47474,17363,32488,0,250,0.9,8,0,0,0,0,0,0,0,0,0,0,0,0
2018,6,22,10,0,,26.3,15,50,100160,0,0,415,461,150,346,54456,14093,41148,0,200,1.8,8,0,0,0,0,0,0,0,0,0,0,0,0
2018,6,22,11,0,,26.4,13.8,46,100160,0,0,414,519,127,406,59271,12073,47479,0,200,2.3,8,0,0,0,0,0,0,0,0,0,0,0,0
2018,6,22,12,0,,26.7,13.7,45,100120,0,0,409,634,170,471,69814,16029,54455,0,200,4,7,0,0,0,0,0,0,0,0,0,0,0,0
2018,6,22,13,0,,26.8,17.5,57,100070,0,0,414,612,143,472,66948,12954,55420,0,200,3.9,7,0,0,0,0,0,0,0,0,0,0,0,0
2018,6,22,14,0,,27.2,13.8,44,100040,0,0,418,529,106,428,56614,10101,48769,0,160,1.5,8,0,0,0,0,0,0,0,0,0,0,0,0
2018,6,22,15,0,,26.9,17.9,58,100050,0,0,422,456,94,373,48171,8674,42741,0,200,2.8,8,0,0,0,0,0,0,0,0,0,0,0,0
2018,6,22,16,0,,27.1,16.6,53,100060,0,0,421,405,114,319,40841,10335,36208,0,200,2.3,8,0,0,0,0,0,0,0,0,0,0,0,0
2018,6,22,17,0,,26,15,51,100020,0,0,422,250,67,211,25062,5528,23649,0,200,2,9,0,0,0,0,0,0,0,0,0,0,0,0
2018,6,22,18,0,,25.3,13.4,48,99960,0,0,416,169,76,138,15293,4685,15006,0,110,1.2,9,0,0,0,0,0,0,0,0,0,0,0,0
2018,6,22,19,0,,24.3,14.3,54,100000,0,0,411,77,62,64,0,0,0,0,160,1.4,9,0,0,0,0,0,0,0,0,0,0,0,0
2018,6,22,20,0,,23.6,10.9,45,100040,0,0,403,15,2,13,0,0,0,0,250,1,9,0,0,0,0,0,0,0,0,0,0,0,0
2018,6,22,21,0,,23.3,11.3,47,100070,0,0,402,0,0,0,0,0,0,0,0,0.4,9,0,0,0,0,0,0,0,0,0,0,0,0
2018,6,22,22,0,,22.9,15.2,62,100060,0,0,405,0,0,0,0,0,0,0,200,1.9,9,0,0,0,0,0,0,0,0,0,0,0,0
2018,6,22,23,0,,22.6,14.6,61,99990,0,0,402,0,0,0,0,0,0,0,0,0,9,0,0,0,0,0,0,0,0,0,0,0,0
2018,6,22,24,0,,22.4,15.9,67,99940,0,0,403,0,0,0,0,0,0,0,200,1.8,9,0,0,0,0,0,0,0,0,0,0,0,0
2018,6,23,1,0,,22.1,15.2,65,99860,0,0,400,0,0,0,0,0,0,0,160,1,9,0,0,0,0,0,0,0,0,0,0,0,0
2018,6,23,2,0,,21.9,15.2,66,99820,0,0,399,0,0,0,0,0,0,0,290,1.2,9,0,0,0,0,0,0,0,0,0,0,0,0
2018,6,23,3,0,,22.2,12.9,56,99670,0,0,398,0,0,0,0,0,0,0,50,1.4,9,0,0,0,0,0,0,0,0,0,0,0,0
2018,6,23,4,0,,22,16.7,72,99770,0,0,402,0,0,0,0,0,0,0,250,0.6,9,0,0,0,0,0,0,0,0,0,0,0,0
2018,6,23,5,0,,21.6,17.7,79,99800,0,0,392,0,0,0,0,0,0,0,290,2.3,8,0,0,0,0,0,0,0,0,0,0,0,0
2018,6,23,6,0,,21.7,19.4,87,99750,0,0,415,11,0,10,1411,11,1407,0,290,1.4,10,0,0,0,0,0,0,0,0,0,0,0,0
2018,6,23,7,0,,21.3,18,82,99770,0,0,411,61,22,56,7894,1937,6774,0,250,3.1,10,0,0,0,0,0,0,0,0,0,0,0,0
2018,6,23,8,0,,21,17.9,83,99800,0,0,409,122,25,111,14904,2175,13298,0,230,2.9,10,0,0,0,0,0,0,0,0,0,0,0,0
2018,6,23,9,0,,21.1,18.2,84,99850,0,0,410,172,21,159,20598,1857,18997,0,250,2.7,10,0,0,0,0,0,0,0,0,0,0,0,0
2018,6,23,10,0,,21.8,17.3,76,99800,0,0,413,250,28,229,29382,2529,26995,0,250,4,10,0,0,0,0,0,0,0,0,0,0,0,0
2018,6,23,11,0,,22.4,17.7,75,99730,0,0,405,398,62,343,45593,5684,40042,0,290,5.5,9,0,0,0,0,0,0,0,0,0,0,0,0
2018,6,23,12,0,,23.9,17.8,69,99700,0,0,414,463,72,394,52050,6637,45689,0,290,4.4,9,0,0,0,0,0,0,0,0,0,0,0,0
2018,6,23,13,0,,24.7,16.9,62,99660,0,0,417,481,74,408,53207,6904,47061,0,270,3.7,9,0,0,0,0,0,0,0,0,0,0,0,0
2018,6,23,14,0,,26.3,17.9,60,99600,0,0,401,801,457,366,77052,40777,45364,0,200,4.2,4,0,0,0,0,0,0,0,0,0,0,0,0
2018,6,23,15,0,,26.2,15.8,53,99580,0,0,409,589,191,422,59592,17158,48841,0,230,5.4,7,0,0,0,0,0,0,0,0,0,0,0,0
2018,6,23,16,0,,26.7,13.7,45,99560,0,0,409,517,228,346,48443,19667,39614,0,230,5.1,7,0,0,0,0,0,0,0,0,0,0,0,0
2018,6,23,17,0,,25.3,16.1,57,99530,0,0,396,429,321,239,33106,21992,27470,0,230,4.7,5,0,0,0,0,0,0,0,0,0,0,0,0
2018,6,23,18,0,,24.5,15.4,57,99520,0,0,369,336,564,104,12611,12354,11848,0,250,5.5,0,0,0,0,0,0,0,0,0,0,0,0,0
2018,6,23,19,0,,23.7,15.7,61,99540,0,0,365,162,485,58,0,0,0,0,270,3.6,0,0,0,0,0,0,0,0,0,0,0,0,0
2018,6,23,20,0,,23.2,16.4,66,99590,0,0,363,38,19,19,0,0,0,0,250,4.5,0,0,0,0,0,0,0,0,0,0,0,0,0
2018,6,23,21,0,,22.8,15.8,65,99640,0,0,361,0,0,0,0,0,0,0,270,5.2,0,0,0,0,0,0,0,0,0,0,0,0,0
2018,6,23,22,0,,22.2,15.5,66,99670,0,0,357,0,0,0,0,0,0,0,270,3.9,0,0,0,0,0,0,0,0,0,0,0,0,0
2018,6,23,23,0,,22,16.7,72,99680,0,0,358,0,0,0,0,0,0,0,270,4.3,0,0,0,0,0,0,0,0,0,0,0,0,0
2018,6,23,24,0,,21.9,17,74,99690,0,0,358,0,0,0,0,0,0,0,290,4.6,0,0,0,0,0,0,0,0,0,0,0,0,0
2018,6,24,1,0,,21.3,17.7,80,99680,0,0,356,0,0,0,0,0,0,0,270,2,0,0,0,0,0,0,0,0,0,0,0,0,0
2018,6,24,2,0,,21.4,17.1,77,99670,0,0,355,0,0,0,0,0,0,0,230,1.6,0,0,0,0,0,0,0,0,0,0,0,0,0
2018,6,24,3,0,,21.5,16.4,73,99670,0,0,355,0,0,0,0,0,0,0,270,2.6,0,0,0,0,0,0,0,0,0,0,0,0,0
2018,6,24,4,0,,22,15.8,68,99690,0,0,357,0,0,0,0,0,0,0,360,3.8,0,0,0,0,0,0,0,0,0,0,0,0,0
2018,6,24,5,0,,22.3,15.1,64,99760,0,0,357,0,0,0,0,0,0,0,360,1.7,0,0,0,0,0,0,0,0,0,0,0,0,0
2018,6,24,6,0,,22.2,14.8,63,99780,0,0,357,51,32,20,4141,2664,3089,0,340,2.5,0,0,0,0,0,0,0,0,0,0,0,0,0
2018,6,24,7,0,,22.9,15.7,64,99830,0,0,377,187,512,62,39938,52742,9451,0,340,3.7,3,0,0,0,0,0,0,0,0,0,0,0,0
2018,6,24,8,0,,24.7,15.8,58,99870,0,0,382,374,628,100,62005,65169,13946,0,360,4,2,0,0,0,0,0,0,0,0,0,0,0,0
2018,6,24,9,0,,26.2,17,57,99890,0,0,392,554,665,144,78234,68873,18854,0,360,4.2,2,0,0,0,0,0,0,0,0,0,0,0,0
2018,6,24,10,0,,28.2,17,51,99910,0,0,390,722,703,182,90965,72442,22600,0,340,2.2,0,0,0,0,0,0,0,0,0,0,0,0,0
2018,6,24,11,0,,29.7,17.5,48,99910,0,0,398,849,714,217,98044,70421,29275,0,290,4.6,0,0,0,0,0,0,0,0,0,0,0,0,0
2018,6,24,12,0,,30.6,18.9,50,99910,0,0,405,902,660,270,96418,64061,35024,0,200,4,0,0,0,0,0,0,0,0,0,0,0,0,0
2018,6,24,13,0,,28.4,18.1,54,99880,0,0,392,844,488,366,86403,44458,46814,0,200,5.2,0,0,0,0,0,0,0,0,0,0,0,0,0
2018,6,24,14,0,,26.2,19.5,67,99910,0,0,382,741,275,480,75357,24014,56688,0,200,6.2,0,0,0,0,0,0,0,0,0,0,0,0,0
2018,6,24,15,0,,26.1,18.9,65,99890,0,0,381,668,278,426,65128,24039,50055,0,200,6,0,0,0,0,0,0,0,0,0,0,0,0,0
2018,6,24,16,0,,26.6,19.7,66,99880,0,0,385,592,416,279,50313,33008,35478,0,200,3.4,0,0,0,0,0,0,0,0,0,0,0,0,0
2018,6,24,17,0,,28.7,17.8,52,99870,0,0,393,538,684,133,30324,47467,18136,0,200,4.4,0,0,0,0,0,0,0,0,0,0,0,0,0
2018,6,24,18,0,,27.1,18.1,58,99900,0,0,385,352,629,93,11951,12891,11150,0,200,4.4,0,0,0,0,0,0,0,0,0,0,0,0,0
2018,6,24,19,0,,23.5,19.6,79,99980,0,0,369,156,428,63,0,0,0,0,200,5.4,0,0,0,0,0,0,0,0,0,0,0,0,0
2018,6,24,20,0,,23.2,19.3,79,100070,0,0,367,32,16,17,0,0,0,0,200,3,0,0,0,0,0,0,0,0,0,0,0,0,0
2018,6,24,21,0,,22.4,19.7,85,100100,0,0,363,0,0,0,0,0,0,0,200,4.7,0,0,0,0,0,0,0,0,0,0,0,0,0
2018,6,24,22,0,,22,20,89,100170,0,0,362,0,0,0,0,0,0,0,200,4,0,0,0,0,0,0,0,0,0,0,0,0,0
2018,6,24,23,0,,21.7,20.1,91,100190,0,0,360,0,0,0,0,0,0,0,200,3.6,0,0,0,0,0,0,0,0,0,0,0,0,0
2018,6,24,24,0,,21.5,20.1,92,100180,0,0,359,0,0,0,0,0,0,0,200,3.2,0,0,0,0,0,0,0,0,0,0,0,0,0
2018,6,25,1,0,,21.4,20.2,93,100190,0,0,362,0,0,0,0,0,0,0,200,3.4,0,0,0,0,0,0,0,0,0,0,0,0,0
2018,6,25,2,0,,21.2,20.1,94,100200,0,0,363,0,0,0,0,0,0,0,230,3.3,1,0,0,0,0,0,0,0,0,0,0,0,0
2018,6,25,3,0,,21.2,20,93,100220,0,0,365,0,0,0,0,0,0,0,200,4,1,0,0,0,0,0,0,0,0,0,0,0,0
2018,6,25,4,0,,21.1,19.9,93,100230,0,0,357,0,0,0,0,0,0,0,230,2.4,0,0,0,0,0,0,0,0,0,0,0,0,0
2018,6,25,5,0,,20.8,19.9,95,100210,0,0,356,0,0,0,0,0,0,0,250,1.3,0,0,0,0,0,0,0,0,0,0,0,0,0
2018,6,25,6,0,,21.1,19.7,92,100290,0,0,364,46,22,23,4003,1828,3283,0,270,2.2,1,0,0,0,0,0,0,0,0,0,0,0,0
2018,6,25,7,0,,22.3,19.8,86,100310,0,0,363,183,491,64,39172,50837,9826,0,250,2.1,0,0,0,0,0,0,0,0,0,0,0,0,0
2018,6,25,8,0,,24.6,19.4,73,100330,0,0,374,372,623,101,62068,64970,14198,0,200,2.7,0,0,0,0,0,0,0,0,0,0,0,0,0
2018,6,25,9,0,,25,20,74,100380,0,0,377,527,586,166,73776,57659,24091,0,230,2.6,0,0,0,0,0,0,0,0,0,0,0,0,0
2018,6,25,10,0,,25.5,20,72,100370,0,0,399,617,440,279,75623,39686,38182,0,200,3.4,4,0,0,0,0,0,0,0,0,0,0,0,0
2018,6,25,11,0,,25.7,20.7,74,100390,0,0,412,535,139,412,61789,12191,49886,0,200,4.6,7,0,0,0,0,0,0,0,0,0,0,0,0
2018,6,25,12,0,,25.3,21.1,78,100380,0,0,417,503,91,416,56341,8066,48610,0,200,5.2,8,0,0,0,0,0,0,0,0,0,0,0,0
2018,6,25,13,0,,25.2,21,78,100350,0,0,410,574,120,456,64094,10396,54835,0,200,6.6,7,0,0,0,0,0,0,0,0,0,0,0,0
2018,6,25,14,0,,25.6,21.4,78,100350,0,0,419,472,78,398,51636,6957,46225,0,180,4.3,8,0,0,0,0,0,0,0,0,0,0,0,0
2018,6,25,15,0,,26.1,20.8,73,100310,0,0,421,452,92,372,48006,8230,42842,0,200,3.7,8,0,0,0,0,0,0,0,0,0,0,0,0
2018,6,25,16,0,,25.9,20.6,73,100300,0,0,420,392,103,314,40004,9040,35936,0,230,3.3,8,0,0,0,0,0,0,0,0,0,0,0,0
2018,6,25,17,0,,25.2,20,73,100280,0,0,408,328,141,244,30472,11313,27562,0,200,3.2,7,0,0,0,0,0,0,0,0,0,0,0,0
2018,6,25,18,0,,24.1,19.8,77,100310,0,0,402,211,140,154,17371,8320,16851,0,200,3.6,7,0,0,0,0,0,0,0,0,0,0,0,0
2018,6,25,19,0,,23.6,19.7,79,100330,0,0,401,104,142,73,0,0,0,0,200,3.7,7,0,0,0,0,0,0,0,0,0,0,0,0
2018,6,25,20,0,,22.6,19.9,85,100350,0,0,398,18,3,15,0,0,0,0,230,2.8,8,0,0,0,0,0,0,0,0,0,0,0,0
2018,6,25,21,0,,22.2,18.1,78,100390,0,0,396,0,0,0,0,0,0,0,200,2.8,8,0,0,0,0,0,0,0,0,0,0,0,0
2018,6,25,22,0,,22,17.1,74,100390,0,0,396,0,0,0,0,0,0,0,230,1.7,8,0,0,0,0,0,0,0,0,0,0,0,0
2018,6,25,23,0,,21.4,18.5,84,100410,0,0,398,0,0,0,0,0,0,0,230,2.3,9,0,0,0,0,0,0,0,0,0,0,0,0
2018,6,25,24,0,,21.5,17.6,79,100380,0,0,400,0,0,0,0,0,0,0,200,2.7,9,0,0,0,0,0,0,0,0,0,0,0,0
2018,6,26,1,0,,21.5,17,76,100360,0,0,399,0,0,0,0,0,0,0,200,4.1,9,0,0,0,0,0,0,0,0,0,0,0,0
2018,6,26,2,0,,21.6,18.5,83,100400,0,0,402,0,0,0,0,0,0,0,270,3.1,9,0,0,0,0,0,0,0,0,0,0,0,0
2018,6,26,3,0,,21.3,19.5,90,100310,0,0,401,0,0,0,0,0,0,0,200,3.1,9,0,0,0,0,0,0,0,0,0,0,0,0
2018,6,26,4,0,,21.2,20,93,100270,0,0,402,0,0,0,0,0,0,0,250,1.1,9,0,0,0,0,0,0,0,0,0,0,0,0
2018,6,26,5,0,,21.4,20.3,94,100260,0,0,415,0,0,0,0,0,0,0,230,1.5,10,0,0,0,0,0,0,0,0,0,0,0,0
2018,6,26,6,0,,21.7,20.6,94,100280,0,0,417,11,0,10,1383,10,1379,0,250,1.8,10,0,0,0,0,0,0,0,0,0,0,0,0
2018,6,26,7,0,,21.9,20.7,93,100270,0,0,418,58,20,54,7539,1703,6557,0,200,2,10,0,0,0,0,0,0,0,0,0,0,0,0
2018,6,26,8,0,,22,20.9,94,100280,0,0,419,109,18,101,13349,1555,12204,0,0,0.2,10,0,0,0,0,0,0,0,0,0,0,0,0
2018,6,26,9,0,,21.7,20.8,95,100240,0,0,417,154,15,144,18533,1326,17391,0,70,1.3,10,0,0,0,0,0,0,0,0,0,0,0,0
2018,6,26,10,0,,22.5,21.8,96,100190,0,0,423,221,20,206,26247,1716,24628,0,200,3.3,10,0,0,0,0,0,0,0,0,0,0,0,0
2018,6,26,11,0,,22.9,22.2,96,100170,0,0,426,265,20,247,31132,1749,29424,0,230,5.1,10,0,0,0,0,0,0,0,0,0,0,0,0
2018,6,26,12,0,,23.4,22.8,97,100140,0,0,429,333,30,305,38644,2558,36192,0,230,7.5,10,0,0,0,0,0,0,0,0,0,0,0,0
2018,6,26,13,0,,23.5,22.9,97,100110,0,0,430,298,20,278,34535,1726,32998,0,230,6.1,10,0,0,0,0,0,0,0,0,0,0,0,0
2018,6,26,14,0,,23.9,23.2,96,100080,0,0,433,340,32,309,38591,2745,36456,0,230,9.6,10,0,0,0,0,0,0,0,0,0,0,0,0
2018,6,26,15,0,,23.8,22.9,95,100030,0,0,432,297,29,272,31897,2088,30586,0,230,9.5,10,0,0,0,0,0,0,0,0,0,0,0,0
2018,6,26,16,0,,23.9,23,95,99980,0,0,432,243,28,222,25161,1913,24300,0,250,7.6,10,0,0,0,0,0,0,0,0,0,0,0,0
2018,6,26,17,0,,23.9,22.8,94,99910,0,0,432,204,37,181,19430,2297,18839,0,230,11,10,0,0,0,0,0,0,0,0,0,0,0,0
2018,6,26,18,0,,23.9,22.6,93,99860,0,0,432,144,47,125,14040,2504,13883,0,230,11.2,10,0,0,0,0,0,0,0,0,0,0,0,0
2018,6,26,19,0,,23.8,22.5,93,99870,0,0,431,64,36,56,0,0,0,0,230,7.8,10,0,0,0,0,0,0,0,0,0,0,0,0
2018,6,26,20,0,,23.5,22.4,94,99840,0,0,429,12,1,11,0,0,0,0,230,10.6,10,0,0,0,0,0,0,0,0,0,0,0,0
2018,6,26,21,0,,23.1,22,94,99800,0,0,426,0,0,0,0,0,0,0,230,10.9,10,0,0,0,0,0,0,0,0,0,0,0,0
2018,6,26,22,0,,23.3,22.2,94,99800,0,0,428,0,0,0,0,0,0,0,230,10.2,10,0,0,0,0,0,0,0,0,0,0,0,0
2018,6,26,23,0,,23.6,22.2,92,99740,0,0,430,0,0,0,0,0,0,0,230,11.4,10,0,0,0,0,0,0,0,0,0,0,0,0
2018,6,26,24,0,,23.4,22.1,93,99710,0,0,428,0,0,0,0,0,0,0,230,11.8,10,0,0,0,0,0,0,0,0,0,0,0,0
2018,6,27,1,0,,23.4,21.8,91,99750,0,0,428,0,0,0,0,0,0,0,230,10.7,10,0,0,0,0,0,0,0,0,0,0,0,0
2018,6,27,2,0,,23.6,21.8,90,99650,0,0,429,0,0,0,0,0,0,0,230,11.1,10,0,0,0,0,0,0,0,0,0,0,0,0
2018,6,27,3,0,,23.4,21.8,91,99620,0,0,428,0,0,0,0,0,0,0,230,10.1,10,0,0,0,0,0,0,0,0,0,0,0,0
2018,6,27,4,0,,23.1,21.7,92,99630,0,0,426,0,0,0,0,0,0,0,230,7.9,10,0,0,0,0,0,0,0,0,0,0,0,0
2018,6,27,5,0,,22.8,21.4,92,99600,0,0,424,0,0,0,0,0,0,0,230,7.9,10,0,0,0,0,0,0,0,0,0,0,0,0
2018,6,27,6,0,,23.2,21.4,90,99580,0,0,426,17,2,15,2015,41,1999,0,230,9.7,10,0,0,0,0,0,0,0,0,0,0,0,0
2018,6,27,7,0,,23,21.6,92,99580,0,0,425,69,33,61,9966,2824,8340,0,230,8.6,10,0,0,0,0,0,0,0,0,0,0,0,0
2018,6,27,8,0,,22.6,21.7,95,99600,0,0,423,150,45,131,20012,3947,17109,0,230,11.7,10,0,0,0,0,0,0,0,0,0,0,0,0
2018,6,27,9,0,,22.4,21.5,95,99570,0,0,422,185,26,169,22245,2234,20322,0,230,8.5,10,0,0,0,0,0,0,0,0,0,0,0,0
2018,6,27,10,0,,22.8,21.9,95,99640,0,0,425,221,20,206,26293,1723,24668,0,230,5,10,0,0,0,0,0,0,0,0,0,0,0,0
2018,6,27,11,0,,22.9,21.8,94,99620,0,0,425,284,25,262,33240,2143,31148,0,230,8.3,10,0,0,0,0,0,0,0,0,0,0,0,0
2018,6,27,12,0,,22.6,21.7,95,99600,0,0,423,296,22,276,34531,1871,32737,0,230,6,10,0,0,0,0,0,0,0,0,0,0,0,0
2018,6,27,13,0,,23,21.9,94,99620,0,0,426,320,25,296,36862,2145,34951,0,230,8.6,10,0,0,0,0,0,0,0,0,0,0,0,0
2018,6,27,14,0,,24.1,22.5,91,99620,0,0,433,290,21,271,32591,1383,31515,0,230,3.5,10,0,0,0,0,0,0,0,0,0,0,0,0
2018,6,27,15,0,,24.9,22.5,87,99530,0,0,425,393,63,338,42704,5465,39271,0,230,5.9,9,0,0,0,0,0,0,0,0,0,0,0,0
2018,6,27,16,0,,23.5,21.7,90,99520,0,0,428,244,28,223,25290,1983,24396,0,230,6.5,10,0,0,0,0,0,0,0,0,0,0,0,0
2018,6,27,17,0,,23.2,21.6,91,99540,0,0,426,189,30,171,18314,1797,17851,0,230,8.1,10,0,0,0,0,0,0,0,0,0,0,0,0
2018,6,27,18,0,,23.2,21.6,91,99610,0,0,415,155,58,131,14769,3206,14567,0,230,7.4,9,0,0,0,0,0,0,0,0,0,0,0,0
2018,6,27,19,0,,23,21.2,90,99610,0,0,413,78,61,64,0,0,0,0,200,5.2,9,0,0,0,0,0,0,0,0,0,0,0,0
2018,6,27,20,0,,22.8,21.2,91,99630,0,0,412,15,2,13,0,0,0,0,230,4.8,9,0,0,0,0,0,0,0,0,0,0,0,0
2018,6,27,21,0,,22.8,21.4,92,99630,0,0,412,0,0,0,0,0,0,0,250,5.2,9,0,0,0,0,0,0,0,0,0,0,0,0
2018,6,27,22,0,,22.8,21.4,92,99660,0,0,416,0,0,0,0,0,0,0,250,3.9,9,0,0,0,0,0,0,0,0,0,0,0,0
2018,6,27,23,0,,22.3,21.2,94,99640,0,0,417,0,0,0,0,0,0,0,250,4.5,10,0,0,0,0,0,0,0,0,0,0,0,0
2018,6,27,24,0,,22.3,21.2,94,99640,0,0,421,0,0,0,0,0,0,0,270,3.8,10,0,0,0,0,0,0,0,0,0,0,0,0
2018,6,28,1,0,,22.2,21.3,95,99550,0,0,420,0,0,0,0,0,0,0,270,4.9,10,0,0,0,0,0,0,0,0,0,0,0,0
2018,6,28,2,0,,22.3,21.6,96,99500,0,0,421,0,0,0,0,0,0,0,250,5,10,0,0,0,0,0,0,0,0,0,0,0,0
2018,6,28,3,0,,22.5,21.8,96,99440,0,0,423,0,0,0,0,0,0,0,250,5.3,10,0,0,0,0,0,0,0,0,0,0,0,0
2018,6,28,4,0,,22.5,21.8,96,99480,0,0,423,0,0,0,0,0,0,0,230,3,10,0,0,0,0,0,0,0,0,0,0,0,0
2018,6,28,5,0,,21.8,21.1,96,99510,0,0,418,0,0,0,0,0,0,0,250,7.1,10,0,0,0,0,0,0,0,0,0,0,0,0
2018,6,28,6,0,,21.3,20.7,97,99480,0,0,415,7,0,7,997,5,995,0,290,1.9,10,0,0,0,0,0,0,0,0,0,0,0,0
2018,6,28,7,0,,18.6,18.1,97,99480,0,0,396,36,5,35,4597,457,4334,0,50,3,10,0,0,0,0,0,0,0,0,0,0,0,0
2018,6,28,8,0,,19,18.5,97,99580,0,0,399,77,7,74,9492,614,9041,0,160,1.2,10,0,0,0,0,0,0,0,0,0,0,0,0
2018,6,28,9,0,,19.2,19,99,99460,0,0,401,141,12,133,16935,1058,16026,0,70,2.5,10,0,0,0,0,0,0,0,0,0,0,0,0
2018,6,28,10,0,,19,18.8,99,99510,0,0,399,194,14,184,23088,1243,21917,0,70,1.8,10,0,0,0,0,0,0,0,0,0,0,0,0
2018,6,28,11,0,,19.7,19.3,98,99520,0,0,404,223,13,212,26851,757,26112,0,20,1.2,10,0,0,0,0,0,0,0,0,0,0,0,0
2018,6,28,12,0,,20.1,19.7,98,99460,0,0,407,245,13,233,29157,780,28410,0,110,1.5,10,0,0,0,0,0,0,0,0,0,0,0,0
2018,6,28,13,0,,20.2,19.8,98,99400,0,0,407,247,12,235,29049,762,28370,0,0,0,10,0,0,0,0,0,0,0,0,0,0,0,0
2018,6,28,14,0,,20.8,20.4,98,99370,0,0,411,268,17,252,30483,1119,29612,0,290,3.1,10,0,0,0,0,0,0,0,0,0,0,0,0
2018,6,28,15,0,,21.4,21,98,99310,0,0,415,237,16,223,26218,1038,25566,0,0,0.2,10,0,0,0,0,0,0,0,0,0,0,0,0
2018,6,28,16,0,,20.9,20.5,98,99280,0,0,412,227,23,210,23847,1598,23127,0,200,4,10,0,0,0,0,0,0,0,0,0,0,0,0
2018,6,28,17,0,,21.2,20.8,98,99280,0,0,414,169,22,155,16728,1217,16414,0,230,4.6,10,0,0,0,0,0,0,0,0,0,0,0,0
2018,6,28,18,0,,21.7,21.3,98,99250,0,0,418,106,20,97,9426,791,9376,0,230,3.5,10,0,0,0,0,0,0,0,0,0,0,0,0
2018,6,28,19,0,,21.7,21.3,98,99310,0,0,418,55,23,50,0,0,0,0,250,4.1,10,0,0,0,0,0,0,0,0,0,0,0,0
2018,6,28,20,0,,21.9,21.5,98,99330,0,0,419,9,0,9,0,0,0,0,230,5.4,10,0,0,0,0,0,0,0,0,0,0,0,0
2018,6,28,21,0,,22.1,21.5,97,99260,0,0,420,0,0,0,0,0,0,0,250,3.4,10,0,0,0,0,0,0,0,0,0,0,0,0
2018,6,28,22,0,,22,21.4,97,99350,0,0,419,0,0,0,0,0,0,0,250,2.9,10,0,0,0,0,0,0,0,0,0,0,0,0
2018,6,28,23,0,,22,21.4,97,99410,0,0,419,0,0,0,0,0,0,0,270,3,10,0,0,0,0,0,0,0,0,0,0,0,0
2018,6,28,24,0,,21.3,20.7,97,99400,0,0,415,0,0,0,0,0,0,0,230,1.8,10,0,0,0,0,0,0,0,0,0,0,0,0
2018,6,29,1,0,,21.3,20.9,98,99320,0,0,415,0,0,0,0,0,0,0,110,0.5,10,0,0,0,0,0,0,0,0,0,0,0,0
2018,6,29,2,0,,21.2,20.8,98,99420,0,0,414,0,0,0,0,0,0,0,200,3.9,10,0,0,0,0,0,0,0,0,0,0,0,0
2018,6,29,3,0,,21.4,21,98,99390,0,0,415,0,0,0,0,0,0,0,250,1.5,10,0,0,0,0,0,0,0,0,0,0,0,0
2018,6,29,4,0,,21.4,21,98,99340,0,0,415,0,0,0,0,0,0,0,230,3,10,0,0,0,0,0,0,0,0,0,0,0,0
2018,6,29,5,0,,21.3,20.9,98,99380,0,0,415,0,0,0,0,0,0,0,250,0.8,10,0,0,0,0,0,0,0,0,0,0,0,0
2018,6,29,6,0,,21.5,21.1,98,99410,0,0,416,10,0,9,1266,7,1264,0,230,1.3,10,0,0,0,0,0,0,0,0,0,0,0,0
2018,6,29,7,0,,21.5,21.1,98,99500,0,0,416,54,17,50,6989,1424,6172,0,200,1.8,10,0,0,0,0,0,0,0,0,0,0,0,0
2018,6,29,8,0,,21.4,21,98,99520,0,0,415,112,20,103,13749,1715,12490,0,230,1.9,10,0,0,0,0,0,0,0,0,0,0,0,0
2018,6,29,9,0,,22.2,22.1,100,99560,0,0,422,161,18,150,19402,1502,18111,0,200,2.8,10,0,0,0,0,0,0,0,0,0,0,0,0
2018,6,29,10,0,,22.1,21.9,99,99590,0,0,421,216,19,201,25643,1609,24128,0,200,4,10,0,0,0,0,0,0,0,0,0,0,0,0
2018,6,29,11,0,,22.1,21.9,99,99640,0,0,421,250,17,235,29482,1502,28016,0,250,4,10,0,0,0,0,0,0,0,0,0,0,0,0
2018,6,29,12,0,,22.5,22.1,98,99660,0,0,423,277,18,260,32446,1547,30964,0,250,3.9,10,0,0,0,0,0,0,0,0,0,0,0,0
2018,6,29,13,0,,23.6,22.3,93,99650,0,0,430,280,17,263,32344,1073,31388,0,200,2.4,10,0,0,0,0,0,0,0,0,0,0,0,0
2018,6,29,14,0,,23.2,22.3,95,99690,0,0,427,282,19,264,31776,1265,30791,0,200,3.4,10,0,0,0,0,0,0,0,0,0,0,0,0
2018,6,29,15,0,,22.3,21.6,96,99710,0,0,421,228,14,215,25304,905,24735,0,200,3,10,0,0,0,0,0,0,0,0,0,0,0,0
2018,6,29,16,0,,22.9,22.3,97,99690,0,0,426,175,11,166,18930,644,18640,0,0,0.3,10,0,0,0,0,0,0,0,0,0,0,0,0
2018,6,29,17,0,,23.6,22.3,93,99650,0,0,430,152,16,142,15284,801,15077,0,180,1.9,10,0,0,0,0,0,0,0,0,0,0,0,0
2018,6,29,18,0,,22.9,22,95,99710,0,0,414,151,53,129,14482,2884,14299,0,230,3.2,9,0,0,0,0,0,0,0,0,0,0,0,0
2018,6,29,19,0,,22.2,21.5,96,99790,0,0,409,71,46,60,0,0,0,0,230,2.8,9,0,0,0,0,0,0,0,0,0,0,0,0
2018,6,29,20,0,,22.3,21.7,97,99880,0,0,410,14,1,13,0,0,0,0,230,6.3,9,0,0,0,0,0,0,0,0,0,0,0,0
2018,6,29,21,0,,22.6,21.5,94,99950,0,0,411,0,0,0,0,0,0,0,250,5.7,9,0,0,0,0,0,0,0,0,0,0,0,0
2018,6,29,22,0,,22.6,21.5,94,100040,0,0,415,0,0,0,0,0,0,0,230,4.5,9,0,0,0,0,0,0,0,0,0,0,0,0
2018,6,29,23,0,,22,21.1,95,100080,0,0,415,0,0,0,0,0,0,0,230,4.3,10,0,0,0,0,0,0,0,0,0,0,0,0
2018,6,29,24,0,,22.5,21.3,93,100120,0,0,422,0,0,0,0,0,0,0,250,6.2,10,0,0,0,0,0,0,0,0,0,0,0,0
2018,6,30,1,0,,22.6,21.2,92,100120,0,0,408,0,0,0,0,0,0,0,270,3.7,9,0,0,0,0,0,0,0,0,0,0,0,0
2018,6,30,2,0,,22.5,21.3,93,100110,0,0,397,0,0,0,0,0,0,0,270,2.8,7,0,0,0,0,0,0,0,0,0,0,0,0
2018,6,30,3,0,,21.9,21,95,100150,0,0,387,0,0,0,0,0,0,0,230,1.8,6,0,0,0,0,0,0,0,0,0,0,0,0
2018,6,30,4,0,,21.4,20.7,96,100200,0,0,395,0,0,0,0,0,0,0,270,0.8,8,0,0,0,0,0,0,0,0,0,0,0,0
2018,6,30,5,0,,22.1,20.5,91,100230,0,0,407,0,0,0,0,0,0,0,230,2.5,9,0,0,0,0,0,0,0,0,0,0,0,0
2018,6,30,6,0,,22.3,21.1,93,100160,0,0,421,11,1,10,1407,12,1402,0,270,2.6,10,0,0,0,0,0,0,0,0,0,0,0,0
2018,6,30,7,0,,22.5,20.9,91,100220,0,0,421,65,29,59,9415,2544,7958,0,250,2.7,10,0,0,0,0,0,0,0,0,0,0,0,0
2018,6,30,8,0,,22.9,20.7,88,100320,0,0,423,119,24,109,14672,2088,13141,0,250,2.1,10,0,0,0,0,0,0,0,0,0,0,0,0
2018,6,30,9,0,,22.4,21.5,95,100410,0,0,422,157,16,147,18902,1411,17691,0,200,1.9,10,0,0,0,0,0,0,0,0,0,0,0,0
2018,6,30,10,0,,22,21.4,97,100400,0,0,419,180,11,171,21858,614,21280,0,0,0.4,10,0,0,0,0,0,0,0,0,0,0,0,0
2018,6,30,11,0,,21.7,21.1,97,100400,0,0,417,207,10,198,25040,584,24470,0,180,1.5,10,0,0,0,0,0,0,0,0,0,0,0,0
2018,6,30,12,0,,21.7,20.5,93,100470,0,0,416,233,11,222,27854,661,27221,0,180,1.4,10,0,0,0,0,0,0,0,0,0,0,0,0
2018,6,30,13,0,,21.6,20.9,96,100360,0,0,416,244,12,233,28711,718,28071,0,70,2.3,10,0,0,0,0,0,0,0,0,0,0,0,0
2018,6,30,14,0,,20.7,20.2,97,100500,0,0,411,210,8,202,24545,520,24139,0,140,0.9,10,0,0,0,0,0,0,0,0,0,0,0,0
2018,6,30,15,0,,20.3,19.8,97,100530,0,0,408,200,10,192,22657,621,22267,0,20,1.2,10,0,0,0,0,0,0,0,0,0,0,0,0
2018,6,30,16,0,,20.1,19.7,98,100520,0,0,407,160,9,154,17588,511,17358,0,70,1.5,10,0,0,0,0,0,0,0,0,0,0,0,0
2018,6,30,17,0,,19.8,19.4,98,100520,0,0,405,142,14,134,14509,671,14336,0,90,1.5,10,0,0,0,0,0,0,0,0,0,0,0,0
2018,6,30,18,0,,20.1,19.7,98,100470,0,0,407,92,14,87,8488,400,8463,0,50,1.6,10,0,0,0,0,0,0,0,0,0,0,0,0
2018,6,30,19,0,,20.1,19.7,98,100520,0,0,407,47,15,44,0,0,0,0,90,1.5,10,0,0,0,0,0,0,0,0,0,0,0,0
2018,6,30,20,0,,20,19.6,98,100550,0,0,406,7,0,7,0,0,0,0,70,1.9,10,0,0,0,0,0,0,0,0,0,0,0,0
2018,6,30,21,0,,19.8,19.4,98,100630,0,0,405,0,0,0,0,0,0,0,70,1.9,10,0,0,0,0,0,0,0,0,0,0,0,0
2018,6,30,22,0,,19.9,19.5,98,100630,0,0,405,0,0,0,0,0,0,0,50,2.2,10,0,0,0,0,0,0,0,0,0,0,0,0
2018,6,30,23,0,,19.8,19.4,98,100600,0,0,405,0,0,0,0,0,0,0,50,1.7,10,0,0,0,0,0,0,0,0,0,0,0,0
2018,6,30,24,0,,19.8,19.4,98,100560,0,0,405,0,0,0,0,0,0,0,50,1.3,10,0,0,0,0,0,0,0,0,0,0,0,0
2002,7,1,1,0,,19.9,18.8,93,100060,0,0,404,0,0,0,0,0,0,0,110,1.7,10,0,0,0,0,0,0,0,0,0,0,0,0
2002,7,1,2,0,,19.9,18.8,93,100060,0,0,404,0,0,0,0,0,0,0,90,1.2,10,0,0,0,0,0,0,0,0,0,0,0,0
2002,7,1,3,0,,20,18.8,93,100050,0,0,405,0,0,0,0,0,0,0,110,0.4,10,0,0,0,0,0,0,0,0,0,0,0,0
2002,7,1,4,0,,19.7,18.8,94,100070,0,0,403,0,0,0,0,0,0,0,90,1.7,10,0,0,0,0,0,0,0,0,0,0,0,0
2002,7,1,5,0,,19.5,18.9,95,100100,0,0,402,0,0,0,0,0,0,0,110,0.5,10,0,0,0,0,0,0,0,0,0,0,0,0
2002,7,1,6,0,,19.5,18.9,96,100120,0,0,402,9,0,9,1204,8,1201,0,90,2.2,10,0,0,0,0,0,0,0,0,0,0,0,0
2002,7,1,7,0,,19.6,19.2,96,100170,0,0,403,54,17,50,6935,1471,6094,0,90,2.6,10,0,0,0,0,0,0,0,0,0,0,0,0
2002,7,1,8,0,,20.1,19.5,96,100220,0,0,406,113,21,104,13914,1840,12566,0,90,2.6,10,0,0,0,0,0,0,0,0,0,0,0,0
2002,7,1,9,0,,20.7,19.8,95,100270,0,0,410,169,20,156,20239,1782,18709,0,90,2,10,0,0,0,0,0,0,0,0,0,0,0,0
2002,7,1,10,0,,21.4,19.7,90,100270,0,0,414,256,30,233,30085,2678,27565,0,90,3.7,10,0,0,0,0,0,0,0,0,0,0,0,0
2002,7,1,11,0,,21.8,19.5,86,100280,0,0,416,283,25,261,32999,2199,30854,0,110,3,10,0,0,0,0,0,0,0,0,0,0,0,0
2002,7,1,12,0,,22.1,19.4,85,100280,0,0,417,310,25,287,35873,2192,33773,0,110,2.6,10,0,0,0,0,0,0,0,0,0,0,0,0
2002,7,1,13,0,,22.8,19.3,81,100260,0,0,421,311,23,289,35750,2055,33919,0,110,3.1,10,0,0,0,0,0,0,0,0,0,0,0,0
2002,7,1,14,0,,22,19.2,84,100240,0,0,416,289,21,270,32674,1459,31538,0,90,2.5,10,0,0,0,0,0,0,0,0,0,0,0,0
2002,7,1,15,0,,21.6,19.1,86,100220,0,0,414,247,18,232,27293,1239,26514,0,110,3.5,10,0,0,0,0,0,0,0,0,0,0,0,0
2002,7,1,16,0,,20.7,19.3,92,100220,0,0,409,176,11,167,19120,704,18803,0,90,3.4,10,0,0,0,0,0,0,0,0,0,0,0,0
2002,7,1,17,0,,20.6,19.5,94,100230,0,0,409,136,12,129,14028,585,13877,0,90,2.8,10,0,0,0,0,0,0,0,0,0,0,0,0
2002,7,1,18,0,,20.4,19.7,95,100230,0,0,408,97,15,90,8800,527,8766,0,110,2.5,10,0,0,0,0,0,0,0,0,0,0,0,0
2002,7,1,19,0,,20.2,19.6,95,100260,0,0,407,47,15,44,0,0,0,0,90,2.5,10,0,0,0,0,0,0,0,0,0,0,0,0
2002,7,1,20,0,,20.2,19.5,95,100300,0,0,407,7,0,7,0,0,0,0,90,2,10,0,0,0,0,0,0,0,0,0,0,0,0
2002,7,1,21,0,,20.1,19.4,96,100330,0,0,406,0,0,0,0,0,0,0,110,1.9,10,0,0,0,0,0,0,0,0,0,0,0,0
2002,7,1,22,0,,20.1,19.4,96,100330,0,0,406,0,0,0,0,0,0,0,70,2.1,10,0,0,0,0,0,0,0,0,0,0,0,0
2002,7,1,23,0,,20,19.4,96,100340,0,0,406,0,0,0,0,0,0,0,90,2.1,10,0,0,0,0,0,0,0,0,0,0,0,0
2002,7,1,24,0,,20,19.4,96,100340,0,0,406,0,0,0,0,0,0,0,70,2.1,10,0,0,0,0,0,0,0,0,0,0,0,0
2002,7,2,1,0,,20.1,19.6,96,100340,0,0,406,0,0,0,0,0,0,0,70,2.1,10,0,0,0,0,0,0,0,0,0,0,0,0
2002,7,2,2,0,,20.2,19.7,97,100330,0,0,407,0,0,0,0,0,0,0,70,2.4,10,0,0,0,0,0,0,0,0,0,0,0,0
2002,7,2,3,0,,20.4,19.9,97,100330,0,0,408,0,0,0,0,0,0,0,320,1.5,10,0,0,0,0,0,0,0,0,0,0,0,0
2002,7,2,4,0,,20.2,19.8,97,100350,0,0,407,0,0,0,0,0,0,0,70,1.6,10,0,0,0,0,0,0,0,0,0,0,0,0
2002,7,2,5,0,,20.2,19.8,97,100380,0,0,407,0,0,0,0,0,0,0,90,1.7,10,0,0,0,0,0,0,0,0,0,0,0,0
2002,7,2,6,0,,20.2,19.7,97,100400,0,0,407,7,0,7,1010,5,1008,0,70,0.9,10,0,0,0,0,0,0,0,0,0,0,0,0
2002,7,2,7,0,,20.4,20.2,97,100400,0,0,409,58,22,53,7582,1853,6524,0,70,2.6,10,0,0,0,0,0,0,0,0,0,0,0,0
2002,7,2,8,0,,20.7,20.8,98,100410,0,0,411,108,19,100,13268,1589,12106,0,90,2,10,0,0,0,0,0,0,0,0,0,0,0,0
2002,7,2,9,0,,21.8,21.3,97,100410,0,0,418,166,20,154,20026,1691,18576,0,110,1.3,10,0,0,0,0,0,0,0,0,0,0,0,0
2002,7,2,10,0,,22.6,21.2,96,100410,0,0,422,232,23,214,27437,2010,25546,0,90,1.3,10,0,0,0,0,0,0,0,0,0,0,0,0
2002,7,2,11,0,,23.7,21.1,83,100400,0,0,429,302,30,276,35197,2597,32666,0,110,1.6,10,0,0,0,0,0,0,0,0,0,0,0,0
2002,7,2,12,0,,23.4,21,86,100400,0,0,427,291,21,272,33888,1809,32155,0,90,1.3,10,0,0,0,0,0,0,0,0,0,0,0,0
2002,7,2,13,0,,23.1,21.2,89,100370,0,0,425,269,15,254,31252,970,30388,0,70,0.7,10,0,0,0,0,0,0,0,0,0,0,0,0
2002,7,2,14,0,,24,21.5,91,100340,0,0,431,245,13,232,28038,820,27400,0,0,0.1,10,0,0,0,0,0,0,0,0,0,0,0,0
2002,7,2,15,0,,23.1,21.7,92,100310,0,0,426,239,16,225,26443,1066,25772,0,200,2.4,10,0,0,0,0,0,0,0,0,0,0,0,0
2002,7,2,16,0,,23.6,21.6,93,100280,0,0,429,197,16,186,21079,986,20633,0,70,1.3,10,0,0,0,0,0,0,0,0,0,0,0,0
2002,7,2,17,0,,23.1,21.5,92,100260,0,0,426,152,16,142,15319,824,15106,0,110,2.2,10,0,0,0,0,0,0,0,0,0,0,0,0
2002,7,2,18,0,,22.4,21.4,94,100230,0,0,422,96,15,90,8758,486,8728,0,90,2.8,10,0,0,0,0,0,0,0,0,0,0,0,0
2002,7,2,19,0,,22.1,21.4,95,100270,0,0,420,45,13,42,0,0,0,0,90,1.7,10,0,0,0,0,0,0,0,0,0,0,0,0
2002,7,2,20,0,,22,21.5,96,100300,0,0,419,6,0,6,0,0,0,0,90,1.2,10,0,0,0,0,0,0,0,0,0,0,0,0
2002,7,2,21,0,,22.2,21.5,96,100340,0,0,421,0,0,0,0,0,0,0,250,1.7,10,0,0,0,0,0,0,0,0,0,0,0,0
2002,7,2,22,0,,22.4,21.7,96,100340,0,0,422,0,0,0,0,0,0,0,250,3.4,10,0,0,0,0,0,0,0,0,0,0,0,0
2002,7,2,23,0,,22.6,21.8,97,100330,0,0,423,0,0,0,0,0,0,0,270,5.1,10,0,0,0,0,0,0,0,0,0,0,0,0
2002,7,2,24,0,,22.6,22,97,100330,0,0,424,0,0,0,0,0,0,0,270,4.1,10,0,0,0,0,0,0,0,0,0,0,0,0
2002,7,3,1,0,,22.3,21.7,97,100350,0,0,422,0,0,0,0,0,0,0,270,2.8,10,0,0,0,0,0,0,0,0,0,0,0,0
2002,7,3,2,0,,21.8,21.5,97,100360,0,0,418,0,0,0,0,0,0,0,200,2.2,10,0,0,0,0,0,0,0,0,0,0,0,0
2002,7,3,3,0,,21.6,21.2,97,100380,0,0,417,0,0,0,0,0,0,0,200,1.5,10,0,0,0,0,0,0,0,0,0,0,0,0
2002,7,3,4,0,,21.6,21.1,97,100400,0,0,417,0,0,0,0,0,0,0,320,0.8,10,0,0,0,0,0,0,0,0,0,0,0,0
2002,7,3,5,0,,21.7,20.9,97,100420,0,0,417,0,0,0,0,0,0,0,230,1.5,10,0,0,0,0,0,0,0,0,0,0,0,0
2002,7,3,6,0,,21.2,20.8,97,100440,0,0,414,8,0,8,1085,5,1084,0,200,2.3,10,0,0,0,0,0,0,0,0,0,0,0,0
2002,7,3,7,0,,21.8,21.3,98,100460,0,0,410,75,44,64,10880,3819,8703,0,250,2,9,0,0,0,0,0,0,0,0,0,0,0,0
2002,7,3,8,0,,23.4,21.8,97,100490,0,0,413,165,62,139,22006,5356,18093,0,270,2,9,0,0,0,0,0,0,0,0,0,0,0,0
2002,7,3,9,0,,24.4,22.3,88,100510,0,0,413,311,112,243,39042,9671,30753,0,200,1.4,8,0,0,0,0,0,0,0,0,0,0,0,0
2002,7,3,10,0,,25.2,22.3,85,100500,0,0,413,448,143,340,53648,12230,42149,0,200,1.8,7,0,0,0,0,0,0,0,0,0,0,0,0
2002,7,3,11,0,,27.7,22.4,72,100500,0,0,424,568,166,421,65344,14192,51512,0,200,2.3,7,0,0,0,0,0,0,0,0,0,0,0,0
2002,7,3,12,0,,26.6,22.4,78,100490,0,0,414,657,190,476,73103,16102,57681,0,200,4.7,6,0,0,0,0,0,0,0,0,0,0,0,0
2002,7,3,13,0,,27.8,22.6,74,100460,0,0,421,681,193,492,73923,16186,59500,0,200,3.8,6,0,0,0,0,0,0,0,0,0,0,0,0
2002,7,3,14,0,,27.9,22.8,72,100430,0,0,422,605,153,460,65548,12689,55666,0,200,3.4,6,0,0,0,0,0,0,0,0,0,0,0,0
2002,7,3,15,0,,25.9,23,84,100400,0,0,411,553,159,414,56655,14014,47843,0,200,5.9,6,0,0,0,0,0,0,0,0,0,0,0,0
2002,7,3,16,0,,27.7,22.9,77,100370,0,0,424,429,132,330,43007,11276,37920,0,200,3.5,7,0,0,0,0,0,0,0,0,0,0,0,0
2002,7,3,17,0,,27.1,22.8,77,100350,0,0,425,329,142,245,30727,10952,27902,0,200,3,7,0,0,0,0,0,0,0,0,0,0,0,0
2002,7,3,18,0,,26,22.7,82,100320,0,0,423,198,115,151,17094,6493,16688,0,200,3.6,8,0,0,0,0,0,0,0,0,0,0,0,0
2002,7,3,19,0,,24.9,22.5,88,100370,0,0,410,100,124,73,0,0,0,0,230,2.6,7,0,0,0,0,0,0,0,0,0,0,0,0
2002,7,3,20,0,,24,22.4,92,100430,0,0,400,23,5,18,0,0,0,0,250,1.8,6,0,0,0,0,0,0,0,0,0,0,0,0
2002,7,3,21,0,,23.5,22.2,93,100480,0,0,394,0,0,0,0,0,0,0,200,3.2,5,0,0,0,0,0,0,0,0,0,0,0,0
2002,7,3,22,0,,23.1,22.2,94,100480,0,0,392,0,0,0,0,0,0,0,200,2.9,5,0,0,0,0,0,0,0,0,0,0,0,0
2002,7,3,23,0,,22.6,22.1,95,100490,0,0,389,0,0,0,0,0,0,0,230,1.8,5,0,0,0,0,0,0,0,0,0,0,0,0
2002,7,3,24,0,,22.8,22.1,96,100490,0,0,390,0,0,0,0,0,0,0,270,1,5,0,0,0,0,0,0,0,0,0,0,0,0
2002,7,4,1,0,,23.2,22,96,100490,0,0,392,0,0,0,0,0,0,0,230,1,5,0,0,0,0,0,0,0,0,0,0,0,0
2002,7,4,2,0,,23.2,21.8,95,100480,0,0,392,0,0,0,0,0,0,0,180,1.2,5,0,0,0,0,0,0,0,0,0,0,0,0
2002,7,4,3,0,,22.6,21.7,95,100480,0,0,389,0,0,0,0,0,0,0,230,0.9,5,0,0,0,0,0,0,0,0,0,0,0,0
2002,7,4,4,0,,22.8,21.8,96,100460,0,0,389,0,0,0,0,0,0,0,320,0.7,5,0,0,0,0,0,0,0,0,0,0,0,0
2002,7,4,5,0,,22.8,21.8,95,100450,0,0,388,0,0,0,0,0,0,0,140,0.3,4,0,0,0,0,0,0,0,0,0,0,0,0
2002,7,4,6,0,,22.9,21.9,94,100430,0,0,387,36,17,19,3269,1300,2769,0,110,0.5,4,0,0,0,0,0,0,0,0,0,0,0,0
2002,7,4,7,0,,23.2,21.8,92,100470,0,0,395,133,244,76,24694,20963,12770,0,70,2.2,6,0,0,0,0,0,0,0,0,0,0,0,0
2002,7,4,8,0,,23.7,21.7,88,100500,0,0,409,198,104,154,26482,9011,19905,0,70,1.3,8,0,0,0,0,0,0,0,0,0,0,0,0
2002,7,4,9,0,,25,21.6,81,100540,0,0,437,195,31,176,23369,2659,21092,0,70,2,10,0,0,0,0,0,0,0,0,0,0,0,0
2002,7,4,10,0,,26.5,21.4,74,100500,0,0,437,353,74,297,42974,6466,36899,0,90,1.9,9,0,0,0,0,0,0,0,0,0,0,0,0
2002,7,4,11,0,,27.6,21.2,72,100450,0,0,436,431,78,362,49206,6920,42464,0,160,2.3,9,0,0,0,0,0,0,0,0,0,0,0,0
2002,7,4,12,0,,28.5,21,64,100410,0,0,435,544,113,436,62169,9854,52732,0,110,2.6,8,0,0,0,0,0,0,0,0,0,0,0,0
2002,7,4,13,0,,29.4,21.5,62,100410,0,0,447,469,70,400,52255,6179,46750,0,140,2.5,9,0,0,0,0,0,0,0,0,0,0,0,0
2002,7,4,14,0,,26.9,21.9,78,100400,0,0,440,362,38,326,40764,3335,38166,0,110,2.5,9,0,0,0,0,0,0,0,0,0,0,0,0
2002,7,4,15,0,,26.2,22.4,80,100400,0,0,445,229,14,216,25383,909,24812,0,70,3,10,0,0,0,0,0,0,0,0,0,0,0,0
2002,7,4,16,0,,26,22.1,79,100350,0,0,443,173,11,165,18759,630,18475,0,110,2.2,10,0,0,0,0,0,0,0,0,0,0,0,0
2002,7,4,17,0,,25.9,21.8,78,100290,0,0,442,173,24,159,17096,1326,16754,0,110,2.6,10,0,0,0,0,0,0,0,0,0,0,0,0
2002,7,4,18,0,,25.5,21.5,79,100240,0,0,440,114,24,104,9990,1187,9916,0,90,2.7,10,0,0,0,0,0,0,0,0,0,0,0,0
2002,7,4,19,0,,25.5,21.4,75,100270,0,0,440,55,23,50,0,0,0,0,110,1.9,10,0,0,0,0,0,0,0,0,0,0,0,0
2002,7,4,20,0,,24.7,21.4,80,100290,0,0,435,8,0,7,0,0,0,0,90,3,10,0,0,0,0,0,0,0,0,0,0,0,0
2002,7,4,21,0,,24,21.3,85,100320,0,0,431,0,0,0,0,0,0,0,90,3.5,10,0,0,0,0,0,0,0,0,0,0,0,0
2002,7,4,22,0,,24.4,21.1,82,100300,0,0,433,0,0,0,0,0,0,0,90,3,10,0,0,0,0,0,0,0,0,0,0,0,0
2002,7,4,23,0,,24.6,21,79,100290,0,0,434,0,0,0,0,0,0,0,90,3.3,10,0,0,0,0,0,0,0,0,0,0,0,0
2002,7,4,24,0,,24.5,20.8,80,100270,0,0,433,0,0,0,0,0,0,0,90,3.2,10,0,0,0,0,0,0,0,0,0,0,0,0
2002,7,5,1,0,,24.4,21.1,82,100230,0,0,433,0,0,0,0,0,0,0,90,2.9,10,0,0,0,0,0,0,0,0,0,0,0,0
2002,7,5,2,0,,24.3,21.4,84,100200,0,0,432,0,0,0,0,0,0,0,70,2.6,10,0,0,0,0,0,0,0,0,0,0,0,0
2002,7,5,3,0,,24.2,21.7,86,100160,0,0,432,0,0,0,0,0,0,0,70,3.5,10,0,0,0,0,0,0,0,0,0,0,0,0
2002,7,5,4,0,,23.9,21.9,90,100100,0,0,431,0,0,0,0,0,0,0,90,3.9,10,0,0,0,0,0,0,0,0,0,0,0,0
2002,7,5,5,0,,23.5,22.1,92,100050,0,0,429,0,0,0,0,0,0,0,70,4.2,10,0,0,0,0,0,0,0,0,0,0,0,0
2002,7,5,6,0,,23.4,22.3,93,99990,0,0,429,9,0,9,1224,7,1221,0,70,4.8,10,0,0,0,0,0,0,0,0,0,0,0,0
2002,7,5,7,0,,23,22.3,93,100000,0,0,426,51,16,47,6573,1287,5842,0,90,2.9,10,0,0,0,0,0,0,0,0,0,0,0,0
2002,7,5,8,0,,23,22.2,95,100020,0,0,426,112,21,103,13833,1792,12527,0,70,4.5,10,0,0,0,0,0,0,0,0,0,0,0,0
2002,7,5,9,0,,23,22.2,95,100030,0,0,426,164,19,152,19728,1621,18341,0,90,4.6,10,0,0,0,0,0,0,0,0,0,0,0,0
2002,7,5,10,0,,22.7,22.1,96,99990,0,0,424,224,21,208,26576,1821,24865,0,70,5.9,10,0,0,0,0,0,0,0,0,0,0,0,0
2002,7,5,11,0,,22.5,22.1,96,99940,0,0,423,251,18,235,29617,1543,28114,0,90,4.7,10,0,0,0,0,0,0,0,0,0,0,0,0
2002,7,5,12,0,,22.4,22,97,99900,0,0,422,270,17,254,31748,1026,30766,0,70,6.1,10,0,0,0,0,0,0,0,0,0,0,0,0
2002,7,5,13,0,,22.6,22,97,99800,0,0,424,285,18,267,32856,1145,31836,0,90,5,10,0,0,0,0,0,0,0,0,0,0,0,0
2002,7,5,14,0,,22.6,22,97,99700,0,0,424,291,21,272,32714,1420,31608,0,90,6.6,10,0,0,0,0,0,0,0,0,0,0,0,0
2002,7,5,15,0,,22.7,22,96,99600,0,0,424,288,27,265,31121,1930,29908,0,90,8.2,10,0,0,0,0,0,0,0,0,0,0,0,0
2002,7,5,16,0,,22.7,21.8,96,99500,0,0,424,244,28,223,25274,1976,24383,0,110,8.8,10,0,0,0,0,0,0,0,0,0,0,0,0
2002,7,5,17,0,,22.4,21.6,96,99390,0,0,422,178,26,163,17446,1453,17072,0,110,7.2,10,0,0,0,0,0,0,0,0,0,0,0,0
2002,7,5,18,0,,22,21.4,97,99290,0,0,419,121,29,109,10440,1585,10342,0,110,7,10,0,0,0,0,0,0,0,0,0,0,0,0
2002,7,5,19,0,,22.1,21.6,97,99230,0,0,420,60,29,53,0,0,0,0,110,7.4,10,0,0,0,0,0,0,0,0,0,0,0,0
2002,7,5,20,0,,22.5,21.8,97,99170,0,0,423,12,1,11,0,0,0,0,140,8.9,10,0,0,0,0,0,0,0,0,0,0,0,0
2002,7,5,21,0,,22.6,22,97,99110,0,0,424,0,0,0,0,0,0,0,140,8.5,10,0,0,0,0,0,0,0,0,0,0,0,0
2002,7,5,22,0,,23.1,22,97,99080,0,0,426,0,0,0,0,0,0,0,160,6.1,10,0,0,0,0,0,0,0,0,0,0,0,0
2002,7,5,23,0,,22.3,22,97,99060,0,0,422,0,0,0,0,0,0,0,200,3.3,10,0,0,0,0,0,0,0,0,0,0,0,0
2002,7,5,24,0,,22.4,22,97,99030,0,0,422,0,0,0,0,0,0,0,230,2.6,10,0,0,0,0,0,0,0,0,0,0,0,0
2002,7,6,1,0,,22.4,21.8,97,98930,0,0,422,0,0,0,0,0,0,0,200,2.6,10,0,0,0,0,0,0,0,0,0,0,0,0
2002,7,6,2,0,,22.3,21.7,97,98830,0,0,421,0,0,0,0,0,0,0,200,5.9,10,0,0,0,0,0,0,0,0,0,0,0,0
2002,7,6,3,0,,21.9,21.5,97,98730,0,0,419,0,0,0,0,0,0,0,200,8.2,10,0,0,0,0,0,0,0,0,0,0,0,0
2002,7,6,4,0,,21.7,21.2,97,98680,0,0,417,0,0,0,0,0,0,0,200,6.7,10,0,0,0,0,0,0,0,0,0,0,0,0
2002,7,6,5,0,,21.6,21,97,98640,0,0,417,0,0,0,0,0,0,0,200,10.1,10,0,0,0,0,0,0,0,0,0,0,0,0
2002,7,6,6,0,,21.3,20.7,97,98590,0,0,415,14,1,13,1735,30,1724,0,230,12.1,10,0,0,0,0,0,0,0,0,0,0,0,0
2002,7,6,7,0,,21.1,20.5,96,98590,0,0,413,70,39,61,10178,3395,8255,0,230,10.3,10,0,0,0,0,0,0,0,0,0,0,0,0
2002,7,6,8,0,,21.1,20.4,96,98600,0,0,413,146,45,127,19367,3967,16479,0,230,12.2,10,0,0,0,0,0,0,0,0,0,0,0,0
2002,7,6,9,0,,21,20.2,95,98600,0,0,412,223,46,196,26711,4004,23288,0,230,13.6,10,0,0,0,0,0,0,0,0,0,0,0,0
2002,7,6,10,0,,20.6,20.1,96,98590,0,0,410,266,34,240,31290,3027,28449,0,230,12.4,10,0,0,0,0,0,0,0,0,0,0,0,0
2002,7,6,11,0,,20.6,20,96,98580,0,0,410,327,37,295,37949,3313,34724,0,230,14.3,10,0,0,0,0,0,0,0,0,0,0,0,0
2002,7,6,12,0,,20.4,19.9,97,98570,0,0,408,292,21,272,33895,1846,32128,0,230,7.9,10,0,0,0,0,0,0,0,0,0,0,0,0
2002,7,6,13,0,,20.4,19.7,96,98550,0,0,408,346,31,316,39412,2738,36974,0,230,11.5,10,0,0,0,0,0,0,0,0,0,0,0,0
2002,7,6,14,0,,20.5,19.6,95,98520,0,0,409,306,24,283,34322,1731,32975,0,230,8.2,10,0,0,0,0,0,0,0,0,0,0,0,0
2002,7,6,15,0,,20.1,19.4,96,98500,0,0,406,275,24,254,29978,1736,28887,0,230,8.8,10,0,0,0,0,0,0,0,0,0,0,0,0
2002,7,6,16,0,,19.9,19.4,97,98520,0,0,401,243,28,222,25306,2035,24389,0,250,9.7,10,0,0,0,0,0,0,0,0,0,0,0,0
2002,7,6,17,0,,20.5,19.3,93,98530,0,0,400,261,74,217,26088,5906,24570,0,230,9.9,9,0,0,0,0,0,0,0,0,0,0,0,0
2002,7,6,18,0,,20.9,19.3,90,98550,0,0,399,192,106,149,16675,6287,16291,0,230,10.6,9,0,0,0,0,0,0,0,0,0,0,0,0
2002,7,6,19,0,,21.4,19.1,86,98660,0,0,396,115,193,73,0,0,0,0,230,8.5,8,0,0,0,0,0,0,0,0,0,0,0,0
2002,7,6,20,0,,21.3,18.9,86,98770,0,0,390,25,7,18,0,0,0,0,230,10.3,8,0,0,0,0,0,0,0,0,0,0,0,0
2002,7,6,21,0,,21.4,18.7,85,98880,0,0,386,0,0,0,0,0,0,0,230,7.4,7,0,0,0,0,0,0,0,0,0,0,0,0
2002,7,6,22,0,,21.7,18.6,82,98970,0,0,381,0,0,0,0,0,0,0,250,7.3,5,0,0,0,0,0,0,0,0,0,0,0,0
2002,7,6,23,0,,21.4,18.5,82,99060,0,0,374,0,0,0,0,0,0,0,230,9.1,4,0,0,0,0,0,0,0,0,0,0,0,0
2002,7,6,24,0,,21.4,18.4,83,99150,0,0,369,0,0,0,0,0,0,0,250,7.6,2,0,0,0,0,0,0,0,0,0,0,0,0
2002,7,7,1,0,,21.2,18.4,82,99190,0,0,369,0,0,0,0,0,0,0,230,8.1,2,0,0,0,0,0,0,0,0,0,0,0,0
2002,7,7,2,0,,21.2,18.3,81,99240,0,0,370,0,0,0,0,0,0,0,230,7.4,3,0,0,0,0,0,0,0,0,0,0,0,0
2002,7,7,3,0,,20.5,18.3,87,99280,0,0,368,0,0,0,0,0,0,0,200,6,3,0,0,0,0,0,0,0,0,0,0,0,0
2002,7,7,4,0,,20.2,18.4,90,99310,0,0,366,0,0,0,0,0,0,0,230,5.8,3,0,0,0,0,0,0,0,0,0,0,0,0
2002,7,7,5,0,,20.3,18.5,89,99330,0,0,367,0,0,0,0,0,0,0,230,4,3,0,0,0,0,0,0,0,0,0,0,0,0
2002,7,7,6,0,,20.4,18.6,89,99360,0,0,368,39,17,22,3645,1435,3099,0,230,4.3,3,0,0,0,0,0,0,0,0,0,0,0,0
2002,7,7,7,0,,20.1,18.8,93,99390,0,0,370,158,382,71,32870,37289,11789,0,200,6.1,4,0,0,0,0,0,0,0,0,0,0,0,0
2002,7,7,8,0,,21.3,18.9,88,99410,0,0,380,267,259,158,40310,23491,23234,0,230,5,6,0,0,0,0,0,0,0,0,0,0,0,0
2002,7,7,9,0,,22.7,19.1,80,99440,0,0,394,377,200,257,48589,17717,33458,0,200,5.6,7,0,0,0,0,0,0,0,0,0,0,0,0
2002,7,7,10,0,,22.2,19.4,86,99440,0,0,393,480,176,347,56887,15773,42093,0,230,6.7,7,0,0,0,0,0,0,0,0,0,0,0,0
2002,7,7,11,0,,22.6,19.6,83,99450,0,0,398,473,102,384,55233,9121,46359,0,200,6.1,8,0,0,0,0,0,0,0,0,0,0,0,0
2002,7,7,12,0,,24.3,19.9,76,99450,0,0,410,525,104,427,60029,9181,51244,0,200,5.8,8,0,0,0,0,0,0,0,0,0,0,0,0
2002,7,7,13,0,,24.7,20.1,76,99440,0,0,412,545,105,442,59755,9537,51263,0,230,6.4,8,0,0,0,0,0,0,0,0,0,0,0,0
2002,7,7,14,0,,24.4,20.4,82,99420,0,0,411,531,108,429,57153,9757,49559,0,230,7,8,0,0,0,0,0,0,0,0,0,0,0,0
2002,7,7,15,0,,24.1,20.6,80,99410,0,0,410,465,99,379,49192,8936,43578,0,250,9.7,8,0,0,0,0,0,0,0,0,0,0,0,0
2002,7,7,16,0,,24.6,20.3,73,99440,0,0,415,387,100,312,39640,8747,35701,0,270,6.1,8,0,0,0,0,0,0,0,0,0,0,0,0
2002,7,7,17,0,,24.3,20,70,99460,0,0,415,255,70,214,25667,5502,24255,0,200,5.8,9,0,0,0,0,0,0,0,0,0,0,0,0
2002,7,7,18,0,,22.1,19.7,87,99490,0,0,406,157,60,132,14759,3396,14553,0,250,6.5,9,0,0,0,0,0,0,0,0,0,0,0,0
2002,7,7,19,0,,21.8,19.4,88,99540,0,0,404,70,46,60,0,0,0,0,250,5,9,0,0,0,0,0,0,0,0,0,0,0,0
2002,7,7,20,0,,21.6,19.1,86,99600,0,0,403,13,1,12,0,0,0,0,250,5.6,9,0,0,0,0,0,0,0,0,0,0,0,0
2002,7,7,21,0,,21.5,18.8,85,99650,0,0,402,0,0,0,0,0,0,0,230,4.3,9,0,0,0,0,0,0,0,0,0,0,0,0
2002,7,7,22,0,,21.8,18.8,78,99680,0,0,407,0,0,0,0,0,0,0,250,5,9,0,0,0,0,0,0,0,0,0,0,0,0
2002,7,7,23,0,,21.7,18.8,81,99700,0,0,410,0,0,0,0,0,0,0,270,4.2,10,0,0,0,0,0,0,0,0,0,0,0,0
2002,7,7,24,0,,21.9,18.8,82,99730,0,0,415,0,0,0,0,0,0,0,270,3.4,10,0,0,0,0,0,0,0,0,0,0,0,0
2002,7,8,1,0,,22.1,18.6,75,99720,0,0,416,0,0,0,0,0,0,0,270,5.1,10,0,0,0,0,0,0,0,0,0,0,0,0
2002,7,8,2,0,,21.9,18.3,77,99710,0,0,415,0,0,0,0,0,0,0,270,3.9,10,0,0,0,0,0,0,0,0,0,0,0,0
2002,7,8,3,0,,21.4,18.1,81,99700,0,0,411,0,0,0,0,0,0,0,270,3.3,10,0,0,0,0,0,0,0,0,0,0,0,0
2002,7,8,4,0,,20.9,18.3,91,99730,0,0,409,0,0,0,0,0,0,0,0,0.2,10,0,0,0,0,0,0,0,0,0,0,0,0
2002,7,8,5,0,,20.2,18.5,91,99770,0,0,405,0,0,0,0,0,0,0,0,0.2,10,0,0,0,0,0,0,0,0,0,0,0,0
2002,7,8,6,0,,19.9,18.7,93,99800,0,0,404,6,0,6,786,3,785,0,0,0,10,0,0,0,0,0,0,0,0,0,0,0,0
2002,7,8,7,0,,20.2,18.9,93,99840,0,0,406,43,10,40,5436,848,4958,0,0,0,10,0,0,0,0,0,0,0,0,0,0,0,0
2002,7,8,8,0,,20.5,19,93,99890,0,0,408,112,22,103,13752,1902,12371,0,70,1.6,10,0,0,0,0,0,0,0,0,0,0,0,0
2002,7,8,9,0,,20.4,19.2,93,99930,0,0,407,170,22,157,20366,1899,18746,0,70,2.5,10,0,0,0,0,0,0,0,0,0,0,0,0
2002,7,8,10,0,,20.6,19,92,99940,0,0,408,205,17,192,24237,1483,22847,0,90,1.2,10,0,0,0,0,0,0,0,0,0,0,0,0
2002,7,8,11,0,,21.2,18.9,87,99960,0,0,411,263,21,245,30800,1843,29008,0,90,3.1,10,0,0,0,0,0,0,0,0,0,0,0,0
2002,7,8,12,0,,20.7,18.7,89,99970,0,0,408,267,16,252,31588,1068,30566,0,110,3,10,0,0,0,0,0,0,0,0,0,0,0,0
2002,7,8,13,0,,21,18.9,89,99940,0,0,410,280,17,263,32469,1155,31441,0,110,1.8,10,0,0,0,0,0,0,0,0,0,0,0,0
2002,7,8,14,0,,20.5,19.2,92,99920,0,0,408,237,12,226,27334,779,26728,0,90,1.1,10,0,0,0,0,0,0,0,0,0,0,0,0
2002,7,8,15,0,,20.8,19.4,92,99890,0,0,410,231,15,218,25720,1001,25092,0,110,2.8,10,0,0,0,0,0,0,0,0,0,0,0,0
2002,7,8,16,0,,21.2,19.3,90,99880,0,0,412,195,15,183,20877,985,20434,0,90,0.9,10,0,0,0,0,0,0,0,0,0,0,0,0
2002,7,8,17,0,,21.2,19.1,89,99860,0,0,412,168,22,155,16680,1247,16361,0,90,2.5,10,0,0,0,0,0,0,0,0,0,0,0,0
2002,7,8,18,0,,21,19,89,99850,0,0,410,115,25,105,10081,1390,9998,0,90,2.2,10,0,0,0,0,0,0,0,0,0,0,0,0
2002,7,8,19,0,,20.6,18.9,90,99880,0,0,408,51,19,47,0,0,0,0,90,2.4,10,0,0,0,0,0,0,0,0,0,0,0,0
2002,7,8,20,0,,20.1,18.8,91,99910,0,0,405,6,0,6,0,0,0,0,90,2.4,10,0,0,0,0,0,0,0,0,0,0,0,0
2002,7,8,21,0,,20,18.7,92,99940,0,0,405,0,0,0,0,0,0,0,90,2.7,10,0,0,0,0,0,0,0,0,0,0,0,0
2002,7,8,22,0,,20,18.7,90,99910,0,0,405,0,0,0,0,0,0,0,90,3.8,10,0,0,0,0,0,0,0,0,0,0,0,0
2002,7,8,23,0,,20.3,18.8,90,99890,0,0,406,0,0,0,0,0,0,0,70,3.6,10,0,0,0,0,0,0,0,0,0,0,0,0
2002,7,8,24,0,,20.3,18.8,91,99860,0,0,406,0,0,0,0,0,0,0,70,4.2,10,0,0,0,0,0,0,0,0,0,0,0,0
2002,7,9,1,0,,20.5,19,91,99790,0,0,408,0,0,0,0,0,0,0,70,5.2,10,0,0,0,0,0,0,0,0,0,0,0,0
2002,7,9,2,0,,20.7,19.3,91,99730,0,0,409,0,0,0,0,0,0,0,70,2.8,10,0,0,0,0,0,0,0,0,0,0,0,0
2002,7,9,3,0,,21,19.5,91,99660,0,0,411,0,0,0,0,0,0,0,70,4.6,10,0,0,0,0,0,0,0,0,0,0,0,0
2002,7,9,4,0,,20.9,19.6,93,99670,0,0,411,0,0,0,0,0,0,0,50,0.9,10,0,0,0,0,0,0,0,0,0,0,0,0
2002,7,9,5,0,,20.7,19.6,95,99690,0,0,410,0,0,0,0,0,0,0,90,2.6,10,0,0,0,0,0,0,0,0,0,0,0,0
2002,7,9,6,0,,20.4,19.7,95,99700,0,0,408,8,0,8,1033,5,1031,0,90,2.7,10,0,0,0,0,0,0,0,0,0,0,0,0
2002,7,9,7,0,,20.7,20.1,96,99700,0,0,410,49,15,45,6256,1243,5557,0,70,2.8,10,0,0,0,0,0,0,0,0,0,0,0,0
2002,7,9,8,0,,21.2,20.4,96,99690,0,0,414,117,25,106,14365,2125,12825,0,70,3.8,10,0,0,0,0,0,0,0,0,0,0,0,0
2002,7,9,9,0,,21.9,20.8,93,99690,0,0,418,172,22,158,20666,1946,19008,0,70,3.3,10,0,0,0,0,0,0,0,0,0,0,0,0
2002,7,9,10,0,,22.8,20.7,86,99660,0,0,423,248,29,226,29256,2508,26907,0,70,3.3,10,0,0,0,0,0,0,0,0,0,0,0,0
2002,7,9,11,0,,22.4,20.5,89,99630,0,0,420,249,18,234,29330,1564,27810,0,90,1.8,10,0,0,0,0,0,0,0,0,0,0,0,0
2002,7,9,12,0,,23.9,20.4,81,99600,0,0,429,340,32,310,39170,2841,36454,0,70,5.2,10,0,0,0,0,0,0,0,0,0,0,0,0
2002,7,9,13,0,,24.6,20.4,79,99530,0,0,433,338,29,310,38664,2570,36377,0,70,4.3,10,0,0,0,0,0,0,0,0,0,0,0,0
2002,7,9,14,0,,25,20.4,78,99460,0,0,435,354,36,320,39761,3194,37276,0,70,4.1,10,0,0,0,0,0,0,0,0,0,0,0,0
2002,7,9,15,0,,25.5,20.4,73,99390,0,0,438,305,32,278,34052,2798,32296,0,50,3.3,10,0,0,0,0,0,0,0,0,0,0,0,0
2002,7,9,16,0,,24.1,20.2,78,99360,0,0,430,211,19,197,22393,1273,21821,0,90,2.1,10,0,0,0,0,0,0,0,0,0,0,0,0
2002,7,9,17,0,,23.6,20.1,81,99320,0,0,427,162,20,150,16170,1080,15894,0,70,4.3,10,0,0,0,0,0,0,0,0,0,0,0,0
2002,7,9,18,0,,23.1,19.9,82,99290,0,0,423,111,23,102,9778,1169,9709,0,70,5.9,10,0,0,0,0,0,0,0,0,0,0,0,0
2002,7,9,19,0,,22.4,19.7,84,99290,0,0,419,56,25,51,0,0,0,0,70,6.4,10,0,0,0,0,0,0,0,0,0,0,0,0
2002,7,9,20,0,,22,19.4,84,99280,0,0,417,9,0,9,0,0,0,0,70,4.8,10,0,0,0,0,0,0,0,0,0,0,0,0
2002,7,9,21,0,,22,19.2,84,99280,0,0,416,0,0,0,0,0,0,0,70,4.9,10,0,0,0,0,0,0,0,0,0,0,0,0
2002,7,9,22,0,,21.8,19.2,85,99250,0,0,415,0,0,0,0,0,0,0,70,6,10,0,0,0,0,0,0,0,0,0,0,0,0
2002,7,9,23,0,,21.6,19.1,87,99220,0,0,414,0,0,0,0,0,0,0,70,6.6,10,0,0,0,0,0,0,0,0,0,0,0,0
2002,7,9,24,0,,21.3,19.1,87,99190,0,0,412,0,0,0,0,0,0,0,70,5.5,10,0,0,0,0,0,0,0,0,0,0,0,0
2002,7,10,1,0,,21.2,18.8,85,99130,0,0,411,0,0,0,0,0,0,0,70,5.8,10,0,0,0,0,0,0,0,0,0,0,0,0
2002,7,10,2,0,,21,18.4,85,99080,0,0,410,0,0,0,0,0,0,0,70,4.7,10,0,0,0,0,0,0,0,0,0,0,0,0
2002,7,10,3,0,,20.9,18.1,84,99020,0,0,409,0,0,0,0,0,0,0,70,5.4,10,0,0,0,0,0,0,0,0,0,0,0,0
2002,7,10,4,0,,20.9,18,83,99020,0,0,409,0,0,0,0,0,0,0,90,2.9,10,0,0,0,0,0,0,0,0,0,0,0,0
2002,7,10,5,0,,20.8,17.8,84,99020,0,0,408,0,0,0,0,0,0,0,70,4.4,10,0,0,0,0,0,0,0,0,0,0,0,0
2002,7,10,6,0,,20.9,17.7,82,99020,0,0,408,12,1,11,1459,19,1452,0,70,5,10,0,0,0,0,0,0,0,0,0,0,0,0
2002,7,10,7,0,,21.1,17.7,82,99020,0,0,405,65,34,57,9368,3091,7632,0,70,5.3,10,0,0,0,0,0,0,0,0,0,0,0,0
2002,7,10,8,0,,21.8,17.8,78,99030,0,0,405,185,91,147,24722,8407,18637,0,70,6.1,9,0,0,0,0,0,0,0,0,0,0,0,0
2002,7,10,9,0,,22.6,17.8,74,99030,0,0,406,271,80,223,33883,7372,27606,0,70,4.8,9,0,0,0,0,0,0,0,0,0,0,0,0
2002,7,10,10,0,,23.6,18.3,71,99000,0,0,409,360,80,299,43315,7299,36482,0,70,5.7,9,0,0,0,0,0,0,0,0,0,0,0,0
2002,7,10,11,0,,24.1,18.8,68,98980,0,0,410,491,114,391,57002,10301,46994,0,70,5.7,8,0,0,0,0,0,0,0,0,0,0,0,0
2002,7,10,12,0,,25.1,19.3,70,98950,0,0,413,531,107,429,60455,9573,51306,0,70,4.7,8,0,0,0,0,0,0,0,0,0,0,0,0
2002,7,10,13,0,,26,19.3,66,98930,0,0,418,544,105,441,59570,9582,51047,0,110,2.1,8,0,0,0,0,0,0,0,0,0,0,0,0
2002,7,10,14,0,,27.3,19.2,60,98920,0,0,426,545,116,435,58309,10571,50091,0,110,2.3,8,0,0,0,0,0,0,0,0,0,0,0,0
2002,7,10,15,0,,26,19.2,66,98900,0,0,418,482,110,386,50564,10005,44290,0,70,4.5,8,0,0,0,0,0,0,0,0,0,0,0,0
2002,7,10,16,0,,25.3,19.3,68,98890,0,0,401,529,243,347,49593,19654,40770,0,70,4.7,5,0,0,0,0,0,0,0,0,0,0,0,0
2002,7,10,17,0,,26.6,19.3,61,98870,0,0,400,462,446,197,31948,27656,24900,0,70,4.3,3,0,0,0,0,0,0,0,0,0,0,0,0
2002,7,10,18,0,,25.8,19.4,68,98860,0,0,380,333,548,107,13080,9086,12552,0,70,4.9,0,0,0,0,0,0,0,0,0,0,0,0,0
2002,7,10,19,0,,24.2,18.8,73,98940,0,0,380,165,505,56,0,0,0,0,50,4.2,1,0,0,0,0,0,0,0,0,0,0,0,0
2002,7,10,20,0,,22.4,18.1,75,99010,0,0,376,31,15,17,0,0,0,0,70,3.8,3,0,0,0,0,0,0,0,0,0,0,0,0
2002,7,10,21,0,,21.7,17.5,77,99090,0,0,376,0,0,0,0,0,0,0,70,3.8,4,0,0,0,0,0,0,0,0,0,0,0,0
2002,7,10,22,0,,21,17,77,99110,0,0,376,0,0,0,0,0,0,0,70,5.6,6,0,0,0,0,0,0,0,0,0,0,0,0
2002,7,10,23,0,,20.9,16.5,76,99120,0,0,383,0,0,0,0,0,0,0,70,4.2,7,0,0,0,0,0,0,0,0,0,0,0,0
2002,7,10,24,0,,20.7,16,75,99140,0,0,394,0,0,0,0,0,0,0,70,5.2,9,0,0,0,0,0,0,0,0,0,0,0,0
2002,7,11,1,0,,20.3,16.2,76,99130,0,0,392,0,0,0,0,0,0,0,70,4.4,9,0,0,0,0,0,0,0,0,0,0,0,0
2002,7,11,2,0,,19.9,16.3,81,99110,0,0,390,0,0,0,0,0,0,0,90,2.4,9,0,0,0,0,0,0,0,0,0,0,0,0
2002,7,11,3,0,,19.9,16.5,81,99100,0,0,390,0,0,0,0,0,0,0,70,3.5,9,0,0,0,0,0,0,0,0,0,0,0,0
2002,7,11,4,0,,19.7,16.4,81,99140,0,0,392,0,0,0,0,0,0,0,90,1.4,9,0,0,0,0,0,0,0,0,0,0,0,0
2002,7,11,5,0,,19.6,16.2,81,99180,0,0,395,0,0,0,0,0,0,0,110,0.9,10,0,0,0,0,0,0,0,0,0,0,0,0
2002,7,11,6,0,,19.5,16.1,80,99220,0,0,398,9,0,9,1217,11,1213,0,90,2.5,10,0,0,0,0,0,0,0,0,0,0,0,0
2002,7,11,7,0,,19.5,16.3,81,99240,0,0,399,58,25,52,8259,2322,6958,0,90,2.2,10,0,0,0,0,0,0,0,0,0,0,0,0
2002,7,11,8,0,,20.2,16.6,77,99260,0,0,403,118,26,107,14436,2315,12763,0,140,1.4,10,0,0,0,0,0,0,0,0,0,0,0,0
2002,7,11,9,0,,21.2,16.8,76,99280,0,0,409,195,32,175,23233,2906,20760,0,160,2.1,10,0,0,0,0,0,0,0,0,0,0,0,0
2002,7,11,10,0,,21.7,17,74,99280,0,0,404,333,65,284,38754,5936,33202,0,110,2.3,9,0,0,0,0,0,0,0,0,0,0,0,0
2002,7,11,11,0,,23.9,17.1,65,99280,0,0,410,426,78,358,48595,7143,41660,0,140,2.1,9,0,0,0,0,0,0,0,0,0,0,0,0
2002,7,11,12,0,,22.1,17.3,74,99280,0,0,394,492,87,409,55027,8067,47321,0,140,3,8,0,0,0,0,0,0,0,0,0,0,0,0
2002,7,11,13,0,,22.5,17.4,73,99270,0,0,389,575,122,456,63428,11154,53512,0,110,2.1,7,0,0,0,0,0,0,0,0,0,0,0,0
2002,7,11,14,0,,23.4,17.5,69,99250,0,0,388,638,179,469,67181,16089,54680,0,140,1.3,5,0,0,0,0,0,0,0,0,0,0,0,0
2002,7,11,15,0,,24.3,17.6,66,99240,0,0,389,692,311,421,66230,27372,49077,0,200,3.7,4,0,0,0,0,0,0,0,0,0,0,0,0
2002,7,11,16,0,,23.2,17.8,74,99220,0,0,380,599,434,273,49972,35653,33988,0,200,4.4,3,0,0,0,0,0,0,0,0,0,0,0,0
2002,7,11,17,0,,22.9,17.9,73,99210,0,0,373,470,473,190,31362,30341,23652,0,200,4.2,1,0,0,0,0,0,0,0,0,0,0,0,0
2002,7,11,18,0,,22.6,18.1,76,99190,0,0,362,313,464,122,14289,3282,14101,0,200,3.5,0,0,0,0,0,0,0,0,0,0,0,0,0
2002,7,11,19,0,,21.5,18.2,84,99220,0,0,357,157,448,61,0,0,0,0,200,4,0,0,0,0,0,0,0,0,0,0,0,0,0
2002,7,11,20,0,,20.6,18.2,87,99240,0,0,353,34,20,14,0,0,0,0,230,3.5,0,0,0,0,0,0,0,0,0,0,0,0,0
2002,7,11,21,0,,20.5,18.3,87,99270,0,0,352,0,0,0,0,0,0,0,230,2.6,0,0,0,0,0,0,0,0,0,0,0,0,0
2002,7,11,22,0,,20.4,18.5,88,99270,0,0,352,0,0,0,0,0,0,0,230,2.5,0,0,0,0,0,0,0,0,0,0,0,0,0
2002,7,11,23,0,,20.4,18.6,89,99260,0,0,352,0,0,0,0,0,0,0,230,3.5,0,0,0,0,0,0,0,0,0,0,0,0,0
2002,7,11,24,0,,20.4,18.8,90,99260,0,0,353,0,0,0,0,0,0,0,230,3,0,0,0,0,0,0,0,0,0,0,0,0,0
2002,7,12,1,0,,20.7,19.1,87,99280,0,0,354,0,0,0,0,0,0,0,250,1.9,0,0,0,0,0,0,0,0,0,0,0,0,0
2002,7,12,2,0,,21,19.3,88,99300,0,0,356,0,0,0,0,0,0,0,290,2.6,0,0,0,0,0,0,0,0,0,0,0,0,0
2002,7,12,3,0,,21.5,19.6,89,99320,0,0,359,0,0,0,0,0,0,0,340,3.5,0,0,0,0,0,0,0,0,0,0,0,0,0
2002,7,12,4,0,,21.3,19.5,88,99350,0,0,358,0,0,0,0,0,0,0,270,1.5,0,0,0,0,0,0,0,0,0,0,0,0,0
2002,7,12,5,0,,20.8,19.5,91,99380,0,0,355,0,0,0,0,0,0,0,270,2.7,0,0,0,0,0,0,0,0,0,0,0,0,0
2002,7,12,6,0,,20.7,19.4,92,99410,0,0,355,36,21,15,3023,1643,2410,0,270,3.2,0,0,0,0,0,0,0,0,0,0,0,0,0
2002,7,12,7,0,,21.3,19.5,92,99420,0,0,360,158,430,64,34315,41976,10851,0,250,1.5,0,0,0,0,0,0,0,0,0,0,0,0,0
2002,7,12,8,0,,22.9,19.7,81,99440,0,0,371,337,549,108,56119,54271,16954,0,200,3.3,1,0,0,0,0,0,0,0,0,0,0,0,0
2002,7,12,9,0,,24.7,19.8,74,99450,0,0,382,520,613,153,73908,60528,22474,0,200,3.6,1,0,0,0,0,0,0,0,0,0,0,0,0
2002,7,12,10,0,,25.5,20.1,74,99460,0,0,390,665,597,215,84034,58320,29526,0,200,3.9,2,0,0,0,0,0,0,0,0,0,0,0,0
2002,7,12,11,0,,25.5,20.4,74,99460,0,0,394,755,525,296,85962,47121,40233,0,180,5.1,2,0,0,0,0,0,0,0,0,0,0,0,0
2002,7,12,12,0,,26.1,20.7,72,99470,0,0,400,780,325,472,85360,27813,58806,0,180,5,3,0,0,0,0,0,0,0,0,0,0,0,0
2002,7,12,13,0,,26.6,20.8,69,99460,0,0,404,791,306,493,84331,26030,61201,0,200,4.4,3,0,0,0,0,0,0,0,0,0,0,0,0
2002,7,12,14,0,,26.9,20.9,65,99460,0,0,406,727,262,479,74473,22415,57067,0,200,4,4,0,0,0,0,0,0,0,0,0,0,0,0
2002,7,12,15,0,,26.5,21,72,99450,0,0,405,663,272,426,64963,22784,50697,0,180,4.6,4,0,0,0,0,0,0,0,0,0,0,0,0
2002,7,12,16,0,,26.6,20.7,65,99440,0,0,401,592,418,278,50318,32448,35793,0,200,4.7,3,0,0,0,0,0,0,0,0,0,0,0,0
2002,7,12,17,0,,26.9,20.5,65,99430,0,0,396,483,513,178,30902,30924,23071,0,180,4,1,0,0,0,0,0,0,0,0,0,0,0,0
2002,7,12,18,0,,26,20.2,70,99420,0,0,382,328,533,109,13284,7794,12846,0,200,4.3,0,0,0,0,0,0,0,0,0,0,0,0,0
2002,7,12,19,0,,24.9,20,73,99460,0,0,376,156,445,61,0,0,0,0,230,2.4,0,0,0,0,0,0,0,0,0,0,0,0,0
2002,7,12,20,0,,23.5,19.8,80,99490,0,0,369,33,18,15,0,0,0,0,200,3,0,0,0,0,0,0,0,0,0,0,0,0,0
2002,7,12,21,0,,22.8,19.6,82,99530,0,0,365,0,0,0,0,0,0,0,200,1.1,0,0,0,0,0,0,0,0,0,0,0,0,0
2002,7,12,22,0,,22.9,19.6,77,99540,0,0,366,0,0,0,0,0,0,0,200,2.9,0,0,0,0,0,0,0,0,0,0,0,0,0
2002,7,12,23,0,,22.1,19.5,85,99540,0,0,362,0,0,0,0,0,0,0,230,1.4,0,0,0,0,0,0,0,0,0,0,0,0,0
2002,7,12,24,0,,22.6,19.5,83,99550,0,0,364,0,0,0,0,0,0,0,270,3.7,0,0,0,0,0,0,0,0,0,0,0,0,0
2002,7,13,1,0,,23,18.9,77,99530,0,0,365,0,0,0,0,0,0,0,270,5,0,0,0,0,0,0,0,0,0,0,0,0,0
2002,7,13,2,0,,23.2,18.3,74,99510,0,0,366,0,0,0,0,0,0,0,270,4.8,0,0,0,0,0,0,0,0,0,0,0,0,0
2002,7,13,3,0,,24.3,17.7,67,99490,0,0,370,0,0,0,0,0,0,0,270,3.8,0,0,0,0,0,0,0,0,0,0,0,0,0
2002,7,13,4,0,,24.2,18.1,69,99520,0,0,383,0,0,0,0,0,0,0,270,4.6,2,0,0,0,0,0,0,0,0,0,0,0,0
2002,7,13,5,0,,23.6,18.6,75,99550,0,0,387,0,0,0,0,0,0,0,200,3.9,4,0,0,0,0,0,0,0,0,0,0,0,0
2002,7,13,6,0,,23.2,19,77,99580,0,0,392,28,10,18,2547,792,2252,0,250,3.7,6,0,0,0,0,0,0,0,0,0,0,0,0
2002,7,13,7,0,,23.5,19.6,76,99600,0,0,401,111,169,74,20401,14927,12078,0,180,2.6,7,0,0,0,0,0,0,0,0,0,0,0,0
2002,7,13,8,0,,21.8,20.3,91,99630,0,0,402,136,40,120,16844,3444,14363,0,180,2.5,9,0,0,0,0,0,0,0,0,0,0,0,0
2002,7,13,9,0,,22,20.9,93,99650,0,0,419,140,13,132,16872,1115,15925,0,180,1.1,10,0,0,0,0,0,0,0,0,0,0,0,0
2002,7,13,10,0,,23.1,21.2,95,99650,0,0,425,201,16,188,23869,1398,22564,0,70,1.2,10,0,0,0,0,0,0,0,0,0,0,0,0
2002,7,13,11,0,,23.2,21.4,95,99660,0,0,426,253,19,236,29743,1626,28165,0,0,0,10,0,0,0,0,0,0,0,0,0,0,0,0
2002,7,13,12,0,,22.6,21.7,95,99660,0,0,423,246,13,233,29146,782,28400,0,290,0.8,10,0,0,0,0,0,0,0,0,0,0,0,0
2002,7,13,13,0,,23.4,22.6,96,99630,0,0,425,258,14,245,30084,842,29336,0,200,2.8,10,0,0,0,0,0,0,0,0,0,0,0,0
2002,7,13,14,0,,24.7,23.4,95,99590,0,0,429,382,45,340,42927,3837,39950,0,250,4.7,9,0,0,0,0,0,0,0,0,0,0,0,0
2002,7,13,15,0,,26.1,24.3,90,99560,0,0,435,386,60,334,42222,5133,39011,0,230,3.5,9,0,0,0,0,0,0,0,0,0,0,0,0
2002,7,13,16,0,,26.3,24.3,89,99560,0,0,440,342,71,288,36090,5919,33445,0,250,6,9,0,0,0,0,0,0,0,0,0,0,0,0
2002,7,13,17,0,,25.9,24.3,91,99560,0,0,441,207,40,184,19565,2388,18962,0,230,6.6,10,0,0,0,0,0,0,0,0,0,0,0,0
2002,7,13,18,0,,25.7,24.3,92,99560,0,0,445,122,30,109,10338,1763,10241,0,250,7,10,0,0,0,0,0,0,0,0,0,0,0,0
2002,7,13,19,0,,25.5,24.2,93,99570,0,0,443,57,27,51,0,0,0,0,250,6.4,10,0,0,0,0,0,0,0,0,0,0,0,0
2002,7,13,20,0,,24.7,24,94,99590,0,0,438,5,0,5,0,0,0,0,200,3.1,10,0,0,0,0,0,0,0,0,0,0,0,0
2002,7,13,21,0,,24.7,23.9,95,99600,0,0,438,0,0,0,0,0,0,0,230,4,10,0,0,0,0,0,0,0,0,0,0,0,0
2002,7,13,22,0,,24.8,23.5,92,99540,0,0,438,0,0,0,0,0,0,0,230,4.4,10,0,0,0,0,0,0,0,0,0,0,0,0
2002,7,13,23,0,,24.5,23.2,91,99490,0,0,436,0,0,0,0,0,0,0,230,6.6,10,0,0,0,0,0,0,0,0,0,0,0,0
2002,7,13,24,0,,24.2,22.8,92,99430,0,0,434,0,0,0,0,0,0,0,230,4.9,10,0,0,0,0,0,0,0,0,0,0,0,0
2002,7,14,1,0,,24,22.5,94,99320,0,0,432,0,0,0,0,0,0,0,230,3.9,10,0,0,0,0,0,0,0,0,0,0,0,0
2002,7,14,2,0,,22.9,22.3,95,99210,0,0,426,0,0,0,0,0,0,0,200,5.8,10,0,0,0,0,0,0,0,0,0,0,0,0
2002,7,14,3,0,,22.4,22,97,99100,0,0,422,0,0,0,0,0,0,0,230,9.1,10,0,0,0,0,0,0,0,0,0,0,0,0
2002,7,14,4,0,,22.6,22.2,98,99170,0,0,424,0,0,0,0,0,0,0,230,13.8,10,0,0,0,0,0,0,0,0,0,0,0,0
2002,7,14,5,0,,23,22.5,97,99240,0,0,427,0,0,0,0,0,0,0,250,9.3,10,0,0,0,0,0,0,0,0,0,0,0,0
2002,7,14,6,0,,23.5,22.7,95,99310,0,0,430,11,1,10,1373,14,1367,0,230,6.8,10,0,0,0,0,0,0,0,0,0,0,0,0
2002,7,14,7,0,,23.6,22.5,94,99360,0,0,426,63,35,56,9316,2962,7668,0,230,7.3,10,0,0,0,0,0,0,0,0,0,0,0,0
2002,7,14,8,0,,23.7,22.2,93,99410,0,0,422,175,82,142,23555,7055,18480,0,230,7.4,9,0,0,0,0,0,0,0,0,0,0,0,0
2002,7,14,9,0,,24.5,22,86,99460,0,0,422,263,75,218,33255,6537,27712,0,230,7.2,9,0,0,0,0,0,0,0,0,0,0,0,0
2002,7,14,10,0,,24.1,22.2,88,99460,0,0,424,307,53,267,35958,4546,31717,0,250,5.6,9,0,0,0,0,0,0,0,0,0,0,0,0
2002,7,14,11,0,,24,22.3,90,99470,0,0,428,251,19,235,29666,1591,28124,0,200,4.2,10,0,0,0,0,0,0,0,0,0,0,0,0
2002,7,14,12,0,,24.3,22.5,90,99470,0,0,434,297,22,276,34645,1924,32810,0,270,5.7,10,0,0,0,0,0,0,0,0,0,0,0,0
2002,7,14,13,0,,23.9,22.6,94,99430,0,0,427,281,18,264,32452,1110,31467,0,230,4.2,10,0,0,0,0,0,0,0,0,0,0,0,0
2002,7,14,14,0,,24.5,22.6,87,99400,0,0,427,386,46,343,43251,4002,40147,0,250,5.4,9,0,0,0,0,0,0,0,0,0,0,0,0
2002,7,14,15,0,,26,22.7,82,99360,0,0,432,402,67,343,43547,5876,39876,0,250,6.1,9,0,0,0,0,0,0,0,0,0,0,0,0
2002,7,14,16,0,,26.1,22.6,81,99340,0,0,432,342,72,288,35967,6084,33253,0,250,4.5,9,0,0,0,0,0,0,0,0,0,0,0,0
2002,7,14,17,0,,26.1,22.6,81,99330,0,0,432,256,71,213,25750,5419,24388,0,230,3.8,9,0,0,0,0,0,0,0,0,0,0,0,0
2002,7,14,18,0,,25.4,22.5,84,99310,0,0,428,157,62,132,14778,3340,14598,0,200,4.6,9,0,0,0,0,0,0,0,0,0,0,0,0
2002,7,14,19,0,,24.9,22.9,90,99320,0,0,423,73,56,61,0,0,0,0,270,4.7,9,0,0,0,0,0,0,0,0,0,0,0,0
2002,7,14,20,0,,24.3,23.3,92,99320,0,0,417,17,3,14,0,0,0,0,230,4.5,8,0,0,0,0,0,0,0,0,0,0,0,0
2002,7,14,21,0,,25.1,23.7,92,99330,0,0,419,0,0,0,0,0,0,0,250,7.3,8,0,0,0,0,0,0,0,0,0,0,0,0
2002,7,14,22,0,,25.4,23.7,88,99320,0,0,424,0,0,0,0,0,0,0,250,6.2,8,0,0,0,0,0,0,0,0,0,0,0,0
2002,7,14,23,0,,24.7,23.7,90,99310,0,0,423,0,0,0,0,0,0,0,230,2.5,9,0,0,0,0,0,0,0,0,0,0,0,0
2002,7,14,24,0,,25.2,23.7,91,99300,0,0,429,0,0,0,0,0,0,0,250,4.9,9,0,0,0,0,0,0,0,0,0,0,0,0
2002,7,15,1,0,,25.2,23.6,88,99260,0,0,432,0,0,0,0,0,0,0,250,6.6,9,0,0,0,0,0,0,0,0,0,0,0,0
2002,7,15,2,0,,24.7,23.4,90,99210,0,0,433,0,0,0,0,0,0,0,230,4.5,10,0,0,0,0,0,0,0,0,0,0,0,0
2002,7,15,3,0,,24.8,23.3,91,99170,0,0,438,0,0,0,0,0,0,0,230,5.1,10,0,0,0,0,0,0,0,0,0,0,0,0
2002,7,15,4,0,,24.5,23.3,95,99160,0,0,436,0,0,0,0,0,0,0,250,6.1,10,0,0,0,0,0,0,0,0,0,0,0,0
2002,7,15,5,0,,23.9,23.2,95,99140,0,0,433,0,0,0,0,0,0,0,230,5,10,0,0,0,0,0,0,0,0,0,0,0,0
2002,7,15,6,0,,23.8,23.2,97,99130,0,0,432,8,0,8,1027,6,1025,0,250,6.4,10,0,0,0,0,0,0,0,0,0,0,0,0
2002,7,15,7,0,,24,23.6,97,99130,0,0,434,54,23,49,7844,1853,6816,0,230,6.2,10,0,0,0,0,0,0,0,0,0,0,0,0
2002,7,15,8,0,,24.3,23.9,97,99120,0,0,436,128,34,114,15886,2835,13850,0,250,7.3,10,0,0,0,0,0,0,0,0,0,0,0,0
2002,7,15,9,0,,24.9,24.3,97,99120,0,0,440,190,31,172,22949,2576,20767,0,250,6.8,10,0,0,0,0,0,0,0,0,0,0,0,0
2002,7,15,10,0,,25.5,24,93,99070,0,0,439,258,33,233,30533,2749,27970,0,250,6.5,10,0,0,0,0,0,0,0,0,0,0,0,0
2002,7,15,11,0,,26,23.8,89,99030,0,0,437,397,65,341,45788,5570,40393,0,250,7.3,9,0,0,0,0,0,0,0,0,0,0,0,0
2002,7,15,12,0,,26.8,23.5,82,98980,0,0,438,440,65,378,49990,5627,44627,0,250,7.3,9,0,0,0,0,0,0,0,0,0,0,0,0
2002,7,15,13,0,,27.4,23.6,80,98940,0,0,445,459,67,394,51462,5818,46301,0,230,7.2,9,0,0,0,0,0,0,0,0,0,0,0,0
2002,7,15,14,0,,27.7,23.6,78,98900,0,0,451,364,39,327,41122,3366,38514,0,250,7.6,10,0,0,0,0,0,0,0,0,0,0,0,0
2002,7,15,15,0,,26.4,23.7,85,98860,0,0,448,277,25,256,29943,1672,28899,0,250,5.7,10,0,0,0,0,0,0,0,0,0,0,0,0
2002,7,15,16,0,,25.2,23.8,93,98820,0,0,423,315,58,272,33705,4781,31577,0,270,3.7,8,0,0,0,0,0,0,0,0,0,0,0,0
2002,7,15,17,0,,25.9,23.8,92,98770,0,0,415,304,117,236,29139,8770,26945,0,200,3.6,7,0,0,0,0,0,0,0,0,0,0,0,0
2002,7,15,18,0,,25.5,23.9,91,98730,0,0,407,251,244,152,17365,261,17352,0,180,2.8,5,0,0,0,0,0,0,0,0,0,0,0,0
2002,7,15,19,0,,25.1,23.5,92,98750,0,0,411,107,173,71,0,0,0,0,230,3.5,7,0,0,0,0,0,0,0,0,0,0,0,0
2002,7,15,20,0,,24.3,23.2,94,98780,0,0,417,16,2,14,0,0,0,0,200,3.9,8,0,0,0,0,0,0,0,0,0,0,0,0
2002,7,15,21,0,,23.6,22.8,95,98800,0,0,430,0,0,0,0,0,0,0,200,3,10,0,0,0,0,0,0,0,0,0,0,0,0
2002,7,15,22,0,,23.4,23,96,98800,0,0,425,0,0,0,0,0,0,0,250,2.5,10,0,0,0,0,0,0,0,0,0,0,0,0
2002,7,15,23,0,,23.9,23.3,96,98810,0,0,424,0,0,0,0,0,0,0,270,2.7,9,0,0,0,0,0,0,0,0,0,0,0,0
2002,7,15,24,0,,24.2,23.5,96,98810,0,0,423,0,0,0,0,0,0,0,290,3.7,9,0,0,0,0,0,0,0,0,0,0,0,0
2002,7,16,1,0,,24,23.5,96,98790,0,0,422,0,0,0,0,0,0,0,270,4.4,9,0,0,0,0,0,0,0,0,0,0,0,0
2002,7,16,2,0,,23.9,23.5,97,98760,0,0,421,0,0,0,0,0,0,0,270,5.3,9,0,0,0,0,0,0,0,0,0,0,0,0
2002,7,16,3,0,,23.9,23.5,97,98740,0,0,421,0,0,0,0,0,0,0,250,4.7,9,0,0,0,0,0,0,0,0,0,0,0,0
2002,7,16,4,0,,23.7,23.2,97,98750,0,0,423,0,0,0,0,0,0,0,270,5.7,9,0,0,0,0,0,0,0,0,0,0,0,0
2002,7,16,5,0,,23.4,22.9,97,98760,0,0,425,0,0,0,0,0,0,0,230,3.9,10,0,0,0,0,0,0,0,0,0,0,0,0
2002,7,16,6,0,,23.2,22.6,97,98770,0,0,428,7,0,7,950,4,948,0,270,4.1,10,0,0,0,0,0,0,0,0,0,0,0,0
2002,7,16,7,0,,22.9,22.3,97,98810,0,0,411,72,54,61,10832,4548,8315,0,250,5.5,9,0,0,0,0,0,0,0,0,0,0,0,0
2002,7,16,8,0,,23.7,22,95,98850,0,0,405,231,185,155,32976,15399,21934,0,270,5,7,0,0,0,0,0,0,0,0,0,0,0,0
2002,7,16,9,0,,24.9,21.7,82,98890,0,0,404,387,231,250,50145,19471,33673,0,230,4.2,6,0,0,0,0,0,0,0,0,0,0,0,0
2002,7,16,10,0,,26.4,21.8,78,98870,0,0,411,549,275,343,66419,23146,44858,0,250,6,6,0,0,0,0,0,0,0,0,0,0,0,0
2002,7,16,11,0,,27.4,21.8,74,98850,0,0,416,672,285,424,77325,23884,54209,0,250,4.8,5,0,0,0,0,0,0,0,0,0,0,0,0
2002,7,16,12,0,,26.2,21.9,77,98830,0,0,408,679,214,476,74907,18339,57440,0,200,4.6,5,0,0,0,0,0,0,0,0,0,0,0,0
2002,7,16,13,0,,25.6,21.4,82,98800,0,0,404,660,181,485,71847,15521,58090,0,230,5.4,5,0,0,0,0,0,0,0,0,0,0,0,0
2002,7,16,14,0,,28,20.8,72,98770,0,0,417,672,209,474,70373,17902,56516,0,250,2.4,5,0,0,0,0,0,0,0,0,0,0,0,0
2002,7,16,15,0,,30.6,20.3,54,98740,0,0,431,726,470,318,65331,39194,40903,0,250,5.6,5,0,0,0,0,0,0,0,0,0,0,0,0
2002,7,16,16,0,,27.7,19.9,64,98750,0,0,414,585,406,282,49996,31845,35852,0,200,6,5,0,0,0,0,0,0,0,0,0,0,0,0
2002,7,16,17,0,,27.9,19.6,60,98750,0,0,414,433,337,234,32794,21462,27450,0,200,5.6,5,0,0,0,0,0,0,0,0,0,0,0,0
2002,7,16,18,0,,25.4,19.2,68,98760,0,0,400,249,240,152,16777,1694,16690,0,180,4.6,5,0,0,0,0,0,0,0,0,0,0,0,0
2002,7,16,19,0,,24,19.7,76,98820,0,0,394,122,262,67,0,0,0,0,200,3.8,5,0,0,0,0,0,0,0,0,0,0,0,0
2002,7,16,20,0,,23.2,20.1,77,98870,0,0,392,20,5,16,0,0,0,0,180,1.4,6,0,0,0,0,0,0,0,0,0,0,0,0
2002,7,16,21,0,,23.4,20.6,84,98930,0,0,395,0,0,0,0,0,0,0,250,6.1,6,0,0,0,0,0,0,0,0,0,0,0,0
2002,7,16,22,0,,23.5,20.6,89,98930,0,0,395,0,0,0,0,0,0,0,270,4.8,6,0,0,0,0,0,0,0,0,0,0,0,0
2002,7,16,23,0,,23.8,20.6,81,98920,0,0,397,0,0,0,0,0,0,0,230,3.3,6,0,0,0,0,0,0,0,0,0,0,0,0
2002,7,16,24,0,,22.2,20.6,91,98920,0,0,388,0,0,0,0,0,0,0,200,2.6,6,0,0,0,0,0,0,0,0,0,0,0,0
2002,7,17,1,0,,22.3,20.9,95,98910,0,0,387,0,0,0,0,0,0,0,250,3.2,5,0,0,0,0,0,0,0,0,0,0,0,0
2002,7,17,2,0,,22.4,21.2,96,98890,0,0,386,0,0,0,0,0,0,0,200,3.6,5,0,0,0,0,0,0,0,0,0,0,0,0
2002,7,17,3,0,,22.2,21.5,96,98880,0,0,383,0,0,0,0,0,0,0,250,2.6,4,0,0,0,0,0,0,0,0,0,0,0,0
2002,7,17,4,0,,22,21.6,96,98900,0,0,378,0,0,0,0,0,0,0,0,0,3,0,0,0,0,0,0,0,0,0,0,0,0
2002,7,17,5,0,,21.2,21.7,97,98910,0,0,369,0,0,0,0,0,0,0,230,1.4,1,0,0,0,0,0,0,0,0,0,0,0,0
2002,7,17,6,0,,22.2,21.8,97,98930,0,0,365,34,14,19,3188,1094,2789,0,340,2.9,0,0,0,0,0,0,0,0,0,0,0,0,0
2002,7,17,7,0,,22.8,20.8,96,98960,0,0,369,155,458,58,35272,47461,9073,0,250,1.4,0,0,0,0,0,0,0,0,0,0,0,0,0
2002,7,17,8,0,,24.2,19.8,83,99000,0,0,377,337,580,100,57501,60396,14270,0,290,1.1,1,0,0,0,0,0,0,0,0,0,0,0,0
2002,7,17,9,0,,26.1,18.8,64,99030,0,0,388,511,607,152,73050,60094,22274,0,110,1.1,1,0,0,0,0,0,0,0,0,0,0,0,0
2002,7,17,10,0,,27,19.8,67,99080,0,0,392,673,630,201,85412,61752,27941,0,160,2.8,1,0,0,0,0,0,0,0,0,0,0,0,0
2002,7,17,11,0,,27,20.7,69,99120,0,0,391,735,489,309,84146,43615,41965,0,180,1.7,0,0,0,0,0,0,0,0,0,0,0,0,0
2002,7,17,12,0,,26.8,21.7,74,99170,0,0,388,746,285,476,82774,23930,59998,0,110,1.3,0,0,0,0,0,0,0,0,0,0,0,0,0
2002,7,17,13,0,,26.9,21.6,75,99160,0,0,388,736,248,495,78184,21194,59413,0,180,0.7,0,0,0,0,0,0,0,0,0,0,0,0,0
2002,7,17,14,0,,27.5,21.5,71,99140,0,0,391,772,320,470,79612,26603,59039,0,200,3.1,0,0,0,0,0,0,0,0,0,0,0,0,0
2002,7,17,15,0,,27.3,21.4,70,99130,0,0,390,705,336,413,66844,27957,49444,0,200,2.9,0,0,0,0,0,0,0,0,0,0,0,0,0
2002,7,17,16,0,,27,21.4,75,99140,0,0,389,611,474,257,49587,36255,33522,0,200,3.1,0,0,0,0,0,0,0,0,0,0,0,0,0
2002,7,17,17,0,,26.2,21.3,71,99160,0,0,384,442,395,209,32403,22794,26756,0,200,2,0,0,0,0,0,0,0,0,0,0,0,0,0
2002,7,17,18,0,,24.8,21.3,81,99170,0,0,377,300,426,127,15019,0,15019,0,200,3.4,0,0,0,0,0,0,0,0,0,0,0,0,0
2002,7,17,19,0,,23.5,21.1,87,99220,0,0,370,138,334,68,0,0,0,0,180,2.6,0,0,0,0,0,0,0,0,0,0,0,0,0
2002,7,17,20,0,,22.3,21,91,99260,0,0,364,30,14,15,0,0,0,0,200,3.7,0,0,0,0,0,0,0,0,0,0,0,0,0
2002,7,17,21,0,,21.9,20.8,93,99310,0,0,362,0,0,0,0,0,0,0,200,1.8,0,0,0,0,0,0,0,0,0,0,0,0,0
2002,7,17,22,0,,21.7,20.8,93,99340,0,0,377,0,0,0,0,0,0,0,230,2.7,3,0,0,0,0,0,0,0,0,0,0,0,0
2002,7,17,23,0,,21.6,20.8,93,99370,0,0,386,0,0,0,0,0,0,0,180,2.4,6,0,0,0,0,0,0,0,0,0,0,0,0
2002,7,17,24,0,,21.9,20.8,93,99400,0,0,406,0,0,0,0,0,0,0,200,2.3,9,0,0,0,0,0,0,0,0,0,0,0,0
2002,7,18,1,0,,21.9,20.7,93,99400,0,0,406,0,0,0,0,0,0,0,250,2.9,9,0,0,0,0,0,0,0,0,0,0,0,0
2002,7,18,2,0,,21.8,20.6,93,99400,0,0,406,0,0,0,0,0,0,0,200,1.8,9,0,0,0,0,0,0,0,0,0,0,0,0
2002,7,18,3,0,,21.6,20.5,93,99400,0,0,404,0,0,0,0,0,0,0,0,0,9,0,0,0,0,0,0,0,0,0,0,0,0
2002,7,18,4,0,,21.4,20.4,94,99420,0,0,403,0,0,0,0,0,0,0,90,0.8,9,0,0,0,0,0,0,0,0,0,0,0,0
2002,7,18,5,0,,21.3,20.4,94,99440,0,0,403,0,0,0,0,0,0,0,0,0.1,9,0,0,0,0,0,0,0,0,0,0,0,0
2002,7,18,6,0,,21.3,20.3,94,99460,0,0,403,11,1,10,1337,16,1331,0,90,2,9,0,0,0,0,0,0,0,0,0,0,0,0
2002,7,18,7,0,,21.5,20.4,94,99510,0,0,407,71,54,60,10617,4672,8045,0,110,2.4,9,0,0,0,0,0,0,0,0,0,0,0,0
2002,7,18,8,0,,21.8,20.4,93,99560,0,0,413,108,22,99,13391,1933,12010,0,110,2.2,10,0,0,0,0,0,0,0,0,0,0,0,0
2002,7,18,9,0,,22.8,20.5,87,99610,0,0,423,176,26,161,21114,2225,19237,0,140,1.6,10,0,0,0,0,0,0,0,0,0,0,0,0
2002,7,18,10,0,,24.5,20.6,76,99610,0,0,417,330,65,281,38495,5776,33124,0,110,2.1,9,0,0,0,0,0,0,0,0,0,0,0,0
2002,7,18,11,0,,25.8,20.8,71,99620,0,0,415,547,158,410,63089,13853,49702,0,140,1.9,7,0,0,0,0,0,0,0,0,0,0,0,0
2002,7,18,12,0,,26.3,20.9,72,99620,0,0,411,664,203,473,73496,17664,56697,0,110,3.2,6,0,0,0,0,0,0,0,0,0,0,0,0
2002,7,18,13,0,,26.1,20.9,73,99620,0,0,415,590,133,461,65441,11518,55249,0,140,2.9,7,0,0,0,0,0,0,0,0,0,0,0,0
2002,7,18,14,0,,25.5,21,74,99610,0,0,418,466,77,393,50934,6889,45613,0,140,3.3,8,0,0,0,0,0,0,0,0,0,0,0,0
2002,7,18,15,0,,25.2,21,77,99610,0,0,425,332,41,297,36742,3584,34515,0,140,3.6,9,0,0,0,0,0,0,0,0,0,0,0,0
2002,7,18,16,0,,24.7,20.7,77,99630,0,0,426,270,38,242,27542,2909,26256,0,110,2.6,9,0,0,0,0,0,0,0,0,0,0,0,0
2002,7,18,17,0,,24.1,20.5,79,99650,0,0,426,149,16,140,15007,816,14806,0,110,2.8,10,0,0,0,0,0,0,0,0,0,0,0,0
2002,7,18,18,0,,23.2,20.2,83,99670,0,0,424,101,19,94,8922,952,8876,0,90,2.7,10,0,0,0,0,0,0,0,0,0,0,0,0
2002,7,18,19,0,,22.7,20.1,84,99690,0,0,421,49,19,45,0,0,0,0,110,4.2,10,0,0,0,0,0,0,0,0,0,0,0,0
2002,7,18,20,0,,22.6,19.9,84,99710,0,0,421,7,0,7,0,0,0,0,90,4.3,10,0,0,0,0,0,0,0,0,0,0,0,0
2002,7,18,21,0,,22.4,19.8,85,99730,0,0,419,0,0,0,0,0,0,0,90,3.6,10,0,0,0,0,0,0,0,0,0,0,0,0
2002,7,18,22,0,,22.4,19.7,85,99700,0,0,419,0,0,0,0,0,0,0,110,3.2,10,0,0,0,0,0,0,0,0,0,0,0,0
2002,7,18,23,0,,22.7,19.7,84,99670,0,0,421,0,0,0,0,0,0,0,70,4.5,10,0,0,0,0,0,0,0,0,0,0,0,0
2002,7,18,24,0,,22.8,19.6,82,99640,0,0,421,0,0,0,0,0,0,0,70,3.5,10,0,0,0,0,0,0,0,0,0,0,0,0
2002,7,19,1,0,,22.6,20,87,99570,0,0,421,0,0,0,0,0,0,0,70,3.6,10,0,0,0,0,0,0,0,0,0,0,0,0
2002,7,19,2,0,,22,20.4,92,99500,0,0,418,0,0,0,0,0,0,0,70,5.6,10,0,0,0,0,0,0,0,0,0,0,0,0
2002,7,19,3,0,,21.7,20.8,95,99430,0,0,417,0,0,0,0,0,0,0,90,2.9,10,0,0,0,0,0,0,0,0,0,0,0,0
2002,7,19,4,0,,21.7,20.8,96,99410,0,0,417,0,0,0,0,0,0,0,90,3.1,10,0,0,0,0,0,0,0,0,0,0,0,0
2002,7,19,5,0,,21.4,20.8,97,99400,0,0,415,0,0,0,0,0,0,0,70,4.3,10,0,0,0,0,0,0,0,0,0,0,0,0
2002,7,19,6,0,,21.2,20.8,97,99380,0,0,414,7,0,6,886,4,884,0,70,5.5,10,0,0,0,0,0,0,0,0,0,0,0,0
2002,7,19,7,0,,21.3,21,97,99350,0,0,415,44,15,41,5773,1225,5101,0,70,2.7,10,0,0,0,0,0,0,0,0,0,0,0,0
2002,7,19,8,0,,21.6,21.3,97,99320,0,0,417,102,19,94,12632,1638,11464,0,110,2.5,10,0,0,0,0,0,0,0,0,0,0,0,0
2002,7,19,9,0,,21.9,21.5,97,99290,0,0,419,153,18,143,18491,1504,17223,0,90,2.8,10,0,0,0,0,0,0,0,0,0,0,0,0
2002,7,19,10,0,,22.6,21.8,97,99290,0,0,423,222,22,206,26391,1915,24612,0,180,3.3,10,0,0,0,0,0,0,0,0,0,0,0,0
2002,7,19,11,0,,22.7,22.2,98,99300,0,0,424,270,23,250,31705,1975,29797,0,230,5.3,10,0,0,0,0,0,0,0,0,0,0,0,0
2002,7,19,12,0,,22.8,22.5,98,99300,0,0,425,277,19,259,32372,1591,30860,0,230,4.3,10,0,0,0,0,0,0,0,0,0,0,0,0
2002,7,19,13,0,,22.8,22.4,98,99310,0,0,425,295,20,275,34136,1744,32594,0,200,7.4,10,0,0,0,0,0,0,0,0,0,0,0,0
2002,7,19,14,0,,23,22.4,97,99310,0,0,426,310,25,286,35372,2203,33672,0,230,9.6,10,0,0,0,0,0,0,0,0,0,0,0,0
2002,7,19,15,0,,22.9,22.3,97,99320,0,0,426,292,28,267,31334,2042,30067,0,230,9.6,10,0,0,0,0,0,0,0,0,0,0,0,0
2002,7,19,16,0,,23.2,21.8,91,99380,0,0,409,401,113,317,40610,9721,36326,0,230,9.9,8,0,0,0,0,0,0,0,0,0,0,0,0
2002,7,19,17,0,,22.3,21.4,91,99430,0,0,393,347,173,246,31107,13504,27799,0,230,11,7,0,0,0,0,0,0,0,0,0,0,0,0
2002,7,19,18,0,,22.2,20.9,92,99490,0,0,385,277,350,136,15796,0,15796,0,230,8.3,5,0,0,0,0,0,0,0,0,0,0,0,0
2002,7,19,19,0,,22.2,20.9,91,99590,0,0,384,132,303,70,0,0,0,0,250,7.2,5,0,0,0,0,0,0,0,0,0,0,0,0
2002,7,19,20,0,,22.1,20.8,91,99690,0,0,383,30,16,14,0,0,0,0,230,6.4,4,0,0,0,0,0,0,0,0,0,0,0,0
2002,7,19,21,0,,22.3,20.8,91,99790,0,0,383,0,0,0,0,0,0,0,250,5,4,0,0,0,0,0,0,0,0,0,0,0,0
2002,7,19,22,0,,22.2,20.7,90,99840,0,0,387,0,0,0,0,0,0,0,230,2.8,6,0,0,0,0,0,0,0,0,0,0,0,0
2002,7,19,23,0,,21.8,20.7,91,99890,0,0,393,0,0,0,0,0,0,0,230,3.4,7,0,0,0,0,0,0,0,0,0,0,0,0
2002,7,19,24,0,,21.9,20.6,92,99940,0,0,406,0,0,0,0,0,0,0,230,3.1,9,0,0,0,0,0,0,0,0,0,0,0,0
2002,7,20,1,0,,21.8,20.7,93,99960,0,0,406,0,0,0,0,0,0,0,250,4.4,9,0,0,0,0,0,0,0,0,0,0,0,0
2002,7,20,2,0,,21.9,20.7,93,99990,0,0,406,0,0,0,0,0,0,0,270,5.4,9,0,0,0,0,0,0,0,0,0,0,0,0
2002,7,20,3,0,,21.9,20.8,93,100010,0,0,406,0,0,0,0,0,0,0,270,4.5,9,0,0,0,0,0,0,0,0,0,0,0,0
2002,7,20,4,0,,21.6,20.6,93,100050,0,0,392,0,0,0,0,0,0,0,200,3.6,7,0,0,0,0,0,0,0,0,0,0,0,0
2002,7,20,5,0,,21.1,20.4,94,100100,0,0,381,0,0,0,0,0,0,0,230,4.2,6,0,0,0,0,0,0,0,0,0,0,0,0
2002,7,20,6,0,,21.1,20.2,95,100140,0,0,376,27,12,16,2565,915,2236,0,270,2.5,4,0,0,0,0,0,0,0,0,0,0,0,0
2002,7,20,7,0,,21.6,20.1,94,100160,0,0,378,135,332,67,29020,32177,11402,0,270,2.6,4,0,0,0,0,0,0,0,0,0,0,0,0
2002,7,20,8,0,,22.7,20.1,88,100190,0,0,384,298,431,125,49185,42265,19091,0,250,4.4,4,0,0,0,0,0,0,0,0,0,0,0,0
2002,7,20,9,0,,23.9,20,79,100210,0,0,390,450,429,199,62951,41833,27736,0,230,3.3,4,0,0,0,0,0,0,0,0,0,0,0,0
2002,7,20,10,0,,25.6,20.3,71,100210,0,0,396,641,558,225,81142,54395,30665,0,250,5.2,3,0,0,0,0,0,0,0,0,0,0,0,0
2002,7,20,11,0,,26.5,20.6,70,100210,0,0,398,768,572,272,88818,55174,35590,0,230,4.5,2,0,0,0,0,0,0,0,0,0,0,0,0
2002,7,20,12,0,,26.2,20.9,73,100210,0,0,391,821,518,333,88309,46047,44587,0,200,5.5,1,0,0,0,0,0,0,0,0,0,0,0,0
2002,7,20,13,0,,26.5,20.7,67,100170,0,0,401,797,320,487,84528,27350,60369,0,230,5.7,3,0,0,0,0,0,0,0,0,0,0,0,0
2002,7,20,14,0,,27.5,20.4,69,100140,0,0,411,742,284,474,75206,24502,56322,0,180,4.1,4,0,0,0,0,0,0,0,0,0,0,0,0
2002,7,20,15,0,,26.5,20.2,68,100100,0,0,411,586,193,419,59768,16369,49630,0,180,5.2,6,0,0,0,0,0,0,0,0,0,0,0,0
2002,7,20,16,0,,25.8,20.3,68,100100,0,0,412,435,142,329,43036,12525,37532,0,250,6.4,7,0,0,0,0,0,0,0,0,0,0,0,0
2002,7,20,17,0,,25.1,20.3,70,100100,0,0,415,286,101,227,27614,7879,25697,0,250,8,8,0,0,0,0,0,0,0,0,0,0,0,0
2002,7,20,18,0,,25.1,20.4,75,100100,0,0,424,151,58,127,14093,3192,13952,0,270,4.3,9,0,0,0,0,0,0,0,0,0,0,0,0
2002,7,20,19,0,,24.8,20.7,78,100130,0,0,426,77,74,62,0,0,0,0,270,4.6,9,0,0,0,0,0,0,0,0,0,0,0,0
2002,7,20,20,0,,24.5,21.1,78,100170,0,0,429,7,0,7,0,0,0,0,230,3.8,10,0,0,0,0,0,0,0,0,0,0,0,0
2002,7,20,21,0,,24.1,21.4,85,100200,0,0,431,0,0,0,0,0,0,0,270,2.3,10,0,0,0,0,0,0,0,0,0,0,0,0
2002,7,20,22,0,,23.6,21.7,88,100200,0,0,429,0,0,0,0,0,0,0,200,3.9,10,0,0,0,0,0,0,0,0,0,0,0,0
2002,7,20,23,0,,23.2,21.9,93,100200,0,0,427,0,0,0,0,0,0,0,200,2.7,10,0,0,0,0,0,0,0,0,0,0,0,0
2002,7,20,24,0,,23,22.2,95,100200,0,0,426,0,0,0,0,0,0,0,200,2.5,10,0,0,0,0,0,0,0,0,0,0,0,0
2002,7,21,1,0,,22.7,22,95,100160,0,0,424,0,0,0,0,0,0,0,200,3.6,10,0,0,0,0,0,0,0,0,0,0,0,0
2002,7,21,2,0,,23,21.7,96,100110,0,0,425,0,0,0,0,0,0,0,250,4.2,10,0,0,0,0,0,0,0,0,0,0,0,0
2002,7,21,3,0,,22.1,21.5,97,100070,0,0,420,0,0,0,0,0,0,0,270,3.1,10,0,0,0,0,0,0,0,0,0,0,0,0
2002,7,21,4,0,,21.7,21.2,96,100100,0,0,417,0,0,0,0,0,0,0,180,2.4,10,0,0,0,0,0,0,0,0,0,0,0,0
2002,7,21,5,0,,21.2,20.9,96,100120,0,0,414,0,0,0,0,0,0,0,290,2.6,10,0,0,0,0,0,0,0,0,0,0,0,0
2002,7,21,6,0,,21,20.6,97,100150,0,0,413,3,0,3,462,0,462,0,90,0.4,10,0,0,0,0,0,0,0,0,0,0,0,0
2002,7,21,7,0,,21.2,20.7,97,100170,0,0,414,42,14,40,5505,1146,4879,0,90,2.2,10,0,0,0,0,0,0,0,0,0,0,0,0
2002,7,21,8,0,,21.1,20.7,97,100190,0,0,413,97,17,91,12043,1484,10988,0,160,1.7,10,0,0,0,0,0,0,0,0,0,0,0,0
2002,7,21,9,0,,21.2,20.8,97,100210,0,0,414,141,14,133,17068,1228,16035,0,70,1.5,10,0,0,0,0,0,0,0,0,0,0,0,0
2002,7,21,10,0,,21.6,20.9,97,100170,0,0,416,188,14,177,22386,1217,21257,0,110,0.4,10,0,0,0,0,0,0,0,0,0,0,0,0
2002,7,21,11,0,,21.6,20.9,97,100140,0,0,417,228,15,216,26982,1264,25763,0,90,1.3,10,0,0,0,0,0,0,0,0,0,0,0,0
2002,7,21,12,0,,21.4,21,97,100100,0,0,415,249,14,236,29517,853,28708,0,140,1.6,10,0,0,0,0,0,0,0,0,0,0,0,0
2002,7,21,13,0,,22.5,21.4,97,100070,0,0,422,261,15,247,30388,915,29580,0,0,0,10,0,0,0,0,0,0,0,0,0,0,0,0
2002,7,21,14,0,,22.8,21.7,96,100050,0,0,424,245,13,233,28041,856,27383,0,0,0.2,10,0,0,0,0,0,0,0,0,0,0,0,0
2002,7,21,15,0,,23.1,22.1,94,100020,0,0,427,251,19,235,27474,1279,26683,0,200,1.1,10,0,0,0,0,0,0,0,0,0,0,0,0
2002,7,21,16,0,,23,22.1,93,100000,0,0,426,188,14,177,20075,865,19696,0,200,1.6,10,0,0,0,0,0,0,0,0,0,0,0,0
2002,7,21,17,0,,23.4,22,92,99990,0,0,428,161,20,149,15886,1048,15632,0,200,2.2,10,0,0,0,0,0,0,0,0,0,0,0,0
2002,7,21,18,0,,23.4,22,92,99970,0,0,428,107,22,98,9199,1388,9140,0,250,3.2,10,0,0,0,0,0,0,0,0,0,0,0,0
2002,7,21,19,0,,23,21.8,92,100010,0,0,403,85,99,65,0,0,0,0,250,3.3,8,0,0,0,0,0,0,0,0,0,0,0,0
2002,7,21,20,0,,22.7,21.7,94,100060,0,0,390,24,9,16,0,0,0,0,250,3.2,5,0,0,0,0,0,0,0,0,0,0,0,0
2002,7,21,21,0,,22.3,21.5,95,100100,0,0,381,0,0,0,0,0,0,0,200,1.8,3,0,0,0,0,0,0,0,0,0,0,0,0
2002,7,21,22,0,,22.3,21.7,95,100120,0,0,383,0,0,0,0,0,0,0,180,3.4,4,0,0,0,0,0,0,0,0,0,0,0,0
2002,7,21,23,0,,22.5,21.8,96,100130,0,0,386,0,0,0,0,0,0,0,250,1.6,4,0,0,0,0,0,0,0,0,0,0,0,0
2002,7,21,24,0,,22.8,22,95,100150,0,0,390,0,0,0,0,0,0,0,270,3,5,0,0,0,0,0,0,0,0,0,0,0,0
2002,7,22,1,0,,22.7,21.9,95,100150,0,0,396,0,0,0,0,0,0,0,270,3.5,7,0,0,0,0,0,0,0,0,0,0,0,0
2002,7,22,2,0,,22.8,21.8,94,100140,0,0,407,0,0,0,0,0,0,0,250,3.1,8,0,0,0,0,0,0,0,0,0,0,0,0
2002,7,22,3,0,,22.7,21.7,94,100140,0,0,424,0,0,0,0,0,0,0,270,1.4,10,0,0,0,0,0,0,0,0,0,0,0,0
2002,7,22,4,0,,22.6,21.7,95,100130,0,0,423,0,0,0,0,0,0,0,230,2.8,10,0,0,0,0,0,0,0,0,0,0,0,0
2002,7,22,5,0,,22.7,21.7,95,100120,0,0,424,0,0,0,0,0,0,0,70,2,10,0,0,0,0,0,0,0,0,0,0,0,0
2002,7,22,6,0,,22.6,21.7,95,100110,0,0,423,5,0,5,688,2,687,0,290,2.5,10,0,0,0,0,0,0,0,0,0,0,0,0
2002,7,22,7,0,,22.4,21.8,96,100130,0,0,414,65,48,56,9847,4100,7615,0,230,4.1,9,0,0,0,0,0,0,0,0,0,0,0,0
2002,7,22,8,0,,23.5,21.8,95,100150,0,0,413,144,52,123,19333,4525,16124,0,320,1.3,9,0,0,0,0,0,0,0,0,0,0,0,0
2002,7,22,9,0,,24.6,21.9,85,100170,0,0,414,281,97,224,35500,8410,28439,0,230,1.8,8,0,0,0,0,0,0,0,0,0,0,0,0
2002,7,22,10,0,,25.2,22,81,100180,0,0,420,390,106,311,47182,9164,38696,0,200,3.1,8,0,0,0,0,0,0,0,0,0,0,0,0
2002,7,22,11,0,,25.2,22,83,100180,0,0,423,359,51,315,41483,4420,37227,0,200,2.4,9,0,0,0,0,0,0,0,0,0,0,0,0
2002,7,22,12,0,,26.3,22.1,78,100190,0,0,433,406,54,356,46299,4692,41852,0,200,3.1,9,0,0,0,0,0,0,0,0,0,0,0,0
2002,7,22,13,0,,27.9,22.6,77,100160,0,0,443,456,67,391,50950,5852,45791,0,200,3.7,9,0,0,0,0,0,0,0,0,0,0,0,0
2002,7,22,14,0,,27.1,23.2,81,100130,0,0,439,430,63,371,47570,5436,43391,0,200,4.5,9,0,0,0,0,0,0,0,0,0,0,0,0
2002,7,22,15,0,,26.6,23.7,84,100100,0,0,437,359,51,315,39480,4331,36808,0,200,4.8,9,0,0,0,0,0,0,0,0,0,0,0,0
2002,7,22,16,0,,25.5,23.5,89,100100,0,0,434,257,34,232,26138,2363,25106,0,230,3.8,9,0,0,0,0,0,0,0,0,0,0,0,0
2002,7,22,17,0,,25.3,23.3,88,100100,0,0,436,143,15,134,14312,644,14158,0,180,2.4,10,0,0,0,0,0,0,0,0,0,0,0,0
2002,7,22,18,0,,24.6,23.1,91,100100,0,0,437,90,14,84,7968,578,7944,0,200,3.2,10,0,0,0,0,0,0,0,0,0,0,0,0
2002,7,22,19,0,,24.5,22.9,91,100110,0,0,436,44,16,41,0,0,0,0,200,2.6,10,0,0,0,0,0,0,0,0,0,0,0,0
2002,7,22,20,0,,23.9,22.8,93,100120,0,0,432,3,0,3,0,0,0,0,200,2.3,10,0,0,0,0,0,0,0,0,0,0,0,0
2002,7,22,21,0,,23.6,22.6,94,100130,0,0,430,0,0,0,0,0,0,0,200,1.3,10,0,0,0,0,0,0,0,0,0,0,0,0
2002,7,22,22,0,,23.4,22.6,95,100150,0,0,429,0,0,0,0,0,0,0,200,2,10,0,0,0,0,0,0,0,0,0,0,0,0
2002,7,22,23,0,,23.3,22.6,95,100170,0,0,428,0,0,0,0,0,0,0,200,2.1,10,0,0,0,0,0,0,0,0,0,0,0,0
2002,7,22,24,0,,23.3,22.6,96,100190,0,0,428,0,0,0,0,0,0,0,200,3,10,0,0,0,0,0,0,0,0,0,0,0,0
2002,7,23,1,0,,23.1,22.5,97,100170,0,0,423,0,0,0,0,0,0,0,230,2.7,10,0,0,0,0,0,0,0,0,0,0,0,0
2002,7,23,2,0,,23.2,22.4,97,100160,0,0,419,0,0,0,0,0,0,0,230,2.3,9,0,0,0,0,0,0,0,0,0,0,0,0
2002,7,23,3,0,,22.9,22.3,97,100140,0,0,414,0,0,0,0,0,0,0,250,3.1,9,0,0,0,0,0,0,0,0,0,0,0,0
2002,7,23,4,0,,22.9,22.2,97,100150,0,0,414,0,0,0,0,0,0,0,230,2.4,9,0,0,0,0,0,0,0,0,0,0,0,0
2002,7,23,5,0,,22.8,22,96,100150,0,0,413,0,0,0,0,0,0,0,230,0.7,9,0,0,0,0,0,0,0,0,0,0,0,0
2002,7,23,6,0,,22.6,21.9,96,100160,0,0,412,8,0,8,1051,8,1048,0,0,0.2,9,0,0,0,0,0,0,0,0,0,0,0,0
2002,7,23,7,0,,22.8,21.8,96,100170,0,0,407,80,88,62,13377,7148,9496,0,180,1.6,8,0,0,0,0,0,0,0,0,0,0,0,0
2002,7,23,8,0,,23.9,21.6,93,100180,0,0,407,186,109,142,26684,9153,20204,0,200,1.9,8,0,0,0,0,0,0,0,0,0,0,0,0
2002,7,23,9,0,,24.7,21.5,82,100190,0,0,408,341,169,242,44676,14329,32662,0,200,3.5,7,0,0,0,0,0,0,0,0,0,0,0,0
2002,7,23,10,0,,25.6,21.9,83,100190,0,0,411,457,166,334,54589,14363,41303,0,200,3.7,7,0,0,0,0,0,0,0,0,0,0,0,0
2002,7,23,11,0,,26.7,22.4,78,100200,0,0,416,608,218,420,71510,18066,54130,0,200,5.4,6,0,0,0,0,0,0,0,0,0,0,0,0
2002,7,23,12,0,,27.4,22.8,76,100200,0,0,419,667,209,471,73950,17625,57262,0,200,5.6,6,0,0,0,0,0,0,0,0,0,0,0,0
2002,7,23,13,0,,28,23,75,100160,0,0,422,669,192,484,72829,15989,58751,0,200,4.9,6,0,0,0,0,0,0,0,0,0,0,0,0
2002,7,23,14,0,,27.6,23.1,76,100130,0,0,418,692,232,473,72003,19116,57331,0,200,6.2,5,0,0,0,0,0,0,0,0,0,0,0,0
2002,7,23,15,0,,28.1,23.3,75,100090,0,0,420,632,244,421,63108,19539,51079,0,200,5.1,5,0,0,0,0,0,0,0,0,0,0,0,0
2002,7,23,16,0,,27.7,23.3,78,100090,0,0,419,518,239,340,48955,17789,41215,0,200,4.6,5,0,0,0,0,0,0,0,0,0,0,0,0
2002,7,23,17,0,,27.2,23.3,81,100090,0,0,418,358,195,244,31926,11020,29300,0,200,3.7,6,0,0,0,0,0,0,0,0,0,0,0,0
2002,7,23,18,0,,27,23.3,80,100090,0,0,418,235,216,149,16694,0,16694,0,200,3.3,6,0,0,0,0,0,0,0,0,0,0,0,0
2002,7,23,19,0,,25.4,23.3,89,100120,0,0,406,116,266,63,0,0,0,0,200,2.7,5,0,0,0,0,0,0,0,0,0,0,0,0
2002,7,23,20,0,,24.7,23.3,92,100150,0,0,401,20,5,15,0,0,0,0,180,1.3,5,0,0,0,0,0,0,0,0,0,0,0,0
2002,7,23,21,0,,24.4,23.3,93,100180,0,0,397,0,0,0,0,0,0,0,200,0.8,4,0,0,0,0,0,0,0,0,0,0,0,0
2002,7,23,22,0,,23.9,23.2,94,100190,0,0,401,0,0,0,0,0,0,0,200,2.3,6,0,0,0,0,0,0,0,0,0,0,0,0
2002,7,23,23,0,,23.7,23.2,96,100190,0,0,411,0,0,0,0,0,0,0,180,2,8,0,0,0,0,0,0,0,0,0,0,0,0
2002,7,23,24,0,,23.8,23.1,96,100200,0,0,432,0,0,0,0,0,0,0,200,1.5,10,0,0,0,0,0,0,0,0,0,0,0,0
2002,7,24,1,0,,23.9,23,96,100160,0,0,412,0,0,0,0,0,0,0,200,2.1,8,0,0,0,0,0,0,0,0,0,0,0,0
2002,7,24,2,0,,23.6,22.8,96,100120,0,0,399,0,0,0,0,0,0,0,0,0,6,0,0,0,0,0,0,0,0,0,0,0,0
2002,7,24,3,0,,23.5,22.7,95,100080,0,0,392,0,0,0,0,0,0,0,230,1.7,4,0,0,0,0,0,0,0,0,0,0,0,0
2002,7,24,4,0,,23.4,22.7,95,100060,0,0,390,0,0,0,0,0,0,0,230,1.3,4,0,0,0,0,0,0,0,0,0,0,0,0
2002,7,24,5,0,,23.3,22.6,94,100030,0,0,388,0,0,0,0,0,0,0,250,2.2,3,0,0,0,0,0,0,0,0,0,0,0,0
2002,7,24,6,0,,23.7,22.6,93,100010,0,0,389,27,15,13,2257,1113,1865,0,270,3.5,3,0,0,0,0,0,0,0,0,0,0,0,0
2002,7,24,7,0,,24.2,22.5,89,100050,0,0,393,144,452,55,34047,46977,8616,0,290,3.4,3,0,0,0,0,0,0,0,0,0,0,0,0
2002,7,24,8,0,,25.6,22.3,79,100090,0,0,401,298,454,118,49795,44196,18559,0,250,3.9,4,0,0,0,0,0,0,0,0,0,0,0,0
2002,7,24,9,0,,27,22.2,75,100130,0,0,410,467,499,177,66359,48455,25789,0,230,4.1,4,0,0,0,0,0,0,0,0,0,0,0,0
2002,7,24,10,0,,27.3,22.3,75,100100,0,0,411,587,430,269,72816,37649,38028,0,200,4.4,4,0,0,0,0,0,0,0,0,0,0,0,0
2002,7,24,11,0,,28.5,22.3,66,100070,0,0,418,702,430,331,81348,37491,45317,0,270,5.3,4,0,0,0,0,0,0,0,0,0,0,0,0
2002,7,24,12,0,,29.7,22.4,65,100040,0,0,425,760,312,468,84023,25719,59696,0,250,4.9,4,0,0,0,0,0,0,0,0,0,0,0,0
2002,7,24,13,0,,30.3,22.6,63,100000,0,0,428,812,450,378,84774,38763,50683,0,250,5,4,0,0,0,0,0,0,0,0,0,0,0,0
2002,7,24,14,0,,31.1,22.9,62,99970,0,0,431,811,505,337,79092,43028,46117,0,230,4.9,3,0,0,0,0,0,0,0,0,0,0,0,0
2002,7,24,15,0,,29.4,23.1,69,99930,0,0,421,684,313,414,65616,25173,50153,0,200,5.2,3,0,0,0,0,0,0,0,0,0,0,0,0
2002,7,24,16,0,,28.8,23.2,72,99910,0,0,418,559,306,332,50178,22838,40278,0,200,4.4,3,0,0,0,0,0,0,0,0,0,0,0,0
2002,7,24,17,0,,27.8,23.3,77,99890,0,0,412,414,309,234,32275,17425,28155,0,200,5,3,0,0,0,0,0,0,0,0,0,0,0,0
2002,7,24,18,0,,27.5,23.4,78,99870,0,0,411,288,407,126,15157,0,15157,0,200,4,3,0,0,0,0,0,0,0,0,0,0,0,0
2002,7,24,19,0,,26.5,23.2,82,99880,0,0,401,137,389,60,0,0,0,0,230,2.4,2,0,0,0,0,0,0,0,0,0,0,0,0
2002,7,24,20,0,,25.6,23,85,99880,0,0,391,26,13,14,0,0,0,0,200,1.4,1,0,0,0,0,0,0,0,0,0,0,0,0
2002,7,24,21,0,,25.7,22.8,84,99890,0,0,384,0,0,0,0,0,0,0,110,0.5,0,0,0,0,0,0,0,0,0,0,0,0,0
2002,7,24,22,0,,25.6,22.6,80,99900,0,0,383,0,0,0,0,0,0,0,90,1.9,0,0,0,0,0,0,0,0,0,0,0,0,0
2002,7,24,23,0,,24.6,22.5,86,99920,0,0,378,0,0,0,0,0,0,0,70,2.4,0,0,0,0,0,0,0,0,0,0,0,0,0
2002,7,24,24,0,,24,22.3,90,99930,0,0,374,0,0,0,0,0,0,0,70,1.9,0,0,0,0,0,0,0,0,0,0,0,0,0
2002,7,25,1,0,,23.5,22.4,94,99890,0,0,372,0,0,0,0,0,0,0,90,1.9,0,0,0,0,0,0,0,0,0,0,0,0,0
2002,7,25,2,0,,23.6,22.4,95,99840,0,0,373,0,0,0,0,0,0,0,90,1.7,0,0,0,0,0,0,0,0,0,0,0,0,0
2002,7,25,3,0,,23.4,22.5,95,99800,0,0,372,0,0,0,0,0,0,0,90,1.9,0,0,0,0,0,0,0,0,0,0,0,0,0
2002,7,25,4,0,,23.3,22.3,95,99780,0,0,383,0,0,0,0,0,0,0,90,0.4,2,0,0,0,0,0,0,0,0,0,0,0,0
2002,7,25,5,0,,23,22.1,95,99750,0,0,388,0,0,0,0,0,0,0,70,2.2,4,0,0,0,0,0,0,0,0,0,0,0,0
2002,7,25,6,0,,22.7,21.9,95,99730,0,0,393,18,5,14,1865,350,1742,0,70,2.3,6,0,0,0,0,0,0,0,0,0,0,0,0
2002,7,25,7,0,,23.1,21.4,94,99720,0,0,389,130,344,63,28731,33176,10824,0,70,2.6,4,0,0,0,0,0,0,0,0,0,0,0,0
2002,7,25,8,0,,25.7,20.8,72,99720,0,0,396,315,540,103,53856,53075,16418,0,90,3,3,0,0,0,0,0,0,0,0,0,0,0,0
2002,7,25,9,0,,27.4,20.3,65,99710,0,0,397,512,644,138,74586,67076,18505,0,90,2,1,0,0,0,0,0,0,0,0,0,0,0,0
2002,7,25,10,0,,29.1,20.3,62,99690,0,0,408,677,667,184,86619,65462,26201,0,90,2,1,0,0,0,0,0,0,0,0,0,0,0,0
2002,7,25,11,0,,29.7,20.3,61,99670,0,0,413,760,568,271,88112,54798,35503,0,140,2.3,2,0,0,0,0,0,0,0,0,0,0,0,0
2002,7,25,12,0,,30.9,20.3,53,99650,0,0,422,863,620,281,92874,59596,36565,0,90,4.5,2,0,0,0,0,0,0,0,0,0,0,0,0
2002,7,25,13,0,,31.3,20.3,52,99610,0,0,427,812,451,377,84286,39985,49165,0,90,2.2,3,0,0,0,0,0,0,0,0,0,0,0,0
2002,7,25,14,0,,31.1,20.3,56,99580,0,0,428,799,480,349,78227,42228,45919,0,90,4,3,0,0,0,0,0,0,0,0,0,0,0,0
2002,7,25,15,0,,31.3,20.3,52,99540,0,0,432,673,299,415,64824,25140,49418,0,90,3.6,4,0,0,0,0,0,0,0,0,0,0,0,0
2002,7,25,16,0,,30.7,20.3,53,99510,0,0,428,572,332,326,50072,26072,38814,0,90,4.6,4,0,0,0,0,0,0,0,0,0,0,0,0
2002,7,25,17,0,,29.4,20.3,57,99480,0,0,421,444,428,196,30627,24329,24923,0,70,6.7,4,0,0,0,0,0,0,0,0,0,0,0,0
2002,7,25,18,0,,27.7,20.3,64,99450,0,0,411,285,400,127,14521,0,14521,0,90,7,4,0,0,0,0,0,0,0,0,0,0,0,0
2002,7,25,19,0,,26.9,20.1,66,99460,0,0,413,109,236,63,0,0,0,0,70,5.4,6,0,0,0,0,0,0,0,0,0,0,0,0
2002,7,25,20,0,,26.1,19.9,69,99460,0,0,420,14,2,12,0,0,0,0,70,6,8,0,0,0,0,0,0,0,0,0,0,0,0
2002,7,25,21,0,,25.6,19.7,70,99470,0,0,438,0,0,0,0,0,0,0,70,5.5,10,0,0,0,0,0,0,0,0,0,0,0,0
2002,7,25,22,0,,25.2,20.1,71,99450,0,0,432,0,0,0,0,0,0,0,50,6.5,10,0,0,0,0,0,0,0,0,0,0,0,0
2002,7,25,23,0,,25.2,20.6,75,99430,0,0,428,0,0,0,0,0,0,0,70,6.7,9,0,0,0,0,0,0,0,0,0,0,0,0
2002,7,25,24,0,,25.1,21,78,99410,0,0,425,0,0,0,0,0,0,0,70,6.9,9,0,0,0,0,0,0,0,0,0,0,0,0
2002,7,26,1,0,,25.1,21.2,79,99380,0,0,425,0,0,0,0,0,0,0,70,7.3,9,0,0,0,0,0,0,0,0,0,0,0,0
2002,7,26,2,0,,24.9,21.3,80,99340,0,0,424,0,0,0,0,0,0,0,70,6.2,9,0,0,0,0,0,0,0,0,0,0,0,0
2002,7,26,3,0,,24.7,21.5,82,99310,0,0,423,0,0,0,0,0,0,0,70,7.3,9,0,0,0,0,0,0,0,0,0,0,0,0
2002,7,26,4,0,,24.4,21.4,82,99340,0,0,425,0,0,0,0,0,0,0,70,7.6,9,0,0,0,0,0,0,0,0,0,0,0,0
2002,7,26,5,0,,24.4,21.4,82,99360,0,0,429,0,0,0,0,0,0,0,70,6.7,10,0,0,0,0,0,0,0,0,0,0,0,0
2002,7,26,6,0,,24.5,21.3,82,99390,0,0,433,6,0,6,844,4,842,0,70,5.6,10,0,0,0,0,0,0,0,0,0,0,0,0
2002,7,26,7,0,,24.9,21.3,80,99410,0,0,436,59,41,51,8888,3517,6995,0,70,6.2,10,0,0,0,0,0,0,0,0,0,0,0,0
2002,7,26,8,0,,25.3,21.4,78,99430,0,0,438,138,49,118,18578,4317,15538,0,70,7.2,10,0,0,0,0,0,0,0,0,0,0,0,0
2002,7,26,9,0,,25.5,21.4,78,99450,0,0,439,198,38,176,23821,3306,21061,0,70,5.7,10,0,0,0,0,0,0,0,0,0,0,0,0
2002,7,26,10,0,,26,21.8,75,99470,0,0,443,270,40,241,31841,3451,28659,0,70,6.5,10,0,0,0,0,0,0,0,0,0,0,0,0
2002,7,26,11,0,,25.2,22.3,86,99480,0,0,439,263,22,244,30927,1897,29108,0,70,6,10,0,0,0,0,0,0,0,0,0,0,0,0
2002,7,26,12,0,,24.8,22.7,88,99500,0,0,437,292,22,271,34070,1901,32276,0,70,6.6,10,0,0,0,0,0,0,0,0,0,0,0,0
2002,7,26,13,0,,24.9,22.5,87,99500,0,0,437,285,19,267,32725,1198,31674,0,70,6.1,10,0,0,0,0,0,0,0,0,0,0,0,0
2002,7,26,14,0,,25.9,22.3,80,99490,0,0,443,334,32,304,37780,2771,35663,0,70,6,10,0,0,0,0,0,0,0,0,0,0,0,0
2002,7,26,15,0,,26.4,22.1,77,99490,0,0,446,315,36,284,35077,3146,33154,0,70,5.7,10,0,0,0,0,0,0,0,0,0,0,0,0
2002,7,26,16,0,,26.9,22,76,99530,0,0,449,269,39,240,29253,3308,27831,0,70,5.9,10,0,0,0,0,0,0,0,0,0,0,0,0
2002,7,26,17,0,,27,22,74,99560,0,0,449,204,41,180,21320,3053,20610,0,70,4.9,10,0,0,0,0,0,0,0,0,0,0,0,0
2002,7,26,18,0,,26.9,21.9,74,99600,0,0,449,125,37,110,12192,1873,12132,0,70,4.9,10,0,0,0,0,0,0,0,0,0,0,0,0
2002,7,26,19,0,,26.2,21.9,78,99670,0,0,432,74,76,59,0,0,0,0,70,5.7,9,0,0,0,0,0,0,0,0,0,0,0,0
2002,7,26,20,0,,25.9,21.9,78,99740,0,0,421,15,2,12,0,0,0,0,70,5.9,8,0,0,0,0,0,0,0,0,0,0,0,0
2002,7,26,21,0,,25.9,21.9,78,99810,0,0,415,0,0,0,0,0,0,0,70,5.2,7,0,0,0,0,0,0,0,0,0,0,0,0
2002,7,26,22,0,,25.9,21.9,78,99850,0,0,415,0,0,0,0,0,0,0,70,4.8,7,0,0,0,0,0,0,0,0,0,0,0,0
2002,7,26,23,0,,25.4,22,80,99880,0,0,412,0,0,0,0,0,0,0,70,4.2,7,0,0,0,0,0,0,0,0,0,0,0,0
2002,7,26,24,0,,25.6,22,80,99920,0,0,413,0,0,0,0,0,0,0,70,5.3,7,0,0,0,0,0,0,0,0,0,0,0,0
2002,7,27,1,0,,25.6,22,78,99940,0,0,410,0,0,0,0,0,0,0,90,6.1,6,0,0,0,0,0,0,0,0,0,0,0,0
2002,7,27,2,0,,25.7,21.9,78,99960,0,0,408,0,0,0,0,0,0,0,90,6,6,0,0,0,0,0,0,0,0,0,0,0,0
2002,7,27,3,0,,25.4,21.9,81,99980,0,0,404,0,0,0,0,0,0,0,70,4,5,0,0,0,0,0,0,0,0,0,0,0,0
2002,7,27,4,0,,25.1,21.9,82,100030,0,0,397,0,0,0,0,0,0,0,70,5.2,3,0,0,0,0,0,0,0,0,0,0,0,0
2002,7,27,5,0,,24.8,21.8,82,100070,0,0,389,0,0,0,0,0,0,0,70,5.3,2,0,0,0,0,0,0,0,0,0,0,0,0
2002,7,27,6,0,,24.6,21.8,84,100120,0,0,377,26,15,11,2038,1134,1645,0,70,5,0,0,0,0,0,0,0,0,0,0,0,0,0
2002,7,27,7,0,,24.9,21.8,83,100160,0,0,378,146,517,48,36300,54214,7214,0,70,5.8,0,0,0,0,0,0,0,0,0,0,0,0,0
2002,7,27,8,0,,26.5,21.9,75,100200,0,0,387,327,605,91,57765,63449,13188,0,70,5.7,0,0,0,0,0,0,0,0,0,0,0,0,0
2002,7,27,9,0,,28.3,21.9,68,100240,0,0,396,515,666,132,75912,69649,17850,0,90,5.4,0,0,0,0,0,0,0,0,0,0,0,0,0
2002,7,27,10,0,,29,21.9,68,100230,0,0,403,665,645,191,85150,62863,27269,0,70,5.3,0,0,0,0,0,0,0,0,0,0,0,0,0
2002,7,27,11,0,,30.5,22,61,100220,0,0,413,774,607,254,90089,58418,34128,0,70,3.5,1,0,0,0,0,0,0,0,0,0,0,0,0
2002,7,27,12,0,,31.3,22,58,100210,0,0,420,825,543,317,88315,47412,43621,0,110,3.3,1,0,0,0,0,0,0,0,0,0,0,0,0
2002,7,27,13,0,,30.3,21.6,63,100210,0,0,412,830,495,354,85291,43265,47392,0,140,3,1,0,0,0,0,0,0,0,0,0,0,0,0
2002,7,27,14,0,,31,21.2,60,100200,0,0,413,804,495,340,78351,43144,45458,0,110,3.9,0,0,0,0,0,0,0,0,0,0,0,0,0
2002,7,27,15,0,,31.9,20.8,52,100200,0,0,414,743,533,285,66550,45756,38654,0,70,4.8,0,0,0,0,0,0,0,0,0,0,0,0,0
2002,7,27,16,0,,31.2,21.1,57,100210,0,0,411,657,621,200,49309,49804,27984,0,70,7.9,0,0,0,0,0,0,0,0,0,0,0,0,0
2002,7,27,17,0,,30.1,21.4,60,100220,0,0,405,482,557,161,29646,34137,21786,0,70,6.5,0,0,0,0,0,0,0,0,0,0,0,0,0
2002,7,27,18,0,,29.2,21.7,64,100230,0,0,401,311,532,103,11674,0,11674,0,70,6.4,0,0,0,0,0,0,0,0,0,0,0,0,0
2002,7,27,19,0,,27.8,21.5,70,100300,0,0,393,140,459,53,0,0,0,0,70,5.8,0,0,0,0,0,0,0,0,0,0,0,0,0
2002,7,27,20,0,,26.8,21.4,71,100360,0,0,387,26,15,11,0,0,0,0,70,6,0,0,0,0,0,0,0,0,0,0,0,0,0
2002,7,27,21,0,,26.1,21.2,74,100430,0,0,384,0,0,0,0,0,0,0,70,5.1,0,0,0,0,0,0,0,0,0,0,0,0,0
2002,7,27,22,0,,25.5,21.3,79,100430,0,0,386,0,0,0,0,0,0,0,70,5.1,1,0,0,0,0,0,0,0,0,0,0,0,0
2002,7,27,23,0,,25.2,21.4,81,100440,0,0,389,0,0,0,0,0,0,0,70,4.6,1,0,0,0,0,0,0,0,0,0,0,0,0
2002,7,27,24,0,,25.2,21.5,80,100440,0,0,392,0,0,0,0,0,0,0,70,5.1,2,0,0,0,0,0,0,0,0,0,0,0,0
2002,7,28,1,0,,25.1,21.6,81,100440,0,0,401,0,0,0,0,0,0,0,70,4.6,5,0,0,0,0,0,0,0,0,0,0,0,0
2002,7,28,2,0,,25.1,21.8,81,100450,0,0,412,0,0,0,0,0,0,0,70,5.9,7,0,0,0,0,0,0,0,0,0,0,0,0
2002,7,28,3,0,,25,21.9,83,100450,0,0,437,0,0,0,0,0,0,0,70,4.5,10,0,0,0,0,0,0,0,0,0,0,0,0
2002,7,28,4,0,,24.9,21.9,84,100460,0,0,416,0,0,0,0,0,0,0,70,4.6,8,0,0,0,0,0,0,0,0,0,0,0,0
2002,7,28,5,0,,24.5,21.9,86,100480,0,0,402,0,0,0,0,0,0,0,70,5.8,6,0,0,0,0,0,0,0,0,0,0,0,0
2002,7,28,6,0,,24.2,21.9,87,100490,0,0,394,23,11,12,2108,816,1826,0,70,6.3,4,0,0,0,0,0,0,0,0,0,0,0,0
2002,7,28,7,0,,24.4,21.8,86,100510,0,0,394,129,378,58,29622,36430,10137,0,70,5.5,4,0,0,0,0,0,0,0,0,0,0,0,0
2002,7,28,8,0,,25.3,21.8,81,100530,0,0,398,301,499,108,51370,48770,17175,0,70,4.4,3,0,0,0,0,0,0,0,0,0,0,0,0
2002,7,28,9,0,,26.9,21.7,73,100550,0,0,405,472,534,166,67689,52119,24306,0,70,5.9,3,0,0,0,0,0,0,0,0,0,0,0,0
2002,7,28,10,0,,28.1,22,68,100540,0,0,411,624,541,227,79393,52339,31263,0,50,3.7,3,0,0,0,0,0,0,0,0,0,0,0,0
2002,7,28,11,0,,29.1,22.3,66,100540,0,0,416,739,527,287,84310,46085,40216,0,110,3.2,2,0,0,0,0,0,0,0,0,0,0,0,0
2002,7,28,12,0,,29.9,22.6,65,100530,0,0,419,820,533,321,87903,46251,44357,0,110,3.8,2,0,0,0,0,0,0,0,0,0,0,0,0
2002,7,28,13,0,,30.4,22.6,62,100510,0,0,428,769,294,486,82960,24059,61915,0,110,3.3,4,0,0,0,0,0,0,0,0,0,0,0,0
2002,7,28,14,0,,30.7,22.6,61,100480,0,0,435,693,238,470,71779,19708,56782,0,110,3.2,5,0,0,0,0,0,0,0,0,0,0,0,0
2002,7,28,15,0,,30.3,22.6,63,100460,0,0,441,520,143,397,53518,12554,45885,0,110,3,7,0,0,0,0,0,0,0,0,0,0,0,0
2002,7,28,16,0,,28.8,22.6,70,100440,0,0,432,401,119,314,40332,10076,36037,0,90,2.9,7,0,0,0,0,0,0,0,0,0,0,0,0
2002,7,28,17,0,,27.8,22.6,74,100420,0,0,426,303,126,230,28329,9483,26166,0,90,4,7,0,0,0,0,0,0,0,0,0,0,0,0
2002,7,28,18,0,,27.4,22.6,75,100400,0,0,424,198,141,143,15807,7993,15592,0,70,4.4,7,0,0,0,0,0,0,0,0,0,0,0,0
2002,7,28,19,0,,25.9,22.1,80,100420,0,0,409,106,238,61,0,0,0,0,90,5.2,6,0,0,0,0,0,0,0,0,0,0,0,0
2002,7,28,20,0,,25.4,21.7,79,100450,0,0,401,23,10,13,0,0,0,0,70,6.3,4,0,0,0,0,0,0,0,0,0,0,0,0
2002,7,28,21,0,,24.9,21.2,80,100470,0,0,394,0,0,0,0,0,0,0,70,4.8,3,0,0,0,0,0,0,0,0,0,0,0,0
2002,7,28,22,0,,24.5,21.1,81,100460,0,0,388,0,0,0,0,0,0,0,70,2.8,2,0,0,0,0,0,0,0,0,0,0,0,0
2002,7,28,23,0,,24.2,20.9,81,100450,0,0,381,0,0,0,0,0,0,0,90,4,1,0,0,0,0,0,0,0,0,0,0,0,0
2002,7,28,24,0,,24,20.8,83,100440,0,0,373,0,0,0,0,0,0,0,90,2.4,0,0,0,0,0,0,0,0,0,0,0,0,0
2002,7,29,1,0,,23.7,20.7,82,100420,0,0,371,0,0,0,0,0,0,0,70,2.5,0,0,0,0,0,0,0,0,0,0,0,0,0
2002,7,29,2,0,,23.4,20.7,85,100400,0,0,369,0,0,0,0,0,0,0,90,1.7,0,0,0,0,0,0,0,0,0,0,0,0,0
2002,7,29,3,0,,23.4,20.6,84,100380,0,0,369,0,0,0,0,0,0,0,110,1.6,0,0,0,0,0,0,0,0,0,0,0,0,0
2002,7,29,4,0,,23,20.5,86,100390,0,0,367,0,0,0,0,0,0,0,110,2,0,0,0,0,0,0,0,0,0,0,0,0,0
2002,7,29,5,0,,22.8,20.5,87,100410,0,0,366,0,0,0,0,0,0,0,140,0.6,0,0,0,0,0,0,0,0,0,0,0,0,0
2002,7,29,6,0,,22.7,20.4,87,100420,0,0,366,23,11,12,2017,885,1714,0,110,1.5,0,0,0,0,0,0,0,0,0,0,0,0,0
2002,7,29,7,0,,23,20.4,86,100420,0,0,374,132,418,54,31503,43210,8464,0,180,0.6,1,0,0,0,0,0,0,0,0,0,0,0,0
2002,7,29,8,0,,24.7,20.4,76,100430,0,0,388,299,496,108,51078,48724,16986,0,180,1.2,2,0,0,0,0,0,0,0,0,0,0,0,0
2002,7,29,9,0,,26,20.4,71,100430,0,0,399,473,543,163,67999,53263,23732,0,200,3,3,0,0,0,0,0,0,0,0,0,0,0,0
2002,7,29,10,0,,27.5,21.3,67,100400,0,0,407,630,561,219,80292,54459,30277,0,200,2.7,3,0,0,0,0,0,0,0,0,0,0,0,0
2002,7,29,11,0,,28,22.2,70,100370,0,0,409,727,503,297,83327,43986,41292,0,200,3,2,0,0,0,0,0,0,0,0,0,0,0,0
2002,7,29,12,0,,28.6,23.1,72,100340,0,0,412,775,340,457,85067,27691,59030,0,200,3.1,2,0,0,0,0,0,0,0,0,0,0,0,0
2002,7,29,13,0,,28.4,23,74,100300,0,0,412,774,302,484,83353,24510,61946,0,200,3.7,2,0,0,0,0,0,0,0,0,0,0,0,0
2002,7,29,14,0,,28.2,22.9,74,100270,0,0,413,732,283,468,74337,23346,56606,0,200,3.8,3,0,0,0,0,0,0,0,0,0,0,0,0
2002,7,29,15,0,,28,22.8,73,100230,0,0,413,650,274,415,63556,22135,50137,0,200,4,3,0,0,0,0,0,0,0,0,0,0,0,0
2002,7,29,16,0,,27.3,22.5,77,100210,0,0,408,553,308,328,49292,23154,39470,0,200,4.7,3,0,0,0,0,0,0,0,0,0,0,0,0
2002,7,29,17,0,,27.1,22.3,75,100190,0,0,407,428,394,202,30756,20565,26114,0,200,4.1,3,0,0,0,0,0,0,0,0,0,0,0,0
2002,7,29,18,0,,26.6,22,76,100170,0,0,404,284,422,121,13915,0,13915,0,200,3.6,3,0,0,0,0,0,0,0,0,0,0,0,0
2002,7,29,19,0,,26,22,80,100180,0,0,397,134,431,53,0,0,0,0,180,2.9,2,0,0,0,0,0,0,0,0,0,0,0,0
2002,7,29,20,0,,25.4,22,82,100180,0,0,388,23,11,12,0,0,0,0,230,1.5,1,0,0,0,0,0,0,0,0,0,0,0,0
2002,7,29,21,0,,24.7,22,85,100190,0,0,377,0,0,0,0,0,0,0,200,2.2,0,0,0,0,0,0,0,0,0,0,0,0,0
2002,7,29,22,0,,24.4,22.1,87,100190,0,0,376,0,0,0,0,0,0,0,200,1,0,0,0,0,0,0,0,0,0,0,0,0,0
2002,7,29,23,0,,23.9,22.2,90,100180,0,0,374,0,0,0,0,0,0,0,200,1.7,0,0,0,0,0,0,0,0,0,0,0,0,0
2002,7,29,24,0,,23.9,22.3,91,100180,0,0,374,0,0,0,0,0,0,0,250,0.3,0,0,0,0,0,0,0,0,0,0,0,0,0
2002,7,30,1,0,,23.9,22.4,90,100180,0,0,374,0,0,0,0,0,0,0,0,0.1,0,0,0,0,0,0,0,0,0,0,0,0,0
2002,7,30,2,0,,23.6,22.6,92,100190,0,0,373,0,0,0,0,0,0,0,250,1.9,0,0,0,0,0,0,0,0,0,0,0,0,0
2002,7,30,3,0,,23.9,22.7,93,100190,0,0,374,0,0,0,0,0,0,0,250,2.6,0,0,0,0,0,0,0,0,0,0,0,0,0
2002,7,30,4,0,,24.5,22.8,92,100200,0,0,377,0,0,0,0,0,0,0,290,3,0,0,0,0,0,0,0,0,0,0,0,0,0
2002,7,30,5,0,,24.4,23,91,100210,0,0,377,0,0,0,0,0,0,0,230,1.9,0,0,0,0,0,0,0,0,0,0,0,0,0
2002,7,30,6,0,,24.5,23.1,92,100220,0,0,378,24,13,11,1902,963,1573,0,290,3.4,0,0,0,0,0,0,0,0,0,0,0,0,0
2002,7,30,7,0,,25,22.8,88,100240,0,0,385,131,430,52,32068,44699,8311,0,230,0.5,1,0,0,0,0,0,0,0,0,0,0,0,0
2002,7,30,8,0,,26.3,22.6,77,100260,0,0,396,300,509,105,51538,49615,16895,0,200,1.3,1,0,0,0,0,0,0,0,0,0,0,0,0
2002,7,30,9,0,,27.9,22.3,72,100280,0,0,407,488,595,148,70661,58197,22371,0,270,4.1,2,0,0,0,0,0,0,0,0,0,0,0,0
2002,7,30,10,0,,29.2,22.9,70,100280,0,0,415,657,635,193,84201,61592,27711,0,250,4.6,2,0,0,0,0,0,0,0,0,0,0,0,0
2002,7,30,11,0,,29.9,23.4,72,100270,0,0,420,764,591,259,89035,56518,35092,0,200,4.9,2,0,0,0,0,0,0,0,0,0,0,0,0
2002,7,30,12,0,,28.9,24,75,100270,0,0,415,769,333,458,84798,26506,59907,0,180,4.5,2,0,0,0,0,0,0,0,0,0,0,0,0
2002,7,30,13,0,,28.7,24.2,75,100240,0,0,414,763,290,485,83029,22869,63087,0,200,5.6,2,0,0,0,0,0,0,0,0,0,0,0,0
2002,7,30,14,0,,29,24.3,76,100200,0,0,416,726,278,468,74100,22257,57232,0,200,5.1,2,0,0,0,0,0,0,0,0,0,0,0,0
2002,7,30,15,0,,28.4,24.5,79,100170,0,0,413,676,312,409,64806,24314,50109,0,200,5.6,2,0,0,0,0,0,0,0,0,0,0,0,0
2002,7,30,16,0,,28.2,24.3,79,100150,0,0,412,577,423,268,48546,29425,36125,0,200,5.7,2,0,0,0,0,0,0,0,0,0,0,0,0
2002,7,30,17,0,,27.7,24.2,81,100140,0,0,409,445,455,185,29709,21995,24797,0,200,6,2,0,0,0,0,0,0,0,0,0,0,0,0
2002,7,30,18,0,,27.1,24,83,100120,0,0,405,290,458,114,13557,0,13557,0,200,4.9,2,0,0,0,0,0,0,0,0,0,0,0,0
2002,7,30,19,0,,25.8,23.8,88,100150,0,0,395,126,372,57,0,0,0,0,200,4.2,1,0,0,0,0,0,0,0,0,0,0,0,0
2002,7,30,20,0,,25.2,23.5,91,100180,0,0,387,21,8,12,0,0,0,0,200,2.8,1,0,0,0,0,0,0,0,0,0,0,0,0
2002,7,30,21,0,,25.1,23.3,90,100210,0,0,381,0,0,0,0,0,0,0,180,2.7,0,0,0,0,0,0,0,0,0,0,0,0,0
2002,7,30,22,0,,25.9,23.1,87,100230,0,0,385,0,0,0,0,0,0,0,230,4.1,0,0,0,0,0,0,0,0,0,0,0,0,0
2002,7,30,23,0,,24.6,23,90,100260,0,0,378,0,0,0,0,0,0,0,200,3.5,0,0,0,0,0,0,0,0,0,0,0,0,0
2002,7,30,24,0,,24.2,22.8,92,100280,0,0,376,0,0,0,0,0,0,0,200,1.8,0,0,0,0,0,0,0,0,0,0,0,0,0
2002,7,31,1,0,,24.9,22.6,90,100270,0,0,379,0,0,0,0,0,0,0,270,3.2,0,0,0,0,0,0,0,0,0,0,0,0,0
2002,7,31,2,0,,25.1,22.5,87,100270,0,0,380,0,0,0,0,0,0,0,250,4.2,0,0,0,0,0,0,0,0,0,0,0,0,0
2002,7,31,3,0,,25.2,22.3,84,100260,0,0,380,0,0,0,0,0,0,0,270,5.1,0,0,0,0,0,0,0,0,0,0,0,0,0
2002,7,31,4,0,,25,22.3,85,100290,0,0,379,0,0,0,0,0,0,0,270,6,0,0,0,0,0,0,0,0,0,0,0,0,0
2002,7,31,5,0,,24.9,22.4,87,100330,0,0,379,0,0,0,0,0,0,0,270,5.6,0,0,0,0,0,0,0,0,0,0,0,0,0
2002,7,31,6,0,,24.9,22.4,86,100360,0,0,379,23,13,10,1844,947,1523,0,270,4.5,0,0,0,0,0,0,0,0,0,0,0,0,0
2002,7,31,7,0,,25.2,22.3,86,100400,0,0,386,133,466,49,33481,48437,7819,0,270,3.7,1,0,0,0,0,0,0,0,0,0,0,0,0
2002,7,31,8,0,,25.1,22.3,85,100440,0,0,389,291,474,110,49714,46238,17498,0,200,3.5,1,0,0,0,0,0,0,0,0,0,0,0,0
2002,7,31,9,0,,25.1,22.2,84,100480,0,0,392,443,454,184,63033,43965,26611,0,180,4.6,2,0,0,0,0,0,0,0,0,0,0,0,0
2002,7,31,10,0,,27.1,22.5,76,100470,0,0,403,605,501,239,76871,48196,32727,0,180,3.5,2,0,0,0,0,0,0,0,0,0,0,0,0
2002,7,31,11,0,,27.6,22.8,77,100450,0,0,406,730,516,290,83494,44788,40801,0,180,4.8,2,0,0,0,0,0,0,0,0,0,0,0,0
2002,7,31,12,0,,28.5,23.1,73,100440,0,0,412,817,536,318,87596,46252,44224,0,200,5.8,2,0,0,0,0,0,0,0,0,0,0,0,0
2002,7,31,13,0,,30,23.2,68,100390,0,0,420,833,512,343,85269,43764,47170,0,230,4.4,2,0,0,0,0,0,0,0,0,0,0,0,0
2002,7,31,14,0,,29.6,23.4,66,100350,0,0,418,789,474,348,77850,40074,47545,0,230,5.4,2,0,0,0,0,0,0,0,0,0,0,0,0
2002,7,31,15,0,,30.7,23.5,65,100300,0,0,424,735,526,286,66161,43470,39969,0,200,4.9,2,0,0,0,0,0,0,0,0,0,0,0,0
2002,7,31,16,0,,29.9,23.6,69,100290,0,0,422,602,493,242,47406,34955,32727,0,230,5.8,2,0,0,0,0,0,0,0,0,0,0,0,0
2002,7,31,17,0,,29.9,23.8,69,100290,0,0,423,452,483,177,28885,23516,23691,0,230,4.5,3,0,0,0,0,0,0,0,0,0,0,0,0
2002,7,31,18,0,,29.2,23.9,73,100280,0,0,421,283,433,117,13836,0,13836,0,230,3.3,3,0,0,0,0,0,0,0,0,0,0,0,0
2002,7,31,19,0,,28.2,23.7,77,100310,0,0,411,128,412,53,0,0,0,0,250,2.6,2,0,0,0,0,0,0,0,0,0,0,0,0
2002,7,31,20,0,,27.3,23.6,80,100340,0,0,400,21,10,12,0,0,0,0,250,3.7,1,0,0,0,0,0,0,0,0,0,0,0,0
2002,7,31,21,0,,26.9,23.4,81,100370,0,0,390,0,0,0,0,0,0,0,250,4.3,0,0,0,0,0,0,0,0,0,0,0,0,0
2002,7,31,22,0,,26.4,23.3,81,100370,0,0,388,0,0,0,0,0,0,0,270,5,0,0,0,0,0,0,0,0,0,0,0,0,0
2002,7,31,23,0,,26.1,23.2,81,100370,0,0,386,0,0,0,0,0,0,0,270,5.5,0,0,0,0,0,0,0,0,0,0,0,0,0
2002,7,31,24,0,,26,23.1,84,100370,0,0,385,0,0,0,0,0,0,0,270,6.5,0,0,0,0,0,0,0,0,0,0,0,0,0
1997,8,1,1,0,,25,22.4,85,100200,0,0,423,0,0,0,0,0,0,0,90,1.8,9,0,0,0,0,0,0,0,0,0,0,0,0
1997,8,1,2,0,,24.9,22.4,86,100190,0,0,419,0,0,0,0,0,0,0,70,2.7,8,0,0,0,0,0,0,0,0,0,0,0,0
1997,8,1,3,0,,24.8,22.3,86,100180,0,0,416,0,0,0,0,0,0,0,110,2.2,8,0,0,0,0,0,0,0,0,0,0,0,0
1997,8,1,4,0,,24.5,22.1,87,100190,0,0,400,0,0,0,0,0,0,0,90,1,5,0,0,0,0,0,0,0,0,0,0,0,0
1997,8,1,5,0,,24.1,22,87,100210,0,0,389,0,0,0,0,0,0,0,70,2.2,3,0,0,0,0,0,0,0,0,0,0,0,0
1997,8,1,6,0,,23.9,21.8,88,100220,0,0,373,20,9,11,1871,675,1643,0,50,2.2,0,0,0,0,0,0,0,0,0,0,0,0,0
1997,8,1,7,0,,24,22.1,84,100240,0,0,381,125,406,53,30563,42083,8354,0,50,2.2,1,0,0,0,0,0,0,0,0,0,0,0,0
1997,8,1,8,0,,25.4,22.4,81,100270,0,0,394,291,480,108,49852,46815,17317,0,70,1.2,2,0,0,0,0,0,0,0,0,0,0,0,0
1997,8,1,9,0,,27.1,22.7,77,100290,0,0,408,464,529,164,66859,51380,24377,0,200,3.3,3,0,0,0,0,0,0,0,0,0,0,0,0
1997,8,1,10,0,,28.4,22.9,75,100290,0,0,414,614,529,229,78298,50921,31737,0,200,2.5,3,0,0,0,0,0,0,0,0,0,0,0,0
1997,8,1,11,0,,29.1,23,73,100300,0,0,416,738,538,280,86049,51291,37237,0,200,4,2,0,0,0,0,0,0,0,0,0,0,0,0
1997,8,1,12,0,,29.1,23.2,71,100300,0,0,415,780,457,355,85299,39219,48587,0,200,5,2,0,0,0,0,0,0,0,0,0,0,0,0
1997,8,1,13,0,,29.1,23.4,72,100280,0,0,412,793,333,475,84578,26747,61343,0,200,5,1,0,0,0,0,0,0,0,0,0,0,0,0
1997,8,1,14,0,,29.2,23.6,72,100260,0,0,408,784,465,351,77652,39203,48089,0,200,5.7,1,0,0,0,0,0,0,0,0,0,0,0,0
1997,8,1,15,0,,29.1,23.8,73,100240,0,0,403,703,454,316,63397,35076,42348,0,200,5.5,0,0,0,0,0,0,0,0,0,0,0,0,0
1997,8,1,16,0,,29.1,23.6,73,100220,0,0,402,595,479,246,47341,34015,33151,0,200,5.3,0,0,0,0,0,0,0,0,0,0,0,0,0
1997,8,1,17,0,,28.7,23.3,74,100190,0,0,400,450,481,177,28617,23600,23478,0,200,4,0,0,0,0,0,0,0,0,0,0,0,0,0
1997,8,1,18,0,,28.3,23.1,74,100170,0,0,397,300,519,102,11256,0,11256,0,200,4.2,0,0,0,0,0,0,0,0,0,0,0,0,0
1997,8,1,19,0,,27.4,23.3,78,100190,0,0,393,130,451,50,0,0,0,0,200,4.3,0,0,0,0,0,0,0,0,0,0,0,0,0
1997,8,1,20,0,,26.7,23.6,81,100220,0,0,390,20,9,11,0,0,0,0,230,3,0,0,0,0,0,0,0,0,0,0,0,0,0
1997,8,1,21,0,,26.5,23.8,85,100240,0,0,389,0,0,0,0,0,0,0,230,4,0,0,0,0,0,0,0,0,0,0,0,0,0
1997,8,1,22,0,,26.4,23.9,86,100260,0,0,398,0,0,0,0,0,0,0,250,4,1,0,0,0,0,0,0,0,0,0,0,0,0
1997,8,1,23,0,,26.3,24,87,100280,0,0,404,0,0,0,0,0,0,0,250,4.2,3,0,0,0,0,0,0,0,0,0,0,0,0
1997,8,1,24,0,,26.3,24.1,88,100300,0,0,408,0,0,0,0,0,0,0,250,4.8,4,0,0,0,0,0,0,0,0,0,0,0,0
1997,8,2,1,0,,26.2,23.9,88,100270,0,0,404,0,0,0,0,0,0,0,270,5.3,3,0,0,0,0,0,0,0,0,0,0,0,0
1997,8,2,2,0,,26,23.6,87,100250,0,0,399,0,0,0,0,0,0,0,270,3.7,2,0,0,0,0,0,0,0,0,0,0,0,0
1997,8,2,3,0,,25.7,23.4,87,100220,0,0,392,0,0,0,0,0,0,0,270,4,1,0,0,0,0,0,0,0,0,0,0,0,0
1997,8,2,4,0,,25.7,23.4,87,100240,0,0,397,0,0,0,0,0,0,0,270,3.5,2,0,0,0,0,0,0,0,0,0,0,0,0
1997,8,2,5,0,,25.7,23.5,88,100250,0,0,401,0,0,0,0,0,0,0,270,2.5,3,0,0,0,0,0,0,0,0,0,0,0,0
1997,8,2,6,0,,25.7,23.5,88,100270,0,0,404,17,6,11,1587,441,1440,0,230,1.5,4,0,0,0,0,0,0,0,0,0,0,0,0
1997,8,2,7,0,,25.9,23.6,84,100290,0,0,406,117,338,57,27124,32278,10145,0,200,1.8,4,0,0,0,0,0,0,0,0,0,0,0,0
1997,8,2,8,0,,26.9,23.8,81,100320,0,0,413,260,343,130,41030,29148,20818,0,250,4.3,5,0,0,0,0,0,0,0,0,0,0,0,0
1997,8,2,9,0,,28.2,23.9,77,100340,0,0,422,422,396,198,57901,33818,29986,0,250,4.7,5,0,0,0,0,0,0,0,0,0,0,0,0
1997,8,2,10,0,,28.9,23.7,73,100330,0,0,423,598,492,241,76308,47062,33337,0,230,7,4,0,0,0,0,0,0,0,0,0,0,0,0
1997,8,2,11,0,,29.8,23.6,70,100310,0,0,426,710,475,306,81865,40715,43173,0,200,5.5,4,0,0,0,0,0,0,0,0,0,0,0,0
1997,8,2,12,0,,30.3,23.4,66,100300,0,0,426,786,474,346,85657,40551,47755,0,200,5.3,3,0,0,0,0,0,0,0,0,0,0,0,0
1997,8,2,13,0,,30.8,23.8,65,100270,0,0,428,803,453,371,83953,38310,50733,0,230,6,3,0,0,0,0,0,0,0,0,0,0,0,0
1997,8,2,14,0,,32,24.1,63,100230,0,0,434,810,527,321,78219,44041,45087,0,200,5,2,0,0,0,0,0,0,0,0,0,0,0,0
1997,8,2,15,0,,32.7,24.5,62,100200,0,0,437,749,566,267,65900,45986,38399,0,200,6,2,0,0,0,0,0,0,0,0,0,0,0,0
1997,8,2,16,0,,31.3,24.3,66,100180,0,0,427,614,532,227,46465,36855,31178,0,250,6.7,2,0,0,0,0,0,0,0,0,0,0,0,0
1997,8,2,17,0,,30.2,24.1,70,100160,0,0,419,447,476,177,28593,22320,23793,0,230,6.3,1,0,0,0,0,0,0,0,0,0,0,0,0
1997,8,2,18,0,,29.1,23.9,74,100140,0,0,410,283,450,113,13204,0,13204,0,230,6.7,1,0,0,0,0,0,0,0,0,0,0,0,0
1997,8,2,19,0,,28.3,23.9,77,100180,0,0,406,133,491,46,0,0,0,0,230,8,1,0,0,0,0,0,0,0,0,0,0,0,0
1997,8,2,20,0,,27.4,24,79,100210,0,0,401,20,9,11,0,0,0,0,230,6.7,1,0,0,0,0,0,0,0,0,0,0,0,0
1997,8,2,21,0,,27.3,24,82,100250,0,0,401,0,0,0,0,0,0,0,230,7.8,1,0,0,0,0,0,0,0,0,0,0,0,0
1997,8,2,22,0,,26.9,24.2,84,100250,0,0,410,0,0,0,0,0,0,0,230,6.3,3,0,0,0,0,0,0,0,0,0,0,0,0
1997,8,2,23,0,,27,24.5,85,100250,0,0,418,0,0,0,0,0,0,0,230,9.2,6,0,0,0,0,0,0,0,0,0,0,0,0
1997,8,2,24,0,,27,24.7,87,100250,0,0,431,0,0,0,0,0,0,0,230,5,8,0,0,0,0,0,0,0,0,0,0,0,0
1997,8,3,1,0,,26.8,24.5,87,100230,0,0,423,0,0,0,0,0,0,0,250,5.5,7,0,0,0,0,0,0,0,0,0,0,0,0
1997,8,3,2,0,,26.7,24.2,86,100200,0,0,417,0,0,0,0,0,0,0,250,5.7,6,0,0,0,0,0,0,0,0,0,0,0,0
1997,8,3,3,0,,26.5,24,86,100180,0,0,412,0,0,0,0,0,0,0,250,3.3,5,0,0,0,0,0,0,0,0,0,0,0,0
1997,8,3,4,0,,26.4,23.8,85,100180,0,0,415,0,0,0,0,0,0,0,250,4.3,6,0,0,0,0,0,0,0,0,0,0,0,0
1997,8,3,5,0,,26.3,23.5,85,100180,0,0,419,0,0,0,0,0,0,0,250,3.8,7,0,0,0,0,0,0,0,0,0,0,0,0
1997,8,3,6,0,,26.2,23.3,84,100180,0,0,425,8,1,7,981,10,977,0,230,1.8,8,0,0,0,0,0,0,0,0,0,0,0,0
1997,8,3,7,0,,26.9,23.6,82,100190,0,0,429,77,118,56,15067,9792,9933,0,230,3.7,8,0,0,0,0,0,0,0,0,0,0,0,0
1997,8,3,8,0,,27.5,24,79,100200,0,0,433,188,135,137,27487,10724,20068,0,200,3.2,8,0,0,0,0,0,0,0,0,0,0,0,0
1997,8,3,9,0,,28.6,24.3,77,100210,0,0,440,304,137,227,38616,11311,29296,0,200,5.3,8,0,0,0,0,0,0,0,0,0,0,0,0
1997,8,3,10,0,,29.1,24.4,76,100180,0,0,436,456,179,326,57392,14164,44478,0,180,5.7,7,0,0,0,0,0,0,0,0,0,0,0,0
1997,8,3,11,0,,28.5,24.6,76,100160,0,0,428,568,190,407,65501,15541,50753,0,200,6.7,6,0,0,0,0,0,0,0,0,0,0,0,0
1997,8,3,12,0,,29.7,24.7,75,100130,0,0,431,681,234,464,75103,18895,57471,0,230,6,5,0,0,0,0,0,0,0,0,0,0,0,0
1997,8,3,13,0,,30.2,24.6,74,100080,0,0,436,692,221,481,74640,17818,59219,0,230,9.7,6,0,0,0,0,0,0,0,0,0,0,0,0
1997,8,3,14,0,,30.2,24.4,74,100040,0,0,439,663,216,463,69682,17256,56732,0,230,7.8,6,0,0,0,0,0,0,0,0,0,0,0,0
1997,8,3,15,0,,29.6,24.3,73,99990,0,0,439,529,156,397,54055,13381,46082,0,230,8.3,7,0,0,0,0,0,0,0,0,0,0,0,0
1997,8,3,16,0,,28.6,24.1,75,99980,0,0,437,380,107,302,38555,8871,34897,0,230,9.8,8,0,0,0,0,0,0,0,0,0,0,0,0
1997,8,3,17,0,,28.1,24,76,99980,0,0,439,276,104,217,26370,7473,24784,0,230,6.5,8,0,0,0,0,0,0,0,0,0,0,0,0
1997,8,3,18,0,,27.9,23.8,78,99970,0,0,445,144,64,120,13066,3429,13033,0,200,6.3,9,0,0,0,0,0,0,0,0,0,0,0,0
1997,8,3,19,0,,27.4,24.2,83,99990,0,0,446,59,56,49,0,0,0,0,230,4,9,0,0,0,0,0,0,0,0,0,0,0,0
1997,8,3,20,0,,27.2,24.5,88,100000,0,0,449,4,0,4,0,0,0,0,230,9.3,10,0,0,0,0,0,0,0,0,0,0,0,0
1997,8,3,21,0,,26.1,24.9,93,100020,0,0,448,0,0,0,0,0,0,0,230,10.2,10,0,0,0,0,0,0,0,0,0,0,0,0
1997,8,3,22,0,,25.4,24.4,91,100020,0,0,443,0,0,0,0,0,0,0,230,6.7,10,0,0,0,0,0,0,0,0,0,0,0,0
1997,8,3,23,0,,25.6,23.9,89,100030,0,0,444,0,0,0,0,0,0,0,230,4.5,10,0,0,0,0,0,0,0,0,0,0,0,0
1997,8,3,24,0,,25.7,23.4,87,100030,0,0,443,0,0,0,0,0,0,0,230,5.5,10,0,0,0,0,0,0,0,0,0,0,0,0
1997,8,4,1,0,,25.7,23.2,86,100000,0,0,443,0,0,0,0,0,0,0,230,2.7,10,0,0,0,0,0,0,0,0,0,0,0,0
1997,8,4,2,0,,25.8,23.1,85,99960,0,0,443,0,0,0,0,0,0,0,270,3.7,10,0,0,0,0,0,0,0,0,0,0,0,0
1997,8,4,3,0,,25.8,22.9,84,99930,0,0,443,0,0,0,0,0,0,0,270,3.5,10,0,0,0,0,0,0,0,0,0,0,0,0
1997,8,4,4,0,,25.5,22.8,87,99920,0,0,441,0,0,0,0,0,0,0,290,4,10,0,0,0,0,0,0,0,0,0,0,0,0
1997,8,4,5,0,,24.4,22.8,91,99900,0,0,435,0,0,0,0,0,0,0,290,6.7,10,0,0,0,0,0,0,0,0,0,0,0,0
1997,8,4,6,0,,23.7,22.7,94,99890,0,0,431,1,0,1,182,0,182,0,270,6.2,10,0,0,0,0,0,0,0,0,0,0,0,0
1997,8,4,7,0,,23.9,22.6,94,99890,0,0,432,39,18,36,5817,1476,5047,0,270,5.2,10,0,0,0,0,0,0,0,0,0,0,0,0
1997,8,4,8,0,,23.5,22.5,94,99890,0,0,429,113,33,101,14158,2774,12243,0,270,9.8,10,0,0,0,0,0,0,0,0,0,0,0,0
1997,8,4,9,0,,23.4,22.4,94,99890,0,0,429,155,21,143,18763,1794,17288,0,230,5.2,10,0,0,0,0,0,0,0,0,0,0,0,0
1997,8,4,10,0,,23.6,22.4,91,99860,0,0,430,209,21,194,24943,1788,23316,0,250,6.2,10,0,0,0,0,0,0,0,0,0,0,0,0
1997,8,4,11,0,,23.6,22.5,89,99830,0,0,430,277,27,254,32447,2280,30287,0,250,8.5,10,0,0,0,0,0,0,0,0,0,0,0,0
1997,8,4,12,0,,25,22.5,86,99800,0,0,438,312,28,286,36168,2377,33953,0,270,5.2,10,0,0,0,0,0,0,0,0,0,0,0,0
1997,8,4,13,0,,24.9,22.7,88,99760,0,0,438,311,25,288,35892,2159,34027,0,250,4.3,10,0,0,0,0,0,0,0,0,0,0,0,0
1997,8,4,14,0,,24.4,22.9,91,99720,0,0,435,325,31,297,36920,2676,34917,0,250,8.3,10,0,0,0,0,0,0,0,0,0,0,0,0
1997,8,4,15,0,,24.3,23.1,93,99680,0,0,435,237,17,223,25924,1131,25253,0,250,4.3,10,0,0,0,0,0,0,0,0,0,0,0,0
1997,8,4,16,0,,24,23.2,94,99630,0,0,433,208,21,194,21664,1305,21129,0,230,7,10,0,0,0,0,0,0,0,0,0,0,0,0
1997,8,4,17,0,,24.1,23.3,94,99590,0,0,434,151,20,140,14672,877,14488,0,230,4.5,10,0,0,0,0,0,0,0,0,0,0,0,0
1997,8,4,18,0,,24.2,23.4,95,99540,0,0,435,105,27,95,8335,4080,8309,0,230,5.7,10,0,0,0,0,0,0,0,0,0,0,0,0
1997,8,4,19,0,,23.9,23.5,95,99490,0,0,433,47,31,42,0,0,0,0,250,7.5,10,0,0,0,0,0,0,0,0,0,0,0,0
1997,8,4,20,0,,24,23.7,95,99430,0,0,434,2,0,2,0,0,0,0,250,7.2,10,0,0,0,0,0,0,0,0,0,0,0,0
1997,8,4,21,0,,24.6,23.8,95,99380,0,0,438,0,0,0,0,0,0,0,250,11,10,0,0,0,0,0,0,0,0,0,0,0,0
1997,8,4,22,0,,24.1,23.6,95,99360,0,0,434,0,0,0,0,0,0,0,250,13,10,0,0,0,0,0,0,0,0,0,0,0,0
1997,8,4,23,0,,23.9,23.4,95,99330,0,0,433,0,0,0,0,0,0,0,250,9.3,10,0,0,0,0,0,0,0,0,0,0,0,0
1997,8,4,24,0,,24,23.2,95,99310,0,0,433,0,0,0,0,0,0,0,230,9.2,10,0,0,0,0,0,0,0,0,0,0,0,0
1997,8,5,1,0,,24.2,23.4,95,99280,0,0,434,0,0,0,0,0,0,0,250,7.7,10,0,0,0,0,0,0,0,0,0,0,0,0
1997,8,5,2,0,,24.3,23.5,95,99250,0,0,436,0,0,0,0,0,0,0,270,4,10,0,0,0,0,0,0,0,0,0,0,0,0
1997,8,5,3,0,,24.5,23.7,95,99220,0,0,437,0,0,0,0,0,0,0,250,4.5,10,0,0,0,0,0,0,0,0,0,0,0,0
1997,8,5,4,0,,24.5,23.7,95,99200,0,0,437,0,0,0,0,0,0,0,270,2.7,10,0,0,0,0,0,0,0,0,0,0,0,0
1997,8,5,5,0,,24.5,23.7,95,99190,0,0,437,0,0,0,0,0,0,0,290,4.3,10,0,0,0,0,0,0,0,0,0,0,0,0
1997,8,5,6,0,,24.5,23.7,95,99170,0,0,437,1,0,1,139,0,139,0,270,4.3,10,0,0,0,0,0,0,0,0,0,0,0,0
1997,8,5,7,0,,24.3,23.4,94,99210,0,0,431,44,26,39,6663,2129,5555,0,290,6.2,10,0,0,0,0,0,0,0,0,0,0,0,0
1997,8,5,8,0,,23.9,23.2,94,99260,0,0,424,131,50,112,17840,4245,14917,0,50,4,9,0,0,0,0,0,0,0,0,0,0,0,0
1997,8,5,9,0,,24,22.9,93,99300,0,0,421,198,43,175,23935,3605,20975,0,50,3.7,9,0,0,0,0,0,0,0,0,0,0,0,0
1997,8,5,10,0,,25,22.5,89,99360,0,0,426,267,41,237,31473,3543,28253,0,140,0.8,9,0,0,0,0,0,0,0,0,0,0,0,0
1997,8,5,11,0,,26.6,22,86,99410,0,0,435,386,67,330,44424,5816,38921,0,200,3,9,0,0,0,0,0,0,0,0,0,0,0,0
1997,8,5,12,0,,25,21.6,82,99470,0,0,425,380,48,336,43441,4184,39549,0,90,3.3,9,0,0,0,0,0,0,0,0,0,0,0,0
1997,8,5,13,0,,26,21.6,77,99450,0,0,419,490,86,408,54170,7667,47561,0,110,3,8,0,0,0,0,0,0,0,0,0,0,0,0
1997,8,5,14,0,,27.4,21.6,73,99430,0,0,419,591,158,445,63478,13385,53486,0,110,2,6,0,0,0,0,0,0,0,0,0,0,0,0
1997,8,5,15,0,,28,21.6,68,99410,0,0,418,634,267,408,61861,21946,48882,0,110,3.2,5,0,0,0,0,0,0,0,0,0,0,0,0
1997,8,5,16,0,,27.1,21,68,99420,0,0,411,517,266,325,46999,20308,38729,0,110,3.2,5,0,0,0,0,0,0,0,0,0,0,0,0
1997,8,5,17,0,,26.7,20.5,69,99440,0,0,407,403,332,217,29315,18488,25496,0,110,2.5,4,0,0,0,0,0,0,0,0,0,0,0,0
1997,8,5,18,0,,26.1,19.9,69,99450,0,0,402,257,359,125,13277,0,13277,0,110,2.5,4,0,0,0,0,0,0,0,0,0,0,0,0
1997,8,5,19,0,,24.6,19.9,72,99480,0,0,391,110,333,55,0,0,0,0,90,2.2,3,0,0,0,0,0,0,0,0,0,0,0,0
1997,8,5,20,0,,24.1,19.9,76,99520,0,0,384,15,5,10,0,0,0,0,70,2,2,0,0,0,0,0,0,0,0,0,0,0,0
1997,8,5,21,0,,23.8,19.9,79,99550,0,0,378,0,0,0,0,0,0,0,70,1.7,1,0,0,0,0,0,0,0,0,0,0,0,0
1997,8,5,22,0,,23.7,19.7,79,99550,0,0,377,0,0,0,0,0,0,0,90,2,1,0,0,0,0,0,0,0,0,0,0,0,0
1997,8,5,23,0,,23.3,19.4,80,99550,0,0,374,0,0,0,0,0,0,0,70,1,1,0,0,0,0,0,0,0,0,0,0,0,0
1997,8,5,24,0,,22.8,19.2,80,99550,0,0,372,0,0,0,0,0,0,0,50,2,1,0,0,0,0,0,0,0,0,0,0,0,0
1997,8,6,1,0,,22.5,18.9,80,99520,0,0,372,0,0,0,0,0,0,0,90,0.3,1,0,0,0,0,0,0,0,0,0,0,0,0
1997,8,6,2,0,,22.2,18.7,80,99500,0,0,372,0,0,0,0,0,0,0,0,0.2,2,0,0,0,0,0,0,0,0,0,0,0,0
1997,8,6,3,0,,21.9,18.4,80,99470,0,0,371,0,0,0,0,0,0,0,90,1.2,2,0,0,0,0,0,0,0,0,0,0,0,0
1997,8,6,4,0,,21.7,18.5,82,99480,0,0,369,0,0,0,0,0,0,0,360,1.8,2,0,0,0,0,0,0,0,0,0,0,0,0
1997,8,6,5,0,,21.5,18.7,83,99480,0,0,366,0,0,0,0,0,0,0,90,0.7,1,0,0,0,0,0,0,0,0,0,0,0,0
1997,8,6,6,0,,21.5,18.8,85,99490,0,0,365,16,6,10,1363,497,1201,0,70,1,1,0,0,0,0,0,0,0,0,0,0,0,0
1997,8,6,7,0,,21.5,19.3,80,99500,0,0,372,116,401,50,29252,41311,7814,0,320,1,2,0,0,0,0,0,0,0,0,0,0,0,0
1997,8,6,8,0,,23.4,19.8,76,99500,0,0,386,261,382,121,44224,37393,18532,0,320,0.5,4,0,0,0,0,0,0,0,0,0,0,0,0
1997,8,6,9,0,,25.9,20.3,71,99510,0,0,404,430,444,182,61549,43371,26002,0,230,3.2,5,0,0,0,0,0,0,0,0,0,0,0,0
1997,8,6,10,0,,25.8,20.5,68,99510,0,0,404,563,415,264,70423,37170,36695,0,200,5.5,5,0,0,0,0,0,0,0,0,0,0,0,0
1997,8,6,11,0,,28.1,20.7,65,99500,0,0,417,662,308,402,76001,26413,51052,0,200,1,5,0,0,0,0,0,0,0,0,0,0,0,0
1997,8,6,12,0,,28.9,20.9,62,99500,0,0,422,712,273,461,79348,23176,57830,0,200,4,5,0,0,0,0,0,0,0,0,0,0,0,0
1997,8,6,13,0,,28.7,21.5,64,99490,0,0,420,753,290,478,80986,24276,60104,0,200,5.3,5,0,0,0,0,0,0,0,0,0,0,0,0
1997,8,6,14,0,,29,22.2,66,99480,0,0,422,721,284,460,73016,23708,55367,0,200,5.7,4,0,0,0,0,0,0,0,0,0,0,0,0
1997,8,6,15,0,,29.4,22.8,68,99470,0,0,424,648,288,405,62578,23151,48942,0,200,4.3,4,0,0,0,0,0,0,0,0,0,0,0,0
1997,8,6,16,0,,28,22.8,71,99480,0,0,416,536,302,319,47514,22227,38522,0,200,7,4,0,0,0,0,0,0,0,0,0,0,0,0
1997,8,6,17,0,,27.9,22.8,75,99500,0,0,415,399,326,217,29327,16865,25894,0,200,4.8,4,0,0,0,0,0,0,0,0,0,0,0,0
1997,8,6,18,0,,27,22.8,78,99510,0,0,410,255,357,124,0,0,0,0,200,5.3,4,0,0,0,0,0,0,0,0,0,0,0,0
1997,8,6,19,0,,26,22.8,81,99530,0,0,407,101,333,46,0,0,0,0,200,4.8,5,0,0,0,0,0,0,0,0,0,0,0,0
1997,8,6,20,0,,25.4,22.9,84,99550,0,0,406,11,3,9,0,0,0,0,200,3.7,5,0,0,0,0,0,0,0,0,0,0,0,0
1997,8,6,21,0,,25.3,22.9,87,99570,0,0,408,0,0,0,0,0,0,0,200,3.2,6,0,0,0,0,0,0,0,0,0,0,0,0
1997,8,6,22,0,,25.3,23,87,99570,0,0,409,0,0,0,0,0,0,0,250,2.2,6,0,0,0,0,0,0,0,0,0,0,0,0
1997,8,6,23,0,,25.3,23,88,99580,0,0,411,0,0,0,0,0,0,0,270,4.2,7,0,0,0,0,0,0,0,0,0,0,0,0
1997,8,6,24,0,,25.3,23.1,88,99580,0,0,413,0,0,0,0,0,0,0,270,4,7,0,0,0,0,0,0,0,0,0,0,0,0
1997,8,7,1,0,,25.3,23.4,89,99580,0,0,415,0,0,0,0,0,0,0,200,2,7,0,0,0,0,0,0,0,0,0,0,0,0
1997,8,7,2,0,,25.4,23.6,90,99570,0,0,418,0,0,0,0,0,0,0,270,3.2,8,0,0,0,0,0,0,0,0,0,0,0,0
1997,8,7,3,0,,25.4,23.9,91,99570,0,0,421,0,0,0,0,0,0,0,180,2.3,8,0,0,0,0,0,0,0,0,0,0,0,0
1997,8,7,4,0,,25.3,23.8,91,99590,0,0,423,0,0,0,0,0,0,0,250,5.7,8,0,0,0,0,0,0,0,0,0,0,0,0
1997,8,7,5,0,,25.2,23.8,92,99600,0,0,426,0,0,0,0,0,0,0,250,3.7,9,0,0,0,0,0,0,0,0,0,0,0,0
1997,8,7,6,0,,25.1,23.7,92,99620,0,0,428,3,0,3,416,1,416,0,270,3.8,9,0,0,0,0,0,0,0,0,0,0,0,0
1997,8,7,7,0,,25.1,24.1,89,99630,0,0,425,53,49,45,9124,3694,7214,0,270,4.2,9,0,0,0,0,0,0,0,0,0,0,0,0
1997,8,7,8,0,,26.2,24.5,87,99650,0,0,429,174,118,131,25748,9204,19439,0,230,3.5,8,0,0,0,0,0,0,0,0,0,0,0,0
1997,8,7,9,0,,27.8,24.9,84,99660,0,0,436,293,129,221,37409,10561,28770,0,200,3.7,8,0,0,0,0,0,0,0,0,0,0,0,0
1997,8,7,10,0,,28.5,25.2,86,99660,0,0,447,332,76,277,41240,6179,35643,0,230,4.2,9,0,0,0,0,0,0,0,0,0,0,0,0
1997,8,7,11,0,,28.1,25.6,88,99660,0,0,452,362,57,315,42049,4702,37615,0,250,3.2,9,0,0,0,0,0,0,0,0,0,0,0,0
1997,8,7,12,0,,27.8,25.9,90,99660,0,0,460,268,18,251,31639,1506,30243,0,180,3.5,10,0,0,0,0,0,0,0,0,0,0,0,0
1997,8,7,13,0,,26.6,25.9,91,99650,0,0,448,212,9,203,24826,447,24443,0,230,1.5,10,0,0,0,0,0,0,0,0,0,0,0,0
1997,8,7,14,0,,26.2,25.8,93,99650,0,0,441,297,25,275,32681,1546,31533,0,270,3.7,9,0,0,0,0,0,0,0,0,0,0,0,0
1997,8,7,15,0,,26.9,25.8,94,99640,0,0,441,290,31,264,30595,2075,29378,0,200,3.2,9,0,0,0,0,0,0,0,0,0,0,0,0
1997,8,7,16,0,,28.6,25.5,90,99640,0,0,448,334,78,278,34847,6270,32328,0,230,7.7,9,0,0,0,0,0,0,0,0,0,0,0,0
1997,8,7,17,0,,28.1,25.3,87,99630,0,0,441,306,148,224,27681,10298,25616,0,230,7,8,0,0,0,0,0,0,0,0,0,0,0,0
1997,8,7,18,0,,28.2,25,83,99630,0,0,439,194,164,134,0,0,0,0,230,6.3,8,0,0,0,0,0,0,0,0,0,0,0,0
1997,8,7,19,0,,27.7,24.7,83,99650,0,0,421,104,310,54,0,0,0,0,250,6,5,0,0,0,0,0,0,0,0,0,0,0,0
1997,8,7,20,0,,27.3,24.4,83,99680,0,0,410,13,4,9,0,0,0,0,250,3.8,3,0,0,0,0,0,0,0,0,0,0,0,0
1997,8,7,21,0,,27.2,24.1,83,99700,0,0,393,0,0,0,0,0,0,0,270,4.5,0,0,0,0,0,0,0,0,0,0,0,0,0
1997,8,7,22,0,,27.1,24.4,86,99700,0,0,400,0,0,0,0,0,0,0,270,5,1,0,0,0,0,0,0,0,0,0,0,0,0
1997,8,7,23,0,,27.1,24.7,90,99710,0,0,406,0,0,0,0,0,0,0,270,3.3,2,0,0,0,0,0,0,0,0,0,0,0,0
1997,8,7,24,0,,26.2,25,93,99710,0,0,406,0,0,0,0,0,0,0,200,2.7,3,0,0,0,0,0,0,0,0,0,0,0,0
1997,8,8,1,0,,26.1,24.9,93,99700,0,0,402,0,0,0,0,0,0,0,250,1.7,2,0,0,0,0,0,0,0,0,0,0,0,0
1997,8,8,2,0,,25.9,24.8,94,99680,0,0,398,0,0,0,0,0,0,0,250,1.5,2,0,0,0,0,0,0,0,0,0,0,0,0
1997,8,8,3,0,,25.8,24.7,94,99670,0,0,394,0,0,0,0,0,0,0,0,0,1,0,0,0,0,0,0,0,0,0,0,0,0
1997,8,8,4,0,,25.7,24.6,94,99670,0,0,397,0,0,0,0,0,0,0,270,0.3,2,0,0,0,0,0,0,0,0,0,0,0,0
1997,8,8,5,0,,25.6,24.4,93,99660,0,0,399,0,0,0,0,0,0,0,290,0.5,2,0,0,0,0,0,0,0,0,0,0,0,0
1997,8,8,6,0,,25.5,24.3,93,99660,0,0,401,13,4,9,1230,265,1144,0,360,1.5,3,0,0,0,0,0,0,0,0,0,0,0,0
1997,8,8,7,0,,25.9,24.8,91,99650,0,0,409,99,330,45,24611,31404,8429,0,70,2.2,5,0,0,0,0,0,0,0,0,0,0,0,0
1997,8,8,8,0,,26.4,25.3,89,99640,0,0,419,215,225,133,34415,18593,21701,0,70,1.5,6,0,0,0,0,0,0,0,0,0,0,0,0
1997,8,8,9,0,,28.1,25.8,87,99630,0,0,439,281,116,217,35985,9261,28423,0,70,1.8,8,0,0,0,0,0,0,0,0,0,0,0,0
1997,8,8,10,0,,28.6,25.8,83,99590,0,0,430,452,182,322,57354,13867,44812,0,140,1.3,6,0,0,0,0,0,0,0,0,0,0,0,0
1997,8,8,11,0,,30.1,25.7,79,99540,0,0,431,651,296,402,75912,22479,54750,0,90,1.5,4,0,0,0,0,0,0,0,0,0,0,0,0
1997,8,8,12,0,,30.8,25.7,75,99500,0,0,428,756,333,449,83861,25282,60474,0,90,2.7,2,0,0,0,0,0,0,0,0,0,0,0,0
1997,8,8,13,0,,30.6,25.6,75,99470,0,0,434,726,263,478,77030,20682,59319,0,90,2.7,4,0,0,0,0,0,0,0,0,0,0,0,0
1997,8,8,14,0,,31,25.4,76,99430,0,0,443,599,167,445,64883,13044,55231,0,110,2,6,0,0,0,0,0,0,0,0,0,0,0,0
1997,8,8,15,0,,30,25.3,76,99400,0,0,450,402,76,338,43327,6390,39595,0,90,3.2,8,0,0,0,0,0,0,0,0,0,0,0,0
1997,8,8,16,0,,30.1,25.3,79,99340,0,0,456,276,47,243,29821,3731,28333,0,90,2.5,9,0,0,0,0,0,0,0,0,0,0,0,0
1997,8,8,17,0,,29.4,25.3,82,99280,0,0,460,205,49,178,21165,3304,20513,0,90,3.5,9,0,0,0,0,0,0,0,0,0,0,0,0
1997,8,8,18,0,,28.1,25.3,85,99220,0,0,461,95,22,87,0,0,0,0,140,4.7,10,0,0,0,0,0,0,0,0,0,0,0,0
1997,8,8,19,0,,27.4,25.2,87,99230,0,0,452,31,12,29,0,0,0,0,90,3.5,10,0,0,0,0,0,0,0,0,0,0,0,0
1997,8,8,20,0,,27.1,25.2,90,99250,0,0,446,1,0,1,0,0,0,0,90,3.2,9,0,0,0,0,0,0,0,0,0,0,0,0
1997,8,8,21,0,,26.6,25.1,92,99260,0,0,439,0,0,0,0,0,0,0,110,4.7,9,0,0,0,0,0,0,0,0,0,0,0,0
1997,8,8,22,0,,26.9,24.9,90,99210,0,0,444,0,0,0,0,0,0,0,110,3.3,9,0,0,0,0,0,0,0,0,0,0,0,0
1997,8,8,23,0,,26.9,24.7,87,99150,0,0,448,0,0,0,0,0,0,0,110,4.5,10,0,0,0,0,0,0,0,0,0,0,0,0
1997,8,8,24,0,,27.2,24.5,85,99100,0,0,454,0,0,0,0,0,0,0,140,5.5,10,0,0,0,0,0,0,0,0,0,0,0,0
1997,8,9,1,0,,27.2,24.1,83,98990,0,0,454,0,0,0,0,0,0,0,90,4.2,10,0,0,0,0,0,0,0,0,0,0,0,0
1997,8,9,2,0,,27.3,23.6,80,98880,0,0,453,0,0,0,0,0,0,0,160,3.8,10,0,0,0,0,0,0,0,0,0,0,0,0
1997,8,9,3,0,,27.3,23.2,78,98770,0,0,453,0,0,0,0,0,0,0,140,7.5,10,0,0,0,0,0,0,0,0,0,0,0,0
1997,8,9,4,0,,25.1,23.4,83,98650,0,0,440,0,0,0,0,0,0,0,160,9.5,10,0,0,0,0,0,0,0,0,0,0,0,0
1997,8,9,5,0,,25.1,23.6,87,98540,0,0,440,0,0,0,0,0,0,0,180,9.2,10,0,0,0,0,0,0,0,0,0,0,0,0
1997,8,9,6,0,,25.1,23.8,92,98420,0,0,440,1,0,1,94,0,94,0,180,11.8,10,0,0,0,0,0,0,0,0,0,0,0,0
1997,8,9,7,0,,24.7,23.6,93,98300,0,0,438,50,45,43,7882,3681,5992,0,200,12.8,10,0,0,0,0,0,0,0,0,0,0,0,0
1997,8,9,8,0,,24.1,23.3,93,98190,0,0,434,115,38,101,15783,3196,13603,0,230,11.3,10,0,0,0,0,0,0,0,0,0,0,0,0
1997,8,9,9,0,,24.1,23.1,94,98070,0,0,434,199,45,174,24080,3815,20971,0,230,15,10,0,0,0,0,0,0,0,0,0,0,0,0
1997,8,9,10,0,,24.2,23.4,94,98270,0,0,435,247,34,222,29247,2904,26626,0,230,11,10,0,0,0,0,0,0,0,0,0,0,0,0
1997,8,9,11,0,,24.7,23.8,94,98470,0,0,438,291,32,264,34101,2667,31595,0,230,9.8,10,0,0,0,0,0,0,0,0,0,0,0,0
1997,8,9,12,0,,25.1,24.1,94,98670,0,0,441,332,34,301,38445,2845,35819,0,230,10.2,10,0,0,0,0,0,0,0,0,0,0,0,0
1997,8,9,13,0,,25.3,24.1,91,98760,0,0,438,335,31,305,38492,2666,36214,0,230,8.8,10,0,0,0,0,0,0,0,0,0,0,0,0
1997,8,9,14,0,,26.5,24,88,98850,0,0,440,442,74,375,48578,6340,43900,0,230,8.2,9,0,0,0,0,0,0,0,0,0,0,0,0
1997,8,9,15,0,,26.7,24,85,98940,0,0,438,392,72,332,42274,6127,38711,0,250,7.5,9,0,0,0,0,0,0,0,0,0,0,0,0
1997,8,9,16,0,,26.7,23.9,85,98950,0,0,434,309,65,263,32588,5297,30490,0,230,5.8,9,0,0,0,0,0,0,0,0,0,0,0,0
1997,8,9,17,0,,26.3,23.9,85,98970,0,0,429,283,122,216,26216,8603,24546,0,250,9.3,8,0,0,0,0,0,0,0,0,0,0,0,0
1997,8,9,18,0,,26.3,23.8,85,98980,0,0,426,162,103,125,0,0,0,0,230,3.8,8,0,0,0,0,0,0,0,0,0,0,0,0
1997,8,9,19,0,,25.3,23.4,87,99080,0,0,420,64,99,49,0,0,0,0,230,4.3,8,0,0,0,0,0,0,0,0,0,0,0,0
1997,8,9,20,0,,24.6,22.9,88,99180,0,0,415,3,0,3,0,0,0,0,160,3.3,8,0,0,0,0,0,0,0,0,0,0,0,0
1997,8,9,21,0,,24.3,22.5,90,99280,0,0,413,0,0,0,0,0,0,0,200,0.8,8,0,0,0,0,0,0,0,0,0,0,0,0
1997,8,9,22,0,,24,22.4,90,99300,0,0,417,0,0,0,0,0,0,0,200,1.5,9,0,0,0,0,0,0,0,0,0,0,0,0
1997,8,9,23,0,,23.8,22.4,91,99320,0,0,423,0,0,0,0,0,0,0,180,2.7,9,0,0,0,0,0,0,0,0,0,0,0,0
1997,8,9,24,0,,23.8,22.3,91,99340,0,0,431,0,0,0,0,0,0,0,160,2.8,10,0,0,0,0,0,0,0,0,0,0,0,0
1997,8,10,1,0,,24,22.6,92,99350,0,0,432,0,0,0,0,0,0,0,200,1.5,10,0,0,0,0,0,0,0,0,0,0,0,0
1997,8,10,2,0,,24.1,23,93,99350,0,0,434,0,0,0,0,0,0,0,230,4.7,10,0,0,0,0,0,0,0,0,0,0,0,0
1997,8,10,3,0,,24.3,23.3,94,99360,0,0,435,0,0,0,0,0,0,0,200,1.2,10,0,0,0,0,0,0,0,0,0,0,0,0
1997,8,10,4,0,,24.5,23.6,94,99330,0,0,437,0,0,0,0,0,0,0,200,0.8,10,0,0,0,0,0,0,0,0,0,0,0,0
1997,8,10,5,0,,24.8,23.9,95,99300,0,0,439,0,0,0,0,0,0,0,200,1.8,10,0,0,0,0,0,0,0,0,0,0,0,0
1997,8,10,6,0,,25,24.2,95,99270,0,0,440,1,0,1,79,0,79,0,230,8.5,10,0,0,0,0,0,0,0,0,0,0,0,0
1997,8,10,7,0,,25,24.2,95,99280,0,0,441,45,34,39,6964,2752,5556,0,250,8.2,10,0,0,0,0,0,0,0,0,0,0,0,0
1997,8,10,8,0,,25.2,24.3,94,99300,0,0,442,105,30,94,13139,2423,11490,0,250,6.8,10,0,0,0,0,0,0,0,0,0,0,0,0
1997,8,10,9,0,,25.3,24.3,94,99310,0,0,442,176,32,158,21300,2663,19134,0,250,6.7,10,0,0,0,0,0,0,0,0,0,0,0,0
1997,8,10,10,0,,25.2,24.3,94,99330,0,0,442,256,38,229,30346,3204,27459,0,250,12.5,10,0,0,0,0,0,0,0,0,0,0,0,0
1997,8,10,11,0,,25.5,24.4,94,99340,0,0,444,311,38,279,36393,3212,33380,0,250,11.2,10,0,0,0,0,0,0,0,0,0,0,0,0
1997,8,10,12,0,,25.5,24.4,94,99360,0,0,444,294,24,271,34314,2024,32448,0,230,7.3,10,0,0,0,0,0,0,0,0,0,0,0,0
1997,8,10,13,0,,25.2,24.2,94,99340,0,0,442,287,21,268,33416,1745,31929,0,230,6.7,10,0,0,0,0,0,0,0,0,0,0,0,0
1997,8,10,14,0,,24.9,24,94,99330,0,0,440,279,21,259,30965,1354,29970,0,230,7.5,10,0,0,0,0,0,0,0,0,0,0,0,0
1997,8,10,15,0,,24.8,23.8,94,99310,0,0,439,239,19,224,25946,1199,25252,0,230,5.2,10,0,0,0,0,0,0,0,0,0,0,0,0
1997,8,10,16,0,,24.5,23.6,94,99340,0,0,437,223,27,204,22775,1739,22091,0,230,8.8,10,0,0,0,0,0,0,0,0,0,0,0,0
1997,8,10,17,0,,24.5,23.3,94,99370,0,0,436,150,21,139,14441,944,14261,0,230,5,10,0,0,0,0,0,0,0,0,0,0,0,0
1997,8,10,18,0,,24.1,23.1,94,99400,0,0,434,84,16,78,0,0,0,0,230,3.2,10,0,0,0,0,0,0,0,0,0,0,0,0
1997,8,10,19,0,,23.8,22.6,94,99490,0,0,431,31,13,29,0,0,0,0,50,1.5,10,0,0,0,0,0,0,0,0,0,0,0,0
1997,8,10,20,0,,23.1,22.2,94,99590,0,0,427,0,0,0,0,0,0,0,70,3.5,10,0,0,0,0,0,0,0,0,0,0,0,0
1997,8,10,21,0,,22.7,21.7,94,99680,0,0,424,0,0,0,0,0,0,0,90,3.5,10,0,0,0,0,0,0,0,0,0,0,0,0
1997,8,10,22,0,,22.4,21.4,94,99690,0,0,422,0,0,0,0,0,0,0,90,2.8,10,0,0,0,0,0,0,0,0,0,0,0,0
1997,8,10,23,0,,21.9,21.1,94,99700,0,0,418,0,0,0,0,0,0,0,90,2.7,10,0,0,0,0,0,0,0,0,0,0,0,0
1997,8,10,24,0,,21.8,20.8,94,99710,0,0,417,0,0,0,0,0,0,0,90,2.3,10,0,0,0,0,0,0,0,0,0,0,0,0
1997,8,11,1,0,,21.9,20.9,94,99710,0,0,407,0,0,0,0,0,0,0,90,3.3,9,0,0,0,0,0,0,0,0,0,0,0,0
1997,8,11,2,0,,22,21,94,99710,0,0,399,0,0,0,0,0,0,0,50,3.2,8,0,0,0,0,0,0,0,0,0,0,0,0
1997,8,11,3,0,,22.1,21.1,94,99710,0,0,393,0,0,0,0,0,0,0,50,3.2,7,0,0,0,0,0,0,0,0,0,0,0,0
1997,8,11,4,0,,22.2,21.1,94,99760,0,0,400,0,0,0,0,0,0,0,70,2,8,0,0,0,0,0,0,0,0,0,0,0,0
1997,8,11,5,0,,22.1,21,94,99810,0,0,408,0,0,0,0,0,0,0,90,0.5,9,0,0,0,0,0,0,0,0,0,0,0,0
1997,8,11,6,0,,22,21,94,99860,0,0,419,0,0,0,0,0,0,0,90,1.7,10,0,0,0,0,0,0,0,0,0,0,0,0
1997,8,11,7,0,,22.1,21.1,94,99880,0,0,420,32,14,30,4335,1179,3734,0,90,1.5,10,0,0,0,0,0,0,0,0,0,0,0,0
1997,8,11,8,0,,22.1,21.2,94,99910,0,0,420,90,20,83,11216,1677,10078,0,70,2.7,10,0,0,0,0,0,0,0,0,0,0,0,0
1997,8,11,9,0,,22.3,21.3,94,99930,0,0,421,140,17,130,16895,1462,15709,0,50,2.3,10,0,0,0,0,0,0,0,0,0,0,0,0
1997,8,11,10,0,,22.9,21.6,94,99920,0,0,425,193,18,181,23024,1519,21658,0,50,2.8,10,0,0,0,0,0,0,0,0,0,0,0,0
1997,8,11,11,0,,23.2,21.8,94,99900,0,0,427,250,21,232,29363,1809,27670,0,70,3,10,0,0,0,0,0,0,0,0,0,0,0,0
1997,8,11,12,0,,23.1,22.1,94,99890,0,0,427,260,17,244,30443,1494,29069,0,90,1.7,10,0,0,0,0,0,0,0,0,0,0,0,0
1997,8,11,13,0,,23.2,22.4,94,99850,0,0,427,251,14,237,29042,877,28296,0,90,1.7,10,0,0,0,0,0,0,0,0,0,0,0,0
1997,8,11,14,0,,23.8,22.6,94,99800,0,0,431,253,16,238,28521,1039,27760,0,70,2,10,0,0,0,0,0,0,0,0,0,0,0,0
1997,8,11,15,0,,23.9,22.9,94,99760,0,0,432,236,18,221,25647,1184,24965,0,110,3.7,10,0,0,0,0,0,0,0,0,0,0,0,0
1997,8,11,16,0,,23.4,22.9,94,99740,0,0,425,190,17,178,19806,1027,19405,0,70,3.2,10,0,0,0,0,0,0,0,0,0,0,0,0
1997,8,11,17,0,,23.5,22.9,94,99720,0,0,422,180,36,161,16684,1992,16311,0,70,2.2,9,0,0,0,0,0,0,0,0,0,0,0,0
1997,8,11,18,0,,23.9,22.9,94,99700,0,0,420,122,49,105,0,0,0,0,50,2.8,9,0,0,0,0,0,0,0,0,0,0,0,0
1997,8,11,19,0,,23.6,22.8,94,99800,0,0,422,46,7,40,0,0,0,0,320,2.7,9,0,0,0,0,0,0,0,0,0,0,0,0
1997,8,11,20,0,,23.5,22.6,94,99890,0,0,425,0,0,0,0,0,0,0,320,1,10,0,0,0,0,0,0,0,0,0,0,0,0
1997,8,11,21,0,,23.5,22.5,94,99990,0,0,429,0,0,0,0,0,0,0,180,0.5,10,0,0,0,0,0,0,0,0,0,0,0,0
1997,8,11,22,0,,23.3,22.3,94,100020,0,0,428,0,0,0,0,0,0,0,200,3.3,10,0,0,0,0,0,0,0,0,0,0,0,0
1997,8,11,23,0,,23,22.2,95,100050,0,0,426,0,0,0,0,0,0,0,180,1.3,10,0,0,0,0,0,0,0,0,0,0,0,0
1997,8,11,24,0,,22.9,22,95,100080,0,0,425,0,0,0,0,0,0,0,20,1.2,10,0,0,0,0,0,0,0,0,0,0,0,0
1997,8,12,1,0,,22.7,21.8,95,100070,0,0,424,0,0,0,0,0,0,0,70,1.8,10,0,0,0,0,0,0,0,0,0,0,0,0
1997,8,12,2,0,,22.5,21.7,95,100050,0,0,423,0,0,0,0,0,0,0,70,1.8,10,0,0,0,0,0,0,0,0,0,0,0,0
1997,8,12,3,0,,22.3,21.5,95,100040,0,0,421,0,0,0,0,0,0,0,50,2.5,10,0,0,0,0,0,0,0,0,0,0,0,0
1997,8,12,4,0,,22.3,21.5,96,100070,0,0,410,0,0,0,0,0,0,0,70,1.8,9,0,0,0,0,0,0,0,0,0,0,0,0
1997,8,12,5,0,,22.3,21.4,96,100100,0,0,401,0,0,0,0,0,0,0,20,1,8,0,0,0,0,0,0,0,0,0,0,0,0
1997,8,12,6,0,,22,21.4,97,100130,0,0,393,4,0,4,550,3,549,0,50,2.8,7,0,0,0,0,0,0,0,0,0,0,0,0
1997,8,12,7,0,,22.4,21.7,95,100170,0,0,399,60,88,47,10832,7042,7256,0,50,2.2,8,0,0,0,0,0,0,0,0,0,0,0,0
1997,8,12,8,0,,22.9,22,92,100200,0,0,407,153,91,121,21220,7800,15940,0,70,1.8,8,0,0,0,0,0,0,0,0,0,0,0,0
1997,8,12,9,0,,24,22.3,90,100240,0,0,420,212,56,182,27347,4804,23455,0,50,2.2,9,0,0,0,0,0,0,0,0,0,0,0,0
1997,8,12,10,0,,24.8,22.1,87,100250,0,0,428,311,67,264,36464,5766,31287,0,70,3,9,0,0,0,0,0,0,0,0,0,0,0,0
1997,8,12,11,0,,25.3,21.9,85,100250,0,0,435,291,32,264,34018,2806,31395,0,70,2.8,10,0,0,0,0,0,0,0,0,0,0,0,0
1997,8,12,12,0,,24.9,21.7,82,100260,0,0,436,288,23,267,33485,2021,31630,0,70,3,10,0,0,0,0,0,0,0,0,0,0,0,0
1997,8,12,13,0,,24.3,21.7,86,100310,0,0,433,275,19,258,31564,1202,30544,0,70,3.8,10,0,0,0,0,0,0,0,0,0,0,0,0
1997,8,12,14,0,,23.4,21.6,89,100350,0,0,428,241,14,228,27305,914,26638,0,70,5.8,10,0,0,0,0,0,0,0,0,0,0,0,0
1997,8,12,15,0,,22.7,21.6,93,100400,0,0,424,197,11,188,21950,685,21557,0,70,3.2,10,0,0,0,0,0,0,0,0,0,0,0,0
1997,8,12,16,0,,22.6,21.5,93,100330,0,0,423,180,15,170,18978,905,18628,0,50,4.2,10,0,0,0,0,0,0,0,0,0,0,0,0
1997,8,12,17,0,,22.3,21.3,93,100270,0,0,421,143,19,132,13818,841,13663,0,50,5.3,10,0,0,0,0,0,0,0,0,0,0,0,0
1997,8,12,18,0,,22.3,21.2,93,100200,0,0,421,91,22,84,0,0,0,0,50,4.8,10,0,0,0,0,0,0,0,0,0,0,0,0
1997,8,12,19,0,,22.3,21,93,100250,0,0,420,33,3,31,0,0,0,0,50,4.3,10,0,0,0,0,0,0,0,0,0,0,0,0
1997,8,12,20,0,,22.2,20.8,92,100300,0,0,420,0,0,0,0,0,0,0,50,4.2,10,0,0,0,0,0,0,0,0,0,0,0,0
1997,8,12,21,0,,22,20.6,92,100350,0,0,418,0,0,0,0,0,0,0,50,3.5,10,0,0,0,0,0,0,0,0,0,0,0,0
1997,8,12,22,0,,21.8,20.5,92,100350,0,0,417,0,0,0,0,0,0,0,50,3.5,10,0,0,0,0,0,0,0,0,0,0,0,0
1997,8,12,23,0,,21.8,20.5,92,100340,0,0,417,0,0,0,0,0,0,0,50,3.5,10,0,0,0,0,0,0,0,0,0,0,0,0
1997,8,12,24,0,,21.8,20.4,92,100340,0,0,417,0,0,0,0,0,0,0,50,3,10,0,0,0,0,0,0,0,0,0,0,0,0
1997,8,13,1,0,,21.8,20.3,92,100310,0,0,417,0,0,0,0,0,0,0,50,4.2,10,0,0,0,0,0,0,0,0,0,0,0,0
1997,8,13,2,0,,21.7,20.3,92,100290,0,0,416,0,0,0,0,0,0,0,50,3.2,10,0,0,0,0,0,0,0,0,0,0,0,0
1997,8,13,3,0,,21.7,20.2,92,100260,0,0,416,0,0,0,0,0,0,0,50,5.7,10,0,0,0,0,0,0,0,0,0,0,0,0
1997,8,13,4,0,,21.7,20.3,92,100280,0,0,416,0,0,0,0,0,0,0,50,4.2,10,0,0,0,0,0,0,0,0,0,0,0,0
1997,8,13,5,0,,21.8,20.3,92,100310,0,0,417,0,0,0,0,0,0,0,50,4.8,10,0,0,0,0,0,0,0,0,0,0,0,0
1997,8,13,6,0,,21.7,20.4,92,100330,0,0,416,0,0,0,0,0,0,0,50,4.5,10,0,0,0,0,0,0,0,0,0,0,0,0
1997,8,13,7,0,,21.6,20.5,92,100350,0,0,416,36,3,33,4274,124,4211,0,50,4.2,10,0,0,0,0,0,0,0,0,0,0,0,0
1997,8,13,8,0,,21.9,20.7,92,100380,0,0,418,101,29,91,12679,2453,11023,0,50,6,10,0,0,0,0,0,0,0,0,0,0,0,0
1997,8,13,9,0,,22.3,20.8,92,100400,0,0,420,167,29,151,20127,2491,18114,0,50,5.3,10,0,0,0,0,0,0,0,0,0,0,0,0
1997,8,13,10,0,,23.2,21.3,87,100400,0,0,422,228,29,208,27063,2495,24828,0,50,3.8,10,0,0,0,0,0,0,0,0,0,0,0,0
1997,8,13,11,0,,24.7,21.8,83,100390,0,0,427,371,63,319,42726,5514,37583,0,50,4.2,9,0,0,0,0,0,0,0,0,0,0,0,0
1997,8,13,12,0,,26.5,22.3,78,100390,0,0,434,454,81,381,51146,7091,44654,0,50,4,9,0,0,0,0,0,0,0,0,0,0,0,0
1997,8,13,13,0,,26.3,22.4,80,100360,0,0,437,423,61,366,47423,5337,42910,0,70,3.2,9,0,0,0,0,0,0,0,0,0,0,0,0
1997,8,13,14,0,,25.6,22.4,82,100320,0,0,437,305,28,280,34681,2393,32939,0,70,5.3,10,0,0,0,0,0,0,0,0,0,0,0,0
1997,8,13,15,0,,25.3,22.5,84,100290,0,0,440,244,20,227,26350,1351,25580,0,50,5.2,10,0,0,0,0,0,0,0,0,0,0,0,0
1997,8,13,16,0,,24.7,22.1,85,100310,0,0,436,189,17,176,19685,1057,19279,0,70,4.8,10,0,0,0,0,0,0,0,0,0,0,0,0
1997,8,13,17,0,,23.6,21.7,87,100320,0,0,429,128,14,120,12566,539,12468,0,50,3.8,10,0,0,0,0,0,0,0,0,0,0,0,0
1997,8,13,18,0,,23.5,21.3,88,100340,0,0,428,84,18,78,0,0,0,0,50,4.2,10,0,0,0,0,0,0,0,0,0,0,0,0
1997,8,13,19,0,,23.2,21.1,88,100370,0,0,426,32,3,29,0,0,0,0,50,4.2,10,0,0,0,0,0,0,0,0,0,0,0,0
1997,8,13,20,0,,23,21,89,100410,0,0,424,0,0,0,0,0,0,0,50,4.7,10,0,0,0,0,0,0,0,0,0,0,0,0
1997,8,13,21,0,,22.7,20.8,89,100440,0,0,422,0,0,0,0,0,0,0,50,3.7,10,0,0,0,0,0,0,0,0,0,0,0,0
1997,8,13,22,0,,22.6,20.6,89,100440,0,0,422,0,0,0,0,0,0,0,50,4.5,10,0,0,0,0,0,0,0,0,0,0,0,0
1997,8,13,23,0,,22.4,20.5,88,100440,0,0,420,0,0,0,0,0,0,0,50,4.8,10,0,0,0,0,0,0,0,0,0,0,0,0
1997,8,13,24,0,,22.3,20.3,88,100440,0,0,420,0,0,0,0,0,0,0,50,3.3,10,0,0,0,0,0,0,0,0,0,0,0,0
1997,8,14,1,0,,22.3,20.3,89,100410,0,0,415,0,0,0,0,0,0,0,50,5.7,10,0,0,0,0,0,0,0,0,0,0,0,0
1997,8,14,2,0,,22.2,20.4,90,100380,0,0,411,0,0,0,0,0,0,0,50,5.5,9,0,0,0,0,0,0,0,0,0,0,0,0
1997,8,14,3,0,,22,20.4,91,100350,0,0,406,0,0,0,0,0,0,0,50,4.5,9,0,0,0,0,0,0,0,0,0,0,0,0
1997,8,14,4,0,,21.9,20.4,91,100360,0,0,409,0,0,0,0,0,0,0,70,4,9,0,0,0,0,0,0,0,0,0,0,0,0
1997,8,14,5,0,,21.9,20.4,91,100380,0,0,413,0,0,0,0,0,0,0,50,6.3,10,0,0,0,0,0,0,0,0,0,0,0,0
1997,8,14,6,0,,21.9,20.4,91,100390,0,0,417,0,0,0,0,0,0,0,50,4.3,10,0,0,0,0,0,0,0,0,0,0,0,0
1997,8,14,7,0,,22.3,20.6,89,100440,0,0,420,38,4,34,4478,154,4400,0,50,5,10,0,0,0,0,0,0,0,0,0,0,0,0
1997,8,14,8,0,,22.6,20.8,88,100480,0,0,422,114,41,100,15563,3589,13146,0,50,6.2,10,0,0,0,0,0,0,0,0,0,0,0,0
1997,8,14,9,0,,23.4,21,86,100530,0,0,427,187,40,165,22554,3472,19754,0,50,6.3,10,0,0,0,0,0,0,0,0,0,0,0,0
1997,8,14,10,0,,23.4,20.8,82,100520,0,0,422,230,30,209,27224,2580,24916,0,50,5,10,0,0,0,0,0,0,0,0,0,0,0,0
1997,8,14,11,0,,24.3,20.6,77,100510,0,0,423,375,66,321,43136,5814,37724,0,50,5.3,9,0,0,0,0,0,0,0,0,0,0,0,0
1997,8,14,12,0,,25.5,20.4,73,100500,0,0,426,443,76,374,49835,6794,43629,0,50,6,9,0,0,0,0,0,0,0,0,0,0,0,0
1997,8,14,13,0,,25.2,20.4,76,100480,0,0,428,442,69,378,49159,6191,43938,0,50,6.5,9,0,0,0,0,0,0,0,0,0,0,0,0
1997,8,14,14,0,,24.2,20.5,80,100450,0,0,426,308,29,282,34796,2529,32962,0,70,6.8,10,0,0,0,0,0,0,0,0,0,0,0,0
1997,8,14,15,0,,23.7,20.5,83,100430,0,0,428,231,18,216,25186,1196,24508,0,50,4.7,10,0,0,0,0,0,0,0,0,0,0,0,0
1997,8,14,16,0,,23.7,19.9,80,100430,0,0,427,218,26,200,22334,1825,21640,0,50,6,10,0,0,0,0,0,0,0,0,0,0,0,0
1997,8,14,17,0,,24,19.3,77,100430,0,0,428,163,29,148,15341,1553,15066,0,50,4,10,0,0,0,0,0,0,0,0,0,0,0,0
1997,8,14,18,0,,23.5,18.7,74,100430,0,0,424,99,30,89,0,0,0,0,70,3.3,10,0,0,0,0,0,0,0,0,0,0,0,0
1997,8,14,19,0,,23,19.1,80,100460,0,0,422,33,3,30,0,0,0,0,50,4.5,10,0,0,0,0,0,0,0,0,0,0,0,0
1997,8,14,20,0,,22,19.6,86,100480,0,0,417,0,0,0,0,0,0,0,50,6.7,10,0,0,0,0,0,0,0,0,0,0,0,0
1997,8,14,21,0,,21.5,20,92,100510,0,0,415,0,0,0,0,0,0,0,50,4.7,10,0,0,0,0,0,0,0,0,0,0,0,0
1997,8,14,22,0,,21.4,19.8,91,100540,0,0,414,0,0,0,0,0,0,0,50,3.3,10,0,0,0,0,0,0,0,0,0,0,0,0
1997,8,14,23,0,,21.3,19.6,91,100570,0,0,413,0,0,0,0,0,0,0,50,4.5,10,0,0,0,0,0,0,0,0,0,0,0,0
1997,8,14,24,0,,21.2,19.4,90,100600,0,0,412,0,0,0,0,0,0,0,50,4,10,0,0,0,0,0,0,0,0,0,0,0,0
1997,8,15,1,0,,21.3,19.4,90,100580,0,0,412,0,0,0,0,0,0,0,50,4.2,10,0,0,0,0,0,0,0,0,0,0,0,0
1997,8,15,2,0,,21.3,19.4,89,100550,0,0,413,0,0,0,0,0,0,0,50,6.3,10,0,0,0,0,0,0,0,0,0,0,0,0
1997,8,15,3,0,,21.4,19.4,89,100530,0,0,413,0,0,0,0,0,0,0,50,5,10,0,0,0,0,0,0,0,0,0,0,0,0
1997,8,15,4,0,,21.4,19.4,88,100530,0,0,409,0,0,0,0,0,0,0,50,4.3,10,0,0,0,0,0,0,0,0,0,0,0,0
1997,8,15,5,0,,21.5,19.3,88,100540,0,0,406,0,0,0,0,0,0,0,50,4.3,9,0,0,0,0,0,0,0,0,0,0,0,0
1997,8,15,6,0,,21.5,19.3,87,100540,0,0,402,0,0,0,0,0,0,0,50,4.3,9,0,0,0,0,0,0,0,0,0,0,0,0
1997,8,15,7,0,,21.7,19.3,83,100560,0,0,403,48,8,40,5270,674,4931,0,50,3.3,9,0,0,0,0,0,0,0,0,0,0,0,0
1997,8,15,8,0,,22.4,19.4,80,100580,0,0,407,133,65,111,18295,5813,14391,0,50,3.3,9,0,0,0,0,0,0,0,0,0,0,0,0
1997,8,15,9,0,,23.9,19.4,76,100600,0,0,416,246,87,199,31284,7814,24995,0,50,4.2,9,0,0,0,0,0,0,0,0,0,0,0,0
1997,8,15,10,0,,24.4,19,72,100590,0,0,418,343,89,280,41598,8081,34385,0,50,5,9,0,0,0,0,0,0,0,0,0,0,0,0
1997,8,15,11,0,,24.4,18.7,67,100580,0,0,417,392,74,330,44814,6702,38589,0,50,4.8,9,0,0,0,0,0,0,0,0,0,0,0,0
1997,8,15,12,0,,25.8,18.3,63,100570,0,0,425,443,76,373,49715,6974,43360,0,70,5.7,9,0,0,0,0,0,0,0,0,0,0,0,0
1997,8,15,13,0,,26.5,18.4,63,100530,0,0,429,464,79,390,51200,7240,45112,0,50,5.3,9,0,0,0,0,0,0,0,0,0,0,0,0
1997,8,15,14,0,,26.5,18.6,62,100480,0,0,429,477,95,392,51330,8686,45055,0,50,8.2,9,0,0,0,0,0,0,0,0,0,0,0,0
1997,8,15,15,0,,26.4,18.7,62,100440,0,0,429,396,78,332,42014,7045,38039,0,50,5.8,9,0,0,0,0,0,0,0,0,0,0,0,0
1997,8,15,16,0,,25.5,18.9,65,100420,0,0,411,430,175,308,40714,15314,34943,0,50,8.5,7,0,0,0,0,0,0,0,0,0,0,0,0
1997,8,15,17,0,,25,19,68,100390,0,0,400,350,257,214,26836,12953,24594,0,50,9,6,0,0,0,0,0,0,0,0,0,0,0,0
1997,8,15,18,0,,24.7,19.2,71,100370,0,0,393,241,392,108,0,0,0,0,50,6.5,4,0,0,0,0,0,0,0,0,0,0,0,0
1997,8,15,19,0,,23.8,18.8,73,100430,0,0,385,94,55,39,0,0,0,0,50,5.8,3,0,0,0,0,0,0,0,0,0,0,0,0
1997,8,15,20,0,,23.1,18.5,74,100480,0,0,377,0,0,0,0,0,0,0,50,5.2,2,0,0,0,0,0,0,0,0,0,0,0,0
1997,8,15,21,0,,22.6,18.1,76,100540,0,0,369,0,0,0,0,0,0,0,50,6.8,1,0,0,0,0,0,0,0,0,0,0,0,0
1997,8,15,22,0,,22.5,18.1,76,100550,0,0,376,0,0,0,0,0,0,0,50,4.7,3,0,0,0,0,0,0,0,0,0,0,0,0
1997,8,15,23,0,,22.5,18.2,77,100560,0,0,382,0,0,0,0,0,0,0,50,5,4,0,0,0,0,0,0,0,0,0,0,0,0
1997,8,15,24,0,,22.4,18.2,77,100570,0,0,386,0,0,0,0,0,0,0,50,4.5,6,0,0,0,0,0,0,0,0,0,0,0,0
1997,8,16,1,0,,21.9,17.9,77,100520,0,0,378,0,0,0,0,0,0,0,50,4.5,4,0,0,0,0,0,0,0,0,0,0,0,0
1997,8,16,2,0,,21.5,17.5,78,100480,0,0,371,0,0,0,0,0,0,0,20,3.2,3,0,0,0,0,0,0,0,0,0,0,0,0
1997,8,16,3,0,,21.3,17.2,78,100430,0,0,362,0,0,0,0,0,0,0,20,5.7,1,0,0,0,0,0,0,0,0,0,0,0,0
1997,8,16,4,0,,21.3,17.4,78,100440,0,0,368,0,0,0,0,0,0,0,20,3.8,2,0,0,0,0,0,0,0,0,0,0,0,0
1997,8,16,5,0,,21.4,17.6,79,100450,0,0,373,0,0,0,0,0,0,0,20,3,4,0,0,0,0,0,0,0,0,0,0,0,0
1997,8,16,6,0,,21.6,17.8,79,100460,0,0,378,0,0,0,0,0,0,0,20,5.2,5,0,0,0,0,0,0,0,0,0,0,0,0
1997,8,16,7,0,,21.5,18.2,78,100470,0,0,380,87,49,38,7926,4173,5839,0,20,6.5,6,0,0,0,0,0,0,0,0,0,0,0,0
1997,8,16,8,0,,22,18.5,78,100490,0,0,386,222,299,118,36320,27196,18105,0,20,4.8,6,0,0,0,0,0,0,0,0,0,0,0,0
1997,8,16,9,0,,23.1,18.9,77,100500,0,0,396,335,213,220,44289,18938,29081,0,20,5.7,7,0,0,0,0,0,0,0,0,0,0,0,0
1997,8,16,10,0,,24,19,73,100480,0,0,399,427,166,310,51217,15044,37817,0,20,3.3,7,0,0,0,0,0,0,0,0,0,0,0,0
1997,8,16,11,0,,25.9,19.1,68,100450,0,0,408,626,281,394,72143,24790,49166,0,50,6.2,6,0,0,0,0,0,0,0,0,0,0,0,0
1997,8,16,12,0,,26.7,19.2,64,100430,0,0,411,661,234,449,72432,20842,53486,0,20,4.7,6,0,0,0,0,0,0,0,0,0,0,0,0
1997,8,16,13,0,,27.1,19,62,100370,0,0,409,753,313,461,79484,27463,56459,0,50,6.3,5,0,0,0,0,0,0,0,0,0,0,0,0
1997,8,16,14,0,,27.1,18.8,59,100310,0,0,406,726,317,441,72001,27840,51964,0,20,5.3,4,0,0,0,0,0,0,0,0,0,0,0,0
1997,8,16,15,0,,27.6,18.6,57,100250,0,0,405,688,490,286,59619,41676,36233,0,50,4.5,3,0,0,0,0,0,0,0,0,0,0,0,0
1997,8,16,16,0,,27.3,18.6,60,100230,0,0,408,543,423,249,43337,32119,31344,0,50,5.3,4,0,0,0,0,0,0,0,0,0,0,0,0
1997,8,16,17,0,,26.2,18.7,63,100200,0,0,406,346,252,212,26512,12538,24390,0,50,5.8,6,0,0,0,0,0,0,0,0,0,0,0,0
1997,8,16,18,0,,25.4,18.7,66,100180,0,0,408,185,188,122,0,0,0,0,50,4.7,7,0,0,0,0,0,0,0,0,0,0,0,0
1997,8,16,19,0,,24.2,18.8,69,100210,0,0,405,53,13,40,0,0,0,0,50,4.2,8,0,0,0,0,0,0,0,0,0,0,0,0
1997,8,16,20,0,,23.7,18.9,73,100240,0,0,408,0,0,0,0,0,0,0,50,4.2,8,0,0,0,0,0,0,0,0,0,0,0,0
1997,8,16,21,0,,23.4,19,76,100270,0,0,412,0,0,0,0,0,0,0,20,6.3,9,0,0,0,0,0,0,0,0,0,0,0,0
1997,8,16,22,0,,23.3,19,77,100250,0,0,412,0,0,0,0,0,0,0,20,6,9,0,0,0,0,0,0,0,0,0,0,0,0
1997,8,16,23,0,,22.9,19,78,100230,0,0,410,0,0,0,0,0,0,0,20,5.3,9,0,0,0,0,0,0,0,0,0,0,0,0
1997,8,16,24,0,,22.8,19,79,100210,0,0,409,0,0,0,0,0,0,0,20,4.8,9,0,0,0,0,0,0,0,0,0,0,0,0
1997,8,17,1,0,,22.6,19.3,81,100150,0,0,408,0,0,0,0,0,0,0,20,5.7,9,0,0,0,0,0,0,0,0,0,0,0,0
1997,8,17,2,0,,22.4,19.6,83,100080,0,0,408,0,0,0,0,0,0,0,20,4,9,0,0,0,0,0,0,0,0,0,0,0,0
1997,8,17,3,0,,22.5,19.9,85,100020,0,0,409,0,0,0,0,0,0,0,50,5,9,0,0,0,0,0,0,0,0,0,0,0,0
1997,8,17,4,0,,22.8,19.8,84,100020,0,0,410,0,0,0,0,0,0,0,50,7.3,9,0,0,0,0,0,0,0,0,0,0,0,0
1997,8,17,5,0,,22.7,19.8,84,100020,0,0,409,0,0,0,0,0,0,0,50,6,9,0,0,0,0,0,0,0,0,0,0,0,0
1997,8,17,6,0,,22.8,19.7,83,100020,0,0,410,0,0,0,0,0,0,0,50,5.7,9,0,0,0,0,0,0,0,0,0,0,0,0
1997,8,17,7,0,,23,20.1,82,100030,0,0,412,46,8,39,5060,626,4749,0,50,3,9,0,0,0,0,0,0,0,0,0,0,0,0
1997,8,17,8,0,,23.4,20.5,82,100030,0,0,414,136,72,112,18820,6342,14585,0,50,3.7,9,0,0,0,0,0,0,0,0,0,0,0,0
1997,8,17,9,0,,24.4,20.9,81,100040,0,0,420,234,78,192,29949,6849,24461,0,50,4.3,9,0,0,0,0,0,0,0,0,0,0,0,0
1997,8,17,10,0,,25.8,21.4,77,100040,0,0,420,385,126,297,46663,10959,36922,0,50,4.7,8,0,0,0,0,0,0,0,0,0,0,0,0
1997,8,17,11,0,,27.6,22,72,100040,0,0,424,559,201,393,64084,17268,48114,0,90,4.7,7,0,0,0,0,0,0,0,0,0,0,0,0
1997,8,17,12,0,,28.8,22.5,68,100040,0,0,427,655,229,448,72110,19375,54541,0,50,3.3,6,0,0,0,0,0,0,0,0,0,0,0,0
1997,8,17,13,0,,29.1,22.4,68,99990,0,0,432,595,158,448,65502,13296,54388,0,70,3,7,0,0,0,0,0,0,0,0,0,0,0,0
1997,8,17,14,0,,29.5,22.3,67,99950,0,0,438,565,153,428,60859,12700,51755,0,90,4,7,0,0,0,0,0,0,0,0,0,0,0,0
1997,8,17,15,0,,29,22.2,67,99900,0,0,440,422,95,345,44467,8284,39845,0,90,3.5,8,0,0,0,0,0,0,0,0,0,0,0,0
1997,8,17,16,0,,28.7,21.9,68,99900,0,0,437,372,120,290,36858,10036,33146,0,90,6,8,0,0,0,0,0,0,0,0,0,0,0,0
1997,8,17,17,0,,27.8,21.6,70,99900,0,0,432,256,107,200,23740,7493,22500,0,50,5.3,8,0,0,0,0,0,0,0,0,0,0,0,0
1997,8,17,18,0,,27.1,21.3,71,99900,0,0,427,157,120,117,0,0,0,0,50,4,8,0,0,0,0,0,0,0,0,0,0,0,0
1997,8,17,19,0,,26.2,21.3,74,99970,0,0,416,59,19,40,0,0,0,0,50,4.3,7,0,0,0,0,0,0,0,0,0,0,0,0
1997,8,17,20,0,,25.6,21.4,78,100030,0,0,408,0,0,0,0,0,0,0,50,3,6,0,0,0,0,0,0,0,0,0,0,0,0
1997,8,17,21,0,,24.9,21.4,81,100100,0,0,400,0,0,0,0,0,0,0,50,5,5,0,0,0,0,0,0,0,0,0,0,0,0
1997,8,17,22,0,,24.7,21.5,82,100110,0,0,400,0,0,0,0,0,0,0,50,4.3,5,0,0,0,0,0,0,0,0,0,0,0,0
1997,8,17,23,0,,24.6,21.6,84,100130,0,0,401,0,0,0,0,0,0,0,50,5,6,0,0,0,0,0,0,0,0,0,0,0,0
1997,8,17,24,0,,24.4,21.7,85,100140,0,0,401,0,0,0,0,0,0,0,20,2.3,6,0,0,0,0,0,0,0,0,0,0,0,0
1997,8,18,1,0,,24.3,21.7,85,100110,0,0,399,0,0,0,0,0,0,0,20,5,5,0,0,0,0,0,0,0,0,0,0,0,0
1997,8,18,2,0,,24.3,21.7,86,100070,0,0,396,0,0,0,0,0,0,0,20,3.2,5,0,0,0,0,0,0,0,0,0,0,0,0
1997,8,18,3,0,,24.2,21.7,86,100040,0,0,394,0,0,0,0,0,0,0,20,5,4,0,0,0,0,0,0,0,0,0,0,0,0
1997,8,18,4,0,,24.1,21.7,86,100060,0,0,394,0,0,0,0,0,0,0,50,3.5,4,0,0,0,0,0,0,0,0,0,0,0,0
1997,8,18,5,0,,24.1,21.6,86,100080,0,0,395,0,0,0,0,0,0,0,50,2.3,5,0,0,0,0,0,0,0,0,0,0,0,0
1997,8,18,6,0,,24,21.6,86,100100,0,0,396,0,0,0,0,0,0,0,50,4.2,5,0,0,0,0,0,0,0,0,0,0,0,0
1997,8,18,7,0,,24.4,22,84,100160,0,0,403,79,39,40,7212,3215,5617,0,50,4.2,6,0,0,0,0,0,0,0,0,0,0,0,0
1997,8,18,8,0,,25.6,22.4,83,100210,0,0,418,167,131,122,24917,10756,17753,0,50,2.5,8,0,0,0,0,0,0,0,0,0,0,0,0
1997,8,18,9,0,,26.4,22.8,81,100270,0,0,434,240,84,195,30869,7217,25100,0,50,3.8,9,0,0,0,0,0,0,0,0,0,0,0,0
1997,8,18,10,0,,27.7,23.1,77,100260,0,0,428,447,194,312,55933,15844,41881,0,50,4.7,7,0,0,0,0,0,0,0,0,0,0,0,0
1997,8,18,11,0,,28.9,23.5,73,100260,0,0,427,595,245,394,70203,19769,51961,0,70,5.7,6,0,0,0,0,0,0,0,0,0,0,0,0
1997,8,18,12,0,,30.2,23.8,69,100250,0,0,430,743,437,349,81864,37072,48334,0,50,5.3,4,0,0,0,0,0,0,0,0,0,0,0,0
1997,8,18,13,0,,30.4,23.3,68,100230,0,0,437,671,224,463,71902,18457,56523,0,70,4.8,6,0,0,0,0,0,0,0,0,0,0,0,0
1997,8,18,14,0,,30.9,22.9,66,100220,0,0,452,516,120,408,54999,10546,47470,0,70,4.3,8,0,0,0,0,0,0,0,0,0,0,0,0
1997,8,18,15,0,,29.9,22.4,65,100200,0,0,468,293,35,264,32513,3027,30834,0,50,5.5,10,0,0,0,0,0,0,0,0,0,0,0,0
1997,8,18,16,0,,29.1,22.2,66,100200,0,0,458,210,25,193,21376,1616,20784,0,50,4.3,10,0,0,0,0,0,0,0,0,0,0,0,0
1997,8,18,17,0,,28.7,22.1,66,100200,0,0,451,202,56,172,20132,3797,19518,0,50,4,9,0,0,0,0,0,0,0,0,0,0,0,0
1997,8,18,18,0,,28.6,21.9,67,100200,0,0,446,132,76,107,0,0,0,0,50,6,9,0,0,0,0,0,0,0,0,0,0,0,0
1997,8,18,19,0,,28.1,22.7,75,100320,0,0,448,43,8,35,0,0,0,0,50,3.8,9,0,0,0,0,0,0,0,0,0,0,0,0
1997,8,18,20,0,,27.2,23.6,83,100440,0,0,448,0,0,0,0,0,0,0,50,3.2,10,0,0,0,0,0,0,0,0,0,0,0,0
1997,8,18,21,0,,25.9,24.4,91,100560,0,0,446,0,0,0,0,0,0,0,90,3.8,10,0,0,0,0,0,0,0,0,0,0,0,0
1997,8,18,22,0,,25,24.2,91,100570,0,0,440,0,0,0,0,0,0,0,50,3.5,10,0,0,0,0,0,0,0,0,0,0,0,0
1997,8,18,23,0,,25.1,23.9,92,100570,0,0,441,0,0,0,0,0,0,0,70,2.8,10,0,0,0,0,0,0,0,0,0,0,0,0
1997,8,18,24,0,,25.1,23.7,92,100580,0,0,440,0,0,0,0,0,0,0,50,3.3,10,0,0,0,0,0,0,0,0,0,0,0,0
1997,8,19,1,0,,25.2,23.8,92,100570,0,0,433,0,0,0,0,0,0,0,50,4,9,0,0,0,0,0,0,0,0,0,0,0,0
1997,8,19,2,0,,25.3,24,92,100570,0,0,426,0,0,0,0,0,0,0,50,2.8,9,0,0,0,0,0,0,0,0,0,0,0,0
1997,8,19,3,0,,25.5,24.1,92,100560,0,0,422,0,0,0,0,0,0,0,70,2.8,8,0,0,0,0,0,0,0,0,0,0,0,0
1997,8,19,4,0,,25.4,24,92,100570,0,0,427,0,0,0,0,0,0,0,70,3.2,9,0,0,0,0,0,0,0,0,0,0,0,0
1997,8,19,5,0,,25.2,23.8,92,100570,0,0,433,0,0,0,0,0,0,0,50,2.2,9,0,0,0,0,0,0,0,0,0,0,0,0
1997,8,19,6,0,,25.1,23.7,92,100580,0,0,440,0,0,0,0,0,0,0,50,3.8,10,0,0,0,0,0,0,0,0,0,0,0,0
1997,8,19,7,0,,25.1,23.9,91,100620,0,0,441,27,2,25,3314,56,3286,0,50,3.2,10,0,0,0,0,0,0,0,0,0,0,0,0
1997,8,19,8,0,,25.7,24,90,100670,0,0,444,93,25,84,11704,2082,10321,0,70,3.2,10,0,0,0,0,0,0,0,0,0,0,0,0
1997,8,19,9,0,,26.1,24.2,89,100710,0,0,447,167,31,150,20257,2583,18197,0,70,4.2,10,0,0,0,0,0,0,0,0,0,0,0,0
1997,8,19,10,0,,26.7,24.3,86,100710,0,0,451,223,28,203,26586,2374,24485,0,70,3.8,10,0,0,0,0,0,0,0,0,0,0,0,0
1997,8,19,11,0,,27.5,24.3,82,100710,0,0,455,297,36,268,34793,3029,32005,0,70,5,10,0,0,0,0,0,0,0,0,0,0,0,0
1997,8,19,12,0,,28.5,24.4,79,100710,0,0,462,307,29,281,35758,2451,33547,0,70,3,10,0,0,0,0,0,0,0,0,0,0,0,0
1997,8,19,13,0,,28.3,24.4,79,100710,0,0,456,318,29,291,36597,2464,34551,0,70,4.2,10,0,0,0,0,0,0,0,0,0,0,0,0
1997,8,19,14,0,,28.8,24.5,78,100700,0,0,455,385,55,336,42801,4651,39494,0,70,3.8,9,0,0,0,0,0,0,0,0,0,0,0,0
1997,8,19,15,0,,28.7,24.5,78,100700,0,0,450,356,61,307,38658,5133,35829,0,70,5.7,9,0,0,0,0,0,0,0,0,0,0,0,0
1997,8,19,16,0,,28.6,24.4,78,100700,0,0,435,388,138,293,37845,11216,33778,0,70,4.2,7,0,0,0,0,0,0,0,0,0,0,0,0
1997,8,19,17,0,,29.1,24.3,77,100700,0,0,430,328,231,209,26318,8942,24909,0,70,4.2,6,0,0,0,0,0,0,0,0,0,0,0,0
1997,8,19,18,0,,28.7,24.2,77,100700,0,0,422,233,403,101,0,0,0,0,70,3.8,4,0,0,0,0,0,0,0,0,0,0,0,0
1997,8,19,19,0,,27.3,24.1,80,100750,0,0,414,77,39,38,0,0,0,0,70,5.7,4,0,0,0,0,0,0,0,0,0,0,0,0
1997,8,19,20,0,,26.6,23.9,84,100790,0,0,410,0,0,0,0,0,0,0,70,4,4,0,0,0,0,0,0,0,0,0,0,0,0
1997,8,19,21,0,,26.1,23.8,87,100840,0,0,407,0,0,0,0,0,0,0,70,5.8,4,0,0,0,0,0,0,0,0,0,0,0,0
1997,8,19,22,0,,26,23.9,87,100840,0,0,408,0,0,0,0,0,0,0,70,3.5,5,0,0,0,0,0,0,0,0,0,0,0,0
1997,8,19,23,0,,26,23.9,88,100830,0,0,411,0,0,0,0,0,0,0,70,2.3,5,0,0,0,0,0,0,0,0,0,0,0,0
1997,8,19,24,0,,26.2,24,88,100830,0,0,414,0,0,0,0,0,0,0,70,4.7,6,0,0,0,0,0,0,0,0,0,0,0,0
1997,8,20,1,0,,26.2,24,88,100790,0,0,421,0,0,0,0,0,0,0,20,3.5,7,0,0,0,0,0,0,0,0,0,0,0,0
1997,8,20,2,0,,26.2,24,88,100740,0,0,432,0,0,0,0,0,0,0,50,3,9,0,0,0,0,0,0,0,0,0,0,0,0
1997,8,20,3,0,,26.2,24,88,100700,0,0,447,0,0,0,0,0,0,0,50,2,10,0,0,0,0,0,0,0,0,0,0,0,0
1997,8,20,4,0,,26.1,23.9,88,100700,0,0,446,0,0,0,0,0,0,0,70,2.5,10,0,0,0,0,0,0,0,0,0,0,0,0
1997,8,20,5,0,,25.9,23.7,88,100700,0,0,445,0,0,0,0,0,0,0,70,3,10,0,0,0,0,0,0,0,0,0,0,0,0
1997,8,20,6,0,,25.8,23.6,88,100700,0,0,444,0,0,0,0,0,0,0,70,3.3,10,0,0,0,0,0,0,0,0,0,0,0,0
1997,8,20,7,0,,25.7,23.8,87,100720,0,0,444,28,2,26,3438,66,3406,0,90,3.7,10,0,0,0,0,0,0,0,0,0,0,0,0
1997,8,20,8,0,,25.9,23.9,86,100730,0,0,445,91,25,83,11510,2036,10162,0,70,3.3,10,0,0,0,0,0,0,0,0,0,0,0,0
1997,8,20,9,0,,26.8,24.1,85,100750,0,0,451,156,26,142,18934,2161,17215,0,90,2.8,10,0,0,0,0,0,0,0,0,0,0,0,0
1997,8,20,10,0,,27.7,24.5,83,100730,0,0,441,293,61,251,34477,5084,29988,0,90,2.7,9,0,0,0,0,0,0,0,0,0,0,0,0
1997,8,20,11,0,,29.2,25,81,100720,0,0,439,504,154,378,58974,12466,47524,0,70,2.2,7,0,0,0,0,0,0,0,0,0,0,0,0
1997,8,20,12,0,,29.6,25.4,79,100700,0,0,435,604,186,437,67964,14848,54607,0,110,3.3,6,0,0,0,0,0,0,0,0,0,0,0,0
1997,8,20,13,0,,29.6,25.4,77,100680,0,0,429,711,272,461,74949,21486,57162,0,110,5.3,4,0,0,0,0,0,0,0,0,0,0,0,0
1997,8,20,14,0,,30.2,25.3,75,100660,0,0,427,692,283,439,69980,22082,54349,0,90,3.5,3,0,0,0,0,0,0,0,0,0,0,0,0
1997,8,20,15,0,,30.6,25.3,73,100640,0,0,420,662,452,295,58680,32923,40641,0,90,3,1,0,0,0,0,0,0,0,0,0,0,0,0
1997,8,20,16,0,,30,25,75,100620,0,0,421,535,433,240,42704,27575,32809,0,90,2,2,0,0,0,0,0,0,0,0,0,0,0,0
1997,8,20,17,0,,29.5,24.7,76,100600,0,0,421,392,440,166,24116,13811,21995,0,90,3,2,0,0,0,0,0,0,0,0,0,0,0,0
1997,8,20,18,0,,28.6,24.4,78,100580,0,0,418,218,340,109,0,0,0,0,90,1.7,3,0,0,0,0,0,0,0,0,0,0,0,0
1997,8,20,19,0,,27.4,24.6,82,100590,0,0,417,61,26,35,0,0,0,0,90,2,5,0,0,0,0,0,0,0,0,0,0,0,0
1997,8,20,20,0,,26.8,24.7,87,100600,0,0,420,0,0,0,0,0,0,0,90,2.7,6,0,0,0,0,0,0,0,0,0,0,0,0
1997,8,20,21,0,,26.5,24.9,91,100610,0,0,429,0,0,0,0,0,0,0,90,2.2,8,0,0,0,0,0,0,0,0,0,0,0,0
1997,8,20,22,0,,26.4,24.7,91,100580,0,0,421,0,0,0,0,0,0,0,90,1.5,7,0,0,0,0,0,0,0,0,0,0,0,0
1997,8,20,23,0,,26.1,24.6,92,100560,0,0,414,0,0,0,0,0,0,0,90,2.5,6,0,0,0,0,0,0,0,0,0,0,0,0
1997,8,20,24,0,,25.8,24.4,92,100530,0,0,409,0,0,0,0,0,0,0,70,2.2,5,0,0,0,0,0,0,0,0,0,0,0,0
1997,8,21,1,0,,25.7,24.1,91,100490,0,0,406,0,0,0,0,0,0,0,140,1.3,4,0,0,0,0,0,0,0,0,0,0,0,0
1997,8,21,2,0,,25.6,23.9,90,100460,0,0,403,0,0,0,0,0,0,0,90,1.2,4,0,0,0,0,0,0,0,0,0,0,0,0
1997,8,21,3,0,,25.5,23.6,89,100420,0,0,400,0,0,0,0,0,0,0,90,1.2,3,0,0,0,0,0,0,0,0,0,0,0,0
1997,8,21,4,0,,25.3,23.7,90,100410,0,0,401,0,0,0,0,0,0,0,90,0.3,4,0,0,0,0,0,0,0,0,0,0,0,0
1997,8,21,5,0,,25.3,23.7,90,100400,0,0,403,0,0,0,0,0,0,0,290,1.2,4,0,0,0,0,0,0,0,0,0,0,0,0
1997,8,21,6,0,,25.3,23.8,91,100390,0,0,405,0,0,0,0,0,0,0,250,0.8,5,0,0,0,0,0,0,0,0,0,0,0,0
1997,8,21,7,0,,25.3,24.1,88,100390,0,0,407,76,40,36,6742,3187,5180,0,230,2.5,5,0,0,0,0,0,0,0,0,0,0,0,0
1997,8,21,8,0,,26.6,24.4,84,100390,0,0,416,207,270,117,34037,22625,19099,0,200,3.7,6,0,0,0,0,0,0,0,0,0,0,0,0
1997,8,21,9,0,,28.2,24.7,81,100390,0,0,426,358,284,208,50570,23867,31631,0,200,4,6,0,0,0,0,0,0,0,0,0,0,0,0
1997,8,21,10,0,,28.7,24.7,78,100350,0,0,429,490,265,307,60565,20804,42240,0,230,5,6,0,0,0,0,0,0,0,0,0,0,0,0
1997,8,21,11,0,,29.4,24.6,75,100310,0,0,433,604,263,389,71183,20662,52252,0,230,8,6,0,0,0,0,0,0,0,0,0,0,0,0
1997,8,21,12,0,,30.1,24.6,72,100270,0,0,437,639,221,441,70775,17886,54728,0,230,7.7,6,0,0,0,0,0,0,0,0,0,0,0,0
1997,8,21,13,0,,30.1,24.5,75,100220,0,0,440,608,173,448,66840,13982,55304,0,230,9.8,7,0,0,0,0,0,0,0,0,0,0,0,0
1997,8,21,14,0,,29.6,24.4,77,100160,0,0,441,578,169,427,62047,13450,52568,0,230,11,7,0,0,0,0,0,0,0,0,0,0,0,0
1997,8,21,15,0,,28,24.3,80,100110,0,0,436,401,86,331,42537,7290,38568,0,230,9,8,0,0,0,0,0,0,0,0,0,0,0,0
1997,8,21,16,0,,27.4,23.9,80,100070,0,0,432,339,98,272,34178,7924,31365,0,230,11,8,0,0,0,0,0,0,0,0,0,0,0,0
1997,8,21,17,0,,27,23.4,81,100040,0,0,430,263,126,198,23640,8370,22389,0,230,11,8,0,0,0,0,0,0,0,0,0,0,0,0
1997,8,21,18,0,,26.6,23,81,100000,0,0,427,155,135,112,0,0,0,0,230,7.3,8,0,0,0,0,0,0,0,0,0,0,0,0
1997,8,21,19,0,,26.2,23.3,84,100000,0,0,425,48,14,35,0,0,0,0,230,8,8,0,0,0,0,0,0,0,0,0,0,0,0
1997,8,21,20,0,,25.8,23.5,86,100000,0,0,423,0,0,0,0,0,0,0,230,6.5,8,0,0,0,0,0,0,0,0,0,0,0,0
1997,8,21,21,0,,25.7,23.8,89,100000,0,0,423,0,0,0,0,0,0,0,230,7.3,8,0,0,0,0,0,0,0,0,0,0,0,0
1997,8,21,22,0,,25.8,23.7,88,99980,0,0,413,0,0,0,0,0,0,0,230,7.3,6,0,0,0,0,0,0,0,0,0,0,0,0
1997,8,21,23,0,,25.7,23.5,88,99970,0,0,406,0,0,0,0,0,0,0,230,6.5,5,0,0,0,0,0,0,0,0,0,0,0,0
1997,8,21,24,0,,25.7,23.4,87,99950,0,0,401,0,0,0,0,0,0,0,230,8.3,3,0,0,0,0,0,0,0,0,0,0,0,0
1997,8,22,1,0,,25.8,23.4,86,99930,0,0,406,0,0,0,0,0,0,0,230,6.7,5,0,0,0,0,0,0,0,0,0,0,0,0
1997,8,22,2,0,,25.8,23.3,86,99910,0,0,413,0,0,0,0,0,0,0,230,5.7,6,0,0,0,0,0,0,0,0,0,0,0,0
1997,8,22,3,0,,25.9,23.3,85,99890,0,0,423,0,0,0,0,0,0,0,230,6,8,0,0,0,0,0,0,0,0,0,0,0,0
1997,8,22,4,0,,25.7,23.5,87,99900,0,0,425,0,0,0,0,0,0,0,250,5.5,8,0,0,0,0,0,0,0,0,0,0,0,0
1997,8,22,5,0,,25.4,23.6,89,99920,0,0,426,0,0,0,0,0,0,0,250,4.7,9,0,0,0,0,0,0,0,0,0,0,0,0
1997,8,22,6,0,,25.4,23.8,91,99930,0,0,430,0,0,0,0,0,0,0,270,4.2,9,0,0,0,0,0,0,0,0,0,0,0,0
1997,8,22,7,0,,25.3,22.7,85,99950,0,0,411,62,22,40,6535,1806,5654,0,270,3.3,7,0,0,0,0,0,0,0,0,0,0,0,0
1997,8,22,8,0,,25.4,21.7,79,99970,0,0,401,239,403,104,42498,39267,16651,0,230,4.2,4,0,0,0,0,0,0,0,0,0,0,0,0
1997,8,22,9,0,,25.8,20.6,73,99990,0,0,394,408,464,164,59897,45368,23987,0,290,3.3,2,0,0,0,0,0,0,0,0,0,0,0,0
1997,8,22,10,0,,26.7,20.1,68,99960,0,0,395,581,538,210,75060,52419,28998,0,290,4.8,1,0,0,0,0,0,0,0,0,0,0,0,0
1997,8,22,11,0,,27.3,19.7,63,99930,0,0,393,695,521,270,80020,47013,37055,0,290,3.8,1,0,0,0,0,0,0,0,0,0,0,0,0
1997,8,22,12,0,,28.3,19.2,58,99900,0,0,393,796,576,282,85926,55434,36334,0,290,3.7,0,0,0,0,0,0,0,0,0,0,0,0,0
1997,8,22,13,0,,29,18.7,54,99870,0,0,396,808,546,307,81284,49370,40693,0,290,3,0,0,0,0,0,0,0,0,0,0,0,0,0
1997,8,22,14,0,,29.8,18.3,51,99840,0,0,400,800,597,270,73904,53768,36184,0,270,3.2,0,0,0,0,0,0,0,0,0,0,0,0,0
1997,8,22,15,0,,30.5,17.8,47,99810,0,0,403,733,638,219,60089,55966,29818,0,270,4.8,0,0,0,0,0,0,0,0,0,0,0,0,0
1997,8,22,16,0,,30.7,17.6,47,99810,0,0,404,610,659,165,40875,52065,22593,0,290,5.2,0,0,0,0,0,0,0,0,0,0,0,0,0
1997,8,22,17,0,,30.3,17.3,46,99800,0,0,401,443,640,118,19708,31094,15192,0,290,4.7,0,0,0,0,0,0,0,0,0,0,0,0,0
1997,8,22,18,0,,29.9,17.1,46,99800,0,0,399,265,628,68,0,0,0,0,290,4.5,0,0,0,0,0,0,0,0,0,0,0,0,0
1997,8,22,19,0,,28.8,17.8,52,99830,0,0,394,79,51,28,0,0,0,0,290,3.2,0,0,0,0,0,0,0,0,0,0,0,0,0
1997,8,22,20,0,,27.6,18.5,58,99870,0,0,388,0,0,0,0,0,0,0,270,3,0,0,0,0,0,0,0,0,0,0,0,0,0
1997,8,22,21,0,,26.6,19.2,64,99900,0,0,384,0,0,0,0,0,0,0,230,1.3,0,0,0,0,0,0,0,0,0,0,0,0,0
1997,8,22,22,0,,26,18.8,64,99910,0,0,380,0,0,0,0,0,0,0,360,1.7,0,0,0,0,0,0,0,0,0,0,0,0,0
1997,8,22,23,0,,25.8,18.3,63,99920,0,0,379,0,0,0,0,0,0,0,320,1,0,0,0,0,0,0,0,0,0,0,0,0,0
1997,8,22,24,0,,25.3,17.9,63,99930,0,0,376,0,0,0,0,0,0,0,270,1.5,0,0,0,0,0,0,0,0,0,0,0,0,0
1997,8,23,1,0,,24.8,18.1,66,99930,0,0,373,0,0,0,0,0,0,0,50,2.2,0,0,0,0,0,0,0,0,0,0,0,0,0
1997,8,23,2,0,,24.3,18.2,70,99940,0,0,371,0,0,0,0,0,0,0,270,1.5,0,0,0,0,0,0,0,0,0,0,0,0,0
1997,8,23,3,0,,23.6,18.4,73,99940,0,0,368,0,0,0,0,0,0,0,340,2.3,0,0,0,0,0,0,0,0,0,0,0,0,0
1997,8,23,4,0,,23.2,18.2,74,99960,0,0,366,0,0,0,0,0,0,0,20,3.2,0,0,0,0,0,0,0,0,0,0,0,0,0
1997,8,23,5,0,,22.9,18.1,74,99980,0,0,364,0,0,0,0,0,0,0,50,4.3,0,0,0,0,0,0,0,0,0,0,0,0,0
1997,8,23,6,0,,22.5,17.9,75,100000,0,0,362,0,0,0,0,0,0,0,290,1.7,0,0,0,0,0,0,0,0,0,0,0,0,0
1997,8,23,7,0,,22.8,17.1,67,100010,0,0,362,91,58,33,7523,5014,5086,0,360,3.2,0,0,0,0,0,0,0,0,0,0,0,0,0
1997,8,23,8,0,,24,16.2,60,100010,0,0,367,273,591,77,51504,61256,11307,0,270,3.3,0,0,0,0,0,0,0,0,0,0,0,0,0
1997,8,23,9,0,,25.8,15.4,52,100020,0,0,375,466,669,116,70464,69328,15731,0,50,3.5,0,0,0,0,0,0,0,0,0,0,0,0,0
1997,8,23,10,0,,26.6,16.1,51,100000,0,0,380,632,684,162,82464,70441,20718,0,320,3.7,0,0,0,0,0,0,0,0,0,0,0,0,0
1997,8,23,11,0,,27.9,16.8,50,99990,0,0,388,734,621,229,86024,61009,30413,0,90,2.3,0,0,0,0,0,0,0,0,0,0,0,0,0
1997,8,23,12,0,,29.1,17.5,49,99970,0,0,395,813,620,261,87571,60165,33904,0,340,3.5,0,0,0,0,0,0,0,0,0,0,0,0,0
1997,8,23,13,0,,30.3,18,48,99930,0,0,402,848,642,261,84663,61731,34090,0,290,3.3,0,0,0,0,0,0,0,0,0,0,0,0,0
1997,8,23,14,0,,31.4,18.4,46,99880,0,0,409,818,645,247,74242,57935,33788,0,340,2.7,0,0,0,0,0,0,0,0,0,0,0,0,0
1997,8,23,15,0,,32.2,18.9,45,99840,0,0,414,729,636,219,59688,54971,30155,0,320,2.3,0,0,0,0,0,0,0,0,0,0,0,0,0
1997,8,23,16,0,,32.4,19.1,47,99830,0,0,415,588,606,181,40904,46580,24732,0,50,2,0,0,0,0,0,0,0,0,0,0,0,0,0
1997,8,23,17,0,,32,19.4,49,99810,0,0,413,424,584,129,20413,26308,16703,0,140,1.5,0,0,0,0,0,0,0,0,0,0,0,0,0
1997,8,23,18,0,,30.7,19.6,51,99800,0,0,406,239,506,83,0,0,0,0,90,0.8,0,0,0,0,0,0,0,0,0,0,0,0,0
1997,8,23,19,0,,29,20.2,57,99830,0,0,398,69,37,32,0,0,0,0,200,0.8,0,0,0,0,0,0,0,0,0,0,0,0,0
1997,8,23,20,0,,27.6,20.7,64,99870,0,0,391,0,0,0,0,0,0,0,200,1,0,0,0,0,0,0,0,0,0,0,0,0,0
1997,8,23,21,0,,27.2,21.3,70,99900,0,0,390,0,0,0,0,0,0,0,360,1.5,0,0,0,0,0,0,0,0,0,0,0,0,0
1997,8,23,22,0,,26.8,20.9,69,99890,0,0,387,0,0,0,0,0,0,0,290,1.3,0,0,0,0,0,0,0,0,0,0,0,0,0
1997,8,23,23,0,,27.1,20.6,69,99880,0,0,388,0,0,0,0,0,0,0,340,2.5,0,0,0,0,0,0,0,0,0,0,0,0,0
1997,8,23,24,0,,26.6,20.2,68,99870,0,0,385,0,0,0,0,0,0,0,320,4.3,0,0,0,0,0,0,0,0,0,0,0,0,0
1997,8,24,1,0,,26.1,20,69,99880,0,0,387,0,0,0,0,0,0,0,340,4.7,1,0,0,0,0,0,0,0,0,0,0,0,0
1997,8,24,2,0,,25.6,19.9,69,99880,0,0,389,0,0,0,0,0,0,0,360,8.8,1,0,0,0,0,0,0,0,0,0,0,0,0
1997,8,24,3,0,,25.4,19.7,70,99890,0,0,391,0,0,0,0,0,0,0,360,4.8,2,0,0,0,0,0,0,0,0,0,0,0,0
1997,8,24,4,0,,24.8,19.1,69,99880,0,0,385,0,0,0,0,0,0,0,360,4.7,2,0,0,0,0,0,0,0,0,0,0,0,0
1997,8,24,5,0,,24.5,18.6,69,99870,0,0,381,0,0,0,0,0,0,0,340,3.2,1,0,0,0,0,0,0,0,0,0,0,0,0
1997,8,24,6,0,,24.2,18,68,99860,0,0,377,0,0,0,0,0,0,0,360,8.8,1,0,0,0,0,0,0,0,0,0,0,0,0
1997,8,24,7,0,,24.1,18.1,65,99890,0,0,377,85,49,36,7495,4160,5482,0,180,0.5,1,0,0,0,0,0,0,0,0,0,0,0,0
1997,8,24,8,0,,25.3,18.3,61,99920,0,0,383,264,552,82,49516,57367,11988,0,180,1,1,0,0,0,0,0,0,0,0,0,0,0,0
1997,8,24,9,0,,27.3,18.4,58,99950,0,0,394,445,605,130,66988,62733,17592,0,320,0.8,1,0,0,0,0,0,0,0,0,0,0,0,0
1997,8,24,10,0,,28.9,19.2,58,99960,0,0,401,619,654,170,80857,64490,24469,0,270,1,1,0,0,0,0,0,0,0,0,0,0,0,0
1997,8,24,11,0,,29.7,20,58,99960,0,0,404,738,636,222,86650,61888,30385,0,200,3.5,0,0,0,0,0,0,0,0,0,0,0,0,0
1997,8,24,12,0,,30.1,20.8,58,99970,0,0,404,790,574,281,85522,54880,36716,0,200,3.7,0,0,0,0,0,0,0,0,0,0,0,0,0
1997,8,24,13,0,,30.9,19.9,54,99960,0,0,408,813,568,294,81225,50675,39860,0,110,3.5,0,0,0,0,0,0,0,0,0,0,0,0,0
1997,8,24,14,0,,31.8,19,49,99950,0,0,412,787,582,274,73009,51787,37021,0,110,3.2,0,0,0,0,0,0,0,0,0,0,0,0,0
1997,8,24,15,0,,31.4,18.1,45,99940,0,0,408,708,592,235,59136,51552,31629,0,140,3.3,0,0,0,0,0,0,0,0,0,0,0,0,0
1997,8,24,16,0,,30.9,19.1,53,99950,0,0,419,557,528,204,39467,38383,26294,0,140,3,2,0,0,0,0,0,0,0,0,0,0,0,0
1997,8,24,17,0,,29.1,20,60,99960,0,0,416,364,383,173,23039,13205,21233,0,110,2.5,3,0,0,0,0,0,0,0,0,0,0,0,0
1997,8,24,18,0,,27.4,21,68,99970,0,0,413,183,254,105,0,0,0,0,90,3,5,0,0,0,0,0,0,0,0,0,0,0,0
1997,8,24,19,0,,26,20.8,70,100010,0,0,403,57,27,29,0,0,0,0,90,2.7,4,0,0,0,0,0,0,0,0,0,0,0,0
1997,8,24,20,0,,25.6,20.7,72,100060,0,0,399,0,0,0,0,0,0,0,110,1.8,4,0,0,0,0,0,0,0,0,0,0,0,0
1997,8,24,21,0,,25.3,20.5,74,100100,0,0,395,0,0,0,0,0,0,0,70,2.8,3,0,0,0,0,0,0,0,0,0,0,0,0
1997,8,24,22,0,,25.5,20.1,73,100130,0,0,396,0,0,0,0,0,0,0,70,5.3,3,0,0,0,0,0,0,0,0,0,0,0,0
1997,8,24,23,0,,25,19.6,73,100170,0,0,392,0,0,0,0,0,0,0,70,4.2,3,0,0,0,0,0,0,0,0,0,0,0,0
1997,8,24,24,0,,24.6,19.2,72,100200,0,0,390,0,0,0,0,0,0,0,70,4.8,3,0,0,0,0,0,0,0,0,0,0,0,0
1997,8,25,1,0,,24,18.9,72,100200,0,0,384,0,0,0,0,0,0,0,50,4.3,2,0,0,0,0,0,0,0,0,0,0,0,0
1997,8,25,2,0,,23.8,18.7,72,100210,0,0,380,0,0,0,0,0,0,0,50,4.5,2,0,0,0,0,0,0,0,0,0,0,0,0
1997,8,25,3,0,,23.7,18.4,72,100210,0,0,375,0,0,0,0,0,0,0,50,4.2,1,0,0,0,0,0,0,0,0,0,0,0,0
1997,8,25,4,0,,23.4,18.7,75,100230,0,0,372,0,0,0,0,0,0,0,50,3.2,1,0,0,0,0,0,0,0,0,0,0,0,0
1997,8,25,5,0,,23,18.9,77,100240,0,0,368,0,0,0,0,0,0,0,70,4.3,0,0,0,0,0,0,0,0,0,0,0,0,0
1997,8,25,6,0,,22.8,19.2,80,100260,0,0,365,0,0,0,0,0,0,0,70,3.2,0,0,0,0,0,0,0,0,0,0,0,0,0
1997,8,25,7,0,,23,19.3,76,100290,0,0,366,85,52,33,7273,4345,5180,0,70,4.3,0,0,0,0,0,0,0,0,0,0,0,0,0
1997,8,25,8,0,,24,19.4,72,100310,0,0,371,260,541,83,48851,56297,12139,0,50,2.8,0,0,0,0,0,0,0,0,0,0,0,0,0
1997,8,25,9,0,,25.9,19.5,68,100340,0,0,381,453,638,122,68789,66388,16655,0,70,3.7,0,0,0,0,0,0,0,0,0,0,0,0,0
1997,8,25,10,0,,27.1,18.5,62,100340,0,0,386,633,698,156,83240,72251,20228,0,90,4.7,0,0,0,0,0,0,0,0,0,0,0,0,0
1997,8,25,11,0,,27.2,17.4,55,100330,0,0,385,735,635,222,86296,62342,29772,0,90,4.2,0,0,0,0,0,0,0,0,0,0,0,0,0
1997,8,25,12,0,,28,16.4,49,100330,0,0,388,796,592,272,85649,57473,34693,0,110,5.3,0,0,0,0,0,0,0,0,0,0,0,0,0
1997,8,25,13,0,,28.2,17.5,53,100320,0,0,398,789,521,315,79754,47636,41016,0,90,3.5,1,0,0,0,0,0,0,0,0,0,0,0,0
1997,8,25,14,0,,28.3,18.6,56,100310,0,0,405,764,534,294,71977,47865,38877,0,90,5.5,2,0,0,0,0,0,0,0,0,0,0,0,0
1997,8,25,15,0,,28,19.7,60,100300,0,0,409,639,431,296,56608,35537,37780,0,90,4.7,3,0,0,0,0,0,0,0,0,0,0,0,0
1997,8,25,16,0,,27.4,19,60,100300,0,0,402,534,472,220,39635,34293,28006,0,90,4.8,2,0,0,0,0,0,0,0,0,0,0,0,0
1997,8,25,17,0,,27,18.4,61,100310,0,0,396,400,523,140,19754,19105,17225,0,70,4.7,2,0,0,0,0,0,0,0,0,0,0,0,0
1997,8,25,18,0,,25.7,17.7,61,100310,0,0,385,238,539,76,0,0,0,0,70,5.7,1,0,0,0,0,0,0,0,0,0,0,0,0
1997,8,25,19,0,,24.6,17.8,65,100350,0,0,377,69,39,29,0,0,0,0,70,4.2,1,0,0,0,0,0,0,0,0,0,0,0,0
1997,8,25,20,0,,23.9,18,68,100380,0,0,371,0,0,0,0,0,0,0,70,3.5,0,0,0,0,0,0,0,0,0,0,0,0,0
1997,8,25,21,0,,23.5,18.1,72,100420,0,0,367,0,0,0,0,0,0,0,50,3.8,0,0,0,0,0,0,0,0,0,0,0,0,0
1997,8,25,22,0,,23.1,18.1,73,100430,0,0,365,0,0,0,0,0,0,0,50,2.8,0,0,0,0,0,0,0,0,0,0,0,0,0
1997,8,25,23,0,,22.7,18.1,75,100430,0,0,363,0,0,0,0,0,0,0,50,3.7,0,0,0,0,0,0,0,0,0,0,0,0,0
1997,8,25,24,0,,22.6,18.1,76,100440,0,0,362,0,0,0,0,0,0,0,50,3.3,0,0,0,0,0,0,0,0,0,0,0,0,0
1997,8,26,1,0,,22.4,18.2,77,100420,0,0,375,0,0,0,0,0,0,0,50,3.8,2,0,0,0,0,0,0,0,0,0,0,0,0
1997,8,26,2,0,,22.1,18.4,79,100410,0,0,381,0,0,0,0,0,0,0,50,2.3,5,0,0,0,0,0,0,0,0,0,0,0,0
1997,8,26,3,0,,22.1,18.5,80,100390,0,0,390,0,0,0,0,0,0,0,50,4.7,7,0,0,0,0,0,0,0,0,0,0,0,0
1997,8,26,4,0,,22.2,18.7,80,100420,0,0,392,0,0,0,0,0,0,0,50,3.8,7,0,0,0,0,0,0,0,0,0,0,0,0
1997,8,26,5,0,,22.4,19,81,100440,0,0,396,0,0,0,0,0,0,0,50,3,8,0,0,0,0,0,0,0,0,0,0,0,0
1997,8,26,6,0,,22.6,19.2,81,100470,0,0,400,0,0,0,0,0,0,0,50,3.7,8,0,0,0,0,0,0,0,0,0,0,0,0
1997,8,26,7,0,,22.5,19.3,78,100510,0,0,390,65,30,35,6058,2602,4810,0,50,2.7,6,0,0,0,0,0,0,0,0,0,0,0,0
1997,8,26,8,0,,23.4,19.4,74,100560,0,0,389,220,341,110,38752,33337,17082,0,70,2.7,5,0,0,0,0,0,0,0,0,0,0,0,0
1997,8,26,9,0,,25,19.5,71,100600,0,0,392,416,516,149,61732,50745,21992,0,70,3,3,0,0,0,0,0,0,0,0,0,0,0,0
1997,8,26,10,0,,25.9,19.7,69,100590,0,0,402,538,441,237,67894,39864,33220,0,110,1.8,4,0,0,0,0,0,0,0,0,0,0,0,0
1997,8,26,11,0,,26.8,20,67,100580,0,0,411,565,227,383,66183,19720,48353,0,110,2.7,6,0,0,0,0,0,0,0,0,0,0,0,0
1997,8,26,12,0,,27.2,20.2,65,100570,0,0,420,558,157,419,62602,13808,50399,0,110,3.3,7,0,0,0,0,0,0,0,0,0,0,0,0
1997,8,26,13,0,,27.9,20.4,66,100540,0,0,416,668,239,451,70663,20699,53895,0,110,3.3,5,0,0,0,0,0,0,0,0,0,0,0,0
1997,8,26,14,0,,27.9,20.7,66,100510,0,0,409,708,328,420,71641,27549,52686,0,140,3.7,3,0,0,0,0,0,0,0,0,0,0,0,0
1997,8,26,15,0,,27.7,20.9,67,100480,0,0,399,664,500,268,56208,40409,34953,0,110,4.8,1,0,0,0,0,0,0,0,0,0,0,0,0
1997,8,26,16,0,,27.3,20.8,69,100480,0,0,395,530,469,219,39395,32655,28457,0,110,3.7,1,0,0,0,0,0,0,0,0,0,0,0,0
1997,8,26,17,0,,26.5,20.8,71,100470,0,0,388,387,489,146,20287,15419,18314,0,110,3.8,0,0,0,0,0,0,0,0,0,0,0,0,0
1997,8,26,18,0,,25.9,20.7,73,100470,0,0,382,221,458,85,0,0,0,0,110,2.3,0,0,0,0,0,0,0,0,0,0,0,0,0
1997,8,26,19,0,,24.9,20.9,77,100490,0,0,377,63,32,31,0,0,0,0,110,2.3,0,0,0,0,0,0,0,0,0,0,0,0,0
1997,8,26,20,0,,24.3,21,82,100520,0,0,374,0,0,0,0,0,0,0,110,2.2,0,0,0,0,0,0,0,0,0,0,0,0,0
1997,8,26,21,0,,23.8,21.2,86,100540,0,0,372,0,0,0,0,0,0,0,110,2,0,0,0,0,0,0,0,0,0,0,0,0,0
1997,8,26,22,0,,23.7,21.1,86,100550,0,0,371,0,0,0,0,0,0,0,90,1.3,0,0,0,0,0,0,0,0,0,0,0,0,0
1997,8,26,23,0,,23.4,21,86,100560,0,0,370,0,0,0,0,0,0,0,140,0.8,0,0,0,0,0,0,0,0,0,0,0,0,0
1997,8,26,24,0,,23.3,20.9,86,100570,0,0,369,0,0,0,0,0,0,0,320,0.7,0,0,0,0,0,0,0,0,0,0,0,0,0
1997,8,27,1,0,,23.2,20.8,86,100570,0,0,377,0,0,0,0,0,0,0,320,1.5,1,0,0,0,0,0,0,0,0,0,0,0,0
1997,8,27,2,0,,23.1,20.7,86,100580,0,0,383,0,0,0,0,0,0,0,290,2.5,3,0,0,0,0,0,0,0,0,0,0,0,0
1997,8,27,3,0,,23,20.6,86,100580,0,0,386,0,0,0,0,0,0,0,290,2.5,4,0,0,0,0,0,0,0,0,0,0,0,0
1997,8,27,4,0,,22.8,20.4,85,100580,0,0,381,0,0,0,0,0,0,0,270,1.7,3,0,0,0,0,0,0,0,0,0,0,0,0
1997,8,27,5,0,,22.7,20.2,85,100570,0,0,374,0,0,0,0,0,0,0,270,1.8,1,0,0,0,0,0,0,0,0,0,0,0,0
1997,8,27,6,0,,22.9,20,84,100570,0,0,366,0,0,0,0,0,0,0,320,2.5,0,0,0,0,0,0,0,0,0,0,0,0,0
1997,8,27,7,0,,22.8,20.3,82,100570,0,0,366,80,47,33,7025,3800,5211,0,340,2.7,0,0,0,0,0,0,0,0,0,0,0,0,0
1997,8,27,8,0,,23.5,20.5,80,100560,0,0,370,249,504,87,46216,49461,14172,0,320,3.7,0,0,0,0,0,0,0,0,0,0,0,0,0
1997,8,27,9,0,,24.9,20.8,78,100560,0,0,377,420,537,143,62629,52636,21524,0,320,2.5,0,0,0,0,0,0,0,0,0,0,0,0,0
1997,8,27,10,0,,26.4,20.7,72,100530,0,0,385,593,600,185,77275,58632,26412,0,290,2.5,0,0,0,0,0,0,0,0,0,0,0,0,0
1997,8,27,11,0,,27.9,20.6,66,100500,0,0,392,716,599,234,84094,58048,31758,0,320,2.8,0,0,0,0,0,0,0,0,0,0,0,0,0
1997,8,27,12,0,,29.1,20.5,60,100470,0,0,399,805,625,255,86960,60172,33952,0,320,4.5,0,0,0,0,0,0,0,0,0,0,0,0,0
1997,8,27,13,0,,30.4,21.6,60,100420,0,0,407,812,586,283,80608,51228,39272,0,360,2.7,0,0,0,0,0,0,0,0,0,0,0,0,0
1997,8,27,14,0,,31.8,22.7,61,100360,0,0,416,783,591,266,72082,50262,37676,0,250,2.8,0,0,0,0,0,0,0,0,0,0,0,0,0
1997,8,27,15,0,,32.3,23.8,61,100310,0,0,420,690,572,239,58243,45976,34238,0,180,2.2,0,0,0,0,0,0,0,0,0,0,0,0,0
1997,8,27,16,0,,28.9,23.1,64,100320,0,0,401,528,472,217,39153,30787,28970,0,180,6.3,0,0,0,0,0,0,0,0,0,0,0,0,0
1997,8,27,17,0,,27.8,22.3,68,100340,0,0,394,367,426,158,21451,11499,20031,0,180,6.2,0,0,0,0,0,0,0,0,0,0,0,0,0
1997,8,27,18,0,,27.2,21.6,71,100350,0,0,390,206,392,92,0,0,0,0,200,4.5,0,0,0,0,0,0,0,0,0,0,0,0,0
1997,8,27,19,0,,26.5,22.1,76,100370,0,0,387,64,35,29,0,0,0,0,200,3.8,0,0,0,0,0,0,0,0,0,0,0,0,0
1997,8,27,20,0,,25.9,22.7,81,100400,0,0,384,0,0,0,0,0,0,0,200,3,0,0,0,0,0,0,0,0,0,0,0,0,0
1997,8,27,21,0,,25.7,23.2,86,100420,0,0,384,0,0,0,0,0,0,0,230,2.3,0,0,0,0,0,0,0,0,0,0,0,0,0
1997,8,27,22,0,,25.6,22.6,84,100410,0,0,383,0,0,0,0,0,0,0,250,4.2,0,0,0,0,0,0,0,0,0,0,0,0,0
1997,8,27,23,0,,25.5,22.1,82,100390,0,0,382,0,0,0,0,0,0,0,270,2.7,0,0,0,0,0,0,0,0,0,0,0,0,0
1997,8,27,24,0,,25.3,21.5,80,100380,0,0,380,0,0,0,0,0,0,0,270,2.5,0,0,0,0,0,0,0,0,0,0,0,0,0
1997,8,28,1,0,,25.2,21.5,80,100360,0,0,379,0,0,0,0,0,0,0,250,2.8,0,0,0,0,0,0,0,0,0,0,0,0,0
1997,8,28,2,0,,25.1,21.5,81,100330,0,0,379,0,0,0,0,0,0,0,320,2.5,0,0,0,0,0,0,0,0,0,0,0,0,0
1997,8,28,3,0,,25,21.5,81,100310,0,0,378,0,0,0,0,0,0,0,340,2.8,0,0,0,0,0,0,0,0,0,0,0,0,0
1997,8,28,4,0,,25.1,21.5,82,100320,0,0,379,0,0,0,0,0,0,0,320,3.2,0,0,0,0,0,0,0,0,0,0,0,0,0
1997,8,28,5,0,,24.9,21.5,82,100340,0,0,378,0,0,0,0,0,0,0,340,3.7,0,0,0,0,0,0,0,0,0,0,0,0,0
1997,8,28,6,0,,24.7,21.5,83,100350,0,0,377,0,0,0,0,0,0,0,320,2,0,0,0,0,0,0,0,0,0,0,0,0,0
1997,8,28,7,0,,24.5,21.9,82,100380,0,0,376,76,42,34,6959,3347,5368,0,270,2.3,0,0,0,0,0,0,0,0,0,0,0,0,0
1997,8,28,8,0,,24.8,22.2,80,100410,0,0,378,242,477,89,44745,46501,14718,0,250,2.7,0,0,0,0,0,0,0,0,0,0,0,0,0
1997,8,28,9,0,,26.6,22.6,79,100440,0,0,388,420,545,141,62843,53107,21488,0,270,3,0,0,0,0,0,0,0,0,0,0,0,0,0
1997,8,28,10,0,,27.8,22.5,75,100420,0,0,397,585,584,189,76284,56650,27276,0,200,3.7,0,0,0,0,0,0,0,0,0,0,0,0,0
1997,8,28,11,0,,28.7,22.5,70,100410,0,0,404,712,595,235,83784,57266,32303,0,200,4.3,1,0,0,0,0,0,0,0,0,0,0,0,0
1997,8,28,12,0,,29.3,22.4,66,100390,0,0,410,796,609,261,86143,58091,35137,0,230,7,1,0,0,0,0,0,0,0,0,0,0,0,0
1997,8,28,13,0,,30.2,22.5,65,100340,0,0,415,791,545,300,79524,47004,41748,0,230,4.5,1,0,0,0,0,0,0,0,0,0,0,0,0
1997,8,28,14,0,,30.9,22.7,63,100290,0,0,419,776,583,269,71660,49587,37895,0,230,5.5,1,0,0,0,0,0,0,0,0,0,0,0,0
1997,8,28,15,0,,31,22.8,62,100240,0,0,420,699,602,225,57703,49296,32159,0,230,6.5,1,0,0,0,0,0,0,0,0,0,0,0,0
1997,8,28,16,0,,30,21.8,61,100220,0,0,411,561,577,183,39175,41828,25518,0,230,6.8,1,0,0,0,0,0,0,0,0,0,0,0,0
1997,8,28,17,0,,29.1,20.8,61,100200,0,0,402,380,488,143,19585,13785,17945,0,250,4.8,0,0,0,0,0,0,0,0,0,0,0,0,0
1997,8,28,18,0,,28.1,19.8,60,100180,0,0,393,227,533,73,0,0,0,0,250,6.2,0,0,0,0,0,0,0,0,0,0,0,0,0
1997,8,28,19,0,,26.3,19.8,64,100240,0,0,383,63,36,28,0,0,0,0,250,6.3,0,0,0,0,0,0,0,0,0,0,0,0,0
1997,8,28,20,0,,25.6,19.9,67,100310,0,0,380,0,0,0,0,0,0,0,230,8.3,0,0,0,0,0,0,0,0,0,0,0,0,0
1997,8,28,21,0,,25.5,19.9,71,100370,0,0,379,0,0,0,0,0,0,0,250,6.8,0,0,0,0,0,0,0,0,0,0,0,0,0
1997,8,28,22,0,,25.2,20.7,75,100380,0,0,378,0,0,0,0,0,0,0,250,4.2,0,0,0,0,0,0,0,0,0,0,0,0,0
1997,8,28,23,0,,25,21.4,80,100380,0,0,378,0,0,0,0,0,0,0,270,3.5,0,0,0,0,0,0,0,0,0,0,0,0,0
1997,8,28,24,0,,25,22.2,84,100390,0,0,379,0,0,0,0,0,0,0,290,2.5,0,0,0,0,0,0,0,0,0,0,0,0,0
1997,8,29,1,0,,24.9,22.3,85,100380,0,0,379,0,0,0,0,0,0,0,270,2.5,0,0,0,0,0,0,0,0,0,0,0,0,0
1997,8,29,2,0,,24.7,22.4,87,100380,0,0,378,0,0,0,0,0,0,0,290,2.2,0,0,0,0,0,0,0,0,0,0,0,0,0
1997,8,29,3,0,,24.6,22.5,88,100370,0,0,378,0,0,0,0,0,0,0,320,1.5,0,0,0,0,0,0,0,0,0,0,0,0,0
1997,8,29,4,0,,24.3,22.1,87,100390,0,0,386,0,0,0,0,0,0,0,270,2.3,2,0,0,0,0,0,0,0,0,0,0,0,0
1997,8,29,5,0,,24.2,21.8,85,100400,0,0,392,0,0,0,0,0,0,0,340,1.8,3,0,0,0,0,0,0,0,0,0,0,0,0
1997,8,29,6,0,,24.2,21.4,84,100420,0,0,396,0,0,0,0,0,0,0,290,4.3,5,0,0,0,0,0,0,0,0,0,0,0,0
1997,8,29,7,0,,24.4,21.2,80,100470,0,0,400,61,28,32,5648,2386,4519,0,290,4,6,0,0,0,0,0,0,0,0,0,0,0,0
1997,8,29,8,0,,25.2,21,75,100530,0,0,406,192,260,110,32082,22880,17358,0,290,2,6,0,0,0,0,0,0,0,0,0,0,0,0
1997,8,29,9,0,,26.3,20.8,71,100580,0,0,415,301,188,205,40374,16122,27856,0,340,2,7,0,0,0,0,0,0,0,0,0,0,0,0
1997,8,29,10,0,,27.2,20.7,67,100580,0,0,425,374,132,285,45389,11636,35351,0,340,3.3,8,0,0,0,0,0,0,0,0,0,0,0,0
1997,8,29,11,0,,28.5,20.6,64,100580,0,0,437,469,137,359,54652,12043,43858,0,290,3.5,8,0,0,0,0,0,0,0,0,0,0,0,0
1997,8,29,12,0,,29.1,20.5,60,100580,0,0,447,442,85,367,49481,7605,42827,0,270,4.7,9,0,0,0,0,0,0,0,0,0,0,0,0
1997,8,29,13,0,,30.2,21.2,62,100550,0,0,459,445,80,373,49205,7115,43511,0,200,3.7,9,0,0,0,0,0,0,0,0,0,0,0,0
1997,8,29,14,0,,30,21.8,64,100510,0,0,463,328,39,294,36695,3430,34372,0,200,3.8,10,0,0,0,0,0,0,0,0,0,0,0,0
1997,8,29,15,0,,29.4,22.5,66,100480,0,0,465,260,29,237,27315,2060,26256,0,250,2.8,10,0,0,0,0,0,0,0,0,0,0,0,0
1997,8,29,16,0,,28.8,22.5,69,100470,0,0,461,199,26,182,19956,1614,19436,0,250,4.3,10,0,0,0,0,0,0,0,0,0,0,0,0
1997,8,29,17,0,,28.6,22.5,71,100470,0,0,460,144,29,130,12937,1333,12784,0,200,4.5,10,0,0,0,0,0,0,0,0,0,0,0,0
1997,8,29,18,0,,27.6,22.5,74,100460,0,0,454,81,30,72,0,0,0,0,230,5.3,10,0,0,0,0,0,0,0,0,0,0,0,0
1997,8,29,19,0,,27.1,22.6,76,100510,0,0,422,42,13,28,0,0,0,0,250,4,7,0,0,0,0,0,0,0,0,0,0,0,0
1997,8,29,20,0,,26.7,22.7,79,100570,0,0,409,0,0,0,0,0,0,0,290,3.5,4,0,0,0,0,0,0,0,0,0,0,0,0
1997,8,29,21,0,,26.3,22.8,81,100620,0,0,394,0,0,0,0,0,0,0,290,4.5,1,0,0,0,0,0,0,0,0,0,0,0,0
1997,8,29,22,0,,25.8,22.8,83,100620,0,0,391,0,0,0,0,0,0,0,290,4.2,1,0,0,0,0,0,0,0,0,0,0,0,0
1997,8,29,23,0,,25.7,22.9,84,100610,0,0,391,0,0,0,0,0,0,0,290,2.2,1,0,0,0,0,0,0,0,0,0,0,0,0
1997,8,29,24,0,,25.4,22.9,86,100610,0,0,389,0,0,0,0,0,0,0,340,2.3,1,0,0,0,0,0,0,0,0,0,0,0,0
1997,8,30,1,0,,25.2,22.8,87,100610,0,0,392,0,0,0,0,0,0,0,290,1.8,2,0,0,0,0,0,0,0,0,0,0,0,0
1997,8,30,2,0,,25,22.8,87,100600,0,0,394,0,0,0,0,0,0,0,320,2.5,2,0,0,0,0,0,0,0,0,0,0,0,0
1997,8,30,3,0,,24.8,22.7,88,100600,0,0,395,0,0,0,0,0,0,0,270,2.2,3,0,0,0,0,0,0,0,0,0,0,0,0
1997,8,30,4,0,,24.7,22.3,86,100600,0,0,396,0,0,0,0,0,0,0,290,3.8,4,0,0,0,0,0,0,0,0,0,0,0,0
1997,8,30,5,0,,24.9,21.9,84,100610,0,0,399,0,0,0,0,0,0,0,340,4.8,4,0,0,0,0,0,0,0,0,0,0,0,0
1997,8,30,6,0,,24.8,21.5,82,100610,0,0,400,0,0,0,0,0,0,0,320,3.7,5,0,0,0,0,0,0,0,0,0,0,0,0
1997,8,30,7,0,,25,21.1,77,100630,0,0,399,67,31,36,6212,2629,4975,0,290,4.7,5,0,0,0,0,0,0,0,0,0,0,0,0
1997,8,30,8,0,,25.7,20.8,71,100650,0,0,402,226,411,97,41274,40108,15552,0,320,2.5,4,0,0,0,0,0,0,0,0,0,0,0,0
1997,8,30,9,0,,27.1,20.4,66,100670,0,0,408,404,504,148,60328,49426,22065,0,340,4.2,4,0,0,0,0,0,0,0,0,0,0,0,0
1997,8,30,10,0,,28.6,21.1,62,100640,0,0,414,559,523,207,72614,50738,28970,0,340,2.2,3,0,0,0,0,0,0,0,0,0,0,0,0
1997,8,30,11,0,,30.2,21.9,59,100600,0,0,420,697,571,242,82047,54882,33006,0,340,1.5,2,0,0,0,0,0,0,0,0,0,0,0,0
1997,8,30,12,0,,32.6,22.6,55,100570,0,0,428,821,680,228,88574,65225,31696,0,270,3.3,1,0,0,0,0,0,0,0,0,0,0,0,0
1997,8,30,13,0,,31.6,22.9,58,100510,0,0,427,820,621,263,82254,58575,35571,0,180,6.5,2,0,0,0,0,0,0,0,0,0,0,0,0
1997,8,30,14,0,,31.7,23.1,60,100450,0,0,431,753,543,283,70638,45750,39823,0,180,6,2,0,0,0,0,0,0,0,0,0,0,0,0
1997,8,30,15,0,,31.3,23.4,63,100390,0,0,432,603,318,356,55893,24564,43362,0,180,5.2,3,0,0,0,0,0,0,0,0,0,0,0,0
1997,8,30,16,0,,31.4,23.2,64,100370,0,0,438,476,317,271,39516,21003,32841,0,200,5.8,5,0,0,0,0,0,0,0,0,0,0,0,0
1997,8,30,17,0,,31.1,23,65,100350,0,0,442,327,314,177,21633,8541,20696,0,250,7,6,0,0,0,0,0,0,0,0,0,0,0,0
1997,8,30,18,0,,29.8,22.8,66,100330,0,0,445,136,139,97,0,0,0,0,250,4,8,0,0,0,0,0,0,0,0,0,0,0,0
1997,8,30,19,0,,29.1,22.9,69,100350,0,0,441,33,7,26,0,0,0,0,250,4.2,8,0,0,0,0,0,0,0,0,0,0,0,0
1997,8,30,20,0,,28.2,23,72,100380,0,0,436,0,0,0,0,0,0,0,270,6.2,8,0,0,0,0,0,0,0,0,0,0,0,0
1997,8,30,21,0,,27.9,23.1,75,100400,0,0,434,0,0,0,0,0,0,0,270,1.2,8,0,0,0,0,0,0,0,0,0,0,0,0
1997,8,30,22,0,,27.7,23.5,79,100380,0,0,419,0,0,0,0,0,0,0,320,3,5,0,0,0,0,0,0,0,0,0,0,0,0
1997,8,30,23,0,,27.5,23.8,82,100350,0,0,410,0,0,0,0,0,0,0,270,3.7,3,0,0,0,0,0,0,0,0,0,0,0,0
1997,8,30,24,0,,26.8,24.2,86,100330,0,0,391,0,0,0,0,0,0,0,270,2,0,0,0,0,0,0,0,0,0,0,0,0,0
1997,8,31,1,0,,26.6,23.9,85,100290,0,0,390,0,0,0,0,0,0,0,320,1.8,0,0,0,0,0,0,0,0,0,0,0,0,0
1997,8,31,2,0,,26.5,23.5,84,100260,0,0,388,0,0,0,0,0,0,0,340,1.7,0,0,0,0,0,0,0,0,0,0,0,0,0
1997,8,31,3,0,,26.3,23.2,83,100220,0,0,387,0,0,0,0,0,0,0,250,2.3,0,0,0,0,0,0,0,0,0,0,0,0,0
1997,8,31,4,0,,25.9,22.7,82,100230,0,0,384,0,0,0,0,0,0,0,230,1.7,0,0,0,0,0,0,0,0,0,0,0,0,0
1997,8,31,5,0,,25.7,22.2,80,100230,0,0,383,0,0,0,0,0,0,0,320,2,0,0,0,0,0,0,0,0,0,0,0,0,0
1997,8,31,6,0,,25.6,21.7,79,100240,0,0,382,0,0,0,0,0,0,0,320,2.2,0,0,0,0,0,0,0,0,0,0,0,0,0
1997,8,31,7,0,,25.6,21.4,75,100240,0,0,392,72,41,31,6515,3293,4972,0,50,3.3,2,0,0,0,0,0,0,0,0,0,0,0,0
1997,8,31,8,0,,26.5,21,70,100240,0,0,403,236,477,87,44118,46664,14297,0,340,1.5,3,0,0,0,0,0,0,0,0,0,0,0,0
1997,8,31,9,0,,27.6,20.7,66,100240,0,0,414,366,374,177,51888,33293,26193,0,340,1.3,5,0,0,0,0,0,0,0,0,0,0,0,0
1997,8,31,10,0,,28.7,21.6,65,100210,0,0,425,476,274,292,58586,23058,38810,0,320,2.7,6,0,0,0,0,0,0,0,0,0,0,0,0
1997,8,31,11,0,,30.6,22.6,64,100190,0,0,443,526,193,372,60531,16380,45940,0,250,3,7,0,0,0,0,0,0,0,0,0,0,0,0
1997,8,31,12,0,,31.4,23.5,63,100160,0,0,456,534,146,407,60786,12119,50255,0,230,5.2,8,0,0,0,0,0,0,0,0,0,0,0,0
1997,8,31,13,0,,31.2,23.7,62,100100,0,0,452,526,128,411,59004,10506,50667,0,200,6.3,8,0,0,0,0,0,0,0,0,0,0,0,0
1997,8,31,14,0,,31.7,23.9,61,100030,0,0,453,556,170,409,59337,13596,50230,0,200,6.8,7,0,0,0,0,0,0,0,0,0,0,0,0
1997,8,31,15,0,,32.7,24.1,60,99970,0,0,457,492,175,357,48808,14846,41296,0,200,4.8,7,0,0,0,0,0,0,0,0,0,0,0,0
1997,8,31,16,0,,31.1,24,63,99960,0,0,449,397,185,278,36500,14674,31901,0,200,6,7,0,0,0,0,0,0,0,0,0,0,0,0
1997,8,31,17,0,,29.9,23.9,66,99940,0,0,445,225,106,175,20306,6358,19638,0,200,4.2,8,0,0,0,0,0,0,0,0,0,0,0,0
1997,8,31,18,0,,30,23.8,69,99930,0,0,448,120,103,92,0,0,0,0,230,3.5,8,0,0,0,0,0,0,0,0,0,0,0,0
1997,8,31,19,0,,29.2,24,72,99940,0,0,433,43,17,26,0,0,0,0,230,2.5,6,0,0,0,0,0,0,0,0,0,0,0,0
1997,8,31,20,0,,28.6,24.3,75,99960,0,0,423,0,0,0,0,0,0,0,270,2.8,5,0,0,0,0,0,0,0,0,0,0,0,0
1997,8,31,21,0,,28.7,24.5,78,99970,0,0,419,0,0,0,0,0,0,0,270,3.8,3,0,0,0,0,0,0,0,0,0,0,0,0
1997,8,31,22,0,,28.3,24.2,78,99970,0,0,415,0,0,0,0,0,0,0,270,4,3,0,0,0,0,0,0,0,0,0,0,0,0
1997,8,31,23,0,,28.1,24,78,99980,0,0,412,0,0,0,0,0,0,0,290,1.7,2,0,0,0,0,0,0,0,0,0,0,0,0
1997,8,31,24,0,,27.9,23.7,78,99980,0,0,409,0,0,0,0,0,0,0,340,1.7,2,0,0,0,0,0,0,0,0,0,0,0,0
1991,9,1,1,0,,23.9,19.3,75,100230,0,0,370,0,0,0,0,0,0,0,340,1,0,0,0,0,0,0,0,0,0,0,0,0,0
1991,9,1,2,0,,23.6,19.1,76,100230,0,0,369,0,0,0,0,0,0,0,340,1.7,0,0,0,0,0,0,0,0,0,0,0,0,0
1991,9,1,3,0,,23.4,19,76,100220,0,0,367,0,0,0,0,0,0,0,340,2,0,0,0,0,0,0,0,0,0,0,0,0,0
1991,9,1,4,0,,23.4,19,78,100250,0,0,367,0,0,0,0,0,0,0,340,3.5,0,0,0,0,0,0,0,0,0,0,0,0,0
1991,9,1,5,0,,23.2,19,79,100280,0,0,366,0,0,0,0,0,0,0,340,4.8,0,0,0,0,0,0,0,0,0,0,0,0,0
1991,9,1,6,0,,22.4,19,81,100310,0,0,362,0,0,0,0,0,0,0,0,0,0,0,0,0,0,0,0,0,0,0,0,0,0
1991,9,1,7,0,,22.3,19.9,81,100350,0,0,363,70,38,32,6479,3087,5036,0,320,2.8,0,0,0,0,0,0,0,0,0,0,0,0,0
1991,9,1,8,0,,23,20.8,81,100400,0,0,368,218,387,98,39904,37821,15772,0,0,0,0,0,0,0,0,0,0,0,0,0,0,0,0
1991,9,1,9,0,,25.3,21.7,81,100440,0,0,380,413,549,137,62263,53680,20889,0,110,1,0,0,0,0,0,0,0,0,0,0,0,0,0
1991,9,1,10,0,,27.5,21.7,75,100450,0,0,392,598,646,167,78644,63192,24519,0,70,2.2,0,0,0,0,0,0,0,0,0,0,0,0,0
1991,9,1,11,0,,28.9,21.7,69,100450,0,0,399,732,669,202,86476,65063,28601,0,180,3.3,0,0,0,0,0,0,0,0,0,0,0,0,0
1991,9,1,12,0,,29.5,21.7,63,100460,0,0,402,779,594,263,84508,56775,35254,0,180,3.5,0,0,0,0,0,0,0,0,0,0,0,0,0
1991,9,1,13,0,,29.5,21.6,63,100440,0,0,402,762,505,313,77639,44082,42728,0,180,3.8,0,0,0,0,0,0,0,0,0,0,0,0,0
1991,9,1,14,0,,29.4,21.6,63,100420,0,0,402,712,463,315,66767,38205,41246,0,180,3.2,0,0,0,0,0,0,0,0,0,0,0,0,0
1991,9,1,15,0,,29.2,21.5,63,100400,0,0,400,631,467,271,54128,36778,35589,0,180,3.3,0,0,0,0,0,0,0,0,0,0,0,0,0
1991,9,1,16,0,,29.2,21.2,65,100400,0,0,400,516,488,204,36822,32378,26741,0,90,1.3,0,0,0,0,0,0,0,0,0,0,0,0,0
1991,9,1,17,0,,28.4,21,66,100400,0,0,395,363,475,140,18503,10634,17408,0,90,2.2,0,0,0,0,0,0,0,0,0,0,0,0,0
1991,9,1,18,0,,27.2,20.7,68,100400,0,0,389,199,449,78,0,0,0,0,90,2,0,0,0,0,0,0,0,0,0,0,0,0,0
1991,9,1,19,0,,25.8,20.9,73,100440,0,0,382,51,22,29,0,0,0,0,90,1.7,0,0,0,0,0,0,0,0,0,0,0,0,0
1991,9,1,20,0,,24.8,21.1,78,100470,0,0,377,0,0,0,0,0,0,0,70,1.8,0,0,0,0,0,0,0,0,0,0,0,0,0
1991,9,1,21,0,,24.5,21.3,83,100510,0,0,376,0,0,0,0,0,0,0,70,1.8,0,0,0,0,0,0,0,0,0,0,0,0,0
1991,9,1,22,0,,24,20.9,83,100520,0,0,373,0,0,0,0,0,0,0,70,2.3,0,0,0,0,0,0,0,0,0,0,0,0,0
1991,9,1,23,0,,23.7,20.4,82,100520,0,0,371,0,0,0,0,0,0,0,50,2.3,0,0,0,0,0,0,0,0,0,0,0,0,0
1991,9,1,24,0,,23.3,20,82,100530,0,0,368,0,0,0,0,0,0,0,70,1.8,0,0,0,0,0,0,0,0,0,0,0,0,0
1991,9,2,1,0,,22.8,19.3,81,100510,0,0,365,0,0,0,0,0,0,0,50,1.7,0,0,0,0,0,0,0,0,0,0,0,0,0
1991,9,2,2,0,,22.2,18.6,80,100490,0,0,361,0,0,0,0,0,0,0,20,3,0,0,0,0,0,0,0,0,0,0,0,0,0
1991,9,2,3,0,,21.7,17.9,79,100470,0,0,358,0,0,0,0,0,0,0,20,2.8,0,0,0,0,0,0,0,0,0,0,0,0,0
1991,9,2,4,0,,21.3,18.2,82,100450,0,0,356,0,0,0,0,0,0,0,20,2.3,0,0,0,0,0,0,0,0,0,0,0,0,0
1991,9,2,5,0,,21.1,18.5,84,100440,0,0,356,0,0,0,0,0,0,0,20,2.2,0,0,0,0,0,0,0,0,0,0,0,0,0
1991,9,2,6,0,,21,18.8,87,100420,0,0,355,0,0,0,0,0,0,0,20,2.8,0,0,0,0,0,0,0,0,0,0,0,0,0
1991,9,2,7,0,,21.1,19.7,86,100420,0,0,364,70,39,31,6362,3206,4870,0,20,2.5,1,0,0,0,0,0,0,0,0,0,0,0,0
1991,9,2,8,0,,22.5,20.6,84,100430,0,0,377,236,496,83,44683,48671,13739,0,20,2.7,2,0,0,0,0,0,0,0,0,0,0,0,0
1991,9,2,9,0,,24.7,21.5,83,100430,0,0,393,404,524,141,60788,51216,21437,0,50,3.7,3,0,0,0,0,0,0,0,0,0,0,0,0
1991,9,2,10,0,,26.8,21.5,77,100400,0,0,400,599,655,163,78818,64100,24082,0,110,4,2,0,0,0,0,0,0,0,0,0,0,0,0
1991,9,2,11,0,,28.2,21.6,72,100370,0,0,403,720,644,211,84968,62503,29549,0,90,2.8,1,0,0,0,0,0,0,0,0,0,0,0,0
1991,9,2,12,0,,28.6,21.6,66,100340,0,0,397,758,553,280,81065,48632,39030,0,90,2.3,0,0,0,0,0,0,0,0,0,0,0,0,0
1991,9,2,13,0,,28.3,21.5,67,100330,0,0,407,750,484,321,76856,42270,43528,0,90,4.3,2,0,0,0,0,0,0,0,0,0,0,0,0
1991,9,2,14,0,,28,21.4,67,100310,0,0,412,661,292,411,65788,24559,49478,0,90,4.3,3,0,0,0,0,0,0,0,0,0,0,0,0
1991,9,2,15,0,,27.7,21.3,68,100300,0,0,415,532,227,358,51946,18216,42840,0,90,3.8,5,0,0,0,0,0,0,0,0,0,0,0,0
1991,9,2,16,0,,27.2,21.1,69,100290,0,0,410,466,320,264,38149,21968,31408,0,90,4.7,4,0,0,0,0,0,0,0,0,0,0,0,0
1991,9,2,17,0,,27.1,21,71,100280,0,0,408,336,387,157,19894,7785,19130,0,90,3.3,4,0,0,0,0,0,0,0,0,0,0,0,0
1991,9,2,18,0,,26.4,20.8,72,100270,0,0,401,197,455,76,0,0,0,0,90,3.5,3,0,0,0,0,0,0,0,0,0,0,0,0
1991,9,2,19,0,,25.2,21.1,77,100290,0,0,394,50,22,28,0,0,0,0,70,3,3,0,0,0,0,0,0,0,0,0,0,0,0
1991,9,2,20,0,,24.4,21.3,82,100320,0,0,389,0,0,0,0,0,0,0,70,3.5,2,0,0,0,0,0,0,0,0,0,0,0,0
1991,9,2,21,0,,23.9,21.6,87,100340,0,0,385,0,0,0,0,0,0,0,50,3.8,2,0,0,0,0,0,0,0,0,0,0,0,0
1991,9,2,22,0,,23.6,21.6,88,100340,0,0,390,0,0,0,0,0,0,0,50,3.8,4,0,0,0,0,0,0,0,0,0,0,0,0
1991,9,2,23,0,,23.4,21.6,89,100340,0,0,394,0,0,0,0,0,0,0,50,2.7,5,0,0,0,0,0,0,0,0,0,0,0,0
1991,9,2,24,0,,23.3,21.6,90,100340,0,0,400,0,0,0,0,0,0,0,50,1.5,7,0,0,0,0,0,0,0,0,0,0,0,0
1991,9,3,1,0,,23.3,21.6,90,100300,0,0,404,0,0,0,0,0,0,0,70,0.7,8,0,0,0,0,0,0,0,0,0,0,0,0
1991,9,3,2,0,,23.4,21.7,90,100260,0,0,410,0,0,0,0,0,0,0,0,0,8,0,0,0,0,0,0,0,0,0,0,0,0
1991,9,3,3,0,,23.4,21.7,90,100220,0,0,416,0,0,0,0,0,0,0,70,0.7,9,0,0,0,0,0,0,0,0,0,0,0,0
1991,9,3,4,0,,23.4,21.7,90,100230,0,0,416,0,0,0,0,0,0,0,140,0.8,9,0,0,0,0,0,0,0,0,0,0,0,0
1991,9,3,5,0,,23.5,21.7,90,100240,0,0,416,0,0,0,0,0,0,0,140,1.3,9,0,0,0,0,0,0,0,0,0,0,0,0
1991,9,3,6,0,,23.4,21.7,90,100250,0,0,416,0,0,0,0,0,0,0,70,1.3,9,0,0,0,0,0,0,0,0,0,0,0,0
1991,9,3,7,0,,23.2,22.2,89,100270,0,0,412,29,4,25,3289,118,3235,0,50,1.3,9,0,0,0,0,0,0,0,0,0,0,0,0
1991,9,3,8,0,,23.6,22.6,87,100290,0,0,412,126,85,100,17970,7247,13379,0,160,1,8,0,0,0,0,0,0,0,0,0,0,0,0
1991,9,3,9,0,,25.6,23.1,86,100310,0,0,421,245,113,189,31769,9597,24419,0,180,2,8,0,0,0,0,0,0,0,0,0,0,0,0
1991,9,3,10,0,,26.2,22.5,81,100300,0,0,417,418,192,290,52523,15935,38958,0,180,5,7,0,0,0,0,0,0,0,0,0,0,0,0
1991,9,3,11,0,,27.3,21.8,75,100300,0,0,418,591,286,366,68838,23991,47636,0,180,7,6,0,0,0,0,0,0,0,0,0,0,0,0
1991,9,3,12,0,,27.1,21.2,70,100290,0,0,412,667,289,418,74154,24464,53088,0,180,7,5,0,0,0,0,0,0,0,0,0,0,0,0
1991,9,3,13,0,,27.3,21.5,70,100250,0,0,411,705,312,429,74999,26142,54481,0,180,7.3,4,0,0,0,0,0,0,0,0,0,0,0,0
1991,9,3,14,0,,27.4,21.7,71,100210,0,0,410,661,297,408,65608,24800,49235,0,180,7.3,4,0,0,0,0,0,0,0,0,0,0,0,0
1991,9,3,15,0,,27.9,22,71,100170,0,0,411,616,445,275,53420,34621,36260,0,200,6.3,3,0,0,0,0,0,0,0,0,0,0,0,0
1991,9,3,16,0,,27.9,21.9,72,100190,0,0,416,471,339,257,37722,22773,30837,0,180,7,5,0,0,0,0,0,0,0,0,0,0,0,0
1991,9,3,17,0,,27.8,21.8,73,100200,0,0,422,306,293,172,20379,6835,19740,0,180,5,6,0,0,0,0,0,0,0,0,0,0,0,0
1991,9,3,18,0,,26.6,21.7,74,100220,0,0,425,121,124,89,0,0,0,0,200,4.7,8,0,0,0,0,0,0,0,0,0,0,0,0
1991,9,3,19,0,,25.9,21.8,78,100270,0,0,415,36,12,24,0,0,0,0,250,5,7,0,0,0,0,0,0,0,0,0,0,0,0
1991,9,3,20,0,,25.2,22,81,100320,0,0,406,0,0,0,0,0,0,0,200,3.2,6,0,0,0,0,0,0,0,0,0,0,0,0
1991,9,3,21,0,,24.8,22.1,85,100370,0,0,401,0,0,0,0,0,0,0,230,4,5,0,0,0,0,0,0,0,0,0,0,0,0
1991,9,3,22,0,,24.5,22,86,100370,0,0,399,0,0,0,0,0,0,0,250,2.2,5,0,0,0,0,0,0,0,0,0,0,0,0
1991,9,3,23,0,,24.4,21.9,86,100380,0,0,398,0,0,0,0,0,0,0,250,2.3,5,0,0,0,0,0,0,0,0,0,0,0,0
1991,9,3,24,0,,24.2,21.8,87,100380,0,0,397,0,0,0,0,0,0,0,250,3,5,0,0,0,0,0,0,0,0,0,0,0,0
1991,9,4,1,0,,24,21.4,86,100390,0,0,395,0,0,0,0,0,0,0,250,2.7,5,0,0,0,0,0,0,0,0,0,0,0,0
1991,9,4,2,0,,23.8,21,84,100390,0,0,394,0,0,0,0,0,0,0,250,1.3,5,0,0,0,0,0,0,0,0,0,0,0,0
1991,9,4,3,0,,23.6,20.6,83,100400,0,0,392,0,0,0,0,0,0,0,250,2.3,5,0,0,0,0,0,0,0,0,0,0,0,0
1991,9,4,4,0,,23.5,20.6,84,100420,0,0,394,0,0,0,0,0,0,0,250,1.8,6,0,0,0,0,0,0,0,0,0,0,0,0
1991,9,4,5,0,,23.4,20.7,85,100450,0,0,396,0,0,0,0,0,0,0,0,0,6,0,0,0,0,0,0,0,0,0,0,0,0
1991,9,4,6,0,,23.3,20.7,86,100470,0,0,399,0,0,0,0,0,0,0,0,0,7,0,0,0,0,0,0,0,0,0,0,0,0
1991,9,4,7,0,,23.3,21.3,86,100510,0,0,406,36,7,29,3861,585,3592,0,0,0,8,0,0,0,0,0,0,0,0,0,0,0,0
1991,9,4,8,0,,24.1,21.9,86,100560,0,0,420,104,51,89,14652,4386,11884,0,360,1,9,0,0,0,0,0,0,0,0,0,0,0,0
1991,9,4,9,0,,25,22.5,86,100600,0,0,438,146,27,132,17722,2272,15988,0,360,1.3,10,0,0,0,0,0,0,0,0,0,0,0,0
1991,9,4,10,0,,25.8,23.4,84,100600,0,0,444,200,25,184,23926,2127,22121,0,360,1,10,0,0,0,0,0,0,0,0,0,0,0,0
1991,9,4,11,0,,27.3,24.3,81,100610,0,0,454,271,33,245,31786,2729,29383,0,70,2.2,10,0,0,0,0,0,0,0,0,0,0,0,0
1991,9,4,12,0,,29.2,25.2,79,100610,0,0,467,331,42,296,38231,3468,35256,0,180,2.8,10,0,0,0,0,0,0,0,0,0,0,0,0
1991,9,4,13,0,,30.2,25.2,82,100570,0,0,473,349,44,310,39701,3696,36814,0,180,3.7,10,0,0,0,0,0,0,0,0,0,0,0,0
1991,9,4,14,0,,28.9,25.2,84,100520,0,0,465,288,30,263,32757,2456,31146,0,180,4.2,10,0,0,0,0,0,0,0,0,0,0,0,0
1991,9,4,15,0,,27.6,25.2,87,100480,0,0,457,197,15,186,21234,853,20815,0,180,3.2,10,0,0,0,0,0,0,0,0,0,0,0,0
1991,9,4,16,0,,27.3,24.8,87,100490,0,0,455,148,13,140,15243,580,15070,0,180,3.5,10,0,0,0,0,0,0,0,0,0,0,0,0
1991,9,4,17,0,,27.2,24.5,87,100500,0,0,454,119,20,109,10733,674,10673,0,200,3.8,10,0,0,0,0,0,0,0,0,0,0,0,0
1991,9,4,18,0,,26.4,24.1,87,100510,0,0,449,68,26,62,0,0,0,0,230,4.5,10,0,0,0,0,0,0,0,0,0,0,0,0
1991,9,4,19,0,,26.2,24.2,88,100530,0,0,439,20,2,18,0,0,0,0,200,3.5,9,0,0,0,0,0,0,0,0,0,0,0,0
1991,9,4,20,0,,26.1,24.4,90,100560,0,0,431,0,0,0,0,0,0,0,200,2.5,9,0,0,0,0,0,0,0,0,0,0,0,0
1991,9,4,21,0,,26.1,24.5,91,100580,0,0,426,0,0,0,0,0,0,0,200,3,8,0,0,0,0,0,0,0,0,0,0,0,0
1991,9,4,22,0,,26,24.5,91,100590,0,0,419,0,0,0,0,0,0,0,200,4.3,7,0,0,0,0,0,0,0,0,0,0,0,0
1991,9,4,23,0,,26,24.6,91,100600,0,0,414,0,0,0,0,0,0,0,200,4.7,6,0,0,0,0,0,0,0,0,0,0,0,0
1991,9,4,24,0,,26.2,24.6,91,100610,0,0,411,0,0,0,0,0,0,0,200,11,5,0,0,0,0,0,0,0,0,0,0,0,0
1991,9,5,1,0,,26.1,24.7,92,100570,0,0,416,0,0,0,0,0,0,0,200,7.7,6,0,0,0,0,0,0,0,0,0,0,0,0
1991,9,5,2,0,,26.1,24.7,92,100540,0,0,424,0,0,0,0,0,0,0,230,6.3,8,0,0,0,0,0,0,0,0,0,0,0,0
1991,9,5,3,0,,26,24.8,93,100500,0,0,435,0,0,0,0,0,0,0,200,6.3,9,0,0,0,0,0,0,0,0,0,0,0,0
1991,9,5,4,0,,26,24.8,93,100510,0,0,435,0,0,0,0,0,0,0,200,9.7,9,0,0,0,0,0,0,0,0,0,0,0,0
1991,9,5,5,0,,25.9,24.7,93,100520,0,0,434,0,0,0,0,0,0,0,200,8.7,9,0,0,0,0,0,0,0,0,0,0,0,0
1991,9,5,6,0,,25.9,24.7,93,100530,0,0,434,0,0,0,0,0,0,0,200,10.7,9,0,0,0,0,0,0,0,0,0,0,0,0
1991,9,5,7,0,,26.1,24.9,92,100530,0,0,436,33,6,27,3656,454,3448,0,200,7,9,0,0,0,0,0,0,0,0,0,0,0,0
1991,9,5,8,0,,26.2,25.1,91,100530,0,0,436,126,89,99,19442,6756,15195,0,200,10.3,9,0,0,0,0,0,0,0,0,0,0,0,0
1991,9,5,9,0,,27.1,25.3,90,100530,0,0,442,221,87,178,28830,7017,23491,0,200,8.3,9,0,0,0,0,0,0,0,0,0,0,0,0
1991,9,5,10,0,,27.3,25.5,90,100510,0,0,443,291,72,244,36643,5786,31749,0,200,8,9,0,0,0,0,0,0,0,0,0,0,0,0
1991,9,5,11,0,,27.7,25.8,89,100490,0,0,446,365,74,307,42000,6126,36623,0,230,8.7,9,0,0,0,0,0,0,0,0,0,0,0,0
1991,9,5,12,0,,28,26,89,100470,0,0,448,389,65,333,44261,5366,39676,0,200,10.3,9,0,0,0,0,0,0,0,0,0,0,0,0
1991,9,5,13,0,,28.1,25.9,86,100460,0,0,445,421,74,356,46964,6190,42151,0,200,11,9,0,0,0,0,0,0,0,0,0,0,0,0
1991,9,5,14,0,,28.1,25.9,82,100440,0,0,442,451,103,365,48466,8567,42879,0,200,8.7,8,0,0,0,0,0,0,0,0,0,0,0,0
1991,9,5,15,0,,29.8,25.8,79,100430,0,0,449,444,143,336,44918,11749,39197,0,180,9,8,0,0,0,0,0,0,0,0,0,0,0,0
1991,9,5,16,0,,28.4,24.8,83,100420,0,0,442,337,129,256,32395,9946,29480,0,200,9.3,8,0,0,0,0,0,0,0,0,0,0,0,0
1991,9,5,17,0,,25.2,23.7,86,100410,0,0,425,129,26,117,11416,1153,11320,0,250,1.3,9,0,0,0,0,0,0,0,0,0,0,0,0
1991,9,5,18,0,,24.5,22.7,90,100400,0,0,423,60,19,55,0,0,0,0,160,2.2,9,0,0,0,0,0,0,0,0,0,0,0,0
1991,9,5,19,0,,24.3,22.7,91,100410,0,0,413,20,2,18,0,0,0,0,180,2.3,8,0,0,0,0,0,0,0,0,0,0,0,0
1991,9,5,20,0,,24.1,22.8,91,100420,0,0,406,0,0,0,0,0,0,0,250,1.8,7,0,0,0,0,0,0,0,0,0,0,0,0
1991,9,5,21,0,,24.2,22.8,92,100430,0,0,402,0,0,0,0,0,0,0,180,2.2,6,0,0,0,0,0,0,0,0,0,0,0,0
1991,9,5,22,0,,24.3,22.9,92,100430,0,0,405,0,0,0,0,0,0,0,180,2,7,0,0,0,0,0,0,0,0,0,0,0,0
1991,9,5,23,0,,24.2,22.9,92,100420,0,0,409,0,0,0,0,0,0,0,200,1.8,7,0,0,0,0,0,0,0,0,0,0,0,0
1991,9,5,24,0,,24.4,23,92,100420,0,0,414,0,0,0,0,0,0,0,230,5,8,0,0,0,0,0,0,0,0,0,0,0,0
1991,9,6,1,0,,24.7,23.5,93,100380,0,0,423,0,0,0,0,0,0,0,200,9,9,0,0,0,0,0,0,0,0,0,0,0,0
1991,9,6,2,0,,25.1,24.1,94,100350,0,0,432,0,0,0,0,0,0,0,200,6.3,9,0,0,0,0,0,0,0,0,0,0,0,0
1991,9,6,3,0,,25.4,24.6,95,100310,0,0,443,0,0,0,0,0,0,0,200,7,10,0,0,0,0,0,0,0,0,0,0,0,0
1991,9,6,4,0,,23.7,23.9,93,100280,0,0,428,0,0,0,0,0,0,0,200,6.7,10,0,0,0,0,0,0,0,0,0,0,0,0
1991,9,6,5,0,,24.2,23.2,92,100250,0,0,426,0,0,0,0,0,0,0,200,8.7,9,0,0,0,0,0,0,0,0,0,0,0,0
1991,9,6,6,0,,24.3,22.5,90,100220,0,0,422,0,0,0,0,0,0,0,200,7,9,0,0,0,0,0,0,0,0,0,0,0,0
1991,9,6,7,0,,24.6,22.9,89,100230,0,0,424,35,7,28,3747,548,3498,0,230,8.3,9,0,0,0,0,0,0,0,0,0,0,0,0
1991,9,6,8,0,,24.9,23.2,89,100230,0,0,426,118,75,95,16734,6302,12788,0,200,6.3,9,0,0,0,0,0,0,0,0,0,0,0,0
1991,9,6,9,0,,25.8,23.6,88,100240,0,0,432,205,72,170,26799,6065,22200,0,200,6.3,9,0,0,0,0,0,0,0,0,0,0,0,0
1991,9,6,10,0,,27.4,23.8,87,100210,0,0,442,315,90,256,39002,7534,32651,0,200,7.2,9,0,0,0,0,0,0,0,0,0,0,0,0
1991,9,6,11,0,,26.7,23.9,86,100190,0,0,438,336,60,289,38831,5093,34376,0,180,4,9,0,0,0,0,0,0,0,0,0,0,0,0
1991,9,6,12,0,,26.8,24.1,85,100160,0,0,439,353,50,310,40357,4281,36713,0,180,4,9,0,0,0,0,0,0,0,0,0,0,0,0
1991,9,6,13,0,,26.6,23.9,84,100130,0,0,441,337,41,301,38241,3483,35546,0,180,3.8,9,0,0,0,0,0,0,0,0,0,0,0,0
1991,9,6,14,0,,27,23.8,84,100110,0,0,447,267,25,246,29102,1618,28053,0,140,3.7,10,0,0,0,0,0,0,0,0,0,0,0,0
1991,9,6,15,0,,26.7,23.6,83,100080,0,0,450,213,19,198,22629,1181,22059,0,230,2.3,10,0,0,0,0,0,0,0,0,0,0,0,0
1991,9,6,16,0,,26.5,22.9,82,100070,0,0,447,175,21,162,17527,1169,17190,0,270,1.7,10,0,0,0,0,0,0,0,0,0,0,0,0
1991,9,6,17,0,,25.7,22.1,81,100070,0,0,442,106,16,99,9761,498,9722,0,290,1.7,10,0,0,0,0,0,0,0,0,0,0,0,0
1991,9,6,18,0,,25.1,21.4,80,100060,0,0,437,57,18,53,0,0,0,0,320,1.7,10,0,0,0,0,0,0,0,0,0,0,0,0
1991,9,6,19,0,,25,21.4,82,100070,0,0,436,12,1,11,0,0,0,0,250,3.8,10,0,0,0,0,0,0,0,0,0,0,0,0
1991,9,6,20,0,,24.4,21.3,83,100090,0,0,433,0,0,0,0,0,0,0,320,3.3,10,0,0,0,0,0,0,0,0,0,0,0,0
1991,9,6,21,0,,24,21.3,85,100100,0,0,431,0,0,0,0,0,0,0,360,1.7,10,0,0,0,0,0,0,0,0,0,0,0,0
1991,9,6,22,0,,23.8,21,84,100110,0,0,429,0,0,0,0,0,0,0,320,4.7,10,0,0,0,0,0,0,0,0,0,0,0,0
1991,9,6,23,0,,23.8,20.8,84,100130,0,0,429,0,0,0,0,0,0,0,340,1.3,10,0,0,0,0,0,0,0,0,0,0,0,0
1991,9,6,24,0,,23.6,20.5,83,100140,0,0,427,0,0,0,0,0,0,0,110,1.7,10,0,0,0,0,0,0,0,0,0,0,0,0
1991,9,7,1,0,,23.4,20.6,84,100120,0,0,426,0,0,0,0,0,0,0,320,4,10,0,0,0,0,0,0,0,0,0,0,0,0
1991,9,7,2,0,,23.3,20.6,85,100100,0,0,425,0,0,0,0,0,0,0,50,0.3,10,0,0,0,0,0,0,0,0,0,0,0,0
1991,9,7,3,0,,23.1,20.7,86,100080,0,0,425,0,0,0,0,0,0,0,320,1.3,10,0,0,0,0,0,0,0,0,0,0,0,0
1991,9,7,4,0,,22.9,20.6,86,100070,0,0,412,0,0,0,0,0,0,0,270,1,9,0,0,0,0,0,0,0,0,0,0,0,0
1991,9,7,5,0,,22.8,20.5,87,100050,0,0,402,0,0,0,0,0,0,0,0,0,8,0,0,0,0,0,0,0,0,0,0,0,0
1991,9,7,6,0,,22.7,20.4,87,100040,0,0,395,0,0,0,0,0,0,0,320,1.3,7,0,0,0,0,0,0,0,0,0,0,0,0
1991,9,7,7,0,,22.5,19.5,81,100060,0,0,393,43,13,30,4205,1075,3717,0,50,0.7,7,0,0,0,0,0,0,0,0,0,0,0,0
1991,9,7,8,0,,22.9,18.7,75,100080,0,0,394,159,185,104,26662,16677,16258,0,20,2.8,7,0,0,0,0,0,0,0,0,0,0,0,0
1991,9,7,9,0,,23.9,17.8,69,100100,0,0,398,289,193,194,38873,17418,25710,0,20,3.3,7,0,0,0,0,0,0,0,0,0,0,0,0
1991,9,7,10,0,,25.4,17.9,64,100090,0,0,402,459,272,282,56599,24467,36042,0,20,3,6,0,0,0,0,0,0,0,0,0,0,0,0
1991,9,7,11,0,,27.9,17.9,58,100080,0,0,412,631,455,277,73633,41724,37268,0,50,2.5,5,0,0,0,0,0,0,0,0,0,0,0,0
1991,9,7,12,0,,28.4,18,53,100070,0,0,412,744,554,273,79726,50708,36746,0,90,4.7,4,0,0,0,0,0,0,0,0,0,0,0,0
1991,9,7,13,0,,28,18.5,55,100030,0,0,414,681,296,423,72024,26005,52001,0,70,5.3,5,0,0,0,0,0,0,0,0,0,0,0,0
1991,9,7,14,0,,27.8,18.9,57,99990,0,0,417,587,220,403,59961,19096,47665,0,70,6.7,6,0,0,0,0,0,0,0,0,0,0,0,0
1991,9,7,15,0,,28,19.4,59,99950,0,0,423,455,158,336,45162,14111,38416,0,70,5.7,7,0,0,0,0,0,0,0,0,0,0,0,0
1991,9,7,16,0,,27.5,19.8,63,99960,0,0,428,342,142,255,32152,11578,28867,0,70,7,8,0,0,0,0,0,0,0,0,0,0,0,0
1991,9,7,17,0,,27,20.2,67,99960,0,0,434,194,87,156,17548,5212,17162,0,70,6,9,0,0,0,0,0,0,0,0,0,0,0,0
1991,9,7,18,0,,26.2,20.6,71,99970,0,0,443,69,31,61,0,0,0,0,70,5.2,10,0,0,0,0,0,0,0,0,0,0,0,0
1991,9,7,19,0,,25.5,20.6,73,100010,0,0,438,11,1,11,0,0,0,0,50,3.8,10,0,0,0,0,0,0,0,0,0,0,0,0
1991,9,7,20,0,,24.9,20.6,76,100040,0,0,435,0,0,0,0,0,0,0,50,4.8,10,0,0,0,0,0,0,0,0,0,0,0,0
1991,9,7,21,0,,24.7,20.6,78,100080,0,0,434,0,0,0,0,0,0,0,20,4.5,10,0,0,0,0,0,0,0,0,0,0,0,0
1991,9,7,22,0,,24.5,20.5,78,100050,0,0,420,0,0,0,0,0,0,0,20,5.3,9,0,0,0,0,0,0,0,0,0,0,0,0
1991,9,7,23,0,,24.2,20.4,79,100020,0,0,410,0,0,0,0,0,0,0,20,4.3,8,0,0,0,0,0,0,0,0,0,0,0,0
1991,9,7,24,0,,24,20.3,79,99990,0,0,402,0,0,0,0,0,0,0,20,5.7,7,0,0,0,0,0,0,0,0,0,0,0,0
1991,9,8,1,0,,23.8,20.4,81,99970,0,0,398,0,0,0,0,0,0,0,20,5.7,6,0,0,0,0,0,0,0,0,0,0,0,0
1991,9,8,2,0,,23.6,20.5,82,99950,0,0,394,0,0,0,0,0,0,0,20,4,6,0,0,0,0,0,0,0,0,0,0,0,0
1991,9,8,3,0,,23.4,20.6,84,99930,0,0,391,0,0,0,0,0,0,0,20,5,5,0,0,0,0,0,0,0,0,0,0,0,0
1991,9,8,4,0,,23.4,20.5,83,99920,0,0,395,0,0,0,0,0,0,0,20,7,6,0,0,0,0,0,0,0,0,0,0,0,0
1991,9,8,5,0,,23.4,20.4,83,99920,0,0,399,0,0,0,0,0,0,0,20,5.5,7,0,0,0,0,0,0,0,0,0,0,0,0
1991,9,8,6,0,,23.4,20.3,82,99910,0,0,405,0,0,0,0,0,0,0,20,5.7,8,0,0,0,0,0,0,0,0,0,0,0,0
1991,9,8,7,0,,23.6,20.8,82,99930,0,0,399,45,16,30,4266,1270,3692,0,20,4.7,7,0,0,0,0,0,0,0,0,0,0,0,0
1991,9,8,8,0,,24,21.4,83,99950,0,0,396,202,364,95,37372,35357,15404,0,20,6.8,5,0,0,0,0,0,0,0,0,0,0,0,0
1991,9,8,9,0,,25,21.9,83,99970,0,0,398,375,464,149,56443,45119,22466,0,20,6.8,4,0,0,0,0,0,0,0,0,0,0,0,0
1991,9,8,10,0,,26.5,22.2,78,99950,0,0,407,518,464,216,65691,40674,31634,0,20,4.3,4,0,0,0,0,0,0,0,0,0,0,0,0
1991,9,8,11,0,,26.8,22.4,74,99930,0,0,409,622,440,282,72935,38313,39665,0,20,5.7,4,0,0,0,0,0,0,0,0,0,0,0,0
1991,9,8,12,0,,28.9,22.7,69,99910,0,0,421,707,472,306,77075,40813,42625,0,20,5.2,4,0,0,0,0,0,0,0,0,0,0,0,0
1991,9,8,13,0,,28.6,22.4,69,99910,0,0,424,597,202,421,64226,16909,51271,0,20,4.3,6,0,0,0,0,0,0,0,0,0,0,0,0
1991,9,8,14,0,,28.4,22.2,70,99910,0,0,431,527,164,390,55959,13569,47278,0,20,5,7,0,0,0,0,0,0,0,0,0,0,0,0
1991,9,8,15,0,,27.9,21.9,70,99910,0,0,442,300,51,262,32442,4381,30368,0,20,3.7,9,0,0,0,0,0,0,0,0,0,0,0,0
1991,9,8,16,0,,28.4,21.4,69,99920,0,0,432,322,123,247,30856,9763,28134,0,20,5,8,0,0,0,0,0,0,0,0,0,0,0,0
1991,9,8,17,0,,28,20.9,68,99930,0,0,422,280,267,164,18695,3718,18439,0,20,4.2,6,0,0,0,0,0,0,0,0,0,0,0,0
1991,9,8,18,0,,27.3,20.4,67,99940,0,0,412,161,355,77,0,0,0,0,20,3.7,5,0,0,0,0,0,0,0,0,0,0,0,0
1991,9,8,19,0,,25.9,20.3,71,99990,0,0,399,42,19,22,0,0,0,0,20,5,3,0,0,0,0,0,0,0,0,0,0,0,0
1991,9,8,20,0,,24.9,20.2,75,100050,0,0,387,0,0,0,0,0,0,0,360,3.5,2,0,0,0,0,0,0,0,0,0,0,0,0
1991,9,8,21,0,,24,20.1,79,100100,0,0,372,0,0,0,0,0,0,0,20,4.8,0,0,0,0,0,0,0,0,0,0,0,0,0
1991,9,8,22,0,,23.4,20,81,100120,0,0,376,0,0,0,0,0,0,0,20,5.5,1,0,0,0,0,0,0,0,0,0,0,0,0
1991,9,8,23,0,,23.1,19.9,82,100150,0,0,379,0,0,0,0,0,0,0,20,2.7,2,0,0,0,0,0,0,0,0,0,0,0,0
1991,9,8,24,0,,22.7,19.8,84,100170,0,0,381,0,0,0,0,0,0,0,20,3.3,3,0,0,0,0,0,0,0,0,0,0,0,0
1991,9,9,1,0,,22.3,19.6,85,100150,0,0,374,0,0,0,0,0,0,0,20,2.7,2,0,0,0,0,0,0,0,0,0,0,0,0
1991,9,9,2,0,,21.8,19.3,85,100120,0,0,367,0,0,0,0,0,0,0,50,2,1,0,0,0,0,0,0,0,0,0,0,0,0
1991,9,9,3,0,,21.5,19.1,86,100100,0,0,358,0,0,0,0,0,0,0,50,3,0,0,0,0,0,0,0,0,0,0,0,0,0
1991,9,9,4,0,,21.3,18.7,86,100130,0,0,359,0,0,0,0,0,0,0,20,3.3,0,0,0,0,0,0,0,0,0,0,0,0,0
1991,9,9,5,0,,20.8,18.4,85,100170,0,0,359,0,0,0,0,0,0,0,20,4.3,1,0,0,0,0,0,0,0,0,0,0,0,0
1991,9,9,6,0,,20.5,18,85,100200,0,0,359,0,0,0,0,0,0,0,20,2.3,1,0,0,0,0,0,0,0,0,0,0,0,0
1991,9,9,7,0,,20.4,18.4,82,100240,0,0,359,63,34,29,5326,2982,3988,0,20,2.7,1,0,0,0,0,0,0,0,0,0,0,0,0
1991,9,9,8,0,,21.8,18.7,78,100270,0,0,366,224,508,77,43975,52674,11381,0,50,2.3,1,0,0,0,0,0,0,0,0,0,0,0,0
1991,9,9,9,0,,23.9,19.1,75,100310,0,0,377,414,615,116,64049,63869,16125,0,20,3.5,1,0,0,0,0,0,0,0,0,0,0,0,0
1991,9,9,10,0,,25.8,18.9,69,100300,0,0,390,589,675,152,78260,69823,20001,0,20,5,2,0,0,0,0,0,0,0,0,0,0,0,0
1991,9,9,11,0,,27.2,18.8,63,100300,0,0,401,726,707,181,85848,69584,25647,0,20,5.3,2,0,0,0,0,0,0,0,0,0,0,0,0
1991,9,9,12,0,,27.9,18.6,57,100290,0,0,407,751,583,258,81189,56263,33898,0,70,5.3,3,0,0,0,0,0,0,0,0,0,0,0,0
1991,9,9,13,0,,28,18.4,57,100270,0,0,407,747,528,290,75091,47768,38682,0,70,5.3,3,0,0,0,0,0,0,0,0,0,0,0,0
1991,9,9,14,0,,27.8,18.3,56,100260,0,0,406,694,485,291,65794,43237,38318,0,70,5.7,3,0,0,0,0,0,0,0,0,0,0,0,0
1991,9,9,15,0,,27.6,18.1,56,100240,0,0,405,620,512,240,50511,42319,30664,0,70,6.7,3,0,0,0,0,0,0,0,0,0,0,0,0
1991,9,9,16,0,,26.9,18,59,100260,0,0,397,512,569,168,33340,40440,22256,0,70,8,2,0,0,0,0,0,0,0,0,0,0,0,0
1991,9,9,17,0,,25.9,18,61,100290,0,0,386,355,565,110,13599,11608,12856,0,70,6.7,1,0,0,0,0,0,0,0,0,0,0,0,0
1991,9,9,18,0,,25,17.9,64,100310,0,0,374,179,514,60,0,0,0,0,50,6,0,0,0,0,0,0,0,0,0,0,0,0,0
1991,9,9,19,0,,23.9,17.9,68,100370,0,0,369,41,21,21,0,0,0,0,50,5,0,0,0,0,0,0,0,0,0,0,0,0,0
1991,9,9,20,0,,22.9,17.9,72,100420,0,0,364,0,0,0,0,0,0,0,50,4.7,0,0,0,0,0,0,0,0,0,0,0,0,0
1991,9,9,21,0,,22.4,17.9,76,100480,0,0,361,0,0,0,0,0,0,0,50,3.8,0,0,0,0,0,0,0,0,0,0,0,0,0
1991,9,9,22,0,,21.8,18,78,100490,0,0,358,0,0,0,0,0,0,0,20,3.3,0,0,0,0,0,0,0,0,0,0,0,0,0
1991,9,9,23,0,,21.5,18.1,81,100500,0,0,357,0,0,0,0,0,0,0,20,4,0,0,0,0,0,0,0,0,0,0,0,0,0
1991,9,9,24,0,,21.2,18.2,83,100510,0,0,356,0,0,0,0,0,0,0,360,3.3,0,0,0,0,0,0,0,0,0,0,0,0,0
1991,9,10,1,0,,21.2,18.3,84,100520,0,0,356,0,0,0,0,0,0,0,20,3.2,0,0,0,0,0,0,0,0,0,0,0,0,0
1991,9,10,2,0,,21.1,18.5,85,100530,0,0,356,0,0,0,0,0,0,0,360,4.8,0,0,0,0,0,0,0,0,0,0,0,0,0
1991,9,10,3,0,,21,18.6,86,100540,0,0,355,0,0,0,0,0,0,0,360,3,0,0,0,0,0,0,0,0,0,0,0,0,0
1991,9,10,4,0,,20.7,18.4,86,100540,0,0,354,0,0,0,0,0,0,0,20,2.5,0,0,0,0,0,0,0,0,0,0,0,0,0
1991,9,10,5,0,,20.5,18.2,86,100530,0,0,352,0,0,0,0,0,0,0,20,3,0,0,0,0,0,0,0,0,0,0,0,0,0
1991,9,10,6,0,,20.4,18,86,100530,0,0,352,0,0,0,0,0,0,0,20,2.8,0,0,0,0,0,0,0,0,0,0,0,0,0
1991,9,10,7,0,,20.5,18.6,84,100570,0,0,355,63,35,28,5686,2889,4397,0,20,3,0,0,0,0,0,0,0,0,0,0,0,0,0
1991,9,10,8,0,,21.6,19.2,81,100620,0,0,364,221,501,77,43444,51971,11418,0,20,2.8,1,0,0,0,0,0,0,0,0,0,0,0,0
1991,9,10,9,0,,23.7,19.8,79,100660,0,0,377,408,601,118,63146,62477,16437,0,20,3.5,1,0,0,0,0,0,0,0,0,0,0,0,0
1991,9,10,10,0,,25.4,19.1,71,100630,0,0,387,580,658,156,76810,64976,22788,0,50,3.2,1,0,0,0,0,0,0,0,0,0,0,0,0
1991,9,10,11,0,,26.1,18.4,63,100610,0,0,391,688,619,212,81216,60531,29046,0,70,3,2,0,0,0,0,0,0,0,0,0,0,0,0
1991,9,10,12,0,,27.5,17.7,55,100580,0,0,400,769,633,236,82944,61587,31402,0,90,4,2,0,0,0,0,0,0,0,0,0,0,0,0
1991,9,10,13,0,,27.5,18.3,57,100530,0,0,399,754,552,279,75243,50052,37293,0,90,4,2,0,0,0,0,0,0,0,0,0,0,0,0
1991,9,10,14,0,,27.4,18.8,60,100490,0,0,397,705,519,276,65860,46033,36805,0,90,4.2,1,0,0,0,0,0,0,0,0,0,0,0,0
1991,9,10,15,0,,27.3,19.4,62,100440,0,0,395,606,486,248,50099,39228,31881,0,90,4.3,1,0,0,0,0,0,0,0,0,0,0,0,0
1991,9,10,16,0,,27.1,19.3,64,100440,0,0,398,483,491,187,32466,31603,23958,0,90,3.5,2,0,0,0,0,0,0,0,0,0,0,0,0
1991,9,10,17,0,,26.5,19.3,67,100440,0,0,398,334,499,121,14496,3146,14310,0,90,3,2,0,0,0,0,0,0,0,0,0,0,0,0
1991,9,10,18,0,,25.2,19.2,69,100440,0,0,393,161,403,69,0,0,0,0,70,3.8,3,0,0,0,0,0,0,0,0,0,0,0,0
1991,9,10,19,0,,23.9,18.9,71,100470,0,0,382,37,15,22,0,0,0,0,70,4.2,2,0,0,0,0,0,0,0,0,0,0,0,0
1991,9,10,20,0,,23.2,18.7,74,100500,0,0,373,0,0,0,0,0,0,0,50,3.5,1,0,0,0,0,0,0,0,0,0,0,0,0
1991,9,10,21,0,,22.8,18.4,76,100530,0,0,364,0,0,0,0,0,0,0,50,2.3,0,0,0,0,0,0,0,0,0,0,0,0,0
1991,9,10,22,0,,22.1,18.3,78,100510,0,0,360,0,0,0,0,0,0,0,360,2.3,0,0,0,0,0,0,0,0,0,0,0,0,0
1991,9,10,23,0,,21.8,18.2,79,100500,0,0,359,0,0,0,0,0,0,0,20,2.3,0,0,0,0,0,0,0,0,0,0,0,0,0
1991,9,10,24,0,,21.4,18.1,81,100480,0,0,357,0,0,0,0,0,0,0,20,1.8,0,0,0,0,0,0,0,0,0,0,0,0,0
1991,9,11,1,0,,21.2,18.1,82,100430,0,0,356,0,0,0,0,0,0,0,20,1.7,0,0,0,0,0,0,0,0,0,0,0,0,0
1991,9,11,2,0,,21.1,18.1,83,100390,0,0,355,0,0,0,0,0,0,0,70,1,0,0,0,0,0,0,0,0,0,0,0,0,0
1991,9,11,3,0,,20.9,18.1,84,100340,0,0,354,0,0,0,0,0,0,0,0,0,0,0,0,0,0,0,0,0,0,0,0,0,0
1991,9,11,4,0,,20.6,17.9,84,100340,0,0,363,0,0,0,0,0,0,0,0,0.2,2,0,0,0,0,0,0,0,0,0,0,0,0
1991,9,11,5,0,,20.6,17.7,84,100330,0,0,368,0,0,0,0,0,0,0,0,0,3,0,0,0,0,0,0,0,0,0,0,0,0
1991,9,11,6,0,,20.4,17.5,84,100330,0,0,372,0,0,0,0,0,0,0,320,1.7,5,0,0,0,0,0,0,0,0,0,0,0,0
1991,9,11,7,0,,20.4,18,81,100320,0,0,369,55,31,24,4899,2582,3753,0,320,0.7,4,0,0,0,0,0,0,0,0,0,0,0,0
1991,9,11,8,0,,21.1,18.5,79,100300,0,0,369,211,451,82,40651,44455,13372,0,270,1.3,2,0,0,0,0,0,0,0,0,0,0,0,0
1991,9,11,9,0,,23.4,19,76,100290,0,0,374,392,550,128,59899,54278,19471,0,270,1.8,1,0,0,0,0,0,0,0,0,0,0,0,0
1991,9,11,10,0,,24.3,19.7,73,100250,0,0,380,563,615,168,74329,60444,24259,0,340,4.3,1,0,0,0,0,0,0,0,0,0,0,0,0
1991,9,11,11,0,,25.9,20.5,71,100210,0,0,389,683,615,213,80798,59757,29495,0,320,3.3,1,0,0,0,0,0,0,0,0,0,0,0,0
1991,9,11,12,0,,27.6,21.2,68,100170,0,0,399,760,620,240,82259,59561,32631,0,230,4,1,0,0,0,0,0,0,0,0,0,0,0,0
1991,9,11,13,0,,29.3,21.1,66,100130,0,0,414,774,606,254,75804,53254,35640,0,230,2.8,2,0,0,0,0,0,0,0,0,0,0,0,0
1991,9,11,14,0,,28.9,20.9,65,100100,0,0,415,704,527,271,65685,45559,37128,0,180,5.2,3,0,0,0,0,0,0,0,0,0,0,0,0
1991,9,11,15,0,,28.4,20.8,63,100060,0,0,416,583,436,263,49886,34050,34231,0,180,6.3,4,0,0,0,0,0,0,0,0,0,0,0,0
1991,9,11,16,0,,27.5,20.8,66,100060,0,0,417,383,219,252,33558,13990,29860,0,180,5.7,6,0,0,0,0,0,0,0,0,0,0,0,0
1991,9,11,17,0,,26.7,20.9,70,100070,0,0,424,192,97,151,16832,5603,16529,0,180,3.5,8,0,0,0,0,0,0,0,0,0,0,0,0
1991,9,11,18,0,,26.1,20.9,73,100070,0,0,442,60,28,54,0,0,0,0,270,5,10,0,0,0,0,0,0,0,0,0,0,0,0
1991,9,11,19,0,,24.7,20.8,75,100130,0,0,430,7,0,6,0,0,0,0,320,3.7,10,0,0,0,0,0,0,0,0,0,0,0,0
1991,9,11,20,0,,24.4,20.6,78,100180,0,0,424,0,0,0,0,0,0,0,20,2,9,0,0,0,0,0,0,0,0,0,0,0,0
1991,9,11,21,0,,24.2,20.5,80,100240,0,0,419,0,0,0,0,0,0,0,50,3.3,9,0,0,0,0,0,0,0,0,0,0,0,0
1991,9,11,22,0,,23.7,20.5,82,100230,0,0,420,0,0,0,0,0,0,0,70,2.7,9,0,0,0,0,0,0,0,0,0,0,0,0
1991,9,11,23,0,,23.3,20.6,83,100230,0,0,421,0,0,0,0,0,0,0,70,1.8,10,0,0,0,0,0,0,0,0,0,0,0,0
1991,9,11,24,0,,23.2,20.6,85,100220,0,0,425,0,0,0,0,0,0,0,50,1.8,10,0,0,0,0,0,0,0,0,0,0,0,0
1991,9,12,1,0,,22.9,19.2,80,100220,0,0,421,0,0,0,0,0,0,0,320,2.3,10,0,0,0,0,0,0,0,0,0,0,0,0
1991,9,12,2,0,,22.6,17.9,75,100210,0,0,418,0,0,0,0,0,0,0,320,1.5,10,0,0,0,0,0,0,0,0,0,0,0,0
1991,9,12,3,0,,22.1,16.5,70,100210,0,0,413,0,0,0,0,0,0,0,360,0.7,10,0,0,0,0,0,0,0,0,0,0,0,0
1991,9,12,4,0,,21.9,16.4,70,100240,0,0,408,0,0,0,0,0,0,0,340,2.7,10,0,0,0,0,0,0,0,0,0,0,0,0
1991,9,12,5,0,,21.6,16.2,71,100270,0,0,402,0,0,0,0,0,0,0,270,1,9,0,0,0,0,0,0,0,0,0,0,0,0
1991,9,12,6,0,,21.5,16.1,71,100300,0,0,398,0,0,0,0,0,0,0,290,1.2,9,0,0,0,0,0,0,0,0,0,0,0,0
1991,9,12,7,0,,21.3,16.4,71,100320,0,0,397,27,4,23,2985,322,2843,0,20,2.3,9,0,0,0,0,0,0,0,0,0,0,0,0
1991,9,12,8,0,,21.8,16.8,70,100350,0,0,401,111,75,90,15820,6877,11618,0,50,3,9,0,0,0,0,0,0,0,0,0,0,0,0
1991,9,12,9,0,,22.8,17.1,70,100370,0,0,406,203,77,166,26103,7128,20814,0,20,2.7,9,0,0,0,0,0,0,0,0,0,0,0,0
1991,9,12,10,0,,24.1,17.9,70,100370,0,0,418,293,80,242,35867,7364,29789,0,360,2.7,9,0,0,0,0,0,0,0,0,0,0,0,0
1991,9,12,11,0,,25.1,18.8,69,100370,0,0,429,294,45,260,34015,4042,30558,0,70,3,10,0,0,0,0,0,0,0,0,0,0,0,0
1991,9,12,12,0,,25.5,19.6,69,100370,0,0,437,308,37,276,35181,3323,32424,0,70,2.3,10,0,0,0,0,0,0,0,0,0,0,0,0
1991,9,12,13,0,,25.8,19.5,69,100360,0,0,439,299,32,272,33935,2860,31790,0,90,3,10,0,0,0,0,0,0,0,0,0,0,0,0
1991,9,12,14,0,,25.5,19.5,69,100360,0,0,437,263,26,242,28764,1866,27603,0,90,1.7,10,0,0,0,0,0,0,0,0,0,0,0,0
1991,9,12,15,0,,25.4,19.4,69,100350,0,0,436,236,28,215,24647,2028,23724,0,90,3,10,0,0,0,0,0,0,0,0,0,0,0,0
1991,9,12,16,0,,25.2,19.2,70,100360,0,0,435,170,23,157,16931,1322,16588,0,70,1.7,10,0,0,0,0,0,0,0,0,0,0,0,0
1991,9,12,17,0,,24.7,19.1,70,100360,0,0,432,114,24,105,9924,1537,9849,0,90,1.5,10,0,0,0,0,0,0,0,0,0,0,0,0
1991,9,12,18,0,,24.4,18.9,71,100370,0,0,430,56,24,50,0,0,0,0,90,1.8,10,0,0,0,0,0,0,0,0,0,0,0,0
1991,9,12,19,0,,23.9,18.9,73,100400,0,0,427,7,0,7,0,0,0,0,90,1.7,10,0,0,0,0,0,0,0,0,0,0,0,0
1991,9,12,20,0,,23.5,18.8,74,100430,0,0,424,0,0,0,0,0,0,0,20,2.2,10,0,0,0,0,0,0,0,0,0,0,0,0
1991,9,12,21,0,,23.2,18.8,76,100460,0,0,423,0,0,0,0,0,0,0,20,2.8,10,0,0,0,0,0,0,0,0,0,0,0,0
1991,9,12,22,0,,22.9,19.1,79,100450,0,0,421,0,0,0,0,0,0,0,20,2,10,0,0,0,0,0,0,0,0,0,0,0,0
1991,9,12,23,0,,22.6,19.3,81,100440,0,0,420,0,0,0,0,0,0,0,20,2,10,0,0,0,0,0,0,0,0,0,0,0,0
1991,9,12,24,0,,22.4,19.6,84,100430,0,0,419,0,0,0,0,0,0,0,20,2.8,10,0,0,0,0,0,0,0,0,0,0,0,0
1991,9,13,1,0,,22.1,19.3,84,100430,0,0,409,0,0,0,0,0,0,0,360,1.8,9,0,0,0,0,0,0,0,0,0,0,0,0
1991,9,13,2,0,,21.7,18.9,84,100430,0,0,400,0,0,0,0,0,0,0,90,1.8,9,0,0,0,0,0,0,0,0,0,0,0,0
1991,9,13,3,0,,21.4,18.6,84,100430,0,0,392,0,0,0,0,0,0,0,20,2.3,8,0,0,0,0,0,0,0,0,0,0,0,0
1991,9,13,4,0,,21.1,18.5,84,100420,0,0,391,0,0,0,0,0,0,0,360,2.5,8,0,0,0,0,0,0,0,0,0,0,0,0
1991,9,13,5,0,,21.1,18.3,84,100400,0,0,390,0,0,0,0,0,0,0,70,2.5,8,0,0,0,0,0,0,0,0,0,0,0,0
1991,9,13,6,0,,21.1,18.2,84,100390,0,0,390,0,0,0,0,0,0,0,50,3.2,8,0,0,0,0,0,0,0,0,0,0,0,0
1991,9,13,7,0,,21.1,18.7,83,100420,0,0,391,34,8,26,3532,638,3252,0,20,3.3,8,0,0,0,0,0,0,0,0,0,0,0,0
1991,9,13,8,0,,21.5,19.3,83,100440,0,0,394,133,130,97,20695,11254,13849,0,20,4.5,8,0,0,0,0,0,0,0,0,0,0,0,0
1991,9,13,9,0,,23,19.8,82,100470,0,0,402,242,129,181,32933,11261,24609,0,20,4.2,8,0,0,0,0,0,0,0,0,0,0,0,0
1991,9,13,10,0,,23.4,19.8,77,100450,0,0,410,284,74,236,34950,6658,29476,0,20,4.8,9,0,0,0,0,0,0,0,0,0,0,0,0
1991,9,13,11,0,,24.7,19.9,73,100420,0,0,424,368,84,304,43738,7500,37350,0,20,5.7,9,0,0,0,0,0,0,0,0,0,0,0,0
1991,9,13,12,0,,26.2,19.9,68,100400,0,0,442,341,50,299,38708,4456,35029,0,20,5.3,10,0,0,0,0,0,0,0,0,0,0,0,0
1991,9,13,13,0,,27,19.6,66,100390,0,0,446,390,67,333,43139,6010,38655,0,20,7.7,10,0,0,0,0,0,0,0,0,0,0,0,0
1991,9,13,14,0,,26.6,19.4,65,100380,0,0,443,328,48,288,36088,4331,33412,0,50,6,10,0,0,0,0,0,0,0,0,0,0,0,0
1991,9,13,15,0,,26.6,19.1,63,100370,0,0,443,264,40,235,28681,3450,27128,0,50,5.5,10,0,0,0,0,0,0,0,0,0,0,0,0
1991,9,13,16,0,,26,19.2,66,100350,0,0,439,205,40,182,21532,3120,20738,0,20,7,10,0,0,0,0,0,0,0,0,0,0,0,0
1991,9,13,17,0,,25.4,19.3,70,100330,0,0,436,134,39,118,13055,2087,12964,0,50,6.3,10,0,0,0,0,0,0,0,0,0,0,0,0
1991,9,13,18,0,,24.6,19.4,73,100310,0,0,431,60,32,53,0,0,0,0,50,7,10,0,0,0,0,0,0,0,0,0,0,0,0
1991,9,13,19,0,,23.9,19.8,77,100340,0,0,428,8,0,8,0,0,0,0,20,7.3,10,0,0,0,0,0,0,0,0,0,0,0,0
1991,9,13,20,0,,23.4,20.1,82,100360,0,0,426,0,0,0,0,0,0,0,50,5,10,0,0,0,0,0,0,0,0,0,0,0,0
1991,9,13,21,0,,22.9,20.5,86,100390,0,0,423,0,0,0,0,0,0,0,20,8,10,0,0,0,0,0,0,0,0,0,0,0,0
1991,9,13,22,0,,22.8,20.7,88,100340,0,0,423,0,0,0,0,0,0,0,20,7.7,10,0,0,0,0,0,0,0,0,0,0,0,0
1991,9,13,23,0,,22.5,20.9,91,100300,0,0,421,0,0,0,0,0,0,0,20,6.5,10,0,0,0,0,0,0,0,0,0,0,0,0
1991,9,13,24,0,,22.2,21.1,93,100250,0,0,420,0,0,0,0,0,0,0,20,7.3,10,0,0,0,0,0,0,0,0,0,0,0,0
1991,9,14,1,0,,21.9,20.6,92,100160,0,0,418,0,0,0,0,0,0,0,20,5.2,10,0,0,0,0,0,0,0,0,0,0,0,0
1991,9,14,2,0,,21.6,20.2,91,100070,0,0,415,0,0,0,0,0,0,0,20,9,10,0,0,0,0,0,0,0,0,0,0,0,0
1991,9,14,3,0,,21.3,19.7,90,99980,0,0,413,0,0,0,0,0,0,0,20,7.7,10,0,0,0,0,0,0,0,0,0,0,0,0
1991,9,14,4,0,,21.1,19.7,90,99880,0,0,412,0,0,0,0,0,0,0,20,11.2,10,0,0,0,0,0,0,0,0,0,0,0,0
1991,9,14,5,0,,20.4,19.7,91,99770,0,0,408,0,0,0,0,0,0,0,20,9.5,10,0,0,0,0,0,0,0,0,0,0,0,0
1991,9,14,6,0,,21.2,19.7,91,99670,0,0,413,0,0,0,0,0,0,0,20,9.3,10,0,0,0,0,0,0,0,0,0,0,0,0
1991,9,14,7,0,,20.9,19.3,89,99670,0,0,410,23,3,20,2692,85,2655,0,20,10.3,10,0,0,0,0,0,0,0,0,0,0,0,0
1991,9,14,8,0,,20.6,18.9,87,99680,0,0,408,86,39,75,12100,3488,9988,0,20,8.3,10,0,0,0,0,0,0,0,0,0,0,0,0
1991,9,14,9,0,,21.2,18.5,85,99680,0,0,411,159,41,140,19342,3608,16686,0,360,8.7,10,0,0,0,0,0,0,0,0,0,0,0,0
1991,9,14,10,0,,20.8,17.8,81,99880,0,0,408,213,34,191,25137,3074,22620,0,20,9.2,10,0,0,0,0,0,0,0,0,0,0,0,0
1991,9,14,11,0,,21.2,17.2,78,100070,0,0,409,272,37,244,31441,3376,28577,0,20,7.3,10,0,0,0,0,0,0,0,0,0,0,0,0
1991,9,14,12,0,,21.2,16.5,74,100270,0,0,408,263,25,243,30263,2278,28390,0,360,4.2,10,0,0,0,0,0,0,0,0,0,0,0,0
1991,9,14,13,0,,22.6,16.5,69,100350,0,0,405,422,84,351,46138,7809,40345,0,360,6.2,9,0,0,0,0,0,0,0,0,0,0,0,0
1991,9,14,14,0,,24.4,16.4,65,100420,0,0,406,475,135,365,49362,12571,41650,0,360,3.3,8,0,0,0,0,0,0,0,0,0,0,0,0
1991,9,14,15,0,,24.6,16.4,60,100500,0,0,401,486,221,327,46323,18628,38022,0,20,4.8,7,0,0,0,0,0,0,0,0,0,0,0,0
1991,9,14,16,0,,24.8,16.1,62,100570,0,0,398,418,317,234,32281,21484,26920,0,20,4.3,6,0,0,0,0,0,0,0,0,0,0,0,0
1991,9,14,17,0,,24,15.9,64,100640,0,0,391,264,284,148,15830,958,15792,0,20,4,6,0,0,0,0,0,0,0,0,0,0,0,0
1991,9,14,18,0,,22.2,15.6,66,100710,0,0,379,134,305,71,0,0,0,0,20,4.3,5,0,0,0,0,0,0,0,0,0,0,0,0
1991,9,14,19,0,,20.8,15.9,71,100800,0,0,368,25,10,16,0,0,0,0,360,3.8,4,0,0,0,0,0,0,0,0,0,0,0,0
1991,9,14,20,0,,20.2,16.1,75,100890,0,0,361,0,0,0,0,0,0,0,20,4.7,2,0,0,0,0,0,0,0,0,0,0,0,0
1991,9,14,21,0,,19.9,16.4,80,100980,0,0,354,0,0,0,0,0,0,0,20,4.2,1,0,0,0,0,0,0,0,0,0,0,0,0
1991,9,14,22,0,,19.6,16.4,81,100990,0,0,353,0,0,0,0,0,0,0,360,3.8,1,0,0,0,0,0,0,0,0,0,0,0,0
1991,9,14,23,0,,19.6,16.4,82,101010,0,0,353,0,0,0,0,0,0,0,20,4.8,1,0,0,0,0,0,0,0,0,0,0,0,0
1991,9,14,24,0,,19.4,16.4,83,101020,0,0,352,0,0,0,0,0,0,0,20,5.7,1,0,0,0,0,0,0,0,0,0,0,0,0
1991,9,15,1,0,,19.3,16.3,83,101030,0,0,354,0,0,0,0,0,0,0,360,4.7,2,0,0,0,0,0,0,0,0,0,0,0,0
1991,9,15,2,0,,19.2,16.3,83,101030,0,0,357,0,0,0,0,0,0,0,360,4.3,2,0,0,0,0,0,0,0,0,0,0,0,0
1991,9,15,3,0,,19.2,16.2,83,101040,0,0,359,0,0,0,0,0,0,0,360,4,3,0,0,0,0,0,0,0,0,0,0,0,0
1991,9,15,4,0,,19.1,16.3,83,101060,0,0,364,0,0,0,0,0,0,0,360,3.7,5,0,0,0,0,0,0,0,0,0,0,0,0
1991,9,15,5,0,,19.3,16.4,84,101090,0,0,373,0,0,0,0,0,0,0,360,4.7,7,0,0,0,0,0,0,0,0,0,0,0,0
1991,9,15,6,0,,19.3,16.5,84,101110,0,0,387,0,0,0,0,0,0,0,20,5.7,9,0,0,0,0,0,0,0,0,0,0,0,0
1991,9,15,7,0,,19.2,16.3,80,101150,0,0,374,43,16,27,4301,1423,3684,0,20,5.3,7,0,0,0,0,0,0,0,0,0,0,0,0
1991,9,15,8,0,,19.7,16,75,101180,0,0,369,171,298,89,31842,29416,14107,0,20,5,6,0,0,0,0,0,0,0,0,0,0,0,0
1991,9,15,9,0,,21.4,15.8,71,101220,0,0,372,373,513,132,57020,51022,19605,0,20,5,4,0,0,0,0,0,0,0,0,0,0,0,0
1991,9,15,10,0,,22.7,16.1,68,101220,0,0,379,528,545,184,69516,53865,25575,0,20,6,4,0,0,0,0,0,0,0,0,0,0,0,0
1991,9,15,11,0,,24.4,16.4,64,101220,0,0,388,662,591,217,78134,57978,29163,0,50,5.7,4,0,0,0,0,0,0,0,0,0,0,0,0
1991,9,15,12,0,,24.7,16.7,61,101220,0,0,390,695,496,285,75097,45974,37489,0,20,6.7,4,0,0,0,0,0,0,0,0,0,0,0,0
1991,9,15,13,0,,25.2,16.3,58,101210,0,0,391,738,557,268,73349,51451,35397,0,50,7,3,0,0,0,0,0,0,0,0,0,0,0,0
1991,9,15,14,0,,25.1,15.9,55,101200,0,0,387,685,519,267,63422,47177,34693,0,50,7.3,3,0,0,0,0,0,0,0,0,0,0,0,0
1991,9,15,15,0,,25.9,15.5,52,101190,0,0,388,644,640,186,49353,55371,24947,0,20,6.7,2,0,0,0,0,0,0,0,0,0,0,0,0
1991,9,15,16,0,,25.7,15.1,54,101220,0,0,384,513,651,137,29172,45589,18023,0,20,7,1,0,0,0,0,0,0,0,0,0,0,0,0
1991,9,15,17,0,,25,14.8,56,101250,0,0,376,351,658,86,9593,6133,9387,0,50,7.3,1,0,0,0,0,0,0,0,0,0,0,0,0
1991,9,15,18,0,,23.2,14.4,58,101280,0,0,361,158,536,50,0,0,0,0,50,6.7,0,0,0,0,0,0,0,0,0,0,0,0,0
1991,9,15,19,0,,21.6,13.9,60,101320,0,0,353,30,14,16,0,0,0,0,50,7,0,0,0,0,0,0,0,0,0,0,0,0,0
1991,9,15,20,0,,20.6,13.3,62,101360,0,0,347,0,0,0,0,0,0,0,20,7,0,0,0,0,0,0,0,0,0,0,0,0,0
1991,9,15,21,0,,20,12.8,64,101400,0,0,344,0,0,0,0,0,0,0,20,6.3,0,0,0,0,0,0,0,0,0,0,0,0,0
1991,9,15,22,0,,19.4,12.9,66,101370,0,0,341,0,0,0,0,0,0,0,20,4.3,0,0,0,0,0,0,0,0,0,0,0,0,0
1991,9,15,23,0,,19,13,67,101330,0,0,339,0,0,0,0,0,0,0,20,4.7,0,0,0,0,0,0,0,0,0,0,0,0,0
1991,9,15,24,0,,18.8,13.1,69,101300,0,0,338,0,0,0,0,0,0,0,20,5.7,0,0,0,0,0,0,0,0,0,0,0,0,0
1991,9,16,1,0,,18.9,13.6,70,101260,0,0,351,0,0,0,0,0,0,0,20,4.7,2,0,0,0,0,0,0,0,0,0,0,0,0
1991,9,16,2,0,,19.2,14,72,101230,0,0,359,0,0,0,0,0,0,0,20,4.3,4,0,0,0,0,0,0,0,0,0,0,0,0
1991,9,16,3,0,,19.5,14.5,73,101190,0,0,367,0,0,0,0,0,0,0,360,5.7,6,0,0,0,0,0,0,0,0,0,0,0,0
1991,9,16,4,0,,19.2,14.7,75,101210,0,0,363,0,0,0,0,0,0,0,20,4.3,5,0,0,0,0,0,0,0,0,0,0,0,0
1991,9,16,5,0,,19,15,78,101240,0,0,361,0,0,0,0,0,0,0,20,4.3,5,0,0,0,0,0,0,0,0,0,0,0,0
1991,9,16,6,0,,18.8,15.2,80,101260,0,0,358,0,0,0,0,0,0,0,20,5.2,4,0,0,0,0,0,0,0,0,0,0,0,0
1991,9,16,7,0,,18.7,15.5,77,101280,0,0,362,50,27,23,4179,2441,3127,0,20,4.7,5,0,0,0,0,0,0,0,0,0,0,0,0
1991,9,16,8,0,,19.7,15.8,73,101290,0,0,372,153,217,94,26545,20059,14507,0,20,4.8,7,0,0,0,0,0,0,0,0,0,0,0,0
1991,9,16,9,0,,21.9,16.1,70,101310,0,0,392,262,172,182,35399,15814,23850,0,20,5.3,8,0,0,0,0,0,0,0,0,0,0,0,0
1991,9,16,10,0,,23,15.7,64,101300,0,0,397,391,192,270,48451,17850,33948,0,20,7.2,8,0,0,0,0,0,0,0,0,0,0,0,0
1991,9,16,11,0,,25,15.2,58,101290,0,0,408,501,208,345,58363,19312,42119,0,50,6.8,8,0,0,0,0,0,0,0,0,0,0,0,0
1991,9,16,12,0,,25,14.8,52,101280,0,0,407,536,180,387,59121,16853,45400,0,70,8,8,0,0,0,0,0,0,0,0,0,0,0,0
1991,9,16,13,0,,25,14.8,52,101240,0,0,401,585,215,404,61646,19900,47052,0,50,7.3,7,0,0,0,0,0,0,0,0,0,0,0,0
1991,9,16,14,0,,25.7,14.8,52,101190,0,0,400,580,250,380,57733,22636,44052,0,50,6.7,6,0,0,0,0,0,0,0,0,0,0,0,0
1991,9,16,15,0,,25.3,14.8,52,101150,0,0,394,553,409,262,47118,34695,31993,0,70,6.2,5,0,0,0,0,0,0,0,0,0,0,0,0
1991,9,16,16,0,,25,14.8,54,101160,0,0,388,472,536,165,28706,35161,20284,0,50,5,3,0,0,0,0,0,0,0,0,0,0,0,0
1991,9,16,17,0,,25,14.9,57,101170,0,0,381,332,592,96,10134,3096,10045,0,50,5.7,2,0,0,0,0,0,0,0,0,0,0,0,0
1991,9,16,18,0,,23.5,14.9,59,101180,0,0,363,155,545,48,0,0,0,0,50,6,0,0,0,0,0,0,0,0,0,0,0,0,0
1991,9,16,19,0,,21.6,14.7,62,101190,0,0,354,27,16,11,0,0,0,0,20,4.5,0,0,0,0,0,0,0,0,0,0,0,0,0
1991,9,16,20,0,,20.7,14.6,66,101190,0,0,349,0,0,0,0,0,0,0,20,4.8,0,0,0,0,0,0,0,0,0,0,0,0,0
1991,9,16,21,0,,20.3,14.4,69,101200,0,0,347,0,0,0,0,0,0,0,20,5.3,0,0,0,0,0,0,0,0,0,0,0,0,0
1991,9,16,22,0,,19.8,14.4,71,101180,0,0,345,0,0,0,0,0,0,0,20,4.5,0,0,0,0,0,0,0,0,0,0,0,0,0
1991,9,16,23,0,,19.5,14.4,72,101150,0,0,343,0,0,0,0,0,0,0,20,4.5,0,0,0,0,0,0,0,0,0,0,0,0,0
1991,9,16,24,0,,19.2,14.4,74,101130,0,0,342,0,0,0,0,0,0,0,20,3.8,0,0,0,0,0,0,0,0,0,0,0,0,0
1991,9,17,1,0,,18.8,14.1,74,101090,0,0,340,0,0,0,0,0,0,0,20,4.2,0,0,0,0,0,0,0,0,0,0,0,0,0
1991,9,17,2,0,,18.7,13.9,74,101040,0,0,339,0,0,0,0,0,0,0,20,3,0,0,0,0,0,0,0,0,0,0,0,0,0
1991,9,17,3,0,,18.5,13.6,74,101000,0,0,338,0,0,0,0,0,0,0,20,3.7,0,0,0,0,0,0,0,0,0,0,0,0,0
1991,9,17,4,0,,18.2,13.7,75,100990,0,0,347,0,0,0,0,0,0,0,20,3.7,2,0,0,0,0,0,0,0,0,0,0,0,0
1991,9,17,5,0,,18.2,13.8,76,100970,0,0,354,0,0,0,0,0,0,0,20,3.7,4,0,0,0,0,0,0,0,0,0,0,0,0
1991,9,17,6,0,,18.1,13.9,77,100960,0,0,359,0,0,0,0,0,0,0,20,4.7,6,0,0,0,0,0,0,0,0,0,0,0,0
1991,9,17,7,0,,18.1,14.3,75,100950,0,0,362,41,16,26,4146,1395,3549,0,20,5.3,7,0,0,0,0,0,0,0,0,0,0,0,0
1991,9,17,8,0,,19.5,14.7,72,100940,0,0,373,157,240,92,27470,22406,14087,0,20,4.7,7,0,0,0,0,0,0,0,0,0,0,0,0
1991,9,17,9,0,,20.8,15.1,70,100930,0,0,385,255,163,180,34471,15187,23426,0,50,5,8,0,0,0,0,0,0,0,0,0,0,0,0
1991,9,17,10,0,,23,15.3,65,100890,0,0,392,435,269,266,53664,25083,33368,0,50,5.3,7,0,0,0,0,0,0,0,0,0,0,0,0
1991,9,17,11,0,,25.3,15.4,59,100840,0,0,401,560,297,338,64494,27513,41454,0,50,5.7,7,0,0,0,0,0,0,0,0,0,0,0,0
1991,9,17,12,0,,25.5,15.6,54,100800,0,0,400,647,324,382,70330,29858,46142,0,70,5,6,0,0,0,0,0,0,0,0,0,0,0,0
1991,9,17,13,0,,26,15.6,54,100710,0,0,400,690,460,305,70138,42582,39093,0,70,5.7,5,0,0,0,0,0,0,0,0,0,0,0,0
1991,9,17,14,0,,26,15.5,53,100630,0,0,398,621,315,369,60036,28330,43044,0,70,6,5,0,0,0,0,0,0,0,0,0,0,0,0
1991,9,17,15,0,,25.6,15.5,53,100540,0,0,394,564,448,247,46700,37605,30489,0,70,5.7,4,0,0,0,0,0,0,0,0,0,0,0,0
1991,9,17,16,0,,24.4,14.8,54,100520,0,0,389,412,333,223,30699,22295,25471,0,50,6.7,5,0,0,0,0,0,0,0,0,0,0,0,0
1991,9,17,17,0,,23.5,14.1,56,100500,0,0,387,248,267,143,14864,0,14864,0,50,5.3,6,0,0,0,0,0,0,0,0,0,0,0,0
1991,9,17,18,0,,22.4,13.4,57,100480,0,0,385,105,216,63,0,0,0,0,50,6.7,7,0,0,0,0,0,0,0,0,0,0,0,0
1991,9,17,19,0,,21.2,13.9,61,100490,0,0,378,16,4,13,0,0,0,0,20,6.7,7,0,0,0,0,0,0,0,0,0,0,0,0
1991,9,17,20,0,,20.8,14.5,66,100490,0,0,375,0,0,0,0,0,0,0,20,6,6,0,0,0,0,0,0,0,0,0,0,0,0
1991,9,17,21,0,,20.6,15,70,100500,0,0,373,0,0,0,0,0,0,0,20,6,6,0,0,0,0,0,0,0,0,0,0,0,0
1991,9,17,22,0,,20.4,15,71,100440,0,0,377,0,0,0,0,0,0,0,20,4.5,7,0,0,0,0,0,0,0,0,0,0,0,0
1991,9,17,23,0,,20.1,15.1,73,100390,0,0,381,0,0,0,0,0,0,0,20,6.3,8,0,0,0,0,0,0,0,0,0,0,0,0
1991,9,17,24,0,,20,15.1,74,100330,0,0,389,0,0,0,0,0,0,0,20,6,9,0,0,0,0,0,0,0,0,0,0,0,0
1991,9,18,1,0,,20.1,15.6,76,100280,0,0,390,0,0,0,0,0,0,0,20,4.7,9,0,0,0,0,0,0,0,0,0,0,0,0
1991,9,18,2,0,,20.2,16,77,100220,0,0,391,0,0,0,0,0,0,0,20,5,9,0,0,0,0,0,0,0,0,0,0,0,0
1991,9,18,3,0,,20.3,16.5,79,100170,0,0,392,0,0,0,0,0,0,0,20,5,9,0,0,0,0,0,0,0,0,0,0,0,0
1991,9,18,4,0,,20.4,16.5,79,100140,0,0,396,0,0,0,0,0,0,0,20,4,9,0,0,0,0,0,0,0,0,0,0,0,0
1991,9,18,5,0,,20.7,16.6,78,100100,0,0,401,0,0,0,0,0,0,0,20,5,10,0,0,0,0,0,0,0,0,0,0,0,0
1991,9,18,6,0,,20.6,16.6,78,100070,0,0,405,0,0,0,0,0,0,0,20,6,10,0,0,0,0,0,0,0,0,0,0,0,0
1991,9,18,7,0,,20.7,17.1,80,100050,0,0,406,17,1,16,2131,44,2112,0,20,3.7,10,0,0,0,0,0,0,0,0,0,0,0,0
1991,9,18,8,0,,21,17.7,81,100040,0,0,409,84,41,73,11837,3694,9641,0,20,5.7,10,0,0,0,0,0,0,0,0,0,0,0,0
1991,9,18,9,0,,21.2,18.2,83,100020,0,0,410,148,36,132,18034,3195,15720,0,20,6,10,0,0,0,0,0,0,0,0,0,0,0,0
1991,9,18,10,0,,22.2,18.4,80,99930,0,0,416,221,40,196,26059,3599,23158,0,20,5,10,0,0,0,0,0,0,0,0,0,0,0,0
1991,9,18,11,0,,22.9,18.5,76,99850,0,0,420,271,39,242,31381,3497,28465,0,20,6.3,10,0,0,0,0,0,0,0,0,0,0,0,0
1991,9,18,12,0,,23.6,18.7,73,99760,0,0,425,313,43,279,35676,3833,32586,0,20,6.3,10,0,0,0,0,0,0,0,0,0,0,0,0
1991,9,18,13,0,,23.5,18.7,73,99690,0,0,424,304,36,273,34208,3272,31837,0,20,6,10,0,0,0,0,0,0,0,0,0,0,0,0
1991,9,18,14,0,,23.5,18.7,73,99620,0,0,424,282,35,254,31317,3107,29468,0,20,6.3,10,0,0,0,0,0,0,0,0,0,0,0,0
1991,9,18,15,0,,23.8,18.7,73,99550,0,0,426,239,33,215,24605,2420,23574,0,20,5,10,0,0,0,0,0,0,0,0,0,0,0,0
1991,9,18,16,0,,23.6,18.5,74,99520,0,0,413,240,70,200,23849,5440,22601,0,20,5,9,0,0,0,0,0,0,0,0,0,0,0,0
1991,9,18,17,0,,23.4,18.4,75,99490,0,0,403,196,136,143,15422,8484,15268,0,20,5.3,8,0,0,0,0,0,0,0,0,0,0,0,0
1991,9,18,18,0,,22.7,18.2,76,99460,0,0,393,100,206,62,0,0,0,0,20,5.3,7,0,0,0,0,0,0,0,0,0,0,0,0
1991,9,18,19,0,,21.7,18.3,79,99460,0,0,381,19,7,12,0,0,0,0,20,6,5,0,0,0,0,0,0,0,0,0,0,0,0
1991,9,18,20,0,,21.2,18.3,82,99470,0,0,373,0,0,0,0,0,0,0,20,5.3,4,0,0,0,0,0,0,0,0,0,0,0,0
1991,9,18,21,0,,21.1,18.4,85,99470,0,0,367,0,0,0,0,0,0,0,20,5.3,2,0,0,0,0,0,0,0,0,0,0,0,0
1991,9,18,22,0,,20.9,18.3,85,99440,0,0,366,0,0,0,0,0,0,0,20,6,2,0,0,0,0,0,0,0,0,0,0,0,0
1991,9,18,23,0,,20.9,18.1,84,99400,0,0,366,0,0,0,0,0,0,0,20,5,2,0,0,0,0,0,0,0,0,0,0,0,0
1991,9,18,24,0,,20.8,18,84,99370,0,0,365,0,0,0,0,0,0,0,50,4.7,2,0,0,0,0,0,0,0,0,0,0,0,0
1991,9,19,1,0,,20.5,17.9,84,99310,0,0,366,0,0,0,0,0,0,0,20,4.2,3,0,0,0,0,0,0,0,0,0,0,0,0
1991,9,19,2,0,,20.5,17.9,85,99260,0,0,368,0,0,0,0,0,0,0,20,1.3,3,0,0,0,0,0,0,0,0,0,0,0,0
1991,9,19,3,0,,20.5,17.8,85,99200,0,0,370,0,0,0,0,0,0,0,50,2,4,0,0,0,0,0,0,0,0,0,0,0,0
1991,9,19,4,0,,20.1,17.6,86,99180,0,0,364,0,0,0,0,0,0,0,20,3.8,3,0,0,0,0,0,0,0,0,0,0,0,0
1991,9,19,5,0,,19.7,17.5,86,99160,0,0,356,0,0,0,0,0,0,0,20,4.5,1,0,0,0,0,0,0,0,0,0,0,0,0
1991,9,19,6,0,,19.4,17.3,87,99140,0,0,346,0,0,0,0,0,0,0,20,4.3,0,0,0,0,0,0,0,0,0,0,0,0,0
1991,9,19,7,0,,19.6,17.3,83,99150,0,0,347,52,26,27,4611,2222,3671,0,270,1.7,0,0,0,0,0,0,0,0,0,0,0,0,0
1991,9,19,8,0,,19.8,17.2,80,99170,0,0,348,201,492,71,40656,50720,10649,0,320,3.3,0,0,0,0,0,0,0,0,0,0,0,0,0
1991,9,19,9,0,,21.7,17.2,76,99180,0,0,357,374,554,121,57950,54966,18315,0,340,2.8,0,0,0,0,0,0,0,0,0,0,0,0,0
1991,9,19,10,0,,22.9,17.3,71,99170,0,0,376,525,566,174,69378,55783,24617,0,340,2.7,2,0,0,0,0,0,0,0,0,0,0,0,0
1991,9,19,11,0,,25.4,17.4,67,99150,0,0,397,595,448,263,69653,41332,35347,0,70,1.7,5,0,0,0,0,0,0,0,0,0,0,0,0
1991,9,19,12,0,,25.2,17.5,62,99140,0,0,405,538,191,383,59439,17365,45512,0,160,4.3,7,0,0,0,0,0,0,0,0,0,0,0,0
1991,9,19,13,0,,24.6,17.7,63,99110,0,0,399,577,217,397,60907,19439,46905,0,160,4.7,6,0,0,0,0,0,0,0,0,0,0,0,0
1991,9,19,14,0,,24.3,18,63,99090,0,0,395,504,175,366,52202,15313,43161,0,180,4.3,6,0,0,0,0,0,0,0,0,0,0,0,0
1991,9,19,15,0,,25.2,18.2,64,99060,0,0,398,531,331,300,46722,26929,35376,0,180,9.3,5,0,0,0,0,0,0,0,0,0,0,0,0
1991,9,19,16,0,,25.7,18,64,99080,0,0,395,459,533,161,27360,31524,20287,0,180,5.3,3,0,0,0,0,0,0,0,0,0,0,0,0
1991,9,19,17,0,,26.3,17.9,63,99090,0,0,392,325,622,87,9089,0,9089,0,200,4.7,2,0,0,0,0,0,0,0,0,0,0,0,0
1991,9,19,18,0,,25.2,17.7,63,99110,0,0,375,145,564,42,0,0,0,0,230,4.7,0,0,0,0,0,0,0,0,0,0,0,0,0
1991,9,19,19,0,,24,17.7,67,99170,0,0,369,22,11,10,0,0,0,0,290,3.5,0,0,0,0,0,0,0,0,0,0,0,0,0
1991,9,19,20,0,,22.7,17.7,71,99220,0,0,362,0,0,0,0,0,0,0,290,1.2,0,0,0,0,0,0,0,0,0,0,0,0,0
1991,9,19,21,0,,22.3,17.7,75,99280,0,0,360,0,0,0,0,0,0,0,250,3.7,0,0,0,0,0,0,0,0,0,0,0,0,0
1991,9,19,22,0,,21.9,16.4,72,99320,0,0,357,0,0,0,0,0,0,0,320,3.3,0,0,0,0,0,0,0,0,0,0,0,0,0
1991,9,19,23,0,,20.9,15.1,70,99370,0,0,351,0,0,0,0,0,0,0,340,4.7,0,0,0,0,0,0,0,0,0,0,0,0,0
1991,9,19,24,0,,20.1,13.8,67,99410,0,0,345,0,0,0,0,0,0,0,340,1.7,0,0,0,0,0,0,0,0,0,0,0,0,0
1991,9,20,1,0,,19.4,13,65,99440,0,0,341,0,0,0,0,0,0,0,320,2,0,0,0,0,0,0,0,0,0,0,0,0,0
1991,9,20,2,0,,19,12.3,64,99470,0,0,338,0,0,0,0,0,0,0,340,2.5,0,0,0,0,0,0,0,0,0,0,0,0,0
1991,9,20,3,0,,18.7,11.5,62,99500,0,0,336,0,0,0,0,0,0,0,340,2.3,0,0,0,0,0,0,0,0,0,0,0,0,0
1991,9,20,4,0,,18.3,10.7,60,99540,0,0,333,0,0,0,0,0,0,0,180,1.3,0,0,0,0,0,0,0,0,0,0,0,0,0
1991,9,20,5,0,,18.3,9.8,59,99580,0,0,332,0,0,0,0,0,0,0,290,2.7,0,0,0,0,0,0,0,0,0,0,0,0,0
1991,9,20,6,0,,17.6,9,57,99620,0,0,328,0,0,0,0,0,0,0,270,1.5,0,0,0,0,0,0,0,0,0,0,0,0,0
1991,9,20,7,0,,17.3,10.1,58,99660,0,0,341,53,29,25,4460,2654,3345,0,250,3.7,3,0,0,0,0,0,0,0,0,0,0,0,0
1991,9,20,8,0,,18.5,11.3,59,99690,0,0,356,176,342,87,33567,34004,13549,0,250,2.2,5,0,0,0,0,0,0,0,0,0,0,0,0
1991,9,20,9,0,,20.6,12.4,60,99730,0,0,380,256,175,177,34610,16739,22593,0,250,2.5,8,0,0,0,0,0,0,0,0,0,0,0,0
1991,9,20,10,0,,20.8,13.6,61,99720,0,0,375,407,232,264,50228,21989,32661,0,230,4.3,7,0,0,0,0,0,0,0,0,0,0,0,0
1991,9,20,11,0,,20.5,14.8,62,99720,0,0,370,562,316,329,64531,29605,40070,0,230,5,5,0,0,0,0,0,0,0,0,0,0,0,0
1991,9,20,12,0,,23.5,16,63,99710,0,0,383,666,466,289,72243,43405,37609,0,200,4.5,4,0,0,0,0,0,0,0,0,0,0,0,0
1991,9,20,13,0,,24.8,15.7,59,99680,0,0,387,752,635,228,74072,61238,30232,0,200,6,3,0,0,0,0,0,0,0,0,0,0,0,0
1991,9,20,14,0,,25.9,15.4,55,99660,0,0,388,773,783,157,66421,75286,22321,0,200,7.5,2,0,0,0,0,0,0,0,0,0,0,0,0
1991,9,20,15,0,,25.9,15.1,51,99630,0,0,383,660,742,145,48110,66705,20336,0,200,8.5,1,0,0,0,0,0,0,0,0,0,0,0,0
1991,9,20,16,0,,24.9,14.1,50,99650,0,0,374,501,683,121,26040,45803,15997,0,200,9.5,1,0,0,0,0,0,0,0,0,0,0,0,0
1991,9,20,17,0,,25,13.2,49,99680,0,0,371,319,615,86,8420,0,8420,0,230,6.3,0,0,0,0,0,0,0,0,0,0,0,0,0
1991,9,20,18,0,,23.8,12.2,48,99700,0,0,362,149,636,36,0,0,0,0,230,10.2,0,0,0,0,0,0,0,0,0,0,0,0,0
1991,9,20,19,0,,22.2,12.1,51,99810,0,0,354,21,13,9,0,0,0,0,230,6.7,0,0,0,0,0,0,0,0,0,0,0,0,0
1991,9,20,20,0,,21.2,12,53,99910,0,0,349,0,0,0,0,0,0,0,250,5,0,0,0,0,0,0,0,0,0,0,0,0,0
1991,9,20,21,0,,20.8,11.9,56,100020,0,0,347,0,0,0,0,0,0,0,250,5.3,0,0,0,0,0,0,0,0,0,0,0,0,0
1991,9,20,22,0,,19.9,11.7,58,100060,0,0,342,0,0,0,0,0,0,0,250,5,0,0,0,0,0,0,0,0,0,0,0,0,0
1991,9,20,23,0,,19.4,11.6,60,100100,0,0,340,0,0,0,0,0,0,0,270,4.5,0,0,0,0,0,0,0,0,0,0,0,0,0
1991,9,20,24,0,,19,11.4,62,100140,0,0,337,0,0,0,0,0,0,0,340,1.8,0,0,0,0,0,0,0,0,0,0,0,0,0
1991,9,21,1,0,,18.4,11.6,64,100170,0,0,335,0,0,0,0,0,0,0,340,1,0,0,0,0,0,0,0,0,0,0,0,0,0
1991,9,21,2,0,,17.7,11.7,67,100210,0,0,332,0,0,0,0,0,0,0,320,0.8,0,0,0,0,0,0,0,0,0,0,0,0,0
1991,9,21,3,0,,17.5,11.9,69,100240,0,0,331,0,0,0,0,0,0,0,290,2,0,0,0,0,0,0,0,0,0,0,0,0,0
1991,9,21,4,0,,17.3,11.9,70,100290,0,0,330,0,0,0,0,0,0,0,270,1.8,0,0,0,0,0,0,0,0,0,0,0,0,0
1991,9,21,5,0,,17,12,71,100330,0,0,329,0,0,0,0,0,0,0,340,1.5,0,0,0,0,0,0,0,0,0,0,0,0,0
1991,9,21,6,0,,17,12,72,100380,0,0,329,0,0,0,0,0,0,0,290,1.7,0,0,0,0,0,0,0,0,0,0,0,0,0
1991,9,21,7,0,,16.8,12.4,70,100420,0,0,328,53,30,24,4356,2705,3227,0,270,2.5,0,0,0,0,0,0,0,0,0,0,0,0,0
1991,9,21,8,0,,17.7,12.8,69,100470,0,0,333,207,554,63,42791,56944,9437,0,230,3.8,0,0,0,0,0,0,0,0,0,0,0,0,0
1991,9,21,9,0,,19.6,13.2,67,100510,0,0,342,389,629,104,60796,64766,14505,0,250,4.8,0,0,0,0,0,0,0,0,0,0,0,0,0
1991,9,21,10,0,,21.1,13.3,62,100520,0,0,350,562,695,136,74782,71393,17991,0,230,4,0,0,0,0,0,0,0,0,0,0,0,0,0
1991,9,21,11,0,,23.1,13.4,56,100520,0,0,359,708,758,151,83646,77728,19720,0,230,5.7,0,0,0,0,0,0,0,0,0,0,0,0,0
1991,9,21,12,0,,24,13.5,51,100530,0,0,364,753,685,201,80743,67636,27056,0,250,4,0,0,0,0,0,0,0,0,0,0,0,0,0
1991,9,21,13,0,,24.8,14.1,52,100510,0,0,378,779,707,198,75894,69033,26782,0,180,6.3,1,0,0,0,0,0,0,0,0,0,0,0,0
1991,9,21,14,0,,24.9,14.8,53,100480,0,0,385,678,559,240,61122,51124,31418,0,180,6.3,3,0,0,0,0,0,0,0,0,0,0,0,0
1991,9,21,15,0,,25.4,15.4,54,100460,0,0,393,578,532,211,46064,45117,27502,0,180,6.7,4,0,0,0,0,0,0,0,0,0,0,0,0
1991,9,21,16,0,,24.6,15.3,56,100510,0,0,389,431,471,172,27068,28442,20976,0,180,6,4,0,0,0,0,0,0,0,0,0,0,0,0
1991,9,21,17,0,,23.4,15.1,58,100560,0,0,384,261,364,125,12584,0,12584,0,180,5.3,5,0,0,0,0,0,0,0,0,0,0,0,0
1991,9,21,18,0,,23,15,60,100610,0,0,382,105,325,49,0,0,0,0,230,2.3,5,0,0,0,0,0,0,0,0,0,0,0,0
1991,9,21,19,0,,22.3,14.7,63,100670,0,0,375,15,5,10,0,0,0,0,250,1.7,4,0,0,0,0,0,0,0,0,0,0,0,0
1991,9,21,20,0,,21.2,14.5,65,100730,0,0,367,0,0,0,0,0,0,0,20,2.7,3,0,0,0,0,0,0,0,0,0,0,0,0
1991,9,21,21,0,,20.4,14.2,68,100790,0,0,359,0,0,0,0,0,0,0,20,3.3,2,0,0,0,0,0,0,0,0,0,0,0,0
1991,9,21,22,0,,19.8,14.3,70,100820,0,0,353,0,0,0,0,0,0,0,20,2.7,1,0,0,0,0,0,0,0,0,0,0,0,0
1991,9,21,23,0,,19.7,14.5,72,100840,0,0,349,0,0,0,0,0,0,0,20,3.3,1,0,0,0,0,0,0,0,0,0,0,0,0
1991,9,21,24,0,,19.4,14.6,74,100870,0,0,343,0,0,0,0,0,0,0,20,3.7,0,0,0,0,0,0,0,0,0,0,0,0,0
1991,9,22,1,0,,19.1,14.7,75,100880,0,0,342,0,0,0,0,0,0,0,20,3.5,0,0,0,0,0,0,0,0,0,0,0,0,0
1991,9,22,2,0,,18.8,14.7,77,100900,0,0,340,0,0,0,0,0,0,0,20,3.2,0,0,0,0,0,0,0,0,0,0,0,0,0
1991,9,22,3,0,,18.6,14.8,78,100910,0,0,339,0,0,0,0,0,0,0,20,3.8,0,0,0,0,0,0,0,0,0,0,0,0,0
1991,9,22,4,0,,18.4,14.9,80,100930,0,0,343,0,0,0,0,0,0,0,20,4,1,0,0,0,0,0,0,0,0,0,0,0,0
1991,9,22,5,0,,18.3,15,81,100940,0,0,347,0,0,0,0,0,0,0,20,3.5,1,0,0,0,0,0,0,0,0,0,0,0,0
1991,9,22,6,0,,17.9,15.1,83,100960,0,0,348,0,0,0,0,0,0,0,20,4.8,2,0,0,0,0,0,0,0,0,0,0,0,0
1991,9,22,7,0,,17.6,15.4,81,101000,0,0,351,49,24,25,4370,2111,3496,0,20,4.2,3,0,0,0,0,0,0,0,0,0,0,0,0
1991,9,22,8,0,,18.5,15.6,78,101030,0,0,359,171,329,86,32616,32421,13722,0,20,5,5,0,0,0,0,0,0,0,0,0,0,0,0
1991,9,22,9,0,,20.3,15.9,76,101070,0,0,373,314,348,157,45692,32461,22596,0,20,4.5,6,0,0,0,0,0,0,0,0,0,0,0,0
1991,9,22,10,0,,22.7,16.2,72,101060,0,0,388,420,265,258,52035,24420,32697,0,20,4,7,0,0,0,0,0,0,0,0,0,0,0,0
1991,9,22,11,0,,24,16.6,68,101060,0,0,399,504,233,334,58723,21281,41303,0,20,2.8,7,0,0,0,0,0,0,0,0,0,0,0,0
1991,9,22,12,0,,24.1,16.9,64,101050,0,0,405,462,131,358,51974,11970,42523,0,50,3.5,8,0,0,0,0,0,0,0,0,0,0,0,0
1991,9,22,13,0,,24.6,16.6,63,101010,0,0,410,454,116,359,48805,10762,41197,0,50,3.8,8,0,0,0,0,0,0,0,0,0,0,0,0
1991,9,22,14,0,,24.9,16.2,63,100970,0,0,414,377,83,313,40179,7640,35776,0,90,5.2,9,0,0,0,0,0,0,0,0,0,0,0,0
1991,9,22,15,0,,23.6,15.9,62,100930,0,0,409,310,74,259,32090,6622,29399,0,50,6.3,9,0,0,0,0,0,0,0,0,0,0,0,0
1991,9,22,16,0,,23,15.9,65,100940,0,0,406,223,65,188,22161,5026,21110,0,70,5.3,9,0,0,0,0,0,0,0,0,0,0,0,0
1991,9,22,17,0,,22.2,15.9,67,100950,0,0,402,139,61,116,0,0,0,0,50,5.2,9,0,0,0,0,0,0,0,0,0,0,0,0
1991,9,22,18,0,,21.8,15.9,70,100960,0,0,399,60,68,49,0,0,0,0,20,4.5,9,0,0,0,0,0,0,0,0,0,0,0,0
1991,9,22,19,0,,20.9,15.9,73,100990,0,0,380,9,1,7,0,0,0,0,20,4.3,7,0,0,0,0,0,0,0,0,0,0,0,0
1991,9,22,20,0,,20.3,16,75,101020,0,0,370,0,0,0,0,0,0,0,20,5,5,0,0,0,0,0,0,0,0,0,0,0,0
1991,9,22,21,0,,19.9,16,78,101050,0,0,362,0,0,0,0,0,0,0,20,4.3,3,0,0,0,0,0,0,0,0,0,0,0,0
1991,9,22,22,0,,19.5,15.9,79,101060,0,0,356,0,0,0,0,0,0,0,20,4.5,2,0,0,0,0,0,0,0,0,0,0,0,0
1991,9,22,23,0,,19.2,15.9,80,101060,0,0,350,0,0,0,0,0,0,0,20,4.2,1,0,0,0,0,0,0,0,0,0,0,0,0
1991,9,22,24,0,,19.1,15.8,81,101070,0,0,343,0,0,0,0,0,0,0,360,4.5,0,0,0,0,0,0,0,0,0,0,0,0,0
1991,9,23,1,0,,18.9,15.5,80,101030,0,0,353,0,0,0,0,0,0,0,20,3.7,2,0,0,0,0,0,0,0,0,0,0,0,0
1991,9,23,2,0,,18.7,15.2,80,100980,0,0,358,0,0,0,0,0,0,0,20,4.2,4,0,0,0,0,0,0,0,0,0,0,0,0
1991,9,23,3,0,,18.5,14.9,79,100940,0,0,362,0,0,0,0,0,0,0,20,2.5,6,0,0,0,0,0,0,0,0,0,0,0,0
1991,9,23,4,0,,18.4,14.8,79,100940,0,0,361,0,0,0,0,0,0,0,20,3.3,6,0,0,0,0,0,0,0,0,0,0,0,0
1991,9,23,5,0,,18.4,14.8,79,100930,0,0,360,0,0,0,0,0,0,0,20,3,5,0,0,0,0,0,0,0,0,0,0,0,0
1991,9,23,6,0,,18.3,14.7,79,100930,0,0,358,0,0,0,0,0,0,0,20,4.3,5,0,0,0,0,0,0,0,0,0,0,0,0
1991,9,23,7,0,,18.3,15,77,100940,0,0,358,44,23,21,3714,2056,2867,0,20,3.5,5,0,0,0,0,0,0,0,0,0,0,0,0
1991,9,23,8,0,,18.9,15.3,74,100960,0,0,362,172,351,83,33310,34577,13265,0,20,4.8,5,0,0,0,0,0,0,0,0,0,0,0,0
1991,9,23,9,0,,20.9,15.6,72,100970,0,0,372,337,444,138,51435,43987,20283,0,20,4.3,5,0,0,0,0,0,0,0,0,0,0,0,0
1991,9,23,10,0,,22.3,15.6,68,100960,0,0,385,407,244,258,50384,22668,32514,0,50,4.2,7,0,0,0,0,0,0,0,0,0,0,0,0
1991,9,23,11,0,,23.2,15.5,63,100950,0,0,401,460,181,328,52833,16910,39058,0,70,6.2,8,0,0,0,0,0,0,0,0,0,0,0,0
1991,9,23,12,0,,24,15.5,59,100940,0,0,423,318,48,280,35992,4424,32517,0,70,3.7,10,0,0,0,0,0,0,0,0,0,0,0,0
1991,9,23,13,0,,23.6,15.3,60,100900,0,0,420,299,38,268,33478,3489,31027,0,70,4,10,0,0,0,0,0,0,0,0,0,0,0,0
1991,9,23,14,0,,22.6,15.1,62,100870,0,0,414,256,29,234,28457,2687,26922,0,70,3.8,10,0,0,0,0,0,0,0,0,0,0,0,0
1991,9,23,15,0,,22,14.9,63,100830,0,0,411,219,29,199,22724,2155,21859,0,50,4.5,10,0,0,0,0,0,0,0,0,0,0,0,0
1991,9,23,16,0,,21.4,15.1,66,100820,0,0,403,162,27,147,15671,1561,15352,0,70,3.5,10,0,0,0,0,0,0,0,0,0,0,0,0
1991,9,23,17,0,,21.2,15.3,68,100800,0,0,399,137,62,115,0,0,0,0,50,3,9,0,0,0,0,0,0,0,0,0,0,0,0
1991,9,23,18,0,,21.1,15.5,71,100790,0,0,395,60,74,48,0,0,0,0,50,4.8,9,0,0,0,0,0,0,0,0,0,0,0,0
1991,9,23,19,0,,20.6,15.5,73,100800,0,0,387,5,0,5,0,0,0,0,50,3.3,8,0,0,0,0,0,0,0,0,0,0,0,0
1991,9,23,20,0,,20,15.6,75,100810,0,0,379,0,0,0,0,0,0,0,20,4,8,0,0,0,0,0,0,0,0,0,0,0,0
1991,9,23,21,0,,19.8,15.6,77,100820,0,0,374,0,0,0,0,0,0,0,20,3.2,7,0,0,0,0,0,0,0,0,0,0,0,0
1991,9,23,22,0,,19.6,15.7,78,100810,0,0,373,0,0,0,0,0,0,0,20,2.3,7,0,0,0,0,0,0,0,0,0,0,0,0
1991,9,23,23,0,,19.6,15.8,78,100800,0,0,373,0,0,0,0,0,0,0,360,4.5,7,0,0,0,0,0,0,0,0,0,0,0,0
1991,9,23,24,0,,19.7,15.9,79,100790,0,0,374,0,0,0,0,0,0,0,20,3.2,7,0,0,0,0,0,0,0,0,0,0,0,0
1991,9,24,1,0,,19.3,15.8,80,100770,0,0,374,0,0,0,0,0,0,0,20,3.7,7,0,0,0,0,0,0,0,0,0,0,0,0
1991,9,24,2,0,,19,15.6,81,100760,0,0,374,0,0,0,0,0,0,0,320,0.5,8,0,0,0,0,0,0,0,0,0,0,0,0
1991,9,24,3,0,,18.6,15.5,82,100740,0,0,374,0,0,0,0,0,0,0,360,2.3,8,0,0,0,0,0,0,0,0,0,0,0,0
1991,9,24,4,0,,18.6,15.5,83,100720,0,0,370,0,0,0,0,0,0,0,290,0.3,7,0,0,0,0,0,0,0,0,0,0,0,0
1991,9,24,5,0,,18.3,15.4,83,100710,0,0,365,0,0,0,0,0,0,0,320,3.7,7,0,0,0,0,0,0,0,0,0,0,0,0
1991,9,24,6,0,,18.1,15.4,84,100690,0,0,361,0,0,0,0,0,0,0,250,1,6,0,0,0,0,0,0,0,0,0,0,0,0
1991,9,24,7,0,,17.8,15.7,83,100730,0,0,361,34,11,23,3226,934,2844,0,230,0.3,6,0,0,0,0,0,0,0,0,0,0,0,0
1991,9,24,8,0,,18.3,16.1,81,100760,0,0,366,125,151,87,20005,13629,12146,0,0,0.2,7,0,0,0,0,0,0,0,0,0,0,0,0
1991,9,24,9,0,,19.9,16.4,80,100800,0,0,376,245,166,171,33307,15205,22590,0,70,0.3,7,0,0,0,0,0,0,0,0,0,0,0,0
1991,9,24,10,0,,22.1,16.4,75,100780,0,0,389,384,209,257,47711,19186,32656,0,140,0.7,7,0,0,0,0,0,0,0,0,0,0,0,0
1991,9,24,11,0,,23,16.3,69,100770,0,0,396,422,144,318,48830,13341,38014,0,180,2.2,8,0,0,0,0,0,0,0,0,0,0,0,0
1991,9,24,12,0,,23.6,16.3,64,100750,0,0,401,456,130,353,51182,11954,41846,0,180,3.3,8,0,0,0,0,0,0,0,0,0,0,0,0
1991,9,24,13,0,,23.7,16.3,63,100720,0,0,402,448,116,354,48116,10743,40619,0,200,3.7,8,0,0,0,0,0,0,0,0,0,0,0,0
1991,9,24,14,0,,23.4,16.3,62,100690,0,0,400,390,94,317,41165,8676,36248,0,90,1.8,8,0,0,0,0,0,0,0,0,0,0,0,0
1991,9,24,15,0,,24.3,16.3,61,100660,0,0,405,363,120,281,36132,10743,31873,0,180,2.7,8,0,0,0,0,0,0,0,0,0,0,0,0
1991,9,24,16,0,,23.7,16,62,100660,0,0,404,269,115,207,24905,8923,23131,0,180,2.3,8,0,0,0,0,0,0,0,0,0,0,0,0
1991,9,24,17,0,,23.6,15.8,63,100650,0,0,406,147,78,119,0,0,0,0,180,2.2,9,0,0,0,0,0,0,0,0,0,0,0,0
1991,9,24,18,0,,22.6,15.5,64,100650,0,0,403,55,63,45,0,0,0,0,180,2.8,9,0,0,0,0,0,0,0,0,0,0,0,0
1991,9,24,19,0,,21.9,15.5,66,100700,0,0,399,1,0,1,0,0,0,0,110,1.2,9,0,0,0,0,0,0,0,0,0,0,0,0
1991,9,24,20,0,,21.5,15.4,68,100740,0,0,397,0,0,0,0,0,0,0,90,1,9,0,0,0,0,0,0,0,0,0,0,0,0
1991,9,24,21,0,,21.2,15.4,70,100790,0,0,396,0,0,0,0,0,0,0,0,0.2,9,0,0,0,0,0,0,0,0,0,0,0,0
1991,9,24,22,0,,20.8,15.6,72,100790,0,0,394,0,0,0,0,0,0,0,0,0,9,0,0,0,0,0,0,0,0,0,0,0,0
1991,9,24,23,0,,20.6,15.8,75,100790,0,0,393,0,0,0,0,0,0,0,90,1,9,0,0,0,0,0,0,0,0,0,0,0,0
1991,9,24,24,0,,20.2,16,77,100790,0,0,391,0,0,0,0,0,0,0,0,0.2,9,0,0,0,0,0,0,0,0,0,0,0,0
1991,9,25,1,0,,19.9,16.1,79,100800,0,0,393,0,0,0,0,0,0,0,90,0.3,9,0,0,0,0,0,0,0,0,0,0,0,0
1991,9,25,2,0,,19.7,16.3,81,100820,0,0,395,0,0,0,0,0,0,0,90,0.3,10,0,0,0,0,0,0,0,0,0,0,0,0
1991,9,25,3,0,,19.4,16.4,83,100830,0,0,398,0,0,0,0,0,0,0,90,0.5,10,0,0,0,0,0,0,0,0,0,0,0,0
1991,9,25,4,0,,19.4,16.6,84,100850,0,0,398,0,0,0,0,0,0,0,90,1.5,10,0,0,0,0,0,0,0,0,0,0,0,0
1991,9,25,5,0,,19.3,16.7,85,100860,0,0,398,0,0,0,0,0,0,0,0,0.2,10,0,0,0,0,0,0,0,0,0,0,0,0
1991,9,25,6,0,,19.4,16.9,86,100880,0,0,399,0,0,0,0,0,0,0,320,2.2,10,0,0,0,0,0,0,0,0,0,0,0,0
1991,9,25,7,0,,19.1,17.5,89,100900,0,0,398,11,0,11,1444,12,1439,0,20,2.2,10,0,0,0,0,0,0,0,0,0,0,0,0
1991,9,25,8,0,,19.1,18.1,91,100910,0,0,399,58,18,54,7464,1567,6565,0,20,3,10,0,0,0,0,0,0,0,0,0,0,0,0
1991,9,25,9,0,,19.7,18.7,94,100930,0,0,403,115,20,106,14000,1783,12749,0,20,3.3,10,0,0,0,0,0,0,0,0,0,0,0,0
1991,9,25,10,0,,20.6,18.4,89,100940,0,0,407,191,30,173,22570,2676,20480,0,50,3,10,0,0,0,0,0,0,0,0,0,0,0,0
1991,9,25,11,0,,21.3,18,83,100960,0,0,411,260,38,232,30057,3464,27262,0,50,5.2,10,0,0,0,0,0,0,0,0,0,0,0,0
1991,9,25,12,0,,21.8,17.7,78,100970,0,0,413,298,41,265,33866,3736,30965,0,50,6,10,0,0,0,0,0,0,0,0,0,0,0,0
1991,9,25,13,0,,21.8,17.4,76,100940,0,0,413,275,31,250,31048,2817,29095,0,50,4.5,10,0,0,0,0,0,0,0,0,0,0,0,0
1991,9,25,14,0,,22.4,17.1,73,100900,0,0,416,272,36,244,30007,3229,28193,0,50,5,10,0,0,0,0,0,0,0,0,0,0,0,0
1991,9,25,15,0,,22.4,16.8,71,100870,0,0,415,227,34,204,23222,2463,22258,0,50,4.7,10,0,0,0,0,0,0,0,0,0,0,0,0
1991,9,25,16,0,,21.6,17.1,77,100900,0,0,411,173,35,154,16295,2025,15903,0,20,5.7,10,0,0,0,0,0,0,0,0,0,0,0,0
1991,9,25,17,0,,20.5,17.3,83,100940,0,0,405,93,23,85,0,0,0,0,20,4,10,0,0,0,0,0,0,0,0,0,0,0,0
1991,9,25,18,0,,19.4,17.6,89,100970,0,0,400,31,14,29,0,0,0,0,20,5.7,10,0,0,0,0,0,0,0,0,0,0,0,0
1991,9,25,19,0,,18.8,17.2,88,100990,0,0,396,0,0,0,0,0,0,0,20,4.8,10,0,0,0,0,0,0,0,0,0,0,0,0
1991,9,25,20,0,,18.8,16.8,86,101020,0,0,396,0,0,0,0,0,0,0,20,3.2,10,0,0,0,0,0,0,0,0,0,0,0,0
1991,9,25,21,0,,18.9,16.4,85,101040,0,0,395,0,0,0,0,0,0,0,20,3.3,10,0,0,0,0,0,0,0,0,0,0,0,0
1991,9,25,22,0,,18.8,16.4,85,101000,0,0,395,0,0,0,0,0,0,0,20,4.2,10,0,0,0,0,0,0,0,0,0,0,0,0
1991,9,25,23,0,,18.8,16.3,85,100970,0,0,395,0,0,0,0,0,0,0,20,4.8,10,0,0,0,0,0,0,0,0,0,0,0,0
1991,9,25,24,0,,18.9,16.3,85,100930,0,0,395,0,0,0,0,0,0,0,20,5.2,10,0,0,0,0,0,0,0,0,0,0,0,0
1991,9,26,1,0,,18.9,16.3,85,100900,0,0,395,0,0,0,0,0,0,0,20,5,10,0,0,0,0,0,0,0,0,0,0,0,0
1991,9,26,2,0,,18.9,16.3,85,100860,0,0,395,0,0,0,0,0,0,0,20,3.3,10,0,0,0,0,0,0,0,0,0,0,0,0
1991,9,26,3,0,,18.9,16.3,85,100830,0,0,395,0,0,0,0,0,0,0,20,5.2,10,0,0,0,0,0,0,0,0,0,0,0,0
1991,9,26,4,0,,18.8,16.2,84,100830,0,0,395,0,0,0,0,0,0,0,20,4.3,10,0,0,0,0,0,0,0,0,0,0,0,0
1991,9,26,5,0,,18.9,16.1,82,100820,0,0,395,0,0,0,0,0,0,0,20,4.5,10,0,0,0,0,0,0,0,0,0,0,0,0
1991,9,26,6,0,,19.3,16,81,100820,0,0,397,0,0,0,0,0,0,0,20,5,10,0,0,0,0,0,0,0,0,0,0,0,0
1991,9,26,7,0,,19.3,16.6,81,100810,0,0,398,15,1,14,1882,38,1866,0,20,5,10,0,0,0,0,0,0,0,0,0,0,0,0
1991,9,26,8,0,,19.4,17.1,81,100790,0,0,399,70,31,62,9821,2806,8220,0,20,3.5,10,0,0,0,0,0,0,0,0,0,0,0,0
1991,9,26,9,0,,21,17.7,81,100780,0,0,409,147,41,129,17944,3687,15370,0,50,4.5,10,0,0,0,0,0,0,0,0,0,0,0,0
1991,9,26,10,0,,22.7,18,78,100730,0,0,419,240,58,205,28210,5170,24192,0,50,6,10,0,0,0,0,0,0,0,0,0,0,0,0
1991,9,26,11,0,,23.2,18.4,74,100690,0,0,422,305,61,262,35035,5498,30622,0,70,7.3,10,0,0,0,0,0,0,0,0,0,0,0,0
1991,9,26,12,0,,24.2,18.7,71,100640,0,0,428,327,54,285,36976,4875,33210,0,70,6.7,10,0,0,0,0,0,0,0,0,0,0,0,0
1991,9,26,13,0,,23.9,18.7,71,100580,0,0,422,295,38,264,33114,3429,30753,0,50,6.5,10,0,0,0,0,0,0,0,0,0,0,0,0
1991,9,26,14,0,,23.8,18.7,71,100520,0,0,418,336,65,287,36290,5874,33019,0,70,5.7,9,0,0,0,0,0,0,0,0,0,0,0,0
1991,9,26,15,0,,24.2,18.7,71,100460,0,0,416,292,70,246,30447,6010,28125,0,70,5.7,9,0,0,0,0,0,0,0,0,0,0,0,0
1991,9,26,16,0,,23.7,18.7,73,100430,0,0,417,224,73,185,21860,5410,20839,0,70,4.7,9,0,0,0,0,0,0,0,0,0,0,0,0
1991,9,26,17,0,,23,18.6,76,100410,0,0,417,99,29,89,0,0,0,0,50,4.7,10,0,0,0,0,0,0,0,0,0,0,0,0
1991,9,26,18,0,,22.6,18.6,78,100380,0,0,419,36,3,33,0,0,0,0,20,5,10,0,0,0,0,0,0,0,0,0,0,0,0
1991,9,26,19,0,,21.8,19.1,83,100370,0,0,415,0,0,0,0,0,0,0,20,3.8,10,0,0,0,0,0,0,0,0,0,0,0,0
1991,9,26,20,0,,21.4,19.7,89,100350,0,0,414,0,0,0,0,0,0,0,20,4,10,0,0,0,0,0,0,0,0,0,0,0,0
1991,9,26,21,0,,21.2,20.2,94,100340,0,0,413,0,0,0,0,0,0,0,20,4,10,0,0,0,0,0,0,0,0,0,0,0,0
1991,9,26,22,0,,21.2,20.2,94,100280,0,0,413,0,0,0,0,0,0,0,20,4,10,0,0,0,0,0,0,0,0,0,0,0,0
1991,9,26,23,0,,21.3,20.3,93,100230,0,0,414,0,0,0,0,0,0,0,20,2.8,10,0,0,0,0,0,0,0,0,0,0,0,0
1991,9,26,24,0,,21.4,20.3,93,100170,0,0,415,0,0,0,0,0,0,0,20,3.2,10,0,0,0,0,0,0,0,0,0,0,0,0
1991,9,27,1,0,,21.6,20.3,92,100140,0,0,416,0,0,0,0,0,0,0,90,2.3,10,0,0,0,0,0,0,0,0,0,0,0,0
1991,9,27,2,0,,21.8,20.4,92,100110,0,0,417,0,0,0,0,0,0,0,70,3.2,10,0,0,0,0,0,0,0,0,0,0,0,0
1991,9,27,3,0,,22,20.4,91,100080,0,0,418,0,0,0,0,0,0,0,50,2.8,10,0,0,0,0,0,0,0,0,0,0,0,0
1991,9,27,4,0,,22.2,20.8,92,99970,0,0,420,0,0,0,0,0,0,0,50,2.3,10,0,0,0,0,0,0,0,0,0,0,0,0
1991,9,27,5,0,,22.4,21.3,94,99870,0,0,421,0,0,0,0,0,0,0,50,2.7,10,0,0,0,0,0,0,0,0,0,0,0,0
1991,9,27,6,0,,22.6,21.7,95,99760,0,0,423,0,0,0,0,0,0,0,90,3,10,0,0,0,0,0,0,0,0,0,0,0,0
1991,9,27,7,0,,22.7,21.6,95,99690,0,0,424,13,1,12,1615,18,1608,0,90,3.7,10,0,0,0,0,0,0,0,0,0,0,0,0
1991,9,27,8,0,,22.6,21.6,94,99620,0,0,423,64,25,58,8270,2093,7082,0,70,3.3,10,0,0,0,0,0,0,0,0,0,0,0,0
1991,9,27,9,0,,22.5,21.5,94,99550,0,0,422,124,26,113,15142,2226,13596,0,70,4.8,10,0,0,0,0,0,0,0,0,0,0,0,0
1991,9,27,10,0,,22.8,21.7,94,99420,0,0,424,173,24,159,20613,2026,19046,0,50,5.7,10,0,0,0,0,0,0,0,0,0,0,0,0
1991,9,27,11,0,,22.8,22,95,99300,0,0,425,213,23,197,25044,1971,23470,0,20,6,10,0,0,0,0,0,0,0,0,0,0,0,0
1991,9,27,12,0,,23,22.2,95,99170,0,0,426,238,23,220,27682,1971,26168,0,50,6.7,10,0,0,0,0,0,0,0,0,0,0,0,0
1991,9,27,13,0,,23.1,20.9,95,98850,0,0,425,266,29,243,30269,2568,28513,0,50,6.7,10,0,0,0,0,0,0,0,0,0,0,0,0
1991,9,27,14,0,,21.7,19.7,94,98520,0,0,415,257,32,233,28594,2798,27049,0,360,11.3,10,0,0,0,0,0,0,0,0,0,0,0,0
1991,9,27,15,0,,19.5,18.4,94,98200,0,0,401,194,23,179,20202,1511,19626,0,360,11.7,10,0,0,0,0,0,0,0,0,0,0,0,0
1991,9,27,16,0,,18.9,18,94,98090,0,0,398,163,31,147,15395,1700,15083,0,360,16.7,10,0,0,0,0,0,0,0,0,0,0,0,0
1991,9,27,17,0,,19,17.7,95,97980,0,0,398,89,22,82,0,0,0,0,360,8.7,10,0,0,0,0,0,0,0,0,0,0,0,0
1991,9,27,18,0,,18.1,17.3,95,97870,0,0,393,43,6,37,0,0,0,0,360,13.3,10,0,0,0,0,0,0,0,0,0,0,0,0
1991,9,27,19,0,,18.1,17,93,98150,0,0,392,0,0,0,0,0,0,0,360,7.7,10,0,0,0,0,0,0,0,0,0,0,0,0
1991,9,27,20,0,,18.2,16.7,92,98430,0,0,392,0,0,0,0,0,0,0,270,7.7,10,0,0,0,0,0,0,0,0,0,0,0,0
1991,9,27,21,0,,18.1,16.4,90,98710,0,0,391,0,0,0,0,0,0,0,270,2.7,10,0,0,0,0,0,0,0,0,0,0,0,0
1991,9,27,22,0,,18.3,15.9,86,98940,0,0,388,0,0,0,0,0,0,0,270,5.7,10,0,0,0,0,0,0,0,0,0,0,0,0
1991,9,27,23,0,,18.4,15.4,82,99180,0,0,384,0,0,0,0,0,0,0,270,3.3,9,0,0,0,0,0,0,0,0,0,0,0,0
1991,9,27,24,0,,18.7,14.9,78,99410,0,0,382,0,0,0,0,0,0,0,110,0.8,9,0,0,0,0,0,0,0,0,0,0,0,0
1991,9,28,1,0,,18.6,14.8,79,99540,0,0,363,0,0,0,0,0,0,0,290,3.8,6,0,0,0,0,0,0,0,0,0,0,0,0
1991,9,28,2,0,,18.5,14.6,79,99670,0,0,353,0,0,0,0,0,0,0,290,1.3,3,0,0,0,0,0,0,0,0,0,0,0,0
1991,9,28,3,0,,18,14.5,80,99800,0,0,336,0,0,0,0,0,0,0,290,4.3,0,0,0,0,0,0,0,0,0,0,0,0,0
1991,9,28,4,0,,17.3,13.7,76,99880,0,0,332,0,0,0,0,0,0,0,340,2,0,0,0,0,0,0,0,0,0,0,0,0,0
1991,9,28,5,0,,17.2,12.9,73,99960,0,0,331,0,0,0,0,0,0,0,340,3.3,0,0,0,0,0,0,0,0,0,0,0,0,0
1991,9,28,6,0,,17.7,12.1,69,100040,0,0,332,0,0,0,0,0,0,0,320,9.3,0,0,0,0,0,0,0,0,0,0,0,0,0
1991,9,28,7,0,,17.7,12.1,67,100150,0,0,332,48,28,20,4067,2476,3083,0,20,3,0,0,0,0,0,0,0,0,0,0,0,0,0
1991,9,28,8,0,,17.9,12.2,66,100270,0,0,333,196,587,55,41863,59825,8116,0,320,5.8,0,0,0,0,0,0,0,0,0,0,0,0,0
1991,9,28,9,0,,19.2,12.2,64,100380,0,0,339,364,603,103,57204,61845,14455,0,320,3.2,0,0,0,0,0,0,0,0,0,0,0,0,0
1991,9,28,10,0,,19.8,11.7,58,100430,0,0,342,515,615,151,68745,61569,21348,0,320,3.5,0,0,0,0,0,0,0,0,0,0,0,0,0
1991,9,28,11,0,,21.1,11.1,53,100490,0,0,347,642,648,181,75993,64596,24670,0,320,3.3,0,0,0,0,0,0,0,0,0,0,0,0,0
1991,9,28,12,0,,22.2,10.6,47,100540,0,0,352,714,656,202,76458,64932,26873,0,320,4,0,0,0,0,0,0,0,0,0,0,0,0,0
1991,9,28,13,0,,23,10.8,46,100520,0,0,363,709,608,226,68909,58223,29359,0,70,2,1,0,0,0,0,0,0,0,0,0,0,0,0
1991,9,28,14,0,,23.7,11,44,100490,0,0,372,671,620,205,58404,57863,26742,0,340,3,2,0,0,0,0,0,0,0,0,0,0,0,0
1991,9,28,15,0,,24.4,11.2,43,100470,0,0,379,566,584,182,42190,50024,23364,0,270,2.7,3,0,0,0,0,0,0,0,0,0,0,0,0
1991,9,28,16,0,,24.3,10.8,44,100480,0,0,378,440,605,128,22454,36962,15861,0,320,3.3,3,0,0,0,0,0,0,0,0,0,0,0,0
1991,9,28,17,0,,23.9,10.3,44,100490,0,0,375,274,564,83,0,0,0,0,340,2.5,3,0,0,0,0,0,0,0,0,0,0,0,0
1991,9,28,18,0,,22.3,9.9,45,100500,0,0,367,101,65,36,0,0,0,0,340,4.5,3,0,0,0,0,0,0,0,0,0,0,0,0
1991,9,28,19,0,,20.7,10.4,50,100610,0,0,359,0,0,0,0,0,0,0,340,1.5,3,0,0,0,0,0,0,0,0,0,0,0,0
1991,9,28,20,0,,19.7,10.8,55,100710,0,0,355,0,0,0,0,0,0,0,50,2.5,3,0,0,0,0,0,0,0,0,0,0,0,0
1991,9,28,21,0,,19.4,11.3,60,100820,0,0,354,0,0,0,0,0,0,0,20,1.5,3,0,0,0,0,0,0,0,0,0,0,0,0
1991,9,28,22,0,,18.7,10.7,60,100830,0,0,350,0,0,0,0,0,0,0,50,2.2,3,0,0,0,0,0,0,0,0,0,0,0,0
1991,9,28,23,0,,18.2,10.1,60,100850,0,0,347,0,0,0,0,0,0,0,50,2.3,3,0,0,0,0,0,0,0,0,0,0,0,0
1991,9,28,24,0,,17.4,9.5,60,100860,0,0,342,0,0,0,0,0,0,0,20,3,3,0,0,0,0,0,0,0,0,0,0,0,0
1991,9,29,1,0,,17.2,9.6,61,100870,0,0,343,0,0,0,0,0,0,0,320,1,4,0,0,0,0,0,0,0,0,0,0,0,0
1991,9,29,2,0,,17.1,9.8,62,100890,0,0,344,0,0,0,0,0,0,0,200,1.7,4,0,0,0,0,0,0,0,0,0,0,0,0
1991,9,29,3,0,,16.9,9.9,63,100900,0,0,345,0,0,0,0,0,0,0,200,1.3,5,0,0,0,0,0,0,0,0,0,0,0,0
1991,9,29,4,0,,16.3,10.1,65,100940,0,0,341,0,0,0,0,0,0,0,180,0.5,4,0,0,0,0,0,0,0,0,0,0,0,0
1991,9,29,5,0,,16.2,10.3,67,100970,0,0,339,0,0,0,0,0,0,0,180,0.8,4,0,0,0,0,0,0,0,0,0,0,0,0
1991,9,29,6,0,,16.2,10.5,69,101010,0,0,338,0,0,0,0,0,0,0,160,0.5,3,0,0,0,0,0,0,0,0,0,0,0,0
1991,9,29,7,0,,16,11.4,68,101020,0,0,340,40,22,18,3237,1995,2450,0,0,0.2,4,0,0,0,0,0,0,0,0,0,0,0,0
1991,9,29,8,0,,17.1,12.4,68,101040,0,0,348,166,387,74,33379,38358,11864,0,0,0.2,4,0,0,0,0,0,0,0,0,0,0,0,0
1991,9,29,9,0,,19.7,13.3,67,101050,0,0,363,316,414,138,48249,41125,19967,0,70,1.2,5,0,0,0,0,0,0,0,0,0,0,0,0
1991,9,29,10,0,,22.5,13.6,62,101040,0,0,381,461,457,192,59626,43490,26314,0,50,2,6,0,0,0,0,0,0,0,0,0,0,0,0
1991,9,29,11,0,,24.2,13.9,57,101020,0,0,395,528,307,311,60761,28926,37898,0,90,3,7,0,0,0,0,0,0,0,0,0,0,0,0
1991,9,29,12,0,,24.6,14.2,52,101010,0,0,404,490,172,356,54043,16177,41762,0,90,3,8,0,0,0,0,0,0,0,0,0,0,0,0
1991,9,29,13,0,,24.4,14.2,53,100970,0,0,403,450,128,349,47990,12060,39854,0,110,3,8,0,0,0,0,0,0,0,0,0,0,0,0
1991,9,29,14,0,,24.5,14.3,54,100940,0,0,404,398,110,316,41472,10287,35894,0,110,2.7,8,0,0,0,0,0,0,0,0,0,0,0,0
1991,9,29,15,0,,24,14.3,55,100900,0,0,401,339,112,265,33661,10030,29937,0,90,3.3,8,0,0,0,0,0,0,0,0,0,0,0,0
1991,9,29,16,0,,23,14,56,100920,0,0,395,250,110,194,22974,8393,21519,0,90,3,8,0,0,0,0,0,0,0,0,0,0,0,0
1991,9,29,17,0,,23.1,13.6,58,100940,0,0,395,166,141,119,0,0,0,0,70,3,8,0,0,0,0,0,0,0,0,0,0,0,0
1991,9,29,18,0,,21.7,13.3,59,100960,0,0,387,57,15,41,0,0,0,0,70,3.7,8,0,0,0,0,0,0,0,0,0,0,0,0
1991,9,29,19,0,,20.6,13.4,62,100990,0,0,387,0,0,0,0,0,0,0,50,4,9,0,0,0,0,0,0,0,0,0,0,0,0
1991,9,29,20,0,,20.2,13.6,64,101020,0,0,391,0,0,0,0,0,0,0,50,2,9,0,0,0,0,0,0,0,0,0,0,0,0
1991,9,29,21,0,,20,13.7,67,101050,0,0,398,0,0,0,0,0,0,0,20,2.7,10,0,0,0,0,0,0,0,0,0,0,0,0
1991,9,29,22,0,,19.4,13.8,68,101050,0,0,391,0,0,0,0,0,0,0,20,2,10,0,0,0,0,0,0,0,0,0,0,0,0
1991,9,29,23,0,,19.2,13.9,70,101060,0,0,386,0,0,0,0,0,0,0,20,2.7,9,0,0,0,0,0,0,0,0,0,0,0,0
1991,9,29,24,0,,19.3,14,71,101060,0,0,384,0,0,0,0,0,0,0,20,2.3,9,0,0,0,0,0,0,0,0,0,0,0,0
1991,9,30,1,0,,19.2,14.1,72,101030,0,0,378,0,0,0,0,0,0,0,360,3.2,8,0,0,0,0,0,0,0,0,0,0,0,0
1991,9,30,2,0,,19.2,14.2,73,101010,0,0,373,0,0,0,0,0,0,0,20,3,8,0,0,0,0,0,0,0,0,0,0,0,0
1991,9,30,3,0,,19.1,14.3,74,100980,0,0,369,0,0,0,0,0,0,0,20,2.5,7,0,0,0,0,0,0,0,0,0,0,0,0
1991,9,30,4,0,,19.2,14.5,75,100970,0,0,376,0,0,0,0,0,0,0,320,1.3,8,0,0,0,0,0,0,0,0,0,0,0,0
1991,9,30,5,0,,19.1,14.7,76,100970,0,0,383,0,0,0,0,0,0,0,20,2,9,0,0,0,0,0,0,0,0,0,0,0,0
1991,9,30,6,0,,19,14.9,77,100960,0,0,394,0,0,0,0,0,0,0,20,3.3,10,0,0,0,0,0,0,0,0,0,0,0,0
1991,9,30,7,0,,19.3,15.2,77,100970,0,0,396,13,1,12,1598,25,1588,0,20,3,10,0,0,0,0,0,0,0,0,0,0,0,0
1991,9,30,8,0,,19.4,15.5,78,100990,0,0,397,71,37,62,10063,3435,8148,0,20,3.5,10,0,0,0,0,0,0,0,0,0,0,0,0
1991,9,30,9,0,,19.7,15.8,78,101000,0,0,399,131,32,117,15898,2924,13898,0,20,3.7,10,0,0,0,0,0,0,0,0,0,0,0,0
1991,9,30,10,0,,20.1,16.3,80,100990,0,0,402,177,27,162,20958,2421,19112,0,20,3,10,0,0,0,0,0,0,0,0,0,0,0,0
1991,9,30,11,0,,19.9,16.8,83,100980,0,0,401,211,24,195,24586,2132,22910,0,20,2.8,10,0,0,0,0,0,0,0,0,0,0,0,0
1991,9,30,12,0,,19.8,17.3,85,100970,0,0,402,237,24,219,27286,2156,25658,0,20,4.3,10,0,0,0,0,0,0,0,0,0,0,0,0
1991,9,30,13,0,,20,17.3,86,100920,0,0,403,226,20,210,25456,1340,24558,0,20,3.3,10,0,0,0,0,0,0,0,0,0,0,0,0
1991,9,30,14,0,,20,17.3,86,100870,0,0,403,221,22,205,24050,1568,23207,0,20,4.3,10,0,0,0,0,0,0,0,0,0,0,0,0
1991,9,30,15,0,,19.4,17.3,87,100820,0,0,399,187,22,172,19408,1443,18879,0,50,4.2,10,0,0,0,0,0,0,0,0,0,0,0,0
1991,9,30,16,0,,19.1,17.2,88,100790,0,0,398,135,20,125,13073,910,12920,0,20,4.7,10,0,0,0,0,0,0,0,0,0,0,0,0
1991,9,30,17,0,,19.2,17.2,89,100760,0,0,398,90,26,82,0,0,0,0,20,4.3,10,0,0,0,0,0,0,0,0,0,0,0,0
1991,9,30,18,0,,18.8,17.1,90,100730,0,0,396,29,2,27,0,0,0,0,20,5.3,10,0,0,0,0,0,0,0,0,0,0,0,0
1991,9,30,19,0,,18.5,16.9,89,100730,0,0,394,0,0,0,0,0,0,0,20,4,10,0,0,0,0,0,0,0,0,0,0,0,0
1991,9,30,20,0,,18.5,16.6,88,100740,0,0,394,0,0,0,0,0,0,0,20,6,10,0,0,0,0,0,0,0,0,0,0,0,0
1991,9,30,21,0,,18.6,16.4,87,100740,0,0,394,0,0,0,0,0,0,0,20,5.3,10,0,0,0,0,0,0,0,0,0,0,0,0
1991,9,30,22,0,,18.6,16.3,87,100710,0,0,394,0,0,0,0,0,0,0,20,6,10,0,0,0,0,0,0,0,0,0,0,0,0
1991,9,30,23,0,,18.3,16.2,87,100680,0,0,392,0,0,0,0,0,0,0,20,4,10,0,0,0,0,0,0,0,0,0,0,0,0
1991,9,30,24,0,,18.3,16.1,87,100650,0,0,392,0,0,0,0,0,0,0,20,3.8,10,0,0,0,0,0,0,0,0,0,0,0,0
1996,10,1,1,0,,19.5,14.6,72,100150,0,0,362,0,0,0,0,0,0,0,20,6.2,4,0,0,0,0,0,0,0,0,0,0,0,0
1996,10,1,2,0,,20,14.7,71,100170,0,0,372,0,0,0,0,0,0,0,20,4.8,7,0,0,0,0,0,0,0,0,0,0,0,0
1996,10,1,3,0,,20.2,14.9,71,100180,0,0,390,0,0,0,0,0,0,0,20,5.8,9,0,0,0,0,0,0,0,0,0,0,0,0
1996,10,1,4,0,,20.2,14.3,70,100220,0,0,373,0,0,0,0,0,0,0,50,4.3,7,0,0,0,0,0,0,0,0,0,0,0,0
1996,10,1,5,0,,19.9,13.6,68,100260,0,0,363,0,0,0,0,0,0,0,20,3,4,0,0,0,0,0,0,0,0,0,0,0,0
1996,10,1,6,0,,19.2,13,67,100300,0,0,351,0,0,0,0,0,0,0,50,3.5,2,0,0,0,0,0,0,0,0,0,0,0,0
1996,10,1,7,0,,19,12.7,63,100350,0,0,349,45,26,19,3536,2283,2656,0,20,6,2,0,0,0,0,0,0,0,0,0,0,0,0
1996,10,1,8,0,,20,12.3,59,100410,0,0,352,194,620,50,42274,63194,7410,0,20,7.3,1,0,0,0,0,0,0,0,0,0,0,0,0
1996,10,1,9,0,,21.4,12,55,100460,0,0,356,384,715,81,61318,73583,11449,0,20,6.7,1,0,0,0,0,0,0,0,0,0,0,0,0
1996,10,1,10,0,,22.7,11.5,50,100480,0,0,366,546,739,115,73132,76112,15656,0,20,6.5,2,0,0,0,0,0,0,0,0,0,0,0,0
1996,10,1,11,0,,23.7,10.9,46,100490,0,0,373,677,771,137,79692,78908,18249,0,20,8,2,0,0,0,0,0,0,0,0,0,0,0,0
1996,10,1,12,0,,24.2,10.4,41,100510,0,0,377,684,609,216,73129,59997,28329,0,20,4,3,0,0,0,0,0,0,0,0,0,0,0,0
1996,10,1,13,0,,24.8,10.8,42,100470,0,0,381,710,644,208,68871,62596,27470,0,20,6.7,3,0,0,0,0,0,0,0,0,0,0,0,0
1996,10,1,14,0,,24.7,11.2,44,100430,0,0,381,648,595,209,56320,55097,27198,0,20,7.8,3,0,0,0,0,0,0,0,0,0,0,0,0
1996,10,1,15,0,,24.2,11.6,45,100390,0,0,379,549,577,179,40357,48455,23047,0,20,6.7,3,0,0,0,0,0,0,0,0,0,0,0,0
1996,10,1,16,0,,22.6,11.3,49,100480,0,0,370,415,563,133,21186,31771,16131,0,20,8.5,3,0,0,0,0,0,0,0,0,0,0,0,0
1996,10,1,17,0,,21.6,11,54,100570,0,0,364,252,518,85,0,0,0,0,20,6.7,3,0,0,0,0,0,0,0,0,0,0,0,0
1996,10,1,18,0,,19,10.7,58,100660,0,0,351,78,39,40,0,0,0,0,20,4.5,3,0,0,0,0,0,0,0,0,0,0,0,0
1996,10,1,19,0,,17.7,10.2,59,100680,0,0,344,0,0,0,0,0,0,0,20,4.3,3,0,0,0,0,0,0,0,0,0,0,0,0
1996,10,1,20,0,,17,9.8,61,100690,0,0,340,0,0,0,0,0,0,0,270,5.3,3,0,0,0,0,0,0,0,0,0,0,0,0
1996,10,1,21,0,,16.7,9.3,62,100710,0,0,338,0,0,0,0,0,0,0,20,3.2,3,0,0,0,0,0,0,0,0,0,0,0,0
1996,10,1,22,0,,16.5,10,64,100730,0,0,339,0,0,0,0,0,0,0,50,4.2,3,0,0,0,0,0,0,0,0,0,0,0,0
1996,10,1,23,0,,16.6,10.8,65,100750,0,0,342,0,0,0,0,0,0,0,20,4.2,4,0,0,0,0,0,0,0,0,0,0,0,0
1996,10,1,24,0,,17.6,11.5,67,100770,0,0,348,0,0,0,0,0,0,0,180,5.3,4,0,0,0,0,0,0,0,0,0,0,0,0
1996,10,2,1,0,,17.5,11.8,69,100730,0,0,349,0,0,0,0,0,0,0,20,4.5,4,0,0,0,0,0,0,0,0,0,0,0,0
1996,10,2,2,0,,17.3,12.1,70,100690,0,0,349,0,0,0,0,0,0,0,50,2.2,5,0,0,0,0,0,0,0,0,0,0,0,0
1996,10,2,3,0,,17.6,12.4,72,100650,0,0,352,0,0,0,0,0,0,0,340,5.5,5,0,0,0,0,0,0,0,0,0,0,0,0
1996,10,2,4,0,,17.6,12.5,73,100650,0,0,354,0,0,0,0,0,0,0,50,4.5,6,0,0,0,0,0,0,0,0,0,0,0,0
1996,10,2,5,0,,17.4,12.5,73,100660,0,0,355,0,0,0,0,0,0,0,50,3,6,0,0,0,0,0,0,0,0,0,0,0,0
1996,10,2,6,0,,17.4,12.6,74,100660,0,0,358,0,0,0,0,0,0,0,20,4,7,0,0,0,0,0,0,0,0,0,0,0,0
1996,10,2,7,0,,17.7,13,73,100670,0,0,364,25,6,19,2515,492,2327,0,20,5.3,8,0,0,0,0,0,0,0,0,0,0,0,0
1996,10,2,8,0,,18,13.4,73,100680,0,0,370,114,156,78,20075,14499,12125,0,20,5.2,8,0,0,0,0,0,0,0,0,0,0,0,0
1996,10,2,9,0,,19,13.8,72,100690,0,0,382,183,87,146,23756,8261,18187,0,20,3.3,9,0,0,0,0,0,0,0,0,0,0,0,0
1996,10,2,10,0,,20.7,14.3,69,100660,0,0,395,284,103,225,34576,9764,27242,0,50,5,9,0,0,0,0,0,0,0,0,0,0,0,0
1996,10,2,11,0,,22,14.7,66,100630,0,0,406,304,67,258,34702,6172,29922,0,50,4.8,10,0,0,0,0,0,0,0,0,0,0,0,0
1996,10,2,12,0,,22.5,15.2,63,100600,0,0,414,320,56,277,35971,5221,32096,0,50,4.3,10,0,0,0,0,0,0,0,0,0,0,0,0
1996,10,2,13,0,,22.6,15.1,63,100560,0,0,414,301,45,266,33440,4165,30705,0,50,4,10,0,0,0,0,0,0,0,0,0,0,0,0
1996,10,2,14,0,,23,14.9,62,100510,0,0,416,253,34,228,27831,3072,26222,0,50,3,10,0,0,0,0,0,0,0,0,0,0,0,0
1996,10,2,15,0,,22.6,14.8,62,100470,0,0,414,210,32,189,21339,2274,20538,0,50,2.5,10,0,0,0,0,0,0,0,0,0,0,0,0
1996,10,2,16,0,,22.2,14.9,65,100440,0,0,412,156,32,140,14504,1736,14236,0,50,3,10,0,0,0,0,0,0,0,0,0,0,0,0
1996,10,2,17,0,,21.3,14.9,67,100420,0,0,407,88,27,80,0,0,0,0,50,3.2,10,0,0,0,0,0,0,0,0,0,0,0,0
1996,10,2,18,0,,20.6,15,70,100390,0,0,403,27,2,25,0,0,0,0,70,5,10,0,0,0,0,0,0,0,0,0,0,0,0
1996,10,2,19,0,,20,15.2,73,100400,0,0,400,0,0,0,0,0,0,0,20,3.3,10,0,0,0,0,0,0,0,0,0,0,0,0
1996,10,2,20,0,,19.5,15.3,76,100410,0,0,397,0,0,0,0,0,0,0,50,2,10,0,0,0,0,0,0,0,0,0,0,0,0
1996,10,2,21,0,,19.3,15.5,79,100420,0,0,396,0,0,0,0,0,0,0,20,3,10,0,0,0,0,0,0,0,0,0,0,0,0
1996,10,2,22,0,,18.8,15.6,80,100410,0,0,394,0,0,0,0,0,0,0,20,2.2,10,0,0,0,0,0,0,0,0,0,0,0,0
1996,10,2,23,0,,18.7,15.6,82,100400,0,0,393,0,0,0,0,0,0,0,20,3.2,10,0,0,0,0,0,0,0,0,0,0,0,0
1996,10,2,24,0,,18.7,15.7,83,100390,0,0,393,0,0,0,0,0,0,0,50,1.3,10,0,0,0,0,0,0,0,0,0,0,0,0
1996,10,3,1,0,,18.6,15.9,85,100340,0,0,383,0,0,0,0,0,0,0,340,2.3,9,0,0,0,0,0,0,0,0,0,0,0,0
1996,10,3,2,0,,18.6,16.2,86,100300,0,0,375,0,0,0,0,0,0,0,340,1.5,8,0,0,0,0,0,0,0,0,0,0,0,0
1996,10,3,3,0,,18.5,16.4,88,100250,0,0,369,0,0,0,0,0,0,0,340,2.2,7,0,0,0,0,0,0,0,0,0,0,0,0
1996,10,3,4,0,,18.2,16.1,87,100240,0,0,364,0,0,0,0,0,0,0,320,1.2,6,0,0,0,0,0,0,0,0,0,0,0,0
1996,10,3,5,0,,18.1,15.7,87,100220,0,0,360,0,0,0,0,0,0,0,340,1.8,6,0,0,0,0,0,0,0,0,0,0,0,0
1996,10,3,6,0,,17.8,15.4,86,100210,0,0,357,0,0,0,0,0,0,0,320,2.3,5,0,0,0,0,0,0,0,0,0,0,0,0
1996,10,3,7,0,,17.2,15,82,100200,0,0,353,31,12,19,3060,1075,2652,0,340,1.8,5,0,0,0,0,0,0,0,0,0,0,0,0
1996,10,3,8,0,,18.3,14.7,78,100190,0,0,358,143,334,67,29022,32889,11099,0,140,1,5,0,0,0,0,0,0,0,0,0,0,0,0
1996,10,3,9,0,,19.1,14.3,74,100180,0,0,362,288,350,142,42539,32960,20443,0,230,2.8,5,0,0,0,0,0,0,0,0,0,0,0,0
1996,10,3,10,0,,18.8,13.9,69,100160,0,0,359,414,321,229,53237,30420,30507,0,180,3.3,5,0,0,0,0,0,0,0,0,0,0,0,0
1996,10,3,11,0,,18.8,13.6,63,100150,0,0,357,505,289,305,58186,27389,37092,0,320,1.8,4,0,0,0,0,0,0,0,0,0,0,0,0
1996,10,3,12,0,,22,13.2,58,100130,0,0,372,641,520,245,68555,49383,32129,0,250,4.7,4,0,0,0,0,0,0,0,0,0,0,0,0
1996,10,3,13,0,,23.9,12.9,55,100050,0,0,381,687,606,219,66187,57063,28990,0,230,5,4,0,0,0,0,0,0,0,0,0,0,0,0
1996,10,3,14,0,,24.8,12.7,53,99970,0,0,384,691,729,159,58008,69086,22174,0,200,4.5,3,0,0,0,0,0,0,0,0,0,0,0,0
1996,10,3,15,0,,23.4,12.4,50,99890,0,0,375,553,614,165,39239,50933,21555,0,200,7.5,3,0,0,0,0,0,0,0,0,0,0,0,0
1996,10,3,16,0,,23.7,12.6,53,99900,0,0,377,408,568,128,20210,30220,15706,0,200,5.3,3,0,0,0,0,0,0,0,0,0,0,0,0
1996,10,3,17,0,,22.1,12.9,55,99900,0,0,369,233,455,90,0,0,0,0,200,3.5,3,0,0,0,0,0,0,0,0,0,0,0,0
1996,10,3,18,0,,21.5,13.1,58,99910,0,0,367,77,44,33,0,0,0,0,200,2.5,3,0,0,0,0,0,0,0,0,0,0,0,0
1996,10,3,19,0,,20.5,12.9,60,99940,0,0,358,0,0,0,0,0,0,0,270,1,2,0,0,0,0,0,0,0,0,0,0,0,0
1996,10,3,20,0,,19.5,12.6,61,99960,0,0,348,0,0,0,0,0,0,0,320,3.5,1,0,0,0,0,0,0,0,0,0,0,0,0
1996,10,3,21,0,,19.4,12.4,63,99990,0,0,340,0,0,0,0,0,0,0,320,0.8,0,0,0,0,0,0,0,0,0,0,0,0,0
1996,10,3,22,0,,18.5,12.2,64,100000,0,0,336,0,0,0,0,0,0,0,320,1.3,0,0,0,0,0,0,0,0,0,0,0,0,0
1996,10,3,23,0,,18.3,12,65,100010,0,0,335,0,0,0,0,0,0,0,320,1.7,0,0,0,0,0,0,0,0,0,0,0,0,0
1996,10,3,24,0,,18.1,11.8,66,100020,0,0,334,0,0,0,0,0,0,0,340,3.2,0,0,0,0,0,0,0,0,0,0,0,0,0
1996,10,4,1,0,,17.8,11.6,66,100010,0,0,346,0,0,0,0,0,0,0,270,2.2,3,0,0,0,0,0,0,0,0,0,0,0,0
1996,10,4,2,0,,17.4,11.4,66,100000,0,0,353,0,0,0,0,0,0,0,320,2,6,0,0,0,0,0,0,0,0,0,0,0,0
1996,10,4,3,0,,17.6,11.2,66,99990,0,0,371,0,0,0,0,0,0,0,270,1.2,9,0,0,0,0,0,0,0,0,0,0,0,0
1996,10,4,4,0,,17.5,11.3,67,100020,0,0,374,0,0,0,0,0,0,0,250,2.5,9,0,0,0,0,0,0,0,0,0,0,0,0
1996,10,4,5,0,,17.2,11.3,69,100050,0,0,376,0,0,0,0,0,0,0,320,3.3,10,0,0,0,0,0,0,0,0,0,0,0,0
1996,10,4,6,0,,17,11.4,70,100080,0,0,379,0,0,0,0,0,0,0,320,3.3,10,0,0,0,0,0,0,0,0,0,0,0,0
1996,10,4,7,0,,16.5,11.7,68,100110,0,0,353,27,9,19,2582,724,2309,0,320,6,7,0,0,0,0,0,0,0,0,0,0,0,0
1996,10,4,8,0,,16.9,12,67,100140,0,0,345,157,399,68,32473,39465,11101,0,320,4.3,4,0,0,0,0,0,0,0,0,0,0,0,0
1996,10,4,9,0,,18.9,12.3,65,100170,0,0,344,338,561,106,53554,56191,16093,0,340,1.5,1,0,0,0,0,0,0,0,0,0,0,0,0
1996,10,4,10,0,,20.3,12.5,61,100200,0,0,357,502,634,139,67346,63504,20150,0,340,2.7,2,0,0,0,0,0,0,0,0,0,0,0,0
1996,10,4,11,0,,21.4,12.6,56,100230,0,0,367,601,596,190,71100,59022,25900,0,290,4.7,4,0,0,0,0,0,0,0,0,0,0,0,0
1996,10,4,12,0,,23.1,12.8,52,100260,0,0,380,607,443,272,65660,42018,34858,0,20,1.8,5,0,0,0,0,0,0,0,0,0,0,0,0
1996,10,4,13,0,,22,12.9,54,100250,0,0,375,577,292,353,58588,27300,40923,0,90,2,5,0,0,0,0,0,0,0,0,0,0,0,0
1996,10,4,14,0,,22,13.1,56,100230,0,0,375,523,270,327,50297,24402,37761,0,90,2,5,0,0,0,0,0,0,0,0,0,0,0,0
1996,10,4,15,0,,22,13.2,58,100220,0,0,375,432,261,268,38010,21121,30783,0,90,2,5,0,0,0,0,0,0,0,0,0,0,0,0
1996,10,4,16,0,,22.2,13.3,60,100270,0,0,376,340,333,179,22422,16619,20028,0,140,1.8,5,0,0,0,0,0,0,0,0,0,0,0,0
1996,10,4,17,0,,21.7,13.5,63,100330,0,0,374,205,323,106,0,0,0,0,90,1,5,0,0,0,0,0,0,0,0,0,0,0,0
1996,10,4,18,0,,20.4,13.6,65,100380,0,0,367,65,28,37,0,0,0,0,90,3.5,5,0,0,0,0,0,0,0,0,0,0,0,0
1996,10,4,19,0,,19.5,13.5,67,100450,0,0,358,0,0,0,0,0,0,0,90,2.8,3,0,0,0,0,0,0,0,0,0,0,0,0
1996,10,4,20,0,,19,13.3,69,100530,0,0,349,0,0,0,0,0,0,0,50,2.8,2,0,0,0,0,0,0,0,0,0,0,0,0
1996,10,4,21,0,,18.6,13.2,71,100600,0,0,338,0,0,0,0,0,0,0,50,2.5,0,0,0,0,0,0,0,0,0,0,0,0,0
1996,10,4,22,0,,17.7,13.3,74,100610,0,0,334,0,0,0,0,0,0,0,20,1.7,0,0,0,0,0,0,0,0,0,0,0,0,0
1996,10,4,23,0,,17.2,13.5,78,100610,0,0,331,0,0,0,0,0,0,0,20,1.8,0,0,0,0,0,0,0,0,0,0,0,0,0
1996,10,4,24,0,,16.9,13.6,81,100620,0,0,330,0,0,0,0,0,0,0,20,1.3,0,0,0,0,0,0,0,0,0,0,0,0,0
1996,10,5,1,0,,16.7,13.4,81,100640,0,0,329,0,0,0,0,0,0,0,20,2.3,0,0,0,0,0,0,0,0,0,0,0,0,0
1996,10,5,2,0,,16.6,13.3,81,100670,0,0,328,0,0,0,0,0,0,0,360,1.5,0,0,0,0,0,0,0,0,0,0,0,0,0
1996,10,5,3,0,,16.4,13.1,81,100690,0,0,327,0,0,0,0,0,0,0,320,0.5,0,0,0,0,0,0,0,0,0,0,0,0,0
1996,10,5,4,0,,16.5,13.5,84,100720,0,0,328,0,0,0,0,0,0,0,320,2.2,0,0,0,0,0,0,0,0,0,0,0,0,0
1996,10,5,5,0,,16.2,13.8,86,100760,0,0,327,0,0,0,0,0,0,0,320,1.5,0,0,0,0,0,0,0,0,0,0,0,0,0
1996,10,5,6,0,,16,14.2,89,100790,0,0,327,0,0,0,0,0,0,0,0,0.2,0,0,0,0,0,0,0,0,0,0,0,0,0
1996,10,5,7,0,,15.7,14.2,83,100840,0,0,330,35,20,15,2776,1733,2130,0,340,2.3,1,0,0,0,0,0,0,0,0,0,0,0,0
1996,10,5,8,0,,17,14.2,78,100880,0,0,339,175,554,53,38723,56779,8171,0,320,4.7,1,0,0,0,0,0,0,0,0,0,0,0,0
1996,10,5,9,0,,19.3,14.2,72,100930,0,0,353,338,571,103,53656,56986,15878,0,90,0.8,2,0,0,0,0,0,0,0,0,0,0,0,0
1996,10,5,10,0,,22.1,14.4,68,100880,0,0,376,469,538,163,62432,53270,23058,0,110,2.2,5,0,0,0,0,0,0,0,0,0,0,0,0
1996,10,5,11,0,,24,14.5,64,100840,0,0,397,507,305,297,58356,28497,36656,0,180,4.3,7,0,0,0,0,0,0,0,0,0,0,0,0
1996,10,5,12,0,,22.8,14.7,60,100790,0,0,415,299,49,262,33674,4568,30347,0,180,3,10,0,0,0,0,0,0,0,0,0,0,0,0
1996,10,5,13,0,,22.2,14.7,61,100750,0,0,397,340,66,289,37170,6164,33211,0,180,4.3,9,0,0,0,0,0,0,0,0,0,0,0,0
1996,10,5,14,0,,22.9,14.6,62,100700,0,0,391,413,138,313,42066,12830,35538,0,180,3.2,7,0,0,0,0,0,0,0,0,0,0,0,0
1996,10,5,15,0,,22,14.6,63,100660,0,0,380,426,257,266,37562,20432,30673,0,180,6.5,6,0,0,0,0,0,0,0,0,0,0,0,0
1996,10,5,16,0,,22.9,14.8,65,100670,0,0,385,326,300,182,22395,14171,20425,0,180,4.5,6,0,0,0,0,0,0,0,0,0,0,0,0
1996,10,5,17,0,,21.9,14.9,68,100680,0,0,380,191,303,99,0,0,0,0,180,4.8,6,0,0,0,0,0,0,0,0,0,0,0,0
1996,10,5,18,0,,20.8,15.1,70,100690,0,0,374,54,21,32,0,0,0,0,180,1.7,6,0,0,0,0,0,0,0,0,0,0,0,0
1996,10,5,19,0,,20,15.2,72,100720,0,0,368,0,0,0,0,0,0,0,200,2.8,5,0,0,0,0,0,0,0,0,0,0,0,0
1996,10,5,20,0,,19.5,15.2,75,100760,0,0,364,0,0,0,0,0,0,0,250,2.5,5,0,0,0,0,0,0,0,0,0,0,0,0
1996,10,5,21,0,,19.4,15.3,77,100790,0,0,361,0,0,0,0,0,0,0,270,2.7,4,0,0,0,0,0,0,0,0,0,0,0,0
1996,10,5,22,0,,19.4,15.6,79,100770,0,0,362,0,0,0,0,0,0,0,250,3,4,0,0,0,0,0,0,0,0,0,0,0,0
1996,10,5,23,0,,19.1,15.8,82,100750,0,0,361,0,0,0,0,0,0,0,230,2.5,4,0,0,0,0,0,0,0,0,0,0,0,0
1996,10,5,24,0,,18.9,16.1,84,100730,0,0,360,0,0,0,0,0,0,0,250,3,4,0,0,0,0,0,0,0,0,0,0,0,0
1996,10,6,1,0,,18.8,16.2,85,100700,0,0,363,0,0,0,0,0,0,0,250,1.7,5,0,0,0,0,0,0,0,0,0,0,0,0
1996,10,6,2,0,,18.8,16.3,85,100680,0,0,366,0,0,0,0,0,0,0,250,1.8,6,0,0,0,0,0,0,0,0,0,0,0,0
1996,10,6,3,0,,18.7,16.4,86,100650,0,0,370,0,0,0,0,0,0,0,250,3.2,7,0,0,0,0,0,0,0,0,0,0,0,0
1996,10,6,4,0,,19.5,16.3,83,100600,0,0,373,0,0,0,0,0,0,0,200,4.3,7,0,0,0,0,0,0,0,0,0,0,0,0
1996,10,6,5,0,,19.8,16.1,81,100560,0,0,375,0,0,0,0,0,0,0,200,4.5,7,0,0,0,0,0,0,0,0,0,0,0,0
1996,10,6,6,0,,19.9,16,78,100510,0,0,375,0,0,0,0,0,0,0,200,2.5,7,0,0,0,0,0,0,0,0,0,0,0,0
1996,10,6,7,0,,20.4,16.8,79,100520,0,0,383,23,6,17,2320,466,2148,0,200,5.7,8,0,0,0,0,0,0,0,0,0,0,0,0
1996,10,6,8,0,,21,17.6,79,100530,0,0,391,108,156,74,19382,14001,11896,0,200,5.3,8,0,0,0,0,0,0,0,0,0,0,0,0
1996,10,6,9,0,,22.2,18.4,80,100540,0,0,405,200,124,150,27673,10977,20438,0,200,9,9,0,0,0,0,0,0,0,0,0,0,0,0
1996,10,6,10,0,,22.4,18.2,76,100530,0,0,409,278,105,219,34085,9526,27083,0,200,9.3,9,0,0,0,0,0,0,0,0,0,0,0,0
1996,10,6,11,0,,22.4,17.9,71,100520,0,0,413,245,40,218,28349,3576,25642,0,200,6.7,10,0,0,0,0,0,0,0,0,0,0,0,0
1996,10,6,12,0,,24.1,17.7,67,100510,0,0,426,276,40,246,31313,3630,28686,0,200,5.3,10,0,0,0,0,0,0,0,0,0,0,0,0
1996,10,6,13,0,,23.8,17.6,67,100450,0,0,420,310,53,270,34308,4775,31264,0,180,8.3,10,0,0,0,0,0,0,0,0,0,0,0,0
1996,10,6,14,0,,24,17.4,66,100400,0,0,417,357,94,289,37383,8523,33088,0,200,7.7,9,0,0,0,0,0,0,0,0,0,0,0,0
1996,10,6,15,0,,24,17.3,66,100340,0,0,413,295,92,238,29652,7812,27056,0,200,8.7,9,0,0,0,0,0,0,0,0,0,0,0,0
1996,10,6,16,0,,23.7,17.8,70,100320,0,0,412,240,124,181,21277,8550,20130,0,180,11.7,9,0,0,0,0,0,0,0,0,0,0,0,0
1996,10,6,17,0,,23.6,18.2,73,100290,0,0,412,129,98,100,0,0,0,0,200,8,9,0,0,0,0,0,0,0,0,0,0,0,0
1996,10,6,18,0,,22.8,18.7,77,100270,0,0,409,37,8,30,0,0,0,0,200,9.7,9,0,0,0,0,0,0,0,0,0,0,0,0
1996,10,6,19,0,,23,18.9,77,100250,0,0,413,0,0,0,0,0,0,0,200,10.3,9,0,0,0,0,0,0,0,0,0,0,0,0
1996,10,6,20,0,,23.1,19,77,100230,0,0,418,0,0,0,0,0,0,0,200,13,10,0,0,0,0,0,0,0,0,0,0,0,0
1996,10,6,21,0,,23.2,19.2,77,100210,0,0,423,0,0,0,0,0,0,0,200,12,10,0,0,0,0,0,0,0,0,0,0,0,0
1996,10,6,22,0,,23.3,19.4,84,100230,0,0,424,0,0,0,0,0,0,0,180,13.7,10,0,0,0,0,0,0,0,0,0,0,0,0
1996,10,6,23,0,,23.7,19.7,90,100250,0,0,427,0,0,0,0,0,0,0,180,12.3,10,0,0,0,0,0,0,0,0,0,0,0,0
1996,10,6,24,0,,20.3,19.9,97,100270,0,0,408,0,0,0,0,0,0,0,320,3.2,10,0,0,0,0,0,0,0,0,0,0,0,0
1996,10,7,1,0,,19.4,18.8,96,100320,0,0,401,0,0,0,0,0,0,0,200,2.2,10,0,0,0,0,0,0,0,0,0,0,0,0
1996,10,7,2,0,,18.4,17.6,95,100370,0,0,395,0,0,0,0,0,0,0,320,1.8,10,0,0,0,0,0,0,0,0,0,0,0,0
1996,10,7,3,0,,17.5,16.5,94,100420,0,0,388,0,0,0,0,0,0,0,250,3,10,0,0,0,0,0,0,0,0,0,0,0,0
1996,10,7,4,0,,16.8,14.6,90,100500,0,0,382,0,0,0,0,0,0,0,340,2.7,10,0,0,0,0,0,0,0,0,0,0,0,0
1996,10,7,5,0,,15.2,12.8,86,100590,0,0,371,0,0,0,0,0,0,0,340,3.2,10,0,0,0,0,0,0,0,0,0,0,0,0
1996,10,7,6,0,,13.8,10.9,82,100670,0,0,362,0,0,0,0,0,0,0,50,3.5,10,0,0,0,0,0,0,0,0,0,0,0,0
1996,10,7,7,0,,12.7,11,85,100770,0,0,356,3,0,3,439,0,439,0,340,1.8,10,0,0,0,0,0,0,0,0,0,0,0,0
1996,10,7,8,0,,12.3,11,88,100860,0,0,355,44,12,41,5544,1110,4954,0,320,4,10,0,0,0,0,0,0,0,0,0,0,0,0
1996,10,7,9,0,,12.4,11.1,91,100960,0,0,355,88,13,83,10659,1162,9897,0,320,1.8,10,0,0,0,0,0,0,0,0,0,0,0,0
1996,10,7,10,0,,13,10.7,87,100950,0,0,358,148,19,138,17505,1740,16233,0,270,1.5,10,0,0,0,0,0,0,0,0,0,0,0,0
1996,10,7,11,0,,13.6,10.4,82,100950,0,0,360,199,23,184,22987,2123,21389,0,290,1.2,10,0,0,0,0,0,0,0,0,0,0,0,0
1996,10,7,12,0,,13.8,10,78,100940,0,0,361,257,34,232,29083,3205,26778,0,320,4,10,0,0,0,0,0,0,0,0,0,0,0,0
1996,10,7,13,0,,14,9.6,74,100920,0,0,361,254,31,231,28343,2945,26480,0,320,4.3,10,0,0,0,0,0,0,0,0,0,0,0,0
1996,10,7,14,0,,14.5,9.3,70,100900,0,0,363,238,32,215,26036,2973,24552,0,320,3,10,0,0,0,0,0,0,0,0,0,0,0,0
1996,10,7,15,0,,15.1,8.9,66,100880,0,0,366,215,39,191,22644,3473,21507,0,320,3.8,10,0,0,0,0,0,0,0,0,0,0,0,0
1996,10,7,16,0,,15.1,8.9,66,100900,0,0,366,160,41,141,15904,2945,15523,0,320,3.3,10,0,0,0,0,0,0,0,0,0,0,0,0
1996,10,7,17,0,,15,8.8,67,100910,0,0,365,96,45,83,0,0,0,0,320,4.3,10,0,0,0,0,0,0,0,0,0,0,0,0
1996,10,7,18,0,,14.9,8.8,67,100930,0,0,364,26,3,23,0,0,0,0,320,4.5,10,0,0,0,0,0,0,0,0,0,0,0,0
1996,10,7,19,0,,14.6,7.6,64,100960,0,0,361,0,0,0,0,0,0,0,360,1.8,10,0,0,0,0,0,0,0,0,0,0,0,0
1996,10,7,20,0,,14.3,6.5,61,100990,0,0,358,0,0,0,0,0,0,0,320,5.5,10,0,0,0,0,0,0,0,0,0,0,0,0
1996,10,7,21,0,,13.2,5.3,58,101020,0,0,351,0,0,0,0,0,0,0,320,7.2,10,0,0,0,0,0,0,0,0,0,0,0,0
1996,10,7,22,0,,13,4.7,55,101030,0,0,350,0,0,0,0,0,0,0,320,7.5,10,0,0,0,0,0,0,0,0,0,0,0,0
1996,10,7,23,0,,13.9,4,52,101050,0,0,353,0,0,0,0,0,0,0,340,2.7,10,0,0,0,0,0,0,0,0,0,0,0,0
1996,10,7,24,0,,14.1,3.4,49,101060,0,0,353,0,0,0,0,0,0,0,320,2.5,10,0,0,0,0,0,0,0,0,0,0,0,0
1996,10,8,1,0,,14.1,3.5,50,101050,0,0,350,0,0,0,0,0,0,0,90,1.8,10,0,0,0,0,0,0,0,0,0,0,0,0
1996,10,8,2,0,,13.8,3.5,50,101050,0,0,345,0,0,0,0,0,0,0,320,1.3,9,0,0,0,0,0,0,0,0,0,0,0,0
1996,10,8,3,0,,13.5,3.6,51,101040,0,0,341,0,0,0,0,0,0,0,340,2.8,9,0,0,0,0,0,0,0,0,0,0,0,0
1996,10,8,4,0,,13.4,3.8,52,101030,0,0,341,0,0,0,0,0,0,0,340,1.7,9,0,0,0,0,0,0,0,0,0,0,0,0
1996,10,8,5,0,,13.4,4.1,54,101030,0,0,341,0,0,0,0,0,0,0,290,3.5,9,0,0,0,0,0,0,0,0,0,0,0,0
1996,10,8,6,0,,13.1,4.3,55,101020,0,0,340,0,0,0,0,0,0,0,50,0.7,9,0,0,0,0,0,0,0,0,0,0,0,0
1996,10,8,7,0,,13,4.6,55,101030,0,0,340,14,2,13,1693,53,1673,0,290,0.5,9,0,0,0,0,0,0,0,0,0,0,0,0
1996,10,8,8,0,,13.7,4.8,54,101030,0,0,344,95,117,70,15427,11467,9377,0,320,4,9,0,0,0,0,0,0,0,0,0,0,0,0
1996,10,8,9,0,,14.2,5.1,54,101040,0,0,346,190,113,145,24945,11384,17528,0,290,4,9,0,0,0,0,0,0,0,0,0,0,0,0
1996,10,8,10,0,,14.8,5.8,53,100970,0,0,347,271,102,214,32759,10238,25317,0,290,2.5,9,0,0,0,0,0,0,0,0,0,0,0,0
1996,10,8,11,0,,15.7,6.4,51,100900,0,0,350,381,139,287,43718,13884,33328,0,290,3,8,0,0,0,0,0,0,0,0,0,0,0,0
1996,10,8,12,0,,17.7,7.1,50,100830,0,0,359,455,165,332,49786,16306,38133,0,290,3.8,8,0,0,0,0,0,0,0,0,0,0,0,0
1996,10,8,13,0,,18.8,7.1,47,100770,0,0,356,581,328,334,58535,32078,38394,0,290,4,6,0,0,0,0,0,0,0,0,0,0,0,0
1996,10,8,14,0,,19.9,7.1,45,100720,0,0,356,597,542,215,51975,50748,26902,0,320,4.7,5,0,0,0,0,0,0,0,0,0,0,0,0
1996,10,8,15,0,,20.4,7.1,42,100660,0,0,354,537,634,151,36373,53085,19262,0,290,3.3,3,0,0,0,0,0,0,0,0,0,0,0,0
1996,10,8,16,0,,20.4,5.2,39,100680,0,0,351,403,633,107,16627,32087,12638,0,320,3,3,0,0,0,0,0,0,0,0,0,0,0,0
1996,10,8,17,0,,19.6,3.4,36,100690,0,0,343,239,603,65,0,0,0,0,340,2.2,2,0,0,0,0,0,0,0,0,0,0,0,0
1996,10,8,18,0,,17.6,1.5,33,100710,0,0,330,69,43,26,0,0,0,0,360,1.2,2,0,0,0,0,0,0,0,0,0,0,0,0
1996,10,8,19,0,,16.2,0.3,32,100800,0,0,320,0,0,0,0,0,0,0,320,4.3,1,0,0,0,0,0,0,0,0,0,0,0,0
1996,10,8,20,0,,14.8,-1,32,100890,0,0,309,0,0,0,0,0,0,0,360,2,1,0,0,0,0,0,0,0,0,0,0,0,0
1996,10,8,21,0,,14.9,-2.2,31,100980,0,0,304,0,0,0,0,0,0,0,340,1.3,0,0,0,0,0,0,0,0,0,0,0,0,0
1996,10,8,22,0,,14.5,-1.9,32,101000,0,0,302,0,0,0,0,0,0,0,320,1.7,0,0,0,0,0,0,0,0,0,0,0,0,0
1996,10,8,23,0,,14.3,-1.7,33,101020,0,0,302,0,0,0,0,0,0,0,320,3.7,0,0,0,0,0,0,0,0,0,0,0,0,0
1996,10,8,24,0,,14.3,-1.4,34,101040,0,0,302,0,0,0,0,0,0,0,340,2.8,0,0,0,0,0,0,0,0,0,0,0,0,0
1996,10,9,1,0,,14.1,-0.9,36,101050,0,0,302,0,0,0,0,0,0,0,320,6.2,0,0,0,0,0,0,0,0,0,0,0,0,0
1996,10,9,2,0,,13.8,-0.5,37,101050,0,0,301,0,0,0,0,0,0,0,320,2.8,0,0,0,0,0,0,0,0,0,0,0,0,0
1996,10,9,3,0,,13.3,0,39,101060,0,0,299,0,0,0,0,0,0,0,320,5.2,0,0,0,0,0,0,0,0,0,0,0,0,0
1996,10,9,4,0,,13.3,0.9,43,101100,0,0,306,0,0,0,0,0,0,0,320,4.8,1,0,0,0,0,0,0,0,0,0,0,0,0
1996,10,9,5,0,,12.8,1.8,47,101140,0,0,309,0,0,0,0,0,0,0,290,3.5,2,0,0,0,0,0,0,0,0,0,0,0,0
1996,10,9,6,0,,12.6,2.7,51,101180,0,0,312,0,0,0,0,0,0,0,320,3.2,3,0,0,0,0,0,0,0,0,0,0,0,0
1996,10,9,7,0,,12.3,3.2,50,101190,0,0,308,35,17,17,2939,1618,2357,0,320,2.2,2,0,0,0,0,0,0,0,0,0,0,0,0
1996,10,9,8,0,,13,3.8,49,101190,0,0,308,168,567,49,36965,56547,7334,0,320,2.5,1,0,0,0,0,0,0,0,0,0,0,0,0
1996,10,9,9,0,,15.2,4.3,48,101200,0,0,312,349,668,83,56014,68212,11835,0,270,2.7,0,0,0,0,0,0,0,0,0,0,0,0,0
1996,10,9,10,0,,17.3,5.7,47,101170,0,0,323,519,742,107,69536,75869,14707,0,340,2.5,0,0,0,0,0,0,0,0,0,0,0,0,0
1996,10,9,11,0,,19.1,7.1,47,101130,0,0,333,635,739,139,74297,75010,18495,0,320,1,0,0,0,0,0,0,0,0,0,0,0,0,0
1996,10,9,12,0,,20.6,8.5,46,101100,0,0,342,693,717,166,73556,71432,22842,0,320,2,0,0,0,0,0,0,0,0,0,0,0,0,0
1996,10,9,13,0,,21.2,8.8,44,101040,0,0,350,693,688,179,66087,67198,24217,0,320,3,1,0,0,0,0,0,0,0,0,0,0,0,0
1996,10,9,14,0,,22.1,9.1,43,100990,0,0,358,651,698,161,54104,65667,21981,0,340,3.8,1,0,0,0,0,0,0,0,0,0,0,0,0
1996,10,9,15,0,,23.3,9.4,41,100930,0,0,368,545,672,139,35757,55351,18188,0,230,3,2,0,0,0,0,0,0,0,0,0,0,0,0
1996,10,9,16,0,,22.8,10,47,100950,0,0,367,418,706,92,15816,34707,11670,0,200,6.7,2,0,0,0,0,0,0,0,0,0,0,0,0
1996,10,9,17,0,,21.3,10.7,53,100960,0,0,361,222,531,72,0,0,0,0,200,4.7,3,0,0,0,0,0,0,0,0,0,0,0,0
1996,10,9,18,0,,19.6,11.3,59,100980,0,0,355,61,32,30,0,0,0,0,230,4.5,3,0,0,0,0,0,0,0,0,0,0,0,0
1996,10,9,19,0,,18.7,10.8,59,101000,0,0,348,0,0,0,0,0,0,0,290,1.3,2,0,0,0,0,0,0,0,0,0,0,0,0
1996,10,9,20,0,,18.4,10.3,58,101020,0,0,343,0,0,0,0,0,0,0,290,1.7,2,0,0,0,0,0,0,0,0,0,0,0,0
1996,10,9,21,0,,17.9,9.8,58,101040,0,0,337,0,0,0,0,0,0,0,340,1.3,1,0,0,0,0,0,0,0,0,0,0,0,0
1996,10,9,22,0,,17.4,8.8,56,101040,0,0,331,0,0,0,0,0,0,0,320,2,1,0,0,0,0,0,0,0,0,0,0,0,0
1996,10,9,23,0,,17.2,7.7,53,101050,0,0,327,0,0,0,0,0,0,0,320,0.8,0,0,0,0,0,0,0,0,0,0,0,0,0
1996,10,9,24,0,,16.7,6.7,51,101050,0,0,322,0,0,0,0,0,0,0,320,1.8,0,0,0,0,0,0,0,0,0,0,0,0,0
1996,10,10,1,0,,16.4,5.2,47,101060,0,0,319,0,0,0,0,0,0,0,340,7.8,0,0,0,0,0,0,0,0,0,0,0,0,0
1996,10,10,2,0,,16.1,3.8,44,101080,0,0,316,0,0,0,0,0,0,0,340,5.3,0,0,0,0,0,0,0,0,0,0,0,0,0
1996,10,10,3,0,,15.7,2.3,40,101090,0,0,312,0,0,0,0,0,0,0,340,5,0,0,0,0,0,0,0,0,0,0,0,0,0
1996,10,10,4,0,,15,0.5,36,101110,0,0,307,0,0,0,0,0,0,0,340,8.2,0,0,0,0,0,0,0,0,0,0,0,0,0
1996,10,10,5,0,,15.4,-1.2,32,101120,0,0,307,0,0,0,0,0,0,0,340,9.3,0,0,0,0,0,0,0,0,0,0,0,0,0
1996,10,10,6,0,,15.3,-3,28,101140,0,0,305,0,0,0,0,0,0,0,340,7.8,0,0,0,0,0,0,0,0,0,0,0,0,0
1996,10,10,7,0,,14.6,-2.4,28,101210,0,0,304,40,27,13,2863,2451,1989,0,340,6.5,0,0,0,0,0,0,0,0,0,0,0,0,0
1996,10,10,8,0,,14.3,-1.8,29,101290,0,0,306,177,659,40,40189,65442,6132,0,340,5.8,1,0,0,0,0,0,0,0,0,0,0,0,0
1996,10,10,9,0,,16.2,-1.2,29,101360,0,0,316,348,676,81,55864,68923,11492,0,320,2.8,1,0,0,0,0,0,0,0,0,0,0,0,0
1996,10,10,10,0,,18.8,0.7,30,101360,0,0,336,518,748,105,69195,76351,14336,0,70,1.3,2,0,0,0,0,0,0,0,0,0,0,0,0
1996,10,10,11,0,,20.7,2.7,30,101370,0,0,352,611,683,155,72385,69030,21336,0,70,2.2,4,0,0,0,0,0,0,0,0,0,0,0,0
1996,10,10,12,0,,22.5,4.6,31,101370,0,0,367,655,629,195,69675,62404,25660,0,110,2.5,5,0,0,0,0,0,0,0,0,0,0,0,0
1996,10,10,13,0,,21.8,4.7,32,101320,0,0,368,564,314,332,56860,30979,37706,0,90,2.5,6,0,0,0,0,0,0,0,0,0,0,0,0
1996,10,10,14,0,,21.1,4.9,34,101270,0,0,371,395,137,299,39929,13203,33534,0,70,1.2,8,0,0,0,0,0,0,0,0,0,0,0,0
1996,10,10,15,0,,21,5,35,101220,0,0,381,265,76,220,26654,6831,24519,0,110,1.3,9,0,0,0,0,0,0,0,0,0,0,0,0
1996,10,10,16,0,,20.2,5.9,40,101250,0,0,372,236,135,174,20042,9890,18908,0,110,2.2,8,0,0,0,0,0,0,0,0,0,0,0,0
1996,10,10,17,0,,19.2,6.8,44,101270,0,0,364,139,149,97,0,0,0,0,90,2.3,8,0,0,0,0,0,0,0,0,0,0,0,0
1996,10,10,18,0,,18.5,7.7,49,101300,0,0,358,46,17,28,0,0,0,0,50,4.7,7,0,0,0,0,0,0,0,0,0,0,0,0
1996,10,10,19,0,,17.8,8.6,55,101350,0,0,350,0,0,0,0,0,0,0,20,1.7,6,0,0,0,0,0,0,0,0,0,0,0,0
1996,10,10,20,0,,17.5,9.4,60,101410,0,0,346,0,0,0,0,0,0,0,20,2.3,4,0,0,0,0,0,0,0,0,0,0,0,0
1996,10,10,21,0,,16.7,10.3,66,101460,0,0,340,0,0,0,0,0,0,0,20,2.3,3,0,0,0,0,0,0,0,0,0,0,0,0
1996,10,10,22,0,,16.1,10.5,67,101470,0,0,334,0,0,0,0,0,0,0,20,2.2,2,0,0,0,0,0,0,0,0,0,0,0,0
1996,10,10,23,0,,16.1,10.8,69,101490,0,0,330,0,0,0,0,0,0,0,20,2.8,1,0,0,0,0,0,0,0,0,0,0,0,0
1996,10,10,24,0,,16.3,11,70,101500,0,0,325,0,0,0,0,0,0,0,20,2.7,0,0,0,0,0,0,0,0,0,0,0,0,0
1996,10,11,1,0,,16.1,10.8,71,101500,0,0,323,0,0,0,0,0,0,0,200,1.2,0,0,0,0,0,0,0,0,0,0,0,0,0
1996,10,11,2,0,,15.8,10.6,71,101490,0,0,322,0,0,0,0,0,0,0,270,0.7,0,0,0,0,0,0,0,0,0,0,0,0,0
1996,10,11,3,0,,15.4,10.4,72,101490,0,0,320,0,0,0,0,0,0,0,200,0.8,0,0,0,0,0,0,0,0,0,0,0,0,0
1996,10,11,4,0,,15.2,10.7,75,101490,0,0,319,0,0,0,0,0,0,0,140,0.5,0,0,0,0,0,0,0,0,0,0,0,0,0
1996,10,11,5,0,,15,11.1,78,101490,0,0,319,0,0,0,0,0,0,0,110,1.2,0,0,0,0,0,0,0,0,0,0,0,0,0
1996,10,11,6,0,,14.7,11.4,81,101490,0,0,318,0,0,0,0,0,0,0,160,1,0,0,0,0,0,0,0,0,0,0,0,0,0
1996,10,11,7,0,,14.6,12,77,101540,0,0,327,29,14,14,2422,1262,1976,0,180,0.7,2,0,0,0,0,0,0,0,0,0,0,0,0
1996,10,11,8,0,,15.5,12.5,72,101580,0,0,338,142,392,62,30209,38591,10265,0,180,0.5,3,0,0,0,0,0,0,0,0,0,0,0,0
1996,10,11,9,0,,19.3,13.1,68,101630,0,0,361,309,520,106,49250,51737,16145,0,20,3.5,5,0,0,0,0,0,0,0,0,0,0,0,0
1996,10,11,10,0,,21.4,12.8,62,101580,0,0,370,473,614,136,63639,61296,19855,0,50,4,5,0,0,0,0,0,0,0,0,0,0,0,0
1996,10,11,11,0,,23.3,12.6,55,101520,0,0,379,617,712,145,73130,71119,20853,0,70,4.2,4,0,0,0,0,0,0,0,0,0,0,0,0
1996,10,11,12,0,,23.7,12.3,49,101470,0,0,380,637,592,206,68047,57821,27534,0,90,4.2,4,0,0,0,0,0,0,0,0,0,0,0,0
1996,10,11,13,0,,23.6,12.3,49,101430,0,0,375,646,592,210,61945,55642,27810,0,70,6.7,3,0,0,0,0,0,0,0,0,0,0,0,0
1996,10,11,14,0,,23.7,12.2,49,101400,0,0,370,604,596,191,51083,53998,25194,0,90,4.5,1,0,0,0,0,0,0,0,0,0,0,0,0
1996,10,11,15,0,,23.6,12.2,49,101360,0,0,361,500,563,165,35049,44765,21276,0,90,4,0,0,0,0,0,0,0,0,0,0,0,0,0
1996,10,11,16,0,,22.8,11.8,52,101380,0,0,359,385,614,107,15771,26444,12865,0,70,5.5,0,0,0,0,0,0,0,0,0,0,0,0,0
1996,10,11,17,0,,21.1,11.4,55,101400,0,0,352,215,535,69,0,0,0,0,50,4.8,1,0,0,0,0,0,0,0,0,0,0,0,0
1996,10,11,18,0,,19.3,11,58,101420,0,0,345,59,32,28,0,0,0,0,50,3.3,1,0,0,0,0,0,0,0,0,0,0,0,0
1996,10,11,19,0,,18.6,11.1,60,101470,0,0,350,0,0,0,0,0,0,0,20,4.8,3,0,0,0,0,0,0,0,0,0,0,0,0
1996,10,11,20,0,,18.6,11.3,62,101530,0,0,355,0,0,0,0,0,0,0,20,2.7,5,0,0,0,0,0,0,0,0,0,0,0,0
1996,10,11,21,0,,18.3,11.4,64,101580,0,0,361,0,0,0,0,0,0,0,20,3.2,7,0,0,0,0,0,0,0,0,0,0,0,0
1996,10,11,22,0,,17.8,11.5,66,101570,0,0,357,0,0,0,0,0,0,0,20,3,7,0,0,0,0,0,0,0,0,0,0,0,0
1996,10,11,23,0,,17.3,11.7,68,101560,0,0,354,0,0,0,0,0,0,0,20,4.3,6,0,0,0,0,0,0,0,0,0,0,0,0
1996,10,11,24,0,,17.3,11.8,70,101550,0,0,353,0,0,0,0,0,0,0,20,3.8,6,0,0,0,0,0,0,0,0,0,0,0,0
1996,10,12,1,0,,17.2,11.9,71,101530,0,0,354,0,0,0,0,0,0,0,20,3.3,6,0,0,0,0,0,0,0,0,0,0,0,0
1996,10,12,2,0,,17.2,12,71,101520,0,0,355,0,0,0,0,0,0,0,20,3.5,7,0,0,0,0,0,0,0,0,0,0,0,0
1996,10,12,3,0,,17.1,12.1,72,101500,0,0,356,0,0,0,0,0,0,0,20,4,7,0,0,0,0,0,0,0,0,0,0,0,0
1996,10,12,4,0,,17.3,12.2,72,101490,0,0,363,0,0,0,0,0,0,0,360,3.7,8,0,0,0,0,0,0,0,0,0,0,0,0
1996,10,12,5,0,,17.5,12.4,72,101480,0,0,372,0,0,0,0,0,0,0,360,4.2,9,0,0,0,0,0,0,0,0,0,0,0,0
1996,10,12,6,0,,17.7,12.5,72,101470,0,0,384,0,0,0,0,0,0,0,50,1.8,10,0,0,0,0,0,0,0,0,0,0,0,0
1996,10,12,7,0,,17.5,12.9,73,101500,0,0,383,7,0,7,917,6,915,0,50,0.3,10,0,0,0,0,0,0,0,0,0,0,0,0
1996,10,12,8,0,,17.6,13.3,74,101520,0,0,384,53,26,47,7522,2449,6266,0,50,1.3,10,0,0,0,0,0,0,0,0,0,0,0,0
1996,10,12,9,0,,18.3,13.7,75,101550,0,0,389,116,31,104,14142,2852,12328,0,20,2.3,10,0,0,0,0,0,0,0,0,0,0,0,0
1996,10,12,10,0,,18.5,13.7,74,101560,0,0,390,166,29,151,19607,2625,17743,0,340,2.3,10,0,0,0,0,0,0,0,0,0,0,0,0
1996,10,12,11,0,,18.3,13.7,72,101570,0,0,389,203,26,186,23488,2435,21708,0,320,2,10,0,0,0,0,0,0,0,0,0,0,0,0
1996,10,12,12,0,,19.1,13.7,71,101580,0,0,393,229,27,209,26080,2488,24348,0,90,2,10,0,0,0,0,0,0,0,0,0,0,0,0
1996,10,12,13,0,,19.1,11.6,61,101510,0,0,386,249,32,225,27727,3032,25882,0,320,2.8,10,0,0,0,0,0,0,0,0,0,0,0,0
1996,10,12,14,0,,19.7,9.4,50,101440,0,0,383,307,72,258,32401,6753,29196,0,340,1,9,0,0,0,0,0,0,0,0,0,0,0,0
1996,10,12,15,0,,21.5,7.3,40,101370,0,0,387,301,113,234,29127,10139,26056,0,340,0.8,9,0,0,0,0,0,0,0,0,0,0,0,0
1996,10,12,16,0,,21.6,9.1,48,101370,0,0,375,294,283,167,19366,11543,18152,0,340,1.8,7,0,0,0,0,0,0,0,0,0,0,0,0
1996,10,12,17,0,,21.2,10.9,57,101360,0,0,368,204,489,73,0,0,0,0,180,4.8,5,0,0,0,0,0,0,0,0,0,0,0,0
1996,10,12,18,0,,19.3,12.7,65,101360,0,0,355,55,27,28,0,0,0,0,250,1.3,3,0,0,0,0,0,0,0,0,0,0,0,0
1996,10,12,19,0,,18.5,12.6,68,101360,0,0,348,0,0,0,0,0,0,0,230,0.5,2,0,0,0,0,0,0,0,0,0,0,0,0
1996,10,12,20,0,,17.9,12.6,70,101370,0,0,340,0,0,0,0,0,0,0,0,0,1,0,0,0,0,0,0,0,0,0,0,0,0
1996,10,12,21,0,,17.5,12.5,73,101370,0,0,332,0,0,0,0,0,0,0,0,0.2,0,0,0,0,0,0,0,0,0,0,0,0,0
1996,10,12,22,0,,16.9,12.4,74,101360,0,0,329,0,0,0,0,0,0,0,180,0.7,0,0,0,0,0,0,0,0,0,0,0,0,0
1996,10,12,23,0,,16.5,12.3,76,101340,0,0,327,0,0,0,0,0,0,0,180,0.8,0,0,0,0,0,0,0,0,0,0,0,0,0
1996,10,12,24,0,,16.2,12.2,77,101330,0,0,325,0,0,0,0,0,0,0,50,0.7,0,0,0,0,0,0,0,0,0,0,0,0,0
1996,10,13,1,0,,15.8,12.2,79,101310,0,0,324,0,0,0,0,0,0,0,250,0.8,0,0,0,0,0,0,0,0,0,0,0,0,0
1996,10,13,2,0,,15.4,12.2,81,101280,0,0,322,0,0,0,0,0,0,0,20,1.3,0,0,0,0,0,0,0,0,0,0,0,0,0
1996,10,13,3,0,,15,12.2,83,101260,0,0,320,0,0,0,0,0,0,0,70,0.8,0,0,0,0,0,0,0,0,0,0,0,0,0
1996,10,13,4,0,,14.8,12.2,84,101240,0,0,322,0,0,0,0,0,0,0,70,0.5,0,0,0,0,0,0,0,0,0,0,0,0,0
1996,10,13,5,0,,14.6,12.2,86,101210,0,0,323,0,0,0,0,0,0,0,0,0.2,1,0,0,0,0,0,0,0,0,0,0,0,0
1996,10,13,6,0,,14.4,12.2,87,101190,0,0,324,0,0,0,0,0,0,0,0,0,1,0,0,0,0,0,0,0,0,0,0,0,0
1996,10,13,7,0,,14.4,11.5,77,101200,0,0,323,28,15,13,2222,1330,1761,0,110,0.8,1,0,0,0,0,0,0,0,0,0,0,0,0
1996,10,13,8,0,,15.3,10.9,66,101210,0,0,326,151,512,50,34242,51917,7791,0,50,1,1,0,0,0,0,0,0,0,0,0,0,0,0
1996,10,13,9,0,,19.1,10.2,56,101220,0,0,343,341,685,77,55628,70311,11193,0,20,1.8,1,0,0,0,0,0,0,0,0,0,0,0,0
1996,10,13,10,0,,21.8,10.6,51,101190,0,0,355,525,806,89,70878,82790,12439,0,90,2.7,1,0,0,0,0,0,0,0,0,0,0,0,0
1996,10,13,11,0,,23.8,10.9,47,101170,0,0,363,654,835,107,77049,85878,14690,0,70,2.3,0,0,0,0,0,0,0,0,0,0,0,0,0
1996,10,13,12,0,,24.9,11.3,42,101140,0,0,366,703,787,137,73835,79820,18650,0,70,3.8,0,0,0,0,0,0,0,0,0,0,0,0,0
1996,10,13,13,0,,25.7,11.8,44,101070,0,0,380,677,694,171,64260,67294,23619,0,110,3,1,0,0,0,0,0,0,0,0,0,0,0,0
1996,10,13,14,0,,25.1,12.2,46,101000,0,0,383,577,545,204,49606,49049,26563,0,110,3.7,3,0,0,0,0,0,0,0,0,0,0,0,0
1996,10,13,15,0,,24.4,12.7,48,100930,0,0,384,457,454,191,33469,34429,23207,0,90,4,4,0,0,0,0,0,0,0,0,0,0,0,0
1996,10,13,16,0,,23.4,13.6,57,100910,0,0,380,317,377,150,18284,11600,17118,0,70,2.8,4,0,0,0,0,0,0,0,0,0,0,0,0
1996,10,13,17,0,,21.7,14.5,65,100900,0,0,372,174,314,90,0,0,0,0,90,2.3,4,0,0,0,0,0,0,0,0,0,0,0,0
1996,10,13,18,0,,20.1,15.4,74,100880,0,0,365,45,20,25,0,0,0,0,70,1.8,4,0,0,0,0,0,0,0,0,0,0,0,0
1996,10,13,19,0,,19.1,15.5,77,100860,0,0,363,0,0,0,0,0,0,0,50,2.2,5,0,0,0,0,0,0,0,0,0,0,0,0
1996,10,13,20,0,,18.7,15.6,81,100840,0,0,364,0,0,0,0,0,0,0,20,1.3,6,0,0,0,0,0,0,0,0,0,0,0,0
1996,10,13,21,0,,18.5,15.7,84,100820,0,0,368,0,0,0,0,0,0,0,20,2.3,7,0,0,0,0,0,0,0,0,0,0,0,0
1996,10,13,22,0,,18.1,15.5,84,100790,0,0,365,0,0,0,0,0,0,0,20,2.5,7,0,0,0,0,0,0,0,0,0,0,0,0
1996,10,13,23,0,,18,15.4,83,100760,0,0,365,0,0,0,0,0,0,0,20,1.2,7,0,0,0,0,0,0,0,0,0,0,0,0
1996,10,13,24,0,,18.1,15.2,83,100730,0,0,365,0,0,0,0,0,0,0,360,1.7,7,0,0,0,0,0,0,0,0,0,0,0,0
1996,10,14,1,0,,18,15,83,100680,0,0,366,0,0,0,0,0,0,0,160,0.8,7,0,0,0,0,0,0,0,0,0,0,0,0
1996,10,14,2,0,,17.8,14.7,82,100620,0,0,367,0,0,0,0,0,0,0,270,0.8,8,0,0,0,0,0,0,0,0,0,0,0,0
1996,10,14,3,0,,17.7,14.5,82,100570,0,0,368,0,0,0,0,0,0,0,320,1.8,8,0,0,0,0,0,0,0,0,0,0,0,0
1996,10,14,4,0,,17.7,13.6,77,100540,0,0,369,0,0,0,0,0,0,0,320,4.5,8,0,0,0,0,0,0,0,0,0,0,0,0
1996,10,14,5,0,,17.7,12.8,73,100500,0,0,371,0,0,0,0,0,0,0,230,2.5,9,0,0,0,0,0,0,0,0,0,0,0,0
1996,10,14,6,0,,17.7,11.9,68,100470,0,0,373,0,0,0,0,0,0,0,340,2.2,9,0,0,0,0,0,0,0,0,0,0,0,0
1996,10,14,7,0,,17.8,11.9,66,100460,0,0,370,11,1,10,1319,28,1309,0,160,2.2,9,0,0,0,0,0,0,0,0,0,0,0,0
1996,10,14,8,0,,17.9,11.8,65,100450,0,0,368,88,124,64,14753,11532,8920,0,70,1.5,8,0,0,0,0,0,0,0,0,0,0,0,0
1996,10,14,9,0,,19.1,11.8,63,100440,0,0,372,192,136,140,26330,12958,18192,0,90,0.7,8,0,0,0,0,0,0,0,0,0,0,0,0
1996,10,14,10,0,,21,12.3,59,100400,0,0,370,413,444,174,53779,42461,23986,0,110,1.7,5,0,0,0,0,0,0,0,0,0,0,0,0
1996,10,14,11,0,,23.5,12.9,54,100350,0,0,375,584,652,160,69199,64638,22552,0,140,1.5,3,0,0,0,0,0,0,0,0,0,0,0,0
1996,10,14,12,0,,24.5,13.4,50,100310,0,0,366,676,728,156,71469,71825,22146,0,180,2.8,0,0,0,0,0,0,0,0,0,0,0,0,0
1996,10,14,13,0,,23.9,13.2,49,100230,0,0,363,660,660,181,62923,63556,24842,0,180,5,0,0,0,0,0,0,0,0,0,0,0,0,0
1996,10,14,14,0,,24.8,13.1,49,100160,0,0,368,605,635,174,49818,56847,23385,0,180,4,0,0,0,0,0,0,0,0,0,0,0,0,0
1996,10,14,15,0,,24.6,12.9,48,100080,0,0,366,481,545,165,33618,42154,21254,0,160,1.7,0,0,0,0,0,0,0,0,0,0,0,0,0
1996,10,14,16,0,,23.7,12.6,51,100080,0,0,362,368,598,106,14747,22596,12581,0,180,3,0,0,0,0,0,0,0,0,0,0,0,0,0
1996,10,14,17,0,,21.9,12.2,54,100080,0,0,352,193,463,73,0,0,0,0,180,2.7,0,0,0,0,0,0,0,0,0,0,0,0,0
1996,10,14,18,0,,20.4,11.9,57,100080,0,0,345,53,27,26,0,0,0,0,180,1.3,0,0,0,0,0,0,0,0,0,0,0,0,0
1996,10,14,19,0,,19.5,12.1,61,100120,0,0,341,0,0,0,0,0,0,0,270,1.5,0,0,0,0,0,0,0,0,0,0,0,0,0
1996,10,14,20,0,,18.7,12.2,64,100160,0,0,337,0,0,0,0,0,0,0,270,1.5,0,0,0,0,0,0,0,0,0,0,0,0,0
1996,10,14,21,0,,18.5,12.4,68,100200,0,0,336,0,0,0,0,0,0,0,290,2.5,0,0,0,0,0,0,0,0,0,0,0,0,0
1996,10,14,22,0,,17.9,11.6,66,100190,0,0,333,0,0,0,0,0,0,0,50,0.7,0,0,0,0,0,0,0,0,0,0,0,0,0
1996,10,14,23,0,,17.7,10.7,63,100190,0,0,331,0,0,0,0,0,0,0,0,0,0,0,0,0,0,0,0,0,0,0,0,0,0
1996,10,14,24,0,,17.5,9.9,61,100180,0,0,329,0,0,0,0,0,0,0,90,0.8,0,0,0,0,0,0,0,0,0,0,0,0,0
1996,10,15,1,0,,17.4,9.5,60,100150,0,0,328,0,0,0,0,0,0,0,290,2.8,0,0,0,0,0,0,0,0,0,0,0,0,0
1996,10,15,2,0,,17.2,9.2,58,100110,0,0,327,0,0,0,0,0,0,0,290,2.3,0,0,0,0,0,0,0,0,0,0,0,0,0
1996,10,15,3,0,,17.1,8.8,57,100080,0,0,326,0,0,0,0,0,0,0,360,1.8,0,0,0,0,0,0,0,0,0,0,0,0,0
1996,10,15,4,0,,16.9,8.6,59,100090,0,0,325,0,0,0,0,0,0,0,340,7.3,0,0,0,0,0,0,0,0,0,0,0,0,0
1996,10,15,5,0,,15.7,8.3,60,100100,0,0,319,0,0,0,0,0,0,0,340,4,0,0,0,0,0,0,0,0,0,0,0,0,0
1996,10,15,6,0,,15.2,8.1,62,100110,0,0,316,0,0,0,0,0,0,0,320,4.2,0,0,0,0,0,0,0,0,0,0,0,0,0
1996,10,15,7,0,,14.6,7.5,58,100140,0,0,313,28,13,15,2478,1182,2076,0,340,6.3,0,0,0,0,0,0,0,0,0,0,0,0,0
1996,10,15,8,0,,14.6,6.8,54,100170,0,0,312,149,530,47,34235,53613,7317,0,340,4,0,0,0,0,0,0,0,0,0,0,0,0,0
1996,10,15,9,0,,16.5,6.2,50,100200,0,0,320,328,657,80,53367,67099,11497,0,360,3.8,0,0,0,0,0,0,0,0,0,0,0,0,0
1996,10,15,10,0,,18,3.7,41,100210,0,0,324,499,743,102,66965,75902,14034,0,360,4,0,0,0,0,0,0,0,0,0,0,0,0,0
1996,10,15,11,0,,18.8,1.1,32,100230,0,0,325,645,835,105,75046,84456,14477,0,360,6.3,0,0,0,0,0,0,0,0,0,0,0,0,0
1996,10,15,12,0,,20,-1.4,23,100240,0,0,327,694,786,135,71965,78895,18154,0,360,4.7,0,0,0,0,0,0,0,0,0,0,0,0,0
1996,10,15,13,0,,20.5,-1.2,23,100220,0,0,330,692,756,148,64791,74944,20242,0,340,4,0,0,0,0,0,0,0,0,0,0,0,0,0
1996,10,15,14,0,,21.3,-0.9,22,100200,0,0,334,628,712,148,50907,67245,19959,0,320,2.2,0,0,0,0,0,0,0,0,0,0,0,0,0
1996,10,15,15,0,,21.8,-0.7,22,100180,0,0,336,535,727,116,33031,60200,15657,0,290,3.3,0,0,0,0,0,0,0,0,0,0,0,0,0
1996,10,15,16,0,,21.5,-2.1,21,100250,0,0,333,409,777,72,12023,33656,8952,0,360,5.7,0,0,0,0,0,0,0,0,0,0,0,0,0
1996,10,15,17,0,,20.7,-3.6,20,100320,0,0,327,223,684,48,0,0,0,0,360,3.2,0,0,0,0,0,0,0,0,0,0,0,0,0
1996,10,15,18,0,,18.1,-5,19,100390,0,0,314,59,39,20,0,0,0,0,360,3,0,0,0,0,0,0,0,0,0,0,0,0,0
1996,10,15,19,0,,16.8,-5,21,100470,0,0,309,0,0,0,0,0,0,0,340,2.3,0,0,0,0,0,0,0,0,0,0,0,0,0
1996,10,15,20,0,,15.9,-5,22,100560,0,0,305,0,0,0,0,0,0,0,320,2.5,0,0,0,0,0,0,0,0,0,0,0,0,0
1996,10,15,21,0,,15.1,-5,24,100640,0,0,302,0,0,0,0,0,0,0,320,4.3,0,0,0,0,0,0,0,0,0,0,0,0,0
1996,10,15,22,0,,14.1,-4.2,27,100660,0,0,298,0,0,0,0,0,0,0,320,2.7,0,0,0,0,0,0,0,0,0,0,0,0,0
1996,10,15,23,0,,13.3,-3.3,30,100680,0,0,296,0,0,0,0,0,0,0,320,3.2,0,0,0,0,0,0,0,0,0,0,0,0,0
1996,10,15,24,0,,12.9,-2.5,33,100700,0,0,295,0,0,0,0,0,0,0,320,2.3,0,0,0,0,0,0,0,0,0,0,0,0,0
1996,10,16,1,0,,12.5,-1.1,38,100730,0,0,295,0,0,0,0,0,0,0,340,3.2,0,0,0,0,0,0,0,0,0,0,0,0,0
1996,10,16,2,0,,12.1,0.3,43,100760,0,0,294,0,0,0,0,0,0,0,340,2.8,0,0,0,0,0,0,0,0,0,0,0,0,0
1996,10,16,3,0,,12.2,1.7,48,100790,0,0,296,0,0,0,0,0,0,0,340,3.3,0,0,0,0,0,0,0,0,0,0,0,0,0
1996,10,16,4,0,,11.6,1.8,50,100850,0,0,294,0,0,0,0,0,0,0,320,3.7,0,0,0,0,0,0,0,0,0,0,0,0,0
1996,10,16,5,0,,11,2,53,100920,0,0,291,0,0,0,0,0,0,0,320,4.8,0,0,0,0,0,0,0,0,0,0,0,0,0
1996,10,16,6,0,,10.7,2.1,55,100980,0,0,290,0,0,0,0,0,0,0,320,4.8,0,0,0,0,0,0,0,0,0,0,0,0,0
1996,10,16,7,0,,10.7,1.8,52,101040,0,0,290,30,17,13,2303,1543,1784,0,320,9.2,0,0,0,0,0,0,0,0,0,0,0,0,0
1996,10,16,8,0,,10.8,1.6,50,101110,0,0,290,161,663,36,38343,65770,5567,0,320,10.2,0,0,0,0,0,0,0,0,0,0,0,0,0
1996,10,16,9,0,,12.5,1.3,47,101170,0,0,297,340,725,68,55103,72933,9885,0,340,5.3,0,0,0,0,0,0,0,0,0,0,0,0,0
1996,10,16,10,0,,13.5,1.6,43,101180,0,0,304,492,732,103,65917,74586,14221,0,320,5.5,0,0,0,0,0,0,0,0,0,0,0,0,0
1996,10,16,11,0,,15.1,2,40,101180,0,0,313,611,751,128,71352,76032,17165,0,340,4.2,1,0,0,0,0,0,0,0,0,0,0,0,0
1996,10,16,12,0,,17.4,2.3,36,101190,0,0,326,669,732,152,70654,73417,20920,0,290,2.7,1,0,0,0,0,0,0,0,0,0,0,0,0
1996,10,16,13,0,,19.3,2.1,34,101150,0,0,332,698,784,137,65006,77685,19195,0,160,1.2,1,0,0,0,0,0,0,0,0,0,0,0,0
1996,10,16,14,0,,20.1,1.9,33,101110,0,0,334,657,804,119,51721,76578,16841,0,180,4,0,0,0,0,0,0,0,0,0,0,0,0,0
1996,10,16,15,0,,19.2,1.7,31,101070,0,0,327,538,751,109,32521,62029,14909,0,180,5.2,0,0,0,0,0,0,0,0,0,0,0,0,0
1996,10,16,16,0,,18.1,2.1,35,101100,0,0,330,372,647,94,12828,25743,10595,0,180,4.7,1,0,0,0,0,0,0,0,0,0,0,0,0
1996,10,16,17,0,,16.9,2.5,38,101140,0,0,330,191,502,66,0,0,0,0,200,5,3,0,0,0,0,0,0,0,0,0,0,0,0
1996,10,16,18,0,,15.6,2.9,42,101170,0,0,328,47,20,27,0,0,0,0,180,2.3,4,0,0,0,0,0,0,0,0,0,0,0,0
1996,10,16,19,0,,14.5,2.6,42,101190,0,0,319,0,0,0,0,0,0,0,250,2,3,0,0,0,0,0,0,0,0,0,0,0,0
1996,10,16,20,0,,14,2.2,43,101210,0,0,312,0,0,0,0,0,0,0,250,2,1,0,0,0,0,0,0,0,0,0,0,0,0
1996,10,16,21,0,,14.1,1.9,43,101230,0,0,305,0,0,0,0,0,0,0,250,2.3,0,0,0,0,0,0,0,0,0,0,0,0,0
1996,10,16,22,0,,14.1,2,44,101230,0,0,305,0,0,0,0,0,0,0,320,1.3,0,0,0,0,0,0,0,0,0,0,0,0,0
1996,10,16,23,0,,13.9,2.2,46,101240,0,0,304,0,0,0,0,0,0,0,290,1.5,0,0,0,0,0,0,0,0,0,0,0,0,0
1996,10,16,24,0,,13.3,2.3,47,101240,0,0,302,0,0,0,0,0,0,0,270,1,0,0,0,0,0,0,0,0,0,0,0,0,0
1996,10,17,1,0,,13.1,2.7,49,101240,0,0,301,0,0,0,0,0,0,0,290,1.5,0,0,0,0,0,0,0,0,0,0,0,0,0
1996,10,17,2,0,,12.8,3.2,51,101230,0,0,300,0,0,0,0,0,0,0,290,1.2,0,0,0,0,0,0,0,0,0,0,0,0,0
1996,10,17,3,0,,12.7,3.6,53,101230,0,0,300,0,0,0,0,0,0,0,290,2.3,0,0,0,0,0,0,0,0,0,0,0,0,0
1996,10,17,4,0,,12.5,4,56,101240,0,0,300,0,0,0,0,0,0,0,290,2,0,0,0,0,0,0,0,0,0,0,0,0,0
1996,10,17,5,0,,12.3,4.4,59,101260,0,0,300,0,0,0,0,0,0,0,340,1.8,0,0,0,0,0,0,0,0,0,0,0,0,0
1996,10,17,6,0,,11.8,4.8,62,101270,0,0,298,0,0,0,0,0,0,0,340,1.7,0,0,0,0,0,0,0,0,0,0,0,0,0
1996,10,17,7,0,,11.2,5.5,61,101280,0,0,296,24,13,11,1935,1162,1548,0,320,2.2,0,0,0,0,0,0,0,0,0,0,0,0,0
1996,10,17,8,0,,11.5,6.3,60,101300,0,0,298,137,467,50,31005,46976,7770,0,70,0.8,0,0,0,0,0,0,0,0,0,0,0,0,0
1996,10,17,9,0,,15,7,59,101310,0,0,314,318,638,81,51764,65030,11709,0,160,0.7,0,0,0,0,0,0,0,0,0,0,0,0,0
1996,10,17,10,0,,17.2,7.1,53,101280,0,0,330,501,775,93,67351,78936,12978,0,250,3,1,0,0,0,0,0,0,0,0,0,0,0,0
1996,10,17,11,0,,17.3,7.3,48,101250,0,0,336,594,713,138,70423,71721,19629,0,250,2.8,2,0,0,0,0,0,0,0,0,0,0,0,0
1996,10,17,12,0,,20.6,7.4,42,101220,0,0,355,654,703,160,69116,69914,22078,0,230,3.8,3,0,0,0,0,0,0,0,0,0,0,0,0
1996,10,17,13,0,,21.1,7.9,45,101150,0,0,361,630,616,192,59615,59156,25009,0,180,4.5,4,0,0,0,0,0,0,0,0,0,0,0,0
1996,10,17,14,0,,19.9,8.4,47,101090,0,0,358,549,517,206,47209,47223,25921,0,180,6.8,5,0,0,0,0,0,0,0,0,0,0,0,0
1996,10,17,15,0,,19.6,8.9,50,101020,0,0,361,397,299,228,32209,23280,25706,0,180,7,6,0,0,0,0,0,0,0,0,0,0,0,0
1996,10,17,16,0,,19,9.3,54,101010,0,0,357,271,267,157,17627,8587,16921,0,180,4.7,6,0,0,0,0,0,0,0,0,0,0,0,0
1996,10,17,17,0,,17.9,9.6,59,101010,0,0,351,165,342,81,0,0,0,0,200,5,5,0,0,0,0,0,0,0,0,0,0,0,0
1996,10,17,18,0,,17,10,63,101000,0,0,346,43,23,20,0,0,0,0,230,4.2,5,0,0,0,0,0,0,0,0,0,0,0,0
1996,10,17,19,0,,16.4,9.5,62,101000,0,0,344,0,0,0,0,0,0,0,250,4.7,6,0,0,0,0,0,0,0,0,0,0,0,0
1996,10,17,20,0,,16.3,9,62,101010,0,0,346,0,0,0,0,0,0,0,290,2.5,6,0,0,0,0,0,0,0,0,0,0,0,0
1996,10,17,21,0,,16.1,8.5,61,101010,0,0,347,0,0,0,0,0,0,0,250,2.8,7,0,0,0,0,0,0,0,0,0,0,0,0
1996,10,17,22,0,,15.5,8.9,64,101010,0,0,345,0,0,0,0,0,0,0,250,3.5,7,0,0,0,0,0,0,0,0,0,0,0,0
1996,10,17,23,0,,15.2,9.4,67,101000,0,0,344,0,0,0,0,0,0,0,250,3.8,7,0,0,0,0,0,0,0,0,0,0,0,0
1996,10,17,24,0,,15.1,9.8,70,101000,0,0,344,0,0,0,0,0,0,0,250,3,7,0,0,0,0,0,0,0,0,0,0,0,0
1996,10,18,1,0,,15.1,10,71,100980,0,0,344,0,0,0,0,0,0,0,250,2.8,7,0,0,0,0,0,0,0,0,0,0,0,0
1996,10,18,2,0,,15.2,10.3,73,100950,0,0,345,0,0,0,0,0,0,0,250,2.8,7,0,0,0,0,0,0,0,0,0,0,0,0
1996,10,18,3,0,,15.2,10.5,74,100930,0,0,345,0,0,0,0,0,0,0,270,2.7,7,0,0,0,0,0,0,0,0,0,0,0,0
1996,10,18,4,0,,15.3,9.9,71,100890,0,0,348,0,0,0,0,0,0,0,320,2.5,8,0,0,0,0,0,0,0,0,0,0,0,0
1996,10,18,5,0,,15.3,9.2,67,100860,0,0,352,0,0,0,0,0,0,0,250,2.2,8,0,0,0,0,0,0,0,0,0,0,0,0
1996,10,18,6,0,,15.4,8.6,64,100820,0,0,357,0,0,0,0,0,0,0,230,2.2,9,0,0,0,0,0,0,0,0,0,0,0,0
1996,10,18,7,0,,15.4,9.3,65,100820,0,0,358,8,1,8,1045,17,1040,0,200,1.3,9,0,0,0,0,0,0,0,0,0,0,0,0
1996,10,18,8,0,,15.6,10,66,100820,0,0,359,67,70,54,10846,6568,7622,0,180,1.7,9,0,0,0,0,0,0,0,0,0,0,0,0
1996,10,18,9,0,,16.7,10.7,67,100820,0,0,366,155,84,124,20343,8114,15378,0,340,2.7,9,0,0,0,0,0,0,0,0,0,0,0,0
1996,10,18,10,0,,19.1,11.3,62,100790,0,0,367,334,235,211,41753,22664,26239,0,250,2.2,7,0,0,0,0,0,0,0,0,0,0,0,0
1996,10,18,11,0,,22.1,11.8,58,100770,0,0,376,505,467,209,59224,44642,27808,0,230,2.2,6,0,0,0,0,0,0,0,0,0,0,0,0
1996,10,18,12,0,,22.3,12.4,53,100740,0,0,373,640,677,167,67765,66601,23264,0,180,7.3,4,0,0,0,0,0,0,0,0,0,0,0,0
1996,10,18,13,0,,23.1,12.4,54,100670,0,0,382,568,462,242,56037,43015,31075,0,180,7.3,6,0,0,0,0,0,0,0,0,0,0,0,0
1996,10,18,14,0,,21.8,12.5,54,100610,0,0,382,411,186,288,40587,16426,33259,0,200,6.2,7,0,0,0,0,0,0,0,0,0,0,0,0
1996,10,18,15,0,,21.8,12.5,55,100540,0,0,395,247,77,204,24648,6514,22858,0,200,4.2,9,0,0,0,0,0,0,0,0,0,0,0,0
1996,10,18,16,0,,20.1,12.5,58,100560,0,0,386,154,54,131,14638,3404,14373,0,200,4.2,9,0,0,0,0,0,0,0,0,0,0,0,0
1996,10,18,17,0,,19.8,12.5,60,100580,0,0,384,90,68,74,0,0,0,0,230,3.3,9,0,0,0,0,0,0,0,0,0,0,0,0
1996,10,18,18,0,,19.7,12.5,63,100600,0,0,384,20,2,17,0,0,0,0,250,3.3,9,0,0,0,0,0,0,0,0,0,0,0,0
1996,10,18,19,0,,19.3,12.5,65,100620,0,0,369,0,0,0,0,0,0,0,270,1.7,7,0,0,0,0,0,0,0,0,0,0,0,0
1996,10,18,20,0,,18.8,12.4,67,100640,0,0,360,0,0,0,0,0,0,0,290,1,6,0,0,0,0,0,0,0,0,0,0,0,0
1996,10,18,21,0,,18.2,12.4,69,100660,0,0,352,0,0,0,0,0,0,0,320,2.2,4,0,0,0,0,0,0,0,0,0,0,0,0
1996,10,18,22,0,,17.8,12.5,70,100650,0,0,352,0,0,0,0,0,0,0,320,2.2,5,0,0,0,0,0,0,0,0,0,0,0,0
1996,10,18,23,0,,17.8,12.5,72,100650,0,0,354,0,0,0,0,0,0,0,360,0.8,5,0,0,0,0,0,0,0,0,0,0,0,0
1996,10,18,24,0,,17.6,12.6,73,100640,0,0,355,0,0,0,0,0,0,0,50,0.5,6,0,0,0,0,0,0,0,0,0,0,0,0
1996,10,19,1,0,,17.3,12.9,76,100630,0,0,354,0,0,0,0,0,0,0,320,0.8,6,0,0,0,0,0,0,0,0,0,0,0,0
1996,10,19,2,0,,17,13.2,79,100630,0,0,353,0,0,0,0,0,0,0,20,1.2,6,0,0,0,0,0,0,0,0,0,0,0,0
1996,10,19,3,0,,16.7,13.5,82,100620,0,0,352,0,0,0,0,0,0,0,340,0.5,6,0,0,0,0,0,0,0,0,0,0,0,0
1996,10,19,4,0,,16.5,12.2,77,100650,0,0,353,0,0,0,0,0,0,0,320,2.8,7,0,0,0,0,0,0,0,0,0,0,0,0
1996,10,19,5,0,,16.4,10.8,71,100680,0,0,357,0,0,0,0,0,0,0,340,4.3,8,0,0,0,0,0,0,0,0,0,0,0,0
1996,10,19,6,0,,15.7,9.5,66,100710,0,0,359,0,0,0,0,0,0,0,340,6.7,9,0,0,0,0,0,0,0,0,0,0,0,0
1996,10,19,7,0,,15.2,9.6,65,100780,0,0,352,11,1,9,1253,36,1241,0,320,4.5,8,0,0,0,0,0,0,0,0,0,0,0,0
1996,10,19,8,0,,15.1,9.6,63,100840,0,0,347,75,102,57,12617,9621,7932,0,340,2.2,8,0,0,0,0,0,0,0,0,0,0,0,0
1996,10,19,9,0,,16.3,9.7,62,100910,0,0,349,204,191,134,28579,18519,17322,0,340,1,7,0,0,0,0,0,0,0,0,0,0,0,0
1996,10,19,10,0,,18.7,10,57,100890,0,0,356,372,344,193,48295,33185,25722,0,20,1.8,6,0,0,0,0,0,0,0,0,0,0,0,0
1996,10,19,11,0,,20.3,10.4,53,100880,0,0,361,543,589,171,64380,58383,23556,0,360,1.8,4,0,0,0,0,0,0,0,0,0,0,0,0
1996,10,19,12,0,,22.1,10.7,48,100860,0,0,367,643,698,159,67951,68897,22233,0,70,2.8,3,0,0,0,0,0,0,0,0,0,0,0,0
1996,10,19,13,0,,22.3,11.2,52,100850,0,0,373,557,444,246,53923,41724,29903,0,140,2.8,5,0,0,0,0,0,0,0,0,0,0,0,0
1996,10,19,14,0,,21.1,11.7,56,100850,0,0,373,442,237,287,42263,21033,32977,0,110,2.8,6,0,0,0,0,0,0,0,0,0,0,0,0
1996,10,19,15,0,,20.1,12.2,60,100840,0,0,377,265,96,211,25870,8171,23662,0,110,3.5,8,0,0,0,0,0,0,0,0,0,0,0,0
1996,10,19,16,0,,21.5,12.5,64,100890,0,0,385,209,132,154,17339,8534,16712,0,70,2.5,8,0,0,0,0,0,0,0,0,0,0,0,0
1996,10,19,17,0,,20,12.8,67,100950,0,0,378,114,140,80,0,0,0,0,70,4.3,8,0,0,0,0,0,0,0,0,0,0,0,0
1996,10,19,18,0,,18.3,13.1,71,101000,0,0,369,27,6,21,0,0,0,0,50,5.7,8,0,0,0,0,0,0,0,0,0,0,0,0
1996,10,19,19,0,,16.9,12.4,71,101080,0,0,361,0,0,0,0,0,0,0,50,5.2,8,0,0,0,0,0,0,0,0,0,0,0,0
1996,10,19,20,0,,16.3,11.8,71,101160,0,0,358,0,0,0,0,0,0,0,20,4.8,8,0,0,0,0,0,0,0,0,0,0,0,0
1996,10,19,21,0,,16.2,11.1,71,101240,0,0,356,0,0,0,0,0,0,0,20,4.7,8,0,0,0,0,0,0,0,0,0,0,0,0
1996,10,19,22,0,,16,10.9,73,101300,0,0,343,0,0,0,0,0,0,0,20,4.3,5,0,0,0,0,0,0,0,0,0,0,0,0
1996,10,19,23,0,,15.1,10.8,75,101350,0,0,332,0,0,0,0,0,0,0,20,5.2,3,0,0,0,0,0,0,0,0,0,0,0,0
1996,10,19,24,0,,14.6,10.6,77,101410,0,0,317,0,0,0,0,0,0,0,20,4.7,0,0,0,0,0,0,0,0,0,0,0,0,0
1996,10,20,1,0,,14.6,10.4,77,101430,0,0,316,0,0,0,0,0,0,0,20,4.7,0,0,0,0,0,0,0,0,0,0,0,0,0
1996,10,20,2,0,,14.2,10.2,78,101440,0,0,314,0,0,0,0,0,0,0,20,4.5,0,0,0,0,0,0,0,0,0,0,0,0,0
1996,10,20,3,0,,13.7,10,78,101460,0,0,312,0,0,0,0,0,0,0,20,4.3,0,0,0,0,0,0,0,0,0,0,0,0,0
1996,10,20,4,0,,13.5,9.6,77,101490,0,0,311,0,0,0,0,0,0,0,20,3.8,0,0,0,0,0,0,0,0,0,0,0,0,0
1996,10,20,5,0,,13.2,9.2,76,101520,0,0,309,0,0,0,0,0,0,0,20,3.7,0,0,0,0,0,0,0,0,0,0,0,0,0
1996,10,20,6,0,,13.2,8.8,75,101550,0,0,308,0,0,0,0,0,0,0,20,4.5,0,0,0,0,0,0,0,0,0,0,0,0,0
1996,10,20,7,0,,13.1,9,71,101630,0,0,308,21,12,10,1710,1004,1386,0,20,3.3,0,0,0,0,0,0,0,0,0,0,0,0,0
1996,10,20,8,0,,13.8,9.3,68,101710,0,0,312,138,552,42,32997,55146,6349,0,20,4.7,0,0,0,0,0,0,0,0,0,0,0,0,0
1996,10,20,9,0,,16.2,9.5,64,101790,0,0,322,310,641,78,50880,65452,11362,0,20,3.3,0,0,0,0,0,0,0,0,0,0,0,0,0
1996,10,20,10,0,,17.6,9.7,60,101760,0,0,341,461,678,112,62183,69085,15486,0,20,3.8,2,0,0,0,0,0,0,0,0,0,0,0,0
1996,10,20,11,0,,17.9,9.8,57,101740,0,0,349,501,476,203,58766,46136,26713,0,70,4.5,5,0,0,0,0,0,0,0,0,0,0,0,0
1996,10,20,12,0,,19.8,10,53,101710,0,0,367,484,258,306,52577,24886,36178,0,90,4.8,7,0,0,0,0,0,0,0,0,0,0,0,0
1996,10,20,13,0,,19.8,9.4,52,101690,0,0,365,479,240,312,48878,22749,35887,0,70,6.3,7,0,0,0,0,0,0,0,0,0,0,0,0
1996,10,20,14,0,,19.2,8.8,51,101660,0,0,360,480,317,274,43827,28785,31250,0,70,5.5,6,0,0,0,0,0,0,0,0,0,0,0,0
1996,10,20,15,0,,18.9,8.2,50,101640,0,0,356,382,290,221,30828,22265,24912,0,70,6.2,6,0,0,0,0,0,0,0,0,0,0,0,0
1996,10,20,16,0,,18.7,8.3,53,101660,0,0,354,285,350,142,15665,7709,15132,0,50,7.3,6,0,0,0,0,0,0,0,0,0,0,0,0
1996,10,20,17,0,,17.3,8.3,57,101690,0,0,346,159,366,74,0,0,0,0,50,5.8,5,0,0,0,0,0,0,0,0,0,0,0,0
1996,10,20,18,0,,16.2,8.4,60,101710,0,0,340,39,20,19,0,0,0,0,50,5,5,0,0,0,0,0,0,0,0,0,0,0,0
1996,10,20,19,0,,15.4,8.3,62,101760,0,0,334,0,0,0,0,0,0,0,50,4.5,4,0,0,0,0,0,0,0,0,0,0,0,0
1996,10,20,20,0,,14.9,8.1,64,101820,0,0,329,0,0,0,0,0,0,0,20,3.8,3,0,0,0,0,0,0,0,0,0,0,0,0
1996,10,20,21,0,,14.3,8,66,101870,0,0,323,0,0,0,0,0,0,0,20,3.7,2,0,0,0,0,0,0,0,0,0,0,0,0
1996,10,20,22,0,,13.7,7.8,66,101900,0,0,317,0,0,0,0,0,0,0,20,2.3,1,0,0,0,0,0,0,0,0,0,0,0,0
1996,10,20,23,0,,13.5,7.5,66,101920,0,0,312,0,0,0,0,0,0,0,20,3.7,1,0,0,0,0,0,0,0,0,0,0,0,0
1996,10,20,24,0,,13.4,7.3,66,101950,0,0,308,0,0,0,0,0,0,0,20,3,0,0,0,0,0,0,0,0,0,0,0,0,0
1996,10,21,1,0,,13.6,7.6,68,101930,0,0,309,0,0,0,0,0,0,0,20,3.7,0,0,0,0,0,0,0,0,0,0,0,0,0
1996,10,21,2,0,,13.4,7.8,69,101910,0,0,308,0,0,0,0,0,0,0,20,3.7,0,0,0,0,0,0,0,0,0,0,0,0,0
1996,10,21,3,0,,13.1,8.1,71,101890,0,0,307,0,0,0,0,0,0,0,20,1.8,0,0,0,0,0,0,0,0,0,0,0,0,0
1996,10,21,4,0,,13,8.2,72,101890,0,0,314,0,0,0,0,0,0,0,20,2.8,1,0,0,0,0,0,0,0,0,0,0,0,0
1996,10,21,5,0,,13,8.4,72,101890,0,0,319,0,0,0,0,0,0,0,20,3.3,3,0,0,0,0,0,0,0,0,0,0,0,0
1996,10,21,6,0,,13.2,8.5,73,101890,0,0,324,0,0,0,0,0,0,0,20,4,4,0,0,0,0,0,0,0,0,0,0,0,0
1996,10,21,7,0,,13,8.7,70,101920,0,0,327,17,6,11,1502,476,1350,0,20,4.2,5,0,0,0,0,0,0,0,0,0,0,0,0
1996,10,21,8,0,,13.7,8.8,68,101940,0,0,334,94,224,55,18823,21004,8754,0,20,2.3,7,0,0,0,0,0,0,0,0,0,0,0,0
1996,10,21,9,0,,15.7,9,65,101970,0,0,351,197,183,131,27572,17818,16886,0,20,4.5,8,0,0,0,0,0,0,0,0,0,0,0,0
1996,10,21,10,0,,16.6,8.5,60,101970,0,0,357,299,183,206,37283,17970,25213,0,50,2.5,8,0,0,0,0,0,0,0,0,0,0,0,0
1996,10,21,11,0,,16.8,8,55,101970,0,0,360,323,114,251,37249,11277,29465,0,50,5.3,9,0,0,0,0,0,0,0,0,0,0,0,0
1996,10,21,12,0,,18.1,7.5,50,101970,0,0,369,357,110,282,39726,10787,32667,0,70,4.3,9,0,0,0,0,0,0,0,0,0,0,0,0
1996,10,21,13,0,,19.5,7.6,48,101910,0,0,368,421,168,305,44011,16070,34908,0,70,3.8,8,0,0,0,0,0,0,0,0,0,0,0,0
1996,10,21,14,0,,20.3,7.7,47,101850,0,0,367,467,298,274,42938,27069,31235,0,70,5,7,0,0,0,0,0,0,0,0,0,0,0,0
1996,10,21,15,0,,20.1,7.8,45,101790,0,0,362,403,382,194,29961,28608,22485,0,70,5,6,0,0,0,0,0,0,0,0,0,0,0,0
1996,10,21,16,0,,18.8,7.8,50,101800,0,0,351,308,461,121,13651,9775,13016,0,70,7.3,5,0,0,0,0,0,0,0,0,0,0,0,0
1996,10,21,17,0,,17.3,7.8,54,101820,0,0,340,166,445,65,0,0,0,0,50,4.7,3,0,0,0,0,0,0,0,0,0,0,0,0
1996,10,21,18,0,,15.7,7.8,59,101830,0,0,329,40,18,23,0,0,0,0,50,3.3,2,0,0,0,0,0,0,0,0,0,0,0,0
1996,10,21,19,0,,14.8,7.8,61,101860,0,0,323,0,0,0,0,0,0,0,50,4.2,2,0,0,0,0,0,0,0,0,0,0,0,0
1996,10,21,20,0,,14.6,7.7,62,101900,0,0,321,0,0,0,0,0,0,0,50,2.2,1,0,0,0,0,0,0,0,0,0,0,0,0
1996,10,21,21,0,,14.3,7.7,64,101930,0,0,318,0,0,0,0,0,0,0,50,3.5,1,0,0,0,0,0,0,0,0,0,0,0,0
1996,10,21,22,0,,13.8,7.7,65,101880,0,0,320,0,0,0,0,0,0,0,20,4,2,0,0,0,0,0,0,0,0,0,0,0,0
1996,10,21,23,0,,13.6,7.7,66,101820,0,0,322,0,0,0,0,0,0,0,20,4.2,3,0,0,0,0,0,0,0,0,0,0,0,0
1996,10,21,24,0,,13.6,7.7,67,101770,0,0,325,0,0,0,0,0,0,0,20,4,4,0,0,0,0,0,0,0,0,0,0,0,0
1996,10,22,1,0,,13.6,8.1,68,101760,0,0,325,0,0,0,0,0,0,0,20,2,4,0,0,0,0,0,0,0,0,0,0,0,0
1996,10,22,2,0,,13.8,8.5,70,101760,0,0,327,0,0,0,0,0,0,0,20,3.3,4,0,0,0,0,0,0,0,0,0,0,0,0
1996,10,22,3,0,,14,8.9,71,101750,0,0,328,0,0,0,0,0,0,0,20,4.3,4,0,0,0,0,0,0,0,0,0,0,0,0
1996,10,22,4,0,,14,8.7,71,101740,0,0,325,0,0,0,0,0,0,0,20,4,3,0,0,0,0,0,0,0,0,0,0,0,0
1996,10,22,5,0,,13.7,8.6,70,101730,0,0,321,0,0,0,0,0,0,0,20,3.8,2,0,0,0,0,0,0,0,0,0,0,0,0
1996,10,22,6,0,,13.7,8.4,70,101720,0,0,316,0,0,0,0,0,0,0,20,4.5,1,0,0,0,0,0,0,0,0,0,0,0,0
1996,10,22,7,0,,13.7,9,67,101740,0,0,317,19,10,9,1592,867,1318,0,20,3.3,1,0,0,0,0,0,0,0,0,0,0,0,0
1996,10,22,8,0,,14.9,9.6,64,101750,0,0,323,137,585,38,33592,58457,5791,0,20,4.8,1,0,0,0,0,0,0,0,0,0,0,0,0
1996,10,22,9,0,,17.6,10.2,61,101770,0,0,336,320,722,64,53165,73488,9395,0,20,5.2,1,0,0,0,0,0,0,0,0,0,0,0,0
1996,10,22,10,0,,19.9,10.6,58,101760,0,0,352,473,744,95,64364,76299,13449,0,70,3.2,2,0,0,0,0,0,0,0,0,0,0,0,0
1996,10,22,11,0,,21,10.9,54,101740,0,0,361,578,727,128,68188,73876,17522,0,70,4.5,3,0,0,0,0,0,0,0,0,0,0,0,0
1996,10,22,12,0,,22,11.3,51,101730,0,0,370,612,648,171,64847,63564,23539,0,50,6.7,4,0,0,0,0,0,0,0,0,0,0,0,0
1996,10,22,13,0,,21.9,11.2,51,101690,0,0,369,578,534,210,55511,50001,27416,0,50,6.8,4,0,0,0,0,0,0,0,0,0,0,0,0
1996,10,22,14,0,,21.5,11.2,50,101660,0,0,367,524,504,201,44814,44733,25675,0,50,6.5,4,0,0,0,0,0,0,0,0,0,0,0,0
1996,10,22,15,0,,21.9,11.1,50,101620,0,0,369,435,500,163,28908,36092,19635,0,50,7.3,4,0,0,0,0,0,0,0,0,0,0,0,0
1996,10,22,16,0,,20.8,11.1,55,101650,0,0,365,293,413,127,14285,6737,13876,0,50,6.8,5,0,0,0,0,0,0,0,0,0,0,0,0
1996,10,22,17,0,,19,11.1,60,101680,0,0,358,153,368,71,0,0,0,0,50,8.3,5,0,0,0,0,0,0,0,0,0,0,0,0
1996,10,22,18,0,,17.7,11.1,65,101710,0,0,354,31,12,20,0,0,0,0,50,6.8,6,0,0,0,0,0,0,0,0,0,0,0,0
1996,10,22,19,0,,17.4,11.2,68,101750,0,0,347,0,0,0,0,0,0,0,20,4.3,4,0,0,0,0,0,0,0,0,0,0,0,0
1996,10,22,20,0,,16.6,11.3,71,101790,0,0,337,0,0,0,0,0,0,0,20,3.3,2,0,0,0,0,0,0,0,0,0,0,0,0
1996,10,22,21,0,,16,11.4,74,101830,0,0,324,0,0,0,0,0,0,0,20,4.5,0,0,0,0,0,0,0,0,0,0,0,0,0
1996,10,22,22,0,,15.9,11.7,76,101820,0,0,324,0,0,0,0,0,0,0,20,4.2,0,0,0,0,0,0,0,0,0,0,0,0,0
1996,10,22,23,0,,15.7,11.9,78,101810,0,0,323,0,0,0,0,0,0,0,20,4.3,0,0,0,0,0,0,0,0,0,0,0,0,0
1996,10,22,24,0,,15.7,12.2,80,101800,0,0,323,0,0,0,0,0,0,0,20,5,0,0,0,0,0,0,0,0,0,0,0,0,0
1996,10,23,1,0,,15.7,12.3,81,101780,0,0,323,0,0,0,0,0,0,0,20,3,0,0,0,0,0,0,0,0,0,0,0,0,0
1996,10,23,2,0,,15.6,12.5,82,101770,0,0,323,0,0,0,0,0,0,0,20,4.7,0,0,0,0,0,0,0,0,0,0,0,0,0
1996,10,23,3,0,,15.4,12.6,83,101750,0,0,322,0,0,0,0,0,0,0,20,4.7,0,0,0,0,0,0,0,0,0,0,0,0,0
1996,10,23,4,0,,15.5,12.9,84,101750,0,0,325,0,0,0,0,0,0,0,20,2.5,0,0,0,0,0,0,0,0,0,0,0,0,0
1996,10,23,5,0,,15.6,13.1,86,101750,0,0,328,0,0,0,0,0,0,0,20,4.2,1,0,0,0,0,0,0,0,0,0,0,0,0
1996,10,23,6,0,,15.6,13.4,87,101750,0,0,330,0,0,0,0,0,0,0,20,2.5,1,0,0,0,0,0,0,0,0,0,0,0,0
1996,10,23,7,0,,15.8,13.6,83,101780,0,0,335,17,7,10,1569,572,1391,0,20,3.7,2,0,0,0,0,0,0,0,0,0,0,0,0
1996,10,23,8,0,,16.5,13.9,78,101800,0,0,341,123,477,44,29740,48192,7006,0,20,3.3,2,0,0,0,0,0,0,0,0,0,0,0,0
1996,10,23,9,0,,18.9,14.1,74,101830,0,0,355,283,559,87,46561,55357,13817,0,20,3.2,3,0,0,0,0,0,0,0,0,0,0,0,0
1996,10,23,10,0,,21.6,14.3,68,101760,0,0,371,430,605,125,58295,59956,18543,0,20,2.5,4,0,0,0,0,0,0,0,0,0,0,0,0
1996,10,23,11,0,,24.1,14.6,61,101700,0,0,387,521,567,172,61876,55499,24061,0,90,2.3,5,0,0,0,0,0,0,0,0,0,0,0,0
1996,10,23,12,0,,24.3,14.8,55,101630,0,0,392,528,424,241,57128,39308,31761,0,90,3.5,6,0,0,0,0,0,0,0,0,0,0,0,0
1996,10,23,13,0,,23.2,15.2,57,101590,0,0,385,517,329,292,52185,29487,35750,0,90,3.5,5,0,0,0,0,0,0,0,0,0,0,0,0
1996,10,23,14,0,,22.3,15.5,60,101550,0,0,378,433,248,275,41103,21002,32210,0,90,3.7,5,0,0,0,0,0,0,0,0,0,0,0,0
1996,10,23,15,0,,23.6,15.9,62,101510,0,0,384,391,348,203,30584,23058,24758,0,90,2.7,4,0,0,0,0,0,0,0,0,0,0,0,0
1996,10,23,16,0,,22.9,16,68,101510,0,0,382,269,339,135,15270,3038,15098,0,90,2.8,5,0,0,0,0,0,0,0,0,0,0,0,0
1996,10,23,17,0,,21.5,16.2,74,101510,0,0,377,144,317,74,0,0,0,0,90,2.8,5,0,0,0,0,0,0,0,0,0,0,0,0
1996,10,23,18,0,,19.8,16.3,80,101510,0,0,371,26,7,19,0,0,0,0,70,3.2,6,0,0,0,0,0,0,0,0,0,0,0,0
1996,10,23,19,0,,19.4,16.2,82,101540,0,0,363,0,0,0,0,0,0,0,70,4,4,0,0,0,0,0,0,0,0,0,0,0,0
1996,10,23,20,0,,19.4,16.2,83,101560,0,0,359,0,0,0,0,0,0,0,90,3,3,0,0,0,0,0,0,0,0,0,0,0,0
1996,10,23,21,0,,18.7,16.1,85,101590,0,0,348,0,0,0,0,0,0,0,70,2.7,1,0,0,0,0,0,0,0,0,0,0,0,0
1996,10,23,22,0,,18.4,15.9,86,101560,0,0,350,0,0,0,0,0,0,0,70,3.7,2,0,0,0,0,0,0,0,0,0,0,0,0
1996,10,23,23,0,,17.7,15.6,86,101520,0,0,349,0,0,0,0,0,0,0,50,2,2,0,0,0,0,0,0,0,0,0,0,0,0
1996,10,23,24,0,,17.6,15.4,87,101490,0,0,350,0,0,0,0,0,0,0,20,2,3,0,0,0,0,0,0,0,0,0,0,0,0
1996,10,24,1,0,,17.5,15.4,88,101470,0,0,348,0,0,0,0,0,0,0,360,2.5,3,0,0,0,0,0,0,0,0,0,0,0,0
1996,10,24,2,0,,17.3,15.3,88,101440,0,0,347,0,0,0,0,0,0,0,50,1.3,2,0,0,0,0,0,0,0,0,0,0,0,0
1996,10,24,3,0,,17.2,15.3,89,101420,0,0,345,0,0,0,0,0,0,0,50,2.7,2,0,0,0,0,0,0,0,0,0,0,0,0
1996,10,24,4,0,,17.2,15.5,90,101440,0,0,344,0,0,0,0,0,0,0,20,0.7,2,0,0,0,0,0,0,0,0,0,0,0,0
1996,10,24,5,0,,17.3,15.7,91,101470,0,0,343,0,0,0,0,0,0,0,20,1.2,1,0,0,0,0,0,0,0,0,0,0,0,0
1996,10,24,6,0,,17.2,15.9,92,101490,0,0,341,0,0,0,0,0,0,0,50,0.5,1,0,0,0,0,0,0,0,0,0,0,0,0
1996,10,24,7,0,,17.3,16.4,87,101500,0,0,345,14,5,10,1313,384,1194,0,50,1.5,2,0,0,0,0,0,0,0,0,0,0,0,0
1996,10,24,8,0,,17.9,16.8,83,101500,0,0,351,112,387,49,26040,37280,8598,0,50,1,2,0,0,0,0,0,0,0,0,0,0,0,0
1996,10,24,9,0,,21.4,17.3,78,101510,0,0,371,283,571,85,46881,58534,12498,0,70,2.3,3,0,0,0,0,0,0,0,0,0,0,0,0
1996,10,24,10,0,,23,17.1,73,101490,0,0,381,416,568,132,56356,55720,19652,0,90,2.7,4,0,0,0,0,0,0,0,0,0,0,0,0
1996,10,24,11,0,,24.5,17,67,101470,0,0,391,528,601,161,62796,58630,23107,0,90,2,4,0,0,0,0,0,0,0,0,0,0,0,0
1996,10,24,12,0,,24.3,16.8,62,101450,0,0,391,511,341,282,54953,30500,35407,0,90,3,5,0,0,0,0,0,0,0,0,0,0,0,0
1996,10,24,13,0,,24.2,17.2,64,101380,0,0,392,496,295,296,51036,25677,36840,0,90,2.3,5,0,0,0,0,0,0,0,0,0,0,0,0
1996,10,24,14,0,,23.4,17.6,65,101310,0,0,390,385,179,272,38384,14800,32183,0,90,2,6,0,0,0,0,0,0,0,0,0,0,0,0
1996,10,24,15,0,,24.5,18,67,101240,0,0,397,342,232,218,29300,15374,25481,0,90,2.7,6,0,0,0,0,0,0,0,0,0,0,0,0
1996,10,24,16,0,,23.6,17.9,72,101240,0,0,388,252,283,141,15676,3179,15508,0,90,1.8,5,0,0,0,0,0,0,0,0,0,0,0,0
1996,10,24,17,0,,22.7,17.8,77,101230,0,0,379,157,447,61,0,0,0,0,90,3.5,3,0,0,0,0,0,0,0,0,0,0,0,0
1996,10,24,18,0,,20.9,17.7,82,101230,0,0,365,33,17,16,0,0,0,0,70,2,2,0,0,0,0,0,0,0,0,0,0,0,0
1996,10,24,19,0,,20.7,17.9,84,101210,0,0,368,0,0,0,0,0,0,0,70,1.8,3,0,0,0,0,0,0,0,0,0,0,0,0
1996,10,24,20,0,,20.3,18.2,87,101200,0,0,369,0,0,0,0,0,0,0,50,2,4,0,0,0,0,0,0,0,0,0,0,0,0
1996,10,24,21,0,,20.3,18.4,89,101180,0,0,373,0,0,0,0,0,0,0,70,1,5,0,0,0,0,0,0,0,0,0,0,0,0
1996,10,24,22,0,,20.1,18.3,89,101140,0,0,372,0,0,0,0,0,0,0,70,1.7,5,0,0,0,0,0,0,0,0,0,0,0,0
1996,10,24,23,0,,19.9,18.3,90,101090,0,0,373,0,0,0,0,0,0,0,90,0.7,6,0,0,0,0,0,0,0,0,0,0,0,0
1996,10,24,24,0,,19.8,18.2,90,101050,0,0,373,0,0,0,0,0,0,0,320,1,6,0,0,0,0,0,0,0,0,0,0,0,0
1996,10,25,1,0,,19.6,18,90,101010,0,0,372,0,0,0,0,0,0,0,360,0.7,6,0,0,0,0,0,0,0,0,0,0,0,0
1996,10,25,2,0,,19.3,17.8,91,100980,0,0,370,0,0,0,0,0,0,0,90,1,6,0,0,0,0,0,0,0,0,0,0,0,0
1996,10,25,3,0,,19.1,17.6,91,100940,0,0,369,0,0,0,0,0,0,0,270,0.5,6,0,0,0,0,0,0,0,0,0,0,0,0
1996,10,25,4,0,,18.9,17,87,100890,0,0,371,0,0,0,0,0,0,0,250,1,7,0,0,0,0,0,0,0,0,0,0,0,0
1996,10,25,5,0,,19,16.4,84,100830,0,0,377,0,0,0,0,0,0,0,270,4,8,0,0,0,0,0,0,0,0,0,0,0,0
1996,10,25,6,0,,19.3,15.8,80,100780,0,0,386,0,0,0,0,0,0,0,250,4.7,9,0,0,0,0,0,0,0,0,0,0,0,0
1996,10,25,7,0,,19,15.9,78,100800,0,0,376,6,0,5,723,7,721,0,290,3,8,0,0,0,0,0,0,0,0,0,0,0,0
1996,10,25,8,0,,19.3,16.1,75,100810,0,0,372,83,195,52,16607,17307,8576,0,250,2.7,7,0,0,0,0,0,0,0,0,0,0,0,0
1996,10,25,9,0,,21.3,16.2,73,100830,0,0,378,222,308,116,33778,28162,17351,0,250,2.2,6,0,0,0,0,0,0,0,0,0,0,0,0
1996,10,25,10,0,,22.2,15.9,72,100830,0,0,389,309,224,197,38977,20450,25594,0,290,1.8,7,0,0,0,0,0,0,0,0,0,0,0,0
1996,10,25,11,0,,21.3,15.7,71,100840,0,0,393,258,67,217,29429,6164,25284,0,270,1.8,9,0,0,0,0,0,0,0,0,0,0,0,0
1996,10,25,12,0,,21,15.4,70,100840,0,0,406,212,28,193,24143,2583,22499,0,110,2.5,10,0,0,0,0,0,0,0,0,0,0,0,0
1996,10,25,13,0,,20.5,15.3,72,100800,0,0,403,180,17,168,20136,1138,19512,0,340,1.7,10,0,0,0,0,0,0,0,0,0,0,0,0
1996,10,25,14,0,,20.1,15.2,74,100770,0,0,400,168,18,156,18043,1145,17568,0,270,1.5,10,0,0,0,0,0,0,0,0,0,0,0,0
1996,10,25,15,0,,19.6,15.1,76,100730,0,0,398,133,17,124,13585,813,13386,0,320,0.8,10,0,0,0,0,0,0,0,0,0,0,0,0
1996,10,25,16,0,,18.9,14.5,75,100730,0,0,393,101,21,93,8932,1061,8881,0,290,2.7,10,0,0,0,0,0,0,0,0,0,0,0,0
1996,10,25,17,0,,18.6,13.9,74,100730,0,0,391,48,17,44,0,0,0,0,360,0.7,10,0,0,0,0,0,0,0,0,0,0,0,0
1996,10,25,18,0,,18.2,13.3,73,100730,0,0,388,8,0,8,0,0,0,0,140,1,10,0,0,0,0,0,0,0,0,0,0,0,0
1996,10,25,19,0,,17.8,11.9,69,100790,0,0,380,0,0,0,0,0,0,0,340,2.2,10,0,0,0,0,0,0,0,0,0,0,0,0
1996,10,25,20,0,,17.3,10.4,64,100840,0,0,372,0,0,0,0,0,0,0,140,1.7,9,0,0,0,0,0,0,0,0,0,0,0,0
1996,10,25,21,0,,16.8,9,60,100900,0,0,364,0,0,0,0,0,0,0,270,1.8,9,0,0,0,0,0,0,0,0,0,0,0,0
1996,10,25,22,0,,16.3,8.1,58,100900,0,0,361,0,0,0,0,0,0,0,90,2.7,9,0,0,0,0,0,0,0,0,0,0,0,0
1996,10,25,23,0,,15.9,7.3,55,100900,0,0,358,0,0,0,0,0,0,0,20,1.8,9,0,0,0,0,0,0,0,0,0,0,0,0
1996,10,25,24,0,,15.7,6.4,53,100900,0,0,355,0,0,0,0,0,0,0,140,3.2,9,0,0,0,0,0,0,0,0,0,0,0,0
1996,10,26,1,0,,15.2,6,53,100900,0,0,352,0,0,0,0,0,0,0,230,2,9,0,0,0,0,0,0,0,0,0,0,0,0
1996,10,26,2,0,,14.7,5.5,54,100900,0,0,349,0,0,0,0,0,0,0,180,2.5,9,0,0,0,0,0,0,0,0,0,0,0,0
1996,10,26,3,0,,14.2,5.1,54,100900,0,0,346,0,0,0,0,0,0,0,230,2.3,9,0,0,0,0,0,0,0,0,0,0,0,0
1996,10,26,4,0,,13.4,3.5,51,100950,0,0,343,0,0,0,0,0,0,0,360,2.3,9,0,0,0,0,0,0,0,0,0,0,0,0
1996,10,26,5,0,,12.6,1.8,48,101000,0,0,341,0,0,0,0,0,0,0,320,1,10,0,0,0,0,0,0,0,0,0,0,0,0
1996,10,26,6,0,,11.8,0.2,45,101050,0,0,338,0,0,0,0,0,0,0,340,3.3,10,0,0,0,0,0,0,0,0,0,0,0,0
1996,10,26,7,0,,11.1,-0.9,41,101130,0,0,327,4,0,4,595,5,594,0,340,5,9,0,0,0,0,0,0,0,0,0,0,0,0
1996,10,26,8,0,,11,-1.9,38,101220,0,0,320,63,92,48,10745,9102,6557,0,320,3,9,0,0,0,0,0,0,0,0,0,0,0,0
1996,10,26,9,0,,12.1,-3,34,101300,0,0,320,189,194,123,26803,19862,15299,0,340,1.7,8,0,0,0,0,0,0,0,0,0,0,0,0
1996,10,26,10,0,,13.9,-1.9,34,101310,0,0,324,340,314,185,44081,31493,23606,0,360,2.7,7,0,0,0,0,0,0,0,0,0,0,0,0
1996,10,26,11,0,,14.6,-0.7,34,101330,0,0,325,480,477,192,56446,47897,24445,0,20,5.8,6,0,0,0,0,0,0,0,0,0,0,0,0
1996,10,26,12,0,,16.3,0.4,34,101340,0,0,331,565,563,191,59743,55996,24358,0,20,4.7,5,0,0,0,0,0,0,0,0,0,0,0,0
1996,10,26,13,0,,17.5,1.3,36,101330,0,0,337,578,580,189,54605,56535,23849,0,90,4.7,5,0,0,0,0,0,0,0,0,0,0,0,0
1996,10,26,14,0,,17.4,2.3,38,101310,0,0,337,537,589,169,43470,54167,21241,0,50,3.5,4,0,0,0,0,0,0,0,0,0,0,0,0
1996,10,26,15,0,,16.7,3.2,40,101300,0,0,334,421,506,155,26986,37797,17911,0,70,3.3,4,0,0,0,0,0,0,0,0,0,0,0,0
1996,10,26,16,0,,15.6,3.4,45,101330,0,0,326,305,526,102,10759,10629,10282,0,70,5.3,3,0,0,0,0,0,0,0,0,0,0,0,0
1996,10,26,17,0,,13.7,3.7,51,101350,0,0,315,159,515,53,0,0,0,0,50,6.2,2,0,0,0,0,0,0,0,0,0,0,0,0
1996,10,26,18,0,,12.4,3.9,56,101380,0,0,305,33,14,20,0,0,0,0,50,3.5,1,0,0,0,0,0,0,0,0,0,0,0,0
1996,10,26,19,0,,11.6,3.9,58,101400,0,0,300,0,0,0,0,0,0,0,50,3.2,1,0,0,0,0,0,0,0,0,0,0,0,0
1996,10,26,20,0,,11.1,3.8,60,101430,0,0,296,0,0,0,0,0,0,0,20,3.5,0,0,0,0,0,0,0,0,0,0,0,0,0
1996,10,26,21,0,,10.8,3.8,62,101450,0,0,293,0,0,0,0,0,0,0,20,3.3,0,0,0,0,0,0,0,0,0,0,0,0,0
1996,10,26,22,0,,10.6,3.4,62,101460,0,0,291,0,0,0,0,0,0,0,20,4.5,0,0,0,0,0,0,0,0,0,0,0,0,0
1996,10,26,23,0,,10.1,3.1,61,101460,0,0,289,0,0,0,0,0,0,0,50,2.2,0,0,0,0,0,0,0,0,0,0,0,0,0
1996,10,26,24,0,,9.9,2.7,61,101470,0,0,288,0,0,0,0,0,0,0,50,1.5,0,0,0,0,0,0,0,0,0,0,0,0,0
1996,10,27,1,0,,9.8,3.1,63,101480,0,0,288,0,0,0,0,0,0,0,50,0.5,0,0,0,0,0,0,0,0,0,0,0,0,0
1996,10,27,2,0,,9.8,3.4,65,101480,0,0,288,0,0,0,0,0,0,0,180,0.5,0,0,0,0,0,0,0,0,0,0,0,0,0
1996,10,27,3,0,,9.7,3.8,67,101490,0,0,288,0,0,0,0,0,0,0,70,1,0,0,0,0,0,0,0,0,0,0,0,0,0
1996,10,27,4,0,,9.3,3.7,67,101500,0,0,290,0,0,0,0,0,0,0,0,0,1,0,0,0,0,0,0,0,0,0,0,0,0
1996,10,27,5,0,,9.3,3.7,68,101520,0,0,293,0,0,0,0,0,0,0,230,1.2,1,0,0,0,0,0,0,0,0,0,0,0,0
1996,10,27,6,0,,9.2,3.6,68,101530,0,0,295,0,0,0,0,0,0,0,20,1.8,2,0,0,0,0,0,0,0,0,0,0,0,0
1996,10,27,7,0,,9.1,4.2,66,101560,0,0,293,12,4,8,1088,318,994,0,290,0.7,1,0,0,0,0,0,0,0,0,0,0,0,0
1996,10,27,8,0,,9.4,4.7,65,101600,0,0,292,111,448,42,27056,44694,6664,0,70,0.5,1,0,0,0,0,0,0,0,0,0,0,0,0
1996,10,27,9,0,,12.2,5.3,63,101630,0,0,300,278,595,78,46034,60252,11385,0,90,0.7,0,0,0,0,0,0,0,0,0,0,0,0,0
1996,10,27,10,0,,15.7,5.1,55,101620,0,0,319,467,789,81,63174,79868,11591,0,110,2.3,1,0,0,0,0,0,0,0,0,0,0,0,0
1996,10,27,11,0,,18.4,4.8,46,101600,0,0,335,622,913,75,72159,92659,10658,0,200,4,1,0,0,0,0,0,0,0,0,0,0,0,0
1996,10,27,12,0,,19.1,4.6,38,101590,0,0,341,642,789,121,66426,79150,16758,0,230,3.3,2,0,0,0,0,0,0,0,0,0,0,0,0
1996,10,27,13,0,,19.8,4.1,37,101530,0,0,341,650,791,122,59392,77642,17492,0,200,5.3,1,0,0,0,0,0,0,0,0,0,0,0,0
1996,10,27,14,0,,19.5,3.7,36,101480,0,0,335,570,701,136,44635,64264,18536,0,200,5.5,1,0,0,0,0,0,0,0,0,0,0,0,0
1996,10,27,15,0,,18.9,3.2,35,101420,0,0,328,463,662,117,26538,49917,14755,0,200,5,0,0,0,0,0,0,0,0,0,0,0,0,0
1996,10,27,16,0,,17.6,3.2,38,101410,0,0,322,320,610,87,9487,11806,9003,0,200,5.5,0,0,0,0,0,0,0,0,0,0,0,0,0
1996,10,27,17,0,,16.6,3.2,42,101410,0,0,317,160,550,49,0,0,0,0,180,4.2,0,0,0,0,0,0,0,0,0,0,0,0,0
1996,10,27,18,0,,15,3.2,45,101400,0,0,310,33,16,18,0,0,0,0,200,2.3,0,0,0,0,0,0,0,0,0,0,0,0,0
1996,10,27,19,0,,14.3,3.1,46,101410,0,0,307,0,0,0,0,0,0,0,270,1.5,0,0,0,0,0,0,0,0,0,0,0,0,0
1996,10,27,20,0,,13.9,3.1,48,101430,0,0,305,0,0,0,0,0,0,0,230,0.7,0,0,0,0,0,0,0,0,0,0,0,0,0
1996,10,27,21,0,,13.2,3,49,101440,0,0,302,0,0,0,0,0,0,0,0,0,0,0,0,0,0,0,0,0,0,0,0,0,0
1996,10,27,22,0,,12.8,3.7,53,101430,0,0,301,0,0,0,0,0,0,0,50,0.7,0,0,0,0,0,0,0,0,0,0,0,0,0
1996,10,27,23,0,,12.4,4.4,58,101410,0,0,300,0,0,0,0,0,0,0,0,0,0,0,0,0,0,0,0,0,0,0,0,0,0
1996,10,27,24,0,,12.2,5.1,62,101400,0,0,300,0,0,0,0,0,0,0,0,0,0,0,0,0,0,0,0,0,0,0,0,0,0
1996,10,28,1,0,,11.9,4.9,63,101350,0,0,299,0,0,0,0,0,0,0,0,0,0,0,0,0,0,0,0,0,0,0,0,0,0
1996,10,28,2,0,,11.6,4.8,63,101310,0,0,297,0,0,0,0,0,0,0,0,0.2,0,0,0,0,0,0,0,0,0,0,0,0,0
1996,10,28,3,0,,11.3,4.6,64,101260,0,0,296,0,0,0,0,0,0,0,270,0.5,0,0,0,0,0,0,0,0,0,0,0,0,0
1996,10,28,4,0,,11.1,5.1,67,101270,0,0,298,0,0,0,0,0,0,0,320,0.3,0,0,0,0,0,0,0,0,0,0,0,0,0
1996,10,28,5,0,,10.9,5.7,71,101270,0,0,299,0,0,0,0,0,0,0,0,0.2,1,0,0,0,0,0,0,0,0,0,0,0,0
1996,10,28,6,0,,10.6,6.2,74,101280,0,0,300,0,0,0,0,0,0,0,20,1.3,1,0,0,0,0,0,0,0,0,0,0,0,0
1996,10,28,7,0,,10.7,7.2,72,101280,0,0,307,10,2,7,970,197,912,0,0,0,2,0,0,0,0,0,0,0,0,0,0,0,0
1996,10,28,8,0,,11.8,8.2,70,101280,0,0,317,97,48,49,8420,4529,6371,0,0,0.2,4,0,0,0,0,0,0,0,0,0,0,0,0
1996,10,28,9,0,,15.1,9.2,68,101280,0,0,336,248,452,97,40383,44835,14783,0,200,0.3,5,0,0,0,0,0,0,0,0,0,0,0,0
1996,10,28,10,0,,19.1,9,60,101250,0,0,359,394,540,132,53551,53758,19060,0,180,2,6,0,0,0,0,0,0,0,0,0,0,0,0
1996,10,28,11,0,,20.8,8.7,53,101230,0,0,375,423,301,243,48740,29417,29343,0,180,3,8,0,0,0,0,0,0,0,0,0,0,0,0
1996,10,28,12,0,,20.8,8.5,45,101200,0,0,385,369,140,277,40651,13563,32200,0,180,3.3,9,0,0,0,0,0,0,0,0,0,0,0,0
1996,10,28,13,0,,21,8.3,46,101130,0,0,389,338,105,268,35724,10030,30355,0,200,3.2,9,0,0,0,0,0,0,0,0,0,0,0,0
1996,10,28,14,0,,19.3,8.2,46,101070,0,0,383,204,34,183,22056,3064,20824,0,230,1.3,10,0,0,0,0,0,0,0,0,0,0,0,0
1996,10,28,15,0,,19.5,8,47,101000,0,0,388,175,39,155,18058,3175,17321,0,180,2.8,10,0,0,0,0,0,0,0,0,0,0,0,0
1996,10,28,16,0,,19,9.3,54,101000,0,0,379,148,69,122,13257,4195,13100,0,180,3.3,9,0,0,0,0,0,0,0,0,0,0,0,0
1996,10,28,17,0,,18.6,10.6,61,101000,0,0,373,75,73,61,0,0,0,0,180,2.5,9,0,0,0,0,0,0,0,0,0,0,0,0
1996,10,28,18,0,,17.7,11.9,68,101000,0,0,365,16,2,13,0,0,0,0,230,2,8,0,0,0,0,0,0,0,0,0,0,0,0
1996,10,28,19,0,,17.2,12.5,73,101000,0,0,353,0,0,0,0,0,0,0,230,1.5,6,0,0,0,0,0,0,0,0,0,0,0,0
1996,10,28,20,0,,16.8,13,79,101010,0,0,346,0,0,0,0,0,0,0,290,1.8,4,0,0,0,0,0,0,0,0,0,0,0,0
1996,10,28,21,0,,16.4,13.6,84,101010,0,0,339,0,0,0,0,0,0,0,290,2,2,0,0,0,0,0,0,0,0,0,0,0,0
1996,10,28,22,0,,16.4,13.7,85,101000,0,0,338,0,0,0,0,0,0,0,250,4.3,2,0,0,0,0,0,0,0,0,0,0,0,0
1996,10,28,23,0,,16.2,13.7,85,100990,0,0,335,0,0,0,0,0,0,0,250,2.8,1,0,0,0,0,0,0,0,0,0,0,0,0
1996,10,28,24,0,,16.1,13.8,86,100980,0,0,333,0,0,0,0,0,0,0,250,3.8,1,0,0,0,0,0,0,0,0,0,0,0,0
1996,10,29,1,0,,15.8,13.9,89,100990,0,0,332,0,0,0,0,0,0,0,250,3.7,1,0,0,0,0,0,0,0,0,0,0,0,0
1996,10,29,2,0,,15.4,14,91,101010,0,0,330,0,0,0,0,0,0,0,250,3.8,1,0,0,0,0,0,0,0,0,0,0,0,0
1996,10,29,3,0,,15.1,14.1,94,101020,0,0,329,0,0,0,0,0,0,0,270,2.7,1,0,0,0,0,0,0,0,0,0,0,0,0
1996,10,29,4,0,,14.5,13.4,93,101050,0,0,324,0,0,0,0,0,0,0,290,2.5,1,0,0,0,0,0,0,0,0,0,0,0,0
1996,10,29,5,0,,13.9,12.7,91,101080,0,0,318,0,0,0,0,0,0,0,320,2,0,0,0,0,0,0,0,0,0,0,0,0,0
1996,10,29,6,0,,13.7,12,90,101110,0,0,314,0,0,0,0,0,0,0,270,2.3,0,0,0,0,0,0,0,0,0,0,0,0,0
1996,10,29,7,0,,13.1,12.4,88,101130,0,0,312,8,2,7,859,135,820,0,230,1.2,0,0,0,0,0,0,0,0,0,0,0,0,0
1996,10,29,8,0,,13.4,12.8,86,101160,0,0,314,100,55,45,8686,4912,6483,0,90,1.7,0,0,0,0,0,0,0,0,0,0,0,0,0
1996,10,29,9,0,,15.9,13.2,84,101180,0,0,325,258,521,86,42801,51489,13613,0,160,1,0,0,0,0,0,0,0,0,0,0,0,0,0
1996,10,29,10,0,,18.1,12.4,73,101160,0,0,334,425,665,105,58032,67725,14868,0,110,1.7,0,0,0,0,0,0,0,0,0,0,0,0,0
1996,10,29,11,0,,19.5,11.7,63,101130,0,0,340,549,724,121,64955,73511,16801,0,180,3,0,0,0,0,0,0,0,0,0,0,0,0,0
1996,10,29,12,0,,21,10.9,52,101110,0,0,346,614,736,134,64360,72658,19398,0,180,4.2,0,0,0,0,0,0,0,0,0,0,0,0,0
1996,10,29,13,0,,22.4,11,54,101030,0,0,353,611,706,145,56513,67814,20498,0,180,4.2,0,0,0,0,0,0,0,0,0,0,0,0,0
1996,10,29,14,0,,22.1,11.1,55,100950,0,0,352,557,687,137,43684,61833,19084,0,180,4.5,0,0,0,0,0,0,0,0,0,0,0,0,0
1996,10,29,15,0,,20,11.2,57,100870,0,0,342,429,571,135,26375,40163,17211,0,180,6.5,0,0,0,0,0,0,0,0,0,0,0,0,0
1996,10,29,16,0,,19.5,11.6,62,100870,0,0,340,294,527,98,10339,5570,10151,0,180,6.7,0,0,0,0,0,0,0,0,0,0,0,0,0
1996,10,29,17,0,,18.5,12,68,100860,0,0,336,140,430,56,0,0,0,0,200,4,0,0,0,0,0,0,0,0,0,0,0,0,0
1996,10,29,18,0,,17.2,12.4,73,100860,0,0,330,29,17,13,0,0,0,0,250,3.5,0,0,0,0,0,0,0,0,0,0,0,0,0
1996,10,29,19,0,,16.6,12.1,74,100890,0,0,327,0,0,0,0,0,0,0,250,4,0,0,0,0,0,0,0,0,0,0,0,0,0
1996,10,29,20,0,,16.1,11.9,75,100910,0,0,325,0,0,0,0,0,0,0,230,5.3,0,0,0,0,0,0,0,0,0,0,0,0,0
1996,10,29,21,0,,15.9,11.6,76,100940,0,0,323,0,0,0,0,0,0,0,250,4,0,0,0,0,0,0,0,0,0,0,0,0,0
1996,10,29,22,0,,15.5,11.6,76,100940,0,0,322,0,0,0,0,0,0,0,250,3.5,0,0,0,0,0,0,0,0,0,0,0,0,0
1996,10,29,23,0,,15.3,11.5,77,100940,0,0,321,0,0,0,0,0,0,0,230,4.5,0,0,0,0,0,0,0,0,0,0,0,0,0
1996,10,29,24,0,,15.4,11.5,77,100940,0,0,321,0,0,0,0,0,0,0,230,4.5,0,0,0,0,0,0,0,0,0,0,0,0,0
1996,10,30,1,0,,15.4,12.1,80,100920,0,0,322,0,0,0,0,0,0,0,250,4,0,0,0,0,0,0,0,0,0,0,0,0,0
1996,10,30,2,0,,15.5,12.6,83,100890,0,0,323,0,0,0,0,0,0,0,230,3.3,0,0,0,0,0,0,0,0,0,0,0,0,0
1996,10,30,3,0,,15.5,13.2,86,100870,0,0,324,0,0,0,0,0,0,0,250,6,0,0,0,0,0,0,0,0,0,0,0,0,0
1996,10,30,4,0,,15.6,13,84,100870,0,0,324,0,0,0,0,0,0,0,250,4.8,0,0,0,0,0,0,0,0,0,0,0,0,0
1996,10,30,5,0,,15.7,12.9,83,100870,0,0,324,0,0,0,0,0,0,0,250,4,0,0,0,0,0,0,0,0,0,0,0,0,0
1996,10,30,6,0,,15.9,12.7,81,100870,0,0,325,0,0,0,0,0,0,0,250,5.3,0,0,0,0,0,0,0,0,0,0,0,0,0
1996,10,30,7,0,,15.5,12.8,77,100900,0,0,325,8,2,6,841,158,795,0,250,2.7,0,0,0,0,0,0,0,0,0,0,0,0,0
1996,10,30,8,0,,16.4,13,72,100940,0,0,332,106,69,37,8250,6163,5510,0,250,2.3,1,0,0,0,0,0,0,0,0,0,0,0,0
1996,10,30,9,0,,19.2,13.1,68,100970,0,0,347,277,636,70,46997,64980,10427,0,250,2.5,1,0,0,0,0,0,0,0,0,0,0,0,0
1996,10,30,10,0,,21.3,12.4,59,100950,0,0,360,438,727,91,60225,74400,13122,0,230,3,2,0,0,0,0,0,0,0,0,0,0,0,0
1996,10,30,11,0,,23.2,11.6,51,100920,0,0,371,570,799,101,67407,81626,14289,0,230,4.2,2,0,0,0,0,0,0,0,0,0,0,0,0
1996,10,30,12,0,,24.3,10.9,42,100900,0,0,378,605,723,137,63478,71178,19738,0,250,4.5,3,0,0,0,0,0,0,0,0,0,0,0,0
1996,10,30,13,0,,23.6,12,47,100850,0,0,381,523,469,216,50821,43139,28092,0,250,5.7,5,0,0,0,0,0,0,0,0,0,0,0,0
1996,10,30,14,0,,24.6,13.2,53,100800,0,0,393,430,293,252,39109,24949,29284,0,250,3.7,6,0,0,0,0,0,0,0,0,0,0,0,0
1996,10,30,15,0,,22.8,14.3,58,100750,0,0,394,260,123,197,24268,9880,22052,0,180,5,8,0,0,0,0,0,0,0,0,0,0,0,0
1996,10,30,16,0,,21.8,15.1,66,100780,0,0,382,202,181,136,14400,0,14400,0,180,3.8,7,0,0,0,0,0,0,0,0,0,0,0,0
1996,10,30,17,0,,20.5,16,75,100800,0,0,372,112,275,60,0,0,0,0,180,4,5,0,0,0,0,0,0,0,0,0,0,0,0
1996,10,30,18,0,,19.7,16.8,83,100830,0,0,365,22,8,15,0,0,0,0,200,2.2,4,0,0,0,0,0,0,0,0,0,0,0,0
1996,10,30,19,0,,19.2,15.5,79,100860,0,0,367,0,0,0,0,0,0,0,270,2.7,6,0,0,0,0,0,0,0,0,0,0,0,0
1996,10,30,20,0,,18.9,14.3,74,100880,0,0,374,0,0,0,0,0,0,0,230,0.8,8,0,0,0,0,0,0,0,0,0,0,0,0
1996,10,30,21,0,,18.6,13,70,100910,0,0,389,0,0,0,0,0,0,0,360,0.8,10,0,0,0,0,0,0,0,0,0,0,0,0
1996,10,30,22,0,,18.6,13,70,100920,0,0,385,0,0,0,0,0,0,0,360,0.8,10,0,0,0,0,0,0,0,0,0,0,0,0
1996,10,30,23,0,,18.6,13.1,71,100930,0,0,382,0,0,0,0,0,0,0,50,0.3,9,0,0,0,0,0,0,0,0,0,0,0,0
1996,10,30,24,0,,18.5,13.1,71,100940,0,0,378,0,0,0,0,0,0,0,0,0.2,9,0,0,0,0,0,0,0,0,0,0,0,0
1996,10,31,1,0,,18.3,12.6,69,100950,0,0,376,0,0,0,0,0,0,0,70,1.3,9,0,0,0,0,0,0,0,0,0,0,0,0
1996,10,31,2,0,,18.1,12,68,100960,0,0,375,0,0,0,0,0,0,0,70,3.7,9,0,0,0,0,0,0,0,0,0,0,0,0
1996,10,31,3,0,,17.9,11.5,66,100970,0,0,373,0,0,0,0,0,0,0,20,3.7,9,0,0,0,0,0,0,0,0,0,0,0,0
1996,10,31,4,0,,17.7,12.2,69,100970,0,0,376,0,0,0,0,0,0,0,20,5,9,0,0,0,0,0,0,0,0,0,0,0,0
1996,10,31,5,0,,17.7,13,72,100960,0,0,381,0,0,0,0,0,0,0,20,2.8,10,0,0,0,0,0,0,0,0,0,0,0,0
1996,10,31,6,0,,18.1,13.7,75,100960,0,0,388,0,0,0,0,0,0,0,20,3.5,10,0,0,0,0,0,0,0,0,0,0,0,0
1996,10,31,7,0,,18.2,14.2,76,101010,0,0,389,0,0,0,0,0,0,0,20,3.5,10,0,0,0,0,0,0,0,0,0,0,0,0
1996,10,31,8,0,,18.8,14.6,77,101060,0,0,393,42,6,36,4653,229,4552,0,50,5.3,10,0,0,0,0,0,0,0,0,0,0,0,0
1996,10,31,9,0,,19,15.1,78,101110,0,0,394,105,43,92,13966,4014,11724,0,50,6.7,10,0,0,0,0,0,0,0,0,0,0,0,0
1996,10,31,10,0,,18.4,15.5,83,101080,0,0,392,151,35,135,17840,3115,15880,0,50,6.5,10,0,0,0,0,0,0,0,0,0,0,0,0
1996,10,31,11,0,,17.7,16,89,101050,0,0,389,162,21,149,18814,1896,17589,0,50,5.2,10,0,0,0,0,0,0,0,0,0,0,0,0
1996,10,31,12,0,,17.3,16.4,94,101020,0,0,387,160,15,151,18373,898,17825,0,50,4.2,10,0,0,0,0,0,0,0,0,0,0,0,0
1996,10,31,13,0,,17.1,16.2,94,100930,0,0,386,174,18,163,19358,1153,18755,0,50,5.3,10,0,0,0,0,0,0,0,0,0,0,0,0
1996,10,31,14,0,,17.1,16,93,100840,0,0,385,162,19,150,17274,1149,16826,0,20,4.2,10,0,0,0,0,0,0,0,0,0,0,0,0
1996,10,31,15,0,,17,15.8,93,100750,0,0,385,150,27,136,14687,1389,14381,0,20,5,10,0,0,0,0,0,0,0,0,0,0,0,0
1996,10,31,16,0,,16.9,15.7,93,100730,0,0,384,97,23,89,8269,1757,8223,0,20,5,10,0,0,0,0,0,0,0,0,0,0,0,0
1996,10,31,17,0,,16.8,15.6,92,100710,0,0,383,45,21,41,0,0,0,0,20,4.5,10,0,0,0,0,0,0,0,0,0,0,0,0
1996,10,31,18,0,,16.7,15.5,92,100690,0,0,383,5,0,5,0,0,0,0,50,5.2,10,0,0,0,0,0,0,0,0,0,0,0,0
1996,10,31,19,0,,16.6,15.6,92,100650,0,0,382,0,0,0,0,0,0,0,20,6.3,10,0,0,0,0,0,0,0,0,0,0,0,0
1996,10,31,20,0,,16.6,15.6,93,100620,0,0,382,0,0,0,0,0,0,0,50,8.2,10,0,0,0,0,0,0,0,0,0,0,0,0
1996,10,31,21,0,,16.8,15.7,93,100580,0,0,384,0,0,0,0,0,0,0,50,6.5,10,0,0,0,0,0,0,0,0,0,0,0,0
1996,10,31,22,0,,17.2,15.5,93,100550,0,0,385,0,0,0,0,0,0,0,20,6,10,0,0,0,0,0,0,0,0,0,0,0,0
1996,10,31,23,0,,17.2,15.3,93,100510,0,0,385,0,0,0,0,0,0,0,20,4,10,0,0,0,0,0,0,0,0,0,0,0,0
1996,10,31,24,0,,16.3,15.1,93,100480,0,0,380,0,0,0,0,0,0,0,20,4.8,10,0,0,0,0,0,0,0,0,0,0,0,0
1998,11,1,1,0,,18.8,11.9,70,100740,0,0,389,0,0,0,0,0,0,0,250,4.5,10,0,0,0,0,0,0,0,0,0,0,0,0
1998,11,1,2,0,,18.8,10.8,66,100770,0,0,388,0,0,0,0,0,0,0,290,3.2,10,0,0,0,0,0,0,0,0,0,0,0,0
1998,11,1,3,0,,16.9,9.8,63,100800,0,0,376,0,0,0,0,0,0,0,290,3.8,10,0,0,0,0,0,0,0,0,0,0,0,0
1998,11,1,4,0,,15.8,8.2,61,100850,0,0,349,0,0,0,0,0,0,0,290,3.5,8,0,0,0,0,0,0,0,0,0,0,0,0
1998,11,1,5,0,,14.5,6.6,60,100890,0,0,331,0,0,0,0,0,0,0,360,2.8,5,0,0,0,0,0,0,0,0,0,0,0,0
1998,11,1,6,0,,13,5,58,100940,0,0,316,0,0,0,0,0,0,0,360,3.8,3,0,0,0,0,0,0,0,0,0,0,0,0
1998,11,1,7,0,,12.2,3.8,53,101020,0,0,308,0,0,0,0,0,0,0,360,3.2,2,0,0,0,0,0,0,0,0,0,0,0,0
1998,11,1,8,0,,12,2.7,49,101100,0,0,302,102,67,35,7790,6427,4970,0,360,3.8,1,0,0,0,0,0,0,0,0,0,0,0,0
1998,11,1,9,0,,13.5,1.5,44,101180,0,0,302,266,610,71,44791,61588,10511,0,360,1.7,0,0,0,0,0,0,0,0,0,0,0,0,0
1998,11,1,10,0,,14.1,1.4,41,101150,0,0,304,409,646,106,55579,65100,14778,0,340,1.5,0,0,0,0,0,0,0,0,0,0,0,0,0
1998,11,1,11,0,,14.2,1.4,39,101130,0,0,304,526,690,127,62855,69467,18098,0,320,4.3,0,0,0,0,0,0,0,0,0,0,0,0,0
1998,11,1,12,0,,16,1.3,36,101100,0,0,312,594,713,138,62530,71115,19285,0,320,3.7,0,0,0,0,0,0,0,0,0,0,0,0,0
1998,11,1,13,0,,18.2,2.6,38,101070,0,0,324,610,741,131,56076,72201,18488,0,110,2,0,0,0,0,0,0,0,0,0,0,0,0,0
1998,11,1,14,0,,18.9,4,39,101050,0,0,328,563,742,119,42946,67781,16662,0,180,2.3,0,0,0,0,0,0,0,0,0,0,0,0,0
1998,11,1,15,0,,18.8,5.3,41,101020,0,0,330,447,675,108,24520,48650,13882,0,140,1.7,0,0,0,0,0,0,0,0,0,0,0,0,0
1998,11,1,16,0,,18,4.4,42,101040,0,0,325,295,576,87,8719,5551,8581,0,110,1.8,0,0,0,0,0,0,0,0,0,0,0,0,0
1998,11,1,17,0,,16.1,3.6,43,101070,0,0,315,140,502,48,0,0,0,0,110,2.3,0,0,0,0,0,0,0,0,0,0,0,0,0
1998,11,1,18,0,,14.7,2.7,44,101090,0,0,308,25,14,12,0,0,0,0,90,2,0,0,0,0,0,0,0,0,0,0,0,0,0
1998,11,1,19,0,,14,2.9,47,101100,0,0,305,0,0,0,0,0,0,0,90,2.2,0,0,0,0,0,0,0,0,0,0,0,0,0
1998,11,1,20,0,,13.5,3,49,101120,0,0,303,0,0,0,0,0,0,0,20,1.2,0,0,0,0,0,0,0,0,0,0,0,0,0
1998,11,1,21,0,,12.7,3.2,52,101130,0,0,300,0,0,0,0,0,0,0,20,0.5,0,0,0,0,0,0,0,0,0,0,0,0,0
1998,11,1,22,0,,12.5,3.8,56,101130,0,0,304,0,0,0,0,0,0,0,0,0.2,1,0,0,0,0,0,0,0,0,0,0,0,0
1998,11,1,23,0,,12.2,4.4,59,101130,0,0,306,0,0,0,0,0,0,0,0,0,1,0,0,0,0,0,0,0,0,0,0,0,0
1998,11,1,24,0,,11.8,5,63,101130,0,0,308,0,0,0,0,0,0,0,0,0,2,0,0,0,0,0,0,0,0,0,0,0,0
1998,11,2,1,0,,11.5,5.3,65,101090,0,0,307,0,0,0,0,0,0,0,0,0.2,2,0,0,0,0,0,0,0,0,0,0,0,0
1998,11,2,2,0,,11.1,5.5,68,101040,0,0,306,0,0,0,0,0,0,0,90,0.3,2,0,0,0,0,0,0,0,0,0,0,0,0
1998,11,2,3,0,,10.8,5.8,70,101000,0,0,305,0,0,0,0,0,0,0,90,0.3,2,0,0,0,0,0,0,0,0,0,0,0,0
1998,11,2,4,0,,10.6,5.4,68,100980,0,0,303,0,0,0,0,0,0,0,90,0.3,2,0,0,0,0,0,0,0,0,0,0,0,0
1998,11,2,5,0,,10.4,5,67,100950,0,0,302,0,0,0,0,0,0,0,0,0.2,2,0,0,0,0,0,0,0,0,0,0,0,0
1998,11,2,6,0,,10.9,4.6,65,100930,0,0,304,0,0,0,0,0,0,0,270,1.7,2,0,0,0,0,0,0,0,0,0,0,0,0
1998,11,2,7,0,,10.9,4.8,62,100900,0,0,309,0,0,0,0,0,0,0,270,2.7,4,0,0,0,0,0,0,0,0,0,0,0,0
1998,11,2,8,0,,11.4,4.9,60,100870,0,0,315,89,48,41,7358,4609,5354,0,270,3,5,0,0,0,0,0,0,0,0,0,0,0,0
1998,11,2,9,0,,13.4,5.1,57,100840,0,0,330,202,316,103,31663,30731,14683,0,270,4.3,7,0,0,0,0,0,0,0,0,0,0,0,0
1998,11,2,10,0,,15.4,6.2,55,100800,0,0,338,356,459,143,48453,45557,20092,0,270,4.7,6,0,0,0,0,0,0,0,0,0,0,0,0
1998,11,2,11,0,,16.7,7.4,54,100770,0,0,343,444,441,190,52484,42971,24980,0,250,4.2,6,0,0,0,0,0,0,0,0,0,0,0,0
1998,11,2,12,0,,18.6,8.5,52,100730,0,0,352,532,546,185,56223,52504,24515,0,230,4.7,5,0,0,0,0,0,0,0,0,0,0,0,0
1998,11,2,13,0,,18.6,7.8,50,100650,0,0,357,445,263,276,44647,24940,31765,0,230,6.3,7,0,0,0,0,0,0,0,0,0,0,0,0
1998,11,2,14,0,,18,7.1,48,100580,0,0,363,356,177,250,34496,15748,28451,0,230,7,8,0,0,0,0,0,0,0,0,0,0,0,0
1998,11,2,15,0,,18.2,6.4,46,100500,0,0,379,211,74,174,20613,6082,19305,0,230,8.8,10,0,0,0,0,0,0,0,0,0,0,0,0
1998,11,2,16,0,,18,7,49,100560,0,0,368,168,116,126,13508,7347,13351,0,230,7.2,9,0,0,0,0,0,0,0,0,0,0,0,0
1998,11,2,17,0,,17.9,7.5,51,100610,0,0,360,96,200,59,0,0,0,0,250,5.8,8,0,0,0,0,0,0,0,0,0,0,0,0
1998,11,2,18,0,,17.3,8.1,54,100670,0,0,352,17,4,13,0,0,0,0,250,3.2,7,0,0,0,0,0,0,0,0,0,0,0,0
1998,11,2,19,0,,16.6,8.4,57,100720,0,0,344,0,0,0,0,0,0,0,270,3.5,6,0,0,0,0,0,0,0,0,0,0,0,0
1998,11,2,20,0,,16.6,8.7,59,100780,0,0,341,0,0,0,0,0,0,0,270,3,4,0,0,0,0,0,0,0,0,0,0,0,0
1998,11,2,21,0,,16.3,9,62,100830,0,0,336,0,0,0,0,0,0,0,270,6,3,0,0,0,0,0,0,0,0,0,0,0,0
1998,11,2,22,0,,16.3,9,63,100910,0,0,336,0,0,0,0,0,0,0,270,3.5,3,0,0,0,0,0,0,0,0,0,0,0,0
1998,11,2,23,0,,16.1,8.9,64,100990,0,0,335,0,0,0,0,0,0,0,360,2.7,3,0,0,0,0,0,0,0,0,0,0,0,0
1998,11,2,24,0,,15.4,8.9,65,101070,0,0,332,0,0,0,0,0,0,0,340,3,3,0,0,0,0,0,0,0,0,0,0,0,0
1998,11,3,1,0,,14.8,5.3,55,101110,0,0,322,0,0,0,0,0,0,0,340,4.2,2,0,0,0,0,0,0,0,0,0,0,0,0
1998,11,3,2,0,,13.6,1.7,45,101160,0,0,308,0,0,0,0,0,0,0,340,3.7,1,0,0,0,0,0,0,0,0,0,0,0,0
1998,11,3,3,0,,12.8,-1.9,35,101200,0,0,295,0,0,0,0,0,0,0,360,3.3,0,0,0,0,0,0,0,0,0,0,0,0,0
1998,11,3,4,0,,12.2,-2.4,35,101230,0,0,292,0,0,0,0,0,0,0,360,3,0,0,0,0,0,0,0,0,0,0,0,0,0
1998,11,3,5,0,,11.6,-2.8,36,101250,0,0,289,0,0,0,0,0,0,0,0,0.2,0,0,0,0,0,0,0,0,0,0,0,0,0
1998,11,3,6,0,,11.2,-3.3,36,101280,0,0,287,0,0,0,0,0,0,0,320,0.8,0,0,0,0,0,0,0,0,0,0,0,0,0
1998,11,3,7,0,,11,-2.1,37,101350,0,0,291,0,0,0,0,0,0,0,360,0.3,1,0,0,0,0,0,0,0,0,0,0,0,0
1998,11,3,8,0,,11.3,-1,37,101420,0,0,297,100,69,31,7293,6713,4400,0,50,0.8,1,0,0,0,0,0,0,0,0,0,0,0,0
1998,11,3,9,0,,14.4,0.2,38,101490,0,0,314,276,703,58,47010,70086,8569,0,360,1.3,2,0,0,0,0,0,0,0,0,0,0,0,0
1998,11,3,10,0,,16.5,2.3,39,101480,0,0,323,444,802,73,60526,80829,10542,0,50,2.5,1,0,0,0,0,0,0,0,0,0,0,0,0
1998,11,3,11,0,,17.9,4.3,41,101480,0,0,329,555,804,96,65493,81695,13544,0,50,2.7,1,0,0,0,0,0,0,0,0,0,0,0,0
1998,11,3,12,0,,19.4,6.4,42,101470,0,0,334,594,737,128,62343,73147,18471,0,90,2.3,0,0,0,0,0,0,0,0,0,0,0,0,0
1998,11,3,13,0,,19.8,7.3,44,101390,0,0,336,579,676,148,53785,64867,20537,0,140,2.2,0,0,0,0,0,0,0,0,0,0,0,0,0
1998,11,3,14,0,,20.2,8.1,47,101300,0,0,339,519,632,145,40381,55710,19206,0,140,2.3,0,0,0,0,0,0,0,0,0,0,0,0,0
1998,11,3,15,0,,20.2,9,49,101220,0,0,340,418,596,123,24323,41044,15643,0,140,3.3,0,0,0,0,0,0,0,0,0,0,0,0,0
1998,11,3,16,0,,19.4,8.7,52,101190,0,0,336,287,567,87,8571,2050,8533,0,90,2.2,0,0,0,0,0,0,0,0,0,0,0,0,0
1998,11,3,17,0,,18.1,8.4,55,101170,0,0,330,135,499,46,0,0,0,0,200,1.8,0,0,0,0,0,0,0,0,0,0,0,0,0
1998,11,3,18,0,,16.5,8.1,58,101140,0,0,322,23,11,11,0,0,0,0,270,1.2,0,0,0,0,0,0,0,0,0,0,0,0,0
1998,11,3,19,0,,15.8,8.5,62,101140,0,0,326,0,0,0,0,0,0,0,270,1.8,1,0,0,0,0,0,0,0,0,0,0,0,0
1998,11,3,20,0,,15.7,9,65,101140,0,0,330,0,0,0,0,0,0,0,270,2.7,2,0,0,0,0,0,0,0,0,0,0,0,0
1998,11,3,21,0,,15.1,9.4,69,101140,0,0,331,0,0,0,0,0,0,0,270,3.3,3,0,0,0,0,0,0,0,0,0,0,0,0
1998,11,3,22,0,,15,8.5,65,101110,0,0,331,0,0,0,0,0,0,0,270,2.8,3,0,0,0,0,0,0,0,0,0,0,0,0
1998,11,3,23,0,,15,7.7,61,101090,0,0,330,0,0,0,0,0,0,0,270,1.7,4,0,0,0,0,0,0,0,0,0,0,0,0
1998,11,3,24,0,,15.5,6.8,57,101060,0,0,333,0,0,0,0,0,0,0,270,3.5,4,0,0,0,0,0,0,0,0,0,0,0,0
1998,11,4,1,0,,15.2,7.8,61,101020,0,0,334,0,0,0,0,0,0,0,270,4.3,5,0,0,0,0,0,0,0,0,0,0,0,0
1998,11,4,2,0,,15.1,8.9,64,100970,0,0,337,0,0,0,0,0,0,0,270,3.7,5,0,0,0,0,0,0,0,0,0,0,0,0
1998,11,4,3,0,,15.7,9.9,68,100930,0,0,343,0,0,0,0,0,0,0,270,4,6,0,0,0,0,0,0,0,0,0,0,0,0
1998,11,4,4,0,,15.4,9.5,67,100890,0,0,337,0,0,0,0,0,0,0,270,3.7,5,0,0,0,0,0,0,0,0,0,0,0,0
1998,11,4,5,0,,15.3,9,66,100860,0,0,333,0,0,0,0,0,0,0,290,4.7,3,0,0,0,0,0,0,0,0,0,0,0,0
1998,11,4,6,0,,15.3,8.6,65,100820,0,0,328,0,0,0,0,0,0,0,320,4.3,2,0,0,0,0,0,0,0,0,0,0,0,0
1998,11,4,7,0,,15,9.3,68,100880,0,0,333,0,0,0,0,0,0,0,320,4.3,4,0,0,0,0,0,0,0,0,0,0,0,0
1998,11,4,8,0,,14.9,9.9,70,100940,0,0,339,71,33,38,6298,3036,5001,0,320,2,6,0,0,0,0,0,0,0,0,0,0,0,0
1998,11,4,9,0,,15.5,10.6,73,101000,0,0,352,150,137,108,21382,13008,14300,0,250,4.3,8,0,0,0,0,0,0,0,0,0,0,0,0
1998,11,4,10,0,,16.2,10.2,65,100970,0,0,357,240,142,175,29621,13762,21168,0,250,3.7,8,0,0,0,0,0,0,0,0,0,0,0,0
1998,11,4,11,0,,18.6,9.8,57,100940,0,0,372,292,120,224,33966,11644,26609,0,250,4.7,9,0,0,0,0,0,0,0,0,0,0,0,0
1998,11,4,12,0,,20.3,9.4,49,100910,0,0,383,359,152,264,39494,14555,30824,0,250,5,9,0,0,0,0,0,0,0,0,0,0,0,0
1998,11,4,13,0,,20.9,9.6,50,100900,0,0,390,349,135,264,37016,12639,30587,0,270,3.3,9,0,0,0,0,0,0,0,0,0,0,0,0
1998,11,4,14,0,,21.2,9.7,51,100880,0,0,395,242,63,205,25384,5732,23227,0,250,3.3,10,0,0,0,0,0,0,0,0,0,0,0,0
1998,11,4,15,0,,20,9.9,52,100870,0,0,393,177,48,154,17995,3833,17198,0,230,5,10,0,0,0,0,0,0,0,0,0,0,0,0
1998,11,4,16,0,,19.4,10.9,59,100960,0,0,391,110,38,97,10363,2090,10331,0,230,4.7,10,0,0,0,0,0,0,0,0,0,0,0,0
1998,11,4,17,0,,19,11.9,65,101040,0,0,390,45,25,40,0,0,0,0,230,3,10,0,0,0,0,0,0,0,0,0,0,0,0
1998,11,4,18,0,,18.1,12.9,72,101130,0,0,387,2,0,2,0,0,0,0,230,1.7,10,0,0,0,0,0,0,0,0,0,0,0,0
1998,11,4,19,0,,17.8,11.7,75,101160,0,0,370,0,0,0,0,0,0,0,290,2,9,0,0,0,0,0,0,0,0,0,0,0,0
1998,11,4,20,0,,17.5,10.5,78,101200,0,0,358,0,0,0,0,0,0,0,50,1.3,7,0,0,0,0,0,0,0,0,0,0,0,0
1998,11,4,21,0,,17,9.3,81,101230,0,0,348,0,0,0,0,0,0,0,50,3,6,0,0,0,0,0,0,0,0,0,0,0,0
1998,11,4,22,0,,16.4,9.7,79,101290,0,0,348,0,0,0,0,0,0,0,50,4.7,7,0,0,0,0,0,0,0,0,0,0,0,0
1998,11,4,23,0,,15.5,10,77,101340,0,0,348,0,0,0,0,0,0,0,50,4,7,0,0,0,0,0,0,0,0,0,0,0,0
1998,11,4,24,0,,14.8,10.4,75,101400,0,0,348,0,0,0,0,0,0,0,50,4.3,8,0,0,0,0,0,0,0,0,0,0,0,0
1998,11,5,1,0,,14.3,9.7,73,101400,0,0,334,0,0,0,0,0,0,0,50,5.7,5,0,0,0,0,0,0,0,0,0,0,0,0
1998,11,5,2,0,,14.2,9.1,71,101400,0,0,326,0,0,0,0,0,0,0,50,5.3,3,0,0,0,0,0,0,0,0,0,0,0,0
1998,11,5,3,0,,13.9,8.4,69,101400,0,0,311,0,0,0,0,0,0,0,50,4,0,0,0,0,0,0,0,0,0,0,0,0,0
1998,11,5,4,0,,13.8,8.8,72,101430,0,0,311,0,0,0,0,0,0,0,50,4.3,0,0,0,0,0,0,0,0,0,0,0,0,0
1998,11,5,5,0,,13.6,9.3,74,101460,0,0,311,0,0,0,0,0,0,0,50,4.3,0,0,0,0,0,0,0,0,0,0,0,0,0
1998,11,5,6,0,,13.6,9.7,77,101490,0,0,311,0,0,0,0,0,0,0,50,3.7,0,0,0,0,0,0,0,0,0,0,0,0,0
1998,11,5,7,0,,13.4,9.9,75,101500,0,0,318,0,0,0,0,0,0,0,50,4.5,1,0,0,0,0,0,0,0,0,0,0,0,0
1998,11,5,8,0,,13.8,10.1,73,101520,0,0,325,88,54,34,7043,4934,4955,0,50,4.7,3,0,0,0,0,0,0,0,0,0,0,0,0
1998,11,5,9,0,,15.3,10.3,71,101530,0,0,336,236,513,80,40076,50752,12648,0,50,4.3,4,0,0,0,0,0,0,0,0,0,0,0,0
1998,11,5,10,0,,16.5,10.2,66,101520,0,0,343,350,471,136,47936,46532,19544,0,70,4.3,5,0,0,0,0,0,0,0,0,0,0,0,0
1998,11,5,11,0,,17.8,10.1,61,101520,0,0,351,452,501,170,53268,48124,23064,0,70,5.2,5,0,0,0,0,0,0,0,0,0,0,0,0
1998,11,5,12,0,,19,10,56,101510,0,0,359,461,335,253,49405,31982,30482,0,70,4.7,6,0,0,0,0,0,0,0,0,0,0,0,0
1998,11,5,13,0,,18.8,9.5,56,101490,0,0,362,425,246,271,42852,22936,31276,0,70,5.7,7,0,0,0,0,0,0,0,0,0,0,0,0
1998,11,5,14,0,,18,9,57,101470,0,0,363,322,143,239,31685,13079,26810,0,70,5.5,8,0,0,0,0,0,0,0,0,0,0,0,0
1998,11,5,15,0,,16.9,8.5,57,101450,0,0,364,212,82,173,20532,6590,19184,0,50,7.7,9,0,0,0,0,0,0,0,0,0,0,0,0
1998,11,5,16,0,,16.6,8.4,58,101470,0,0,362,140,76,113,12009,4663,11953,0,70,5,9,0,0,0,0,0,0,0,0,0,0,0,0
1998,11,5,17,0,,16,8.2,60,101480,0,0,359,68,86,53,0,0,0,0,70,5.7,9,0,0,0,0,0,0,0,0,0,0,0,0
1998,11,5,18,0,,15.7,8.1,61,101500,0,0,358,8,1,8,0,0,0,0,70,6,9,0,0,0,0,0,0,0,0,0,0,0,0
1998,11,5,19,0,,15.6,8.1,61,101530,0,0,357,0,0,0,0,0,0,0,70,4.3,9,0,0,0,0,0,0,0,0,0,0,0,0
1998,11,5,20,0,,15.6,8.1,61,101570,0,0,357,0,0,0,0,0,0,0,70,5.3,9,0,0,0,0,0,0,0,0,0,0,0,0
1998,11,5,21,0,,15.7,8.1,61,101600,0,0,358,0,0,0,0,0,0,0,70,6.3,9,0,0,0,0,0,0,0,0,0,0,0,0
1998,11,5,22,0,,15.7,8.7,64,101580,0,0,361,0,0,0,0,0,0,0,70,6.2,9,0,0,0,0,0,0,0,0,0,0,0,0
1998,11,5,23,0,,15.3,9.3,67,101550,0,0,363,0,0,0,0,0,0,0,70,5.2,10,0,0,0,0,0,0,0,0,0,0,0,0
1998,11,5,24,0,,15.4,9.9,70,101530,0,0,368,0,0,0,0,0,0,0,50,5.2,10,0,0,0,0,0,0,0,0,0,0,0,0
1998,11,6,1,0,,15.7,9.5,68,101510,0,0,369,0,0,0,0,0,0,0,70,7.5,10,0,0,0,0,0,0,0,0,0,0,0,0
1998,11,6,2,0,,15.6,9,67,101480,0,0,368,0,0,0,0,0,0,0,70,6.2,10,0,0,0,0,0,0,0,0,0,0,0,0
1998,11,6,3,0,,15.4,8.6,65,101460,0,0,367,0,0,0,0,0,0,0,70,6.7,10,0,0,0,0,0,0,0,0,0,0,0,0
1998,11,6,4,0,,15,8.3,64,101450,0,0,361,0,0,0,0,0,0,0,70,6.8,10,0,0,0,0,0,0,0,0,0,0,0,0
1998,11,6,5,0,,14.9,8.1,64,101430,0,0,357,0,0,0,0,0,0,0,70,5.7,9,0,0,0,0,0,0,0,0,0,0,0,0
1998,11,6,6,0,,14.8,7.8,63,101420,0,0,353,0,0,0,0,0,0,0,70,5.3,9,0,0,0,0,0,0,0,0,0,0,0,0
1998,11,6,7,0,,14.7,8.3,65,101440,0,0,353,0,0,0,0,0,0,0,70,6.5,9,0,0,0,0,0,0,0,0,0,0,0,0
1998,11,6,8,0,,14.7,8.8,67,101470,0,0,353,46,10,36,4672,895,4297,0,70,7.7,9,0,0,0,0,0,0,0,0,0,0,0,0
1998,11,6,9,0,,15,9.3,69,101490,0,0,356,131,99,101,17715,9586,12572,0,70,6.3,9,0,0,0,0,0,0,0,0,0,0,0,0
1998,11,6,10,0,,15.6,9.3,67,101430,0,0,356,216,110,166,26576,10766,20052,0,50,7.5,9,0,0,0,0,0,0,0,0,0,0,0,0
1998,11,6,11,0,,16.3,9.2,64,101370,0,0,357,327,174,230,37694,16896,27159,0,50,7,8,0,0,0,0,0,0,0,0,0,0,0,0
1998,11,6,12,0,,16.4,9.2,62,101310,0,0,355,360,160,261,39453,15348,30433,0,70,6.3,8,0,0,0,0,0,0,0,0,0,0,0,0
1998,11,6,13,0,,16.9,8.8,60,101260,0,0,359,355,148,263,37274,13852,30335,0,50,5.8,8,0,0,0,0,0,0,0,0,0,0,0,0
1998,11,6,14,0,,18.7,8.5,57,101220,0,0,370,313,135,235,30920,12345,26364,0,50,6.7,9,0,0,0,0,0,0,0,0,0,0,0,0
1998,11,6,15,0,,17.1,8.1,55,101170,0,0,365,227,101,178,21422,8181,19775,0,50,5,9,0,0,0,0,0,0,0,0,0,0,0,0
1998,11,6,16,0,,16.5,8.5,60,101200,0,0,365,152,100,118,12452,6353,12395,0,50,5.3,9,0,0,0,0,0,0,0,0,0,0,0,0
1998,11,6,17,0,,15.7,8.8,64,101240,0,0,365,43,25,38,0,0,0,0,50,5,10,0,0,0,0,0,0,0,0,0,0,0,0
1998,11,6,18,0,,14.9,9.2,69,101270,0,0,365,3,0,3,0,0,0,0,20,5.7,10,0,0,0,0,0,0,0,0,0,0,0,0
1998,11,6,19,0,,14.7,8.6,68,101230,0,0,344,0,0,0,0,0,0,0,20,6.3,8,0,0,0,0,0,0,0,0,0,0,0,0
1998,11,6,20,0,,14.4,8.1,67,101190,0,0,332,0,0,0,0,0,0,0,360,5.5,5,0,0,0,0,0,0,0,0,0,0,0,0
1998,11,6,21,0,,13.7,7.5,66,101150,0,0,322,0,0,0,0,0,0,0,360,5,3,0,0,0,0,0,0,0,0,0,0,0,0
1998,11,6,22,0,,13.5,8.1,65,101120,0,0,319,0,0,0,0,0,0,0,360,4.8,2,0,0,0,0,0,0,0,0,0,0,0,0
1998,11,6,23,0,,12.8,8.6,65,101080,0,0,312,0,0,0,0,0,0,0,360,4.3,1,0,0,0,0,0,0,0,0,0,0,0,0
1998,11,6,24,0,,13.1,9.2,64,101050,0,0,309,0,0,0,0,0,0,0,360,3,0,0,0,0,0,0,0,0,0,0,0,0,0
1998,11,7,1,0,,12.4,8.1,65,101020,0,0,304,0,0,0,0,0,0,0,360,3.3,0,0,0,0,0,0,0,0,0,0,0,0,0
1998,11,7,2,0,,11.8,7,67,100990,0,0,300,0,0,0,0,0,0,0,360,0.7,0,0,0,0,0,0,0,0,0,0,0,0,0
1998,11,7,3,0,,11.6,5.9,68,100960,0,0,298,0,0,0,0,0,0,0,360,0.5,0,0,0,0,0,0,0,0,0,0,0,0,0
1998,11,7,4,0,,11.4,6.2,71,100930,0,0,298,0,0,0,0,0,0,0,320,1,0,0,0,0,0,0,0,0,0,0,0,0,0
1998,11,7,5,0,,11,6.4,73,100890,0,0,297,0,0,0,0,0,0,0,20,2.3,0,0,0,0,0,0,0,0,0,0,0,0,0
1998,11,7,6,0,,10.7,6.7,76,100860,0,0,296,0,0,0,0,0,0,0,50,0.7,0,0,0,0,0,0,0,0,0,0,0,0,0
1998,11,7,7,0,,10.7,7.2,75,100890,0,0,296,0,0,0,0,0,0,0,200,1.3,0,0,0,0,0,0,0,0,0,0,0,0,0
1998,11,7,8,0,,11,7.7,73,100930,0,0,298,81,47,34,6670,4303,4882,0,180,1,0,0,0,0,0,0,0,0,0,0,0,0,0
1998,11,7,9,0,,13,8.2,72,100960,0,0,307,236,546,74,40226,54955,10965,0,140,0.8,0,0,0,0,0,0,0,0,0,0,0,0,0
1998,11,7,10,0,,15.6,7.2,62,100900,0,0,317,399,688,91,55116,69796,13095,0,140,1,0,0,0,0,0,0,0,0,0,0,0,0,0
1998,11,7,11,0,,18,6.1,52,100850,0,0,327,529,774,100,62655,78375,14097,0,50,1.7,0,0,0,0,0,0,0,0,0,0,0,0,0
1998,11,7,12,0,,18,5.1,42,100790,0,0,326,583,753,120,61041,74792,17378,0,320,3.3,0,0,0,0,0,0,0,0,0,0,0,0,0
1998,11,7,13,0,,18.8,5.4,42,100720,0,0,330,570,694,138,52411,66653,19272,0,360,2.7,0,0,0,0,0,0,0,0,0,0,0,0,0
1998,11,7,14,0,,19.4,5.6,41,100650,0,0,333,509,646,137,38817,57026,17967,0,320,2.7,0,0,0,0,0,0,0,0,0,0,0,0,0
1998,11,7,15,0,,19.4,5.9,41,100580,0,0,333,424,670,103,22263,45734,13203,0,340,3,0,0,0,0,0,0,0,0,0,0,0,0,0
1998,11,7,16,0,,18.9,6.2,45,100590,0,0,331,283,607,77,7282,0,7282,0,320,2.7,0,0,0,0,0,0,0,0,0,0,0,0,0
1998,11,7,17,0,,17.8,6.4,48,100600,0,0,326,129,542,40,0,0,0,0,320,3.7,0,0,0,0,0,0,0,0,0,0,0,0,0
1998,11,7,18,0,,16.5,6.7,52,100610,0,0,321,18,8,10,0,0,0,0,320,1.2,0,0,0,0,0,0,0,0,0,0,0,0,0
1998,11,7,19,0,,15.9,7.6,58,100630,0,0,319,0,0,0,0,0,0,0,270,3.3,0,0,0,0,0,0,0,0,0,0,0,0,0
1998,11,7,20,0,,15.5,8.4,63,100650,0,0,318,0,0,0,0,0,0,0,270,3.7,0,0,0,0,0,0,0,0,0,0,0,0,0
1998,11,7,21,0,,15,9.3,69,100670,0,0,317,0,0,0,0,0,0,0,270,3.3,0,0,0,0,0,0,0,0,0,0,0,0,0
1998,11,7,22,0,,14.6,9.6,72,100680,0,0,315,0,0,0,0,0,0,0,270,2.3,0,0,0,0,0,0,0,0,0,0,0,0,0
1998,11,7,23,0,,14.5,9.9,74,100680,0,0,315,0,0,0,0,0,0,0,270,1.7,0,0,0,0,0,0,0,0,0,0,0,0,0
1998,11,7,24,0,,14.1,10.2,77,100690,0,0,314,0,0,0,0,0,0,0,70,1.3,0,0,0,0,0,0,0,0,0,0,0,0,0
1998,11,8,1,0,,13.6,9.6,77,100660,0,0,311,0,0,0,0,0,0,0,340,1.3,0,0,0,0,0,0,0,0,0,0,0,0,0
1998,11,8,2,0,,12.8,9,77,100630,0,0,307,0,0,0,0,0,0,0,340,5,0,0,0,0,0,0,0,0,0,0,0,0,0
1998,11,8,3,0,,12.2,8.4,77,100600,0,0,304,0,0,0,0,0,0,0,360,7.5,0,0,0,0,0,0,0,0,0,0,0,0,0
1998,11,8,4,0,,11.7,7.9,78,100620,0,0,301,0,0,0,0,0,0,0,360,3.3,0,0,0,0,0,0,0,0,0,0,0,0,0
1998,11,8,5,0,,11,7.5,78,100650,0,0,298,0,0,0,0,0,0,0,360,5,0,0,0,0,0,0,0,0,0,0,0,0,0
1998,11,8,6,0,,10.5,7,79,100670,0,0,295,0,0,0,0,0,0,0,340,4.7,0,0,0,0,0,0,0,0,0,0,0,0,0
1998,11,8,7,0,,10.4,5.9,71,100700,0,0,293,0,0,0,0,0,0,0,340,4.7,0,0,0,0,0,0,0,0,0,0,0,0,0
1998,11,8,8,0,,11.4,4.7,64,100720,0,0,296,89,64,25,6811,5949,4361,0,340,5.5,0,0,0,0,0,0,0,0,0,0,0,0,0
1998,11,8,9,0,,12,3.6,56,100750,0,0,297,260,704,54,45172,70226,8058,0,340,6.7,0,0,0,0,0,0,0,0,0,0,0,0,0
1998,11,8,10,0,,13.4,3.7,52,100700,0,0,311,404,725,84,55981,73458,12050,0,320,5.7,1,0,0,0,0,0,0,0,0,0,0,0,0
1998,11,8,11,0,,14.4,3.8,48,100650,0,0,320,489,656,127,58554,65589,18177,0,320,5,3,0,0,0,0,0,0,0,0,0,0,0,0
1998,11,8,12,0,,16.1,3.9,44,100600,0,0,332,534,619,155,56580,60811,21313,0,320,4.7,4,0,0,0,0,0,0,0,0,0,0,0,0
1998,11,8,13,0,,17.7,4.3,43,100550,0,0,345,480,439,209,45682,42263,24824,0,290,2.5,6,0,0,0,0,0,0,0,0,0,0,0,0
1998,11,8,14,0,,19.3,4.6,42,100490,0,0,360,427,395,201,36137,34895,23497,0,230,4.8,7,0,0,0,0,0,0,0,0,0,0,0,0
1998,11,8,15,0,,18.2,5,41,100440,0,0,366,248,137,183,22360,11115,20193,0,200,4.2,9,0,0,0,0,0,0,0,0,0,0,0,0
1998,11,8,16,0,,17.4,4.5,42,100420,0,0,347,210,282,115,11455,0,11455,0,160,4.7,7,0,0,0,0,0,0,0,0,0,0,0,0
1998,11,8,17,0,,16.2,4.1,44,100410,0,0,334,110,371,50,0,0,0,0,180,2.5,4,0,0,0,0,0,0,0,0,0,0,0,0
1998,11,8,18,0,,15.5,3.6,45,100390,0,0,323,19,11,8,0,0,0,0,200,7.2,2,0,0,0,0,0,0,0,0,0,0,0,0
1998,11,8,19,0,,14.8,4.6,50,100390,0,0,327,0,0,0,0,0,0,0,230,4,4,0,0,0,0,0,0,0,0,0,0,0,0
1998,11,8,20,0,,14.3,5.7,56,100390,0,0,331,0,0,0,0,0,0,0,230,3,6,0,0,0,0,0,0,0,0,0,0,0,0
1998,11,8,21,0,,14,6.7,61,100390,0,0,340,0,0,0,0,0,0,0,230,3.8,8,0,0,0,0,0,0,0,0,0,0,0,0
1998,11,8,22,0,,14.6,7.3,62,100380,0,0,336,0,0,0,0,0,0,0,230,6.7,6,0,0,0,0,0,0,0,0,0,0,0,0
1998,11,8,23,0,,14.8,7.8,63,100380,0,0,332,0,0,0,0,0,0,0,230,4.8,5,0,0,0,0,0,0,0,0,0,0,0,0
1998,11,8,24,0,,14.9,8.4,64,100370,0,0,329,0,0,0,0,0,0,0,230,6.8,3,0,0,0,0,0,0,0,0,0,0,0,0
1998,11,9,1,0,,14.3,8,65,100360,0,0,327,0,0,0,0,0,0,0,230,5.8,3,0,0,0,0,0,0,0,0,0,0,0,0
1998,11,9,2,0,,14.4,7.7,65,100350,0,0,328,0,0,0,0,0,0,0,230,5.3,4,0,0,0,0,0,0,0,0,0,0,0,0
1998,11,9,3,0,,13.5,7.3,66,100340,0,0,324,0,0,0,0,0,0,0,230,3.5,4,0,0,0,0,0,0,0,0,0,0,0,0
1998,11,9,4,0,,13.3,7.9,69,100310,0,0,329,0,0,0,0,0,0,0,200,4.5,6,0,0,0,0,0,0,0,0,0,0,0,0
1998,11,9,5,0,,13.1,8.6,72,100290,0,0,338,0,0,0,0,0,0,0,200,3,8,0,0,0,0,0,0,0,0,0,0,0,0
1998,11,9,6,0,,13.5,9.2,75,100260,0,0,358,0,0,0,0,0,0,0,200,3.5,10,0,0,0,0,0,0,0,0,0,0,0,0
1998,11,9,7,0,,14,10.4,79,100300,0,0,362,0,0,0,0,0,0,0,200,5,10,0,0,0,0,0,0,0,0,0,0,0,0
1998,11,9,8,0,,14.2,11.5,83,100340,0,0,365,28,3,25,3310,120,3261,0,200,4.5,10,0,0,0,0,0,0,0,0,0,0,0,0
1998,11,9,9,0,,14.9,12.7,87,100380,0,0,370,92,41,80,12262,3870,10233,0,230,4,10,0,0,0,0,0,0,0,0,0,0,0,0
1998,11,9,10,0,,15.8,12.8,83,100340,0,0,367,186,79,151,23012,7454,18584,0,230,4,9,0,0,0,0,0,0,0,0,0,0,0,0
1998,11,9,11,0,,16.9,13,79,100310,0,0,367,238,76,196,27054,7032,22752,0,270,3.2,9,0,0,0,0,0,0,0,0,0,0,0,0
1998,11,9,12,0,,17.6,13.1,75,100270,0,0,366,324,127,247,36141,11844,29317,0,320,2.5,8,0,0,0,0,0,0,0,0,0,0,0,0
1998,11,9,13,0,,18,11.6,67,100230,0,0,360,377,188,262,38921,17208,30490,0,290,2.2,7,0,0,0,0,0,0,0,0,0,0,0,0
1998,11,9,14,0,,18.7,10,60,100200,0,0,358,397,295,229,35417,25269,26348,0,290,2.7,6,0,0,0,0,0,0,0,0,0,0,0,0
1998,11,9,15,0,,18.6,8.5,52,100160,0,0,352,344,393,159,23140,24453,18447,0,320,2.7,5,0,0,0,0,0,0,0,0,0,0,0,0
1998,11,9,16,0,,18.4,5.2,45,100190,0,0,343,274,588,78,7115,0,7115,0,320,2.5,3,0,0,0,0,0,0,0,0,0,0,0,0
1998,11,9,17,0,,17,1.9,39,100230,0,0,327,126,560,37,0,0,0,0,270,3.2,2,0,0,0,0,0,0,0,0,0,0,0,0
1998,11,9,18,0,,15,-1.4,32,100260,0,0,305,18,10,8,0,0,0,0,340,4.8,0,0,0,0,0,0,0,0,0,0,0,0,0
1998,11,9,19,0,,13.6,-2.3,32,100380,0,0,298,0,0,0,0,0,0,0,320,1.8,0,0,0,0,0,0,0,0,0,0,0,0,0
1998,11,9,20,0,,12.2,-3.2,33,100490,0,0,292,0,0,0,0,0,0,0,320,3,0,0,0,0,0,0,0,0,0,0,0,0,0
1998,11,9,21,0,,11.4,-4.1,33,100610,0,0,287,0,0,0,0,0,0,0,340,4.3,0,0,0,0,0,0,0,0,0,0,0,0,0
1998,11,9,22,0,,10.3,-3.9,37,100710,0,0,283,0,0,0,0,0,0,0,360,3.2,0,0,0,0,0,0,0,0,0,0,0,0,0
1998,11,9,23,0,,9.3,-3.8,40,100810,0,0,279,0,0,0,0,0,0,0,360,3.3,0,0,0,0,0,0,0,0,0,0,0,0,0
1998,11,9,24,0,,8.2,-3.6,44,100910,0,0,275,0,0,0,0,0,0,0,340,2.8,0,0,0,0,0,0,0,0,0,0,0,0,0
1998,11,10,1,0,,7.3,-4.2,44,100940,0,0,271,0,0,0,0,0,0,0,320,4,0,0,0,0,0,0,0,0,0,0,0,0,0
1998,11,10,2,0,,6.6,-4.8,44,100980,0,0,267,0,0,0,0,0,0,0,320,4.7,0,0,0,0,0,0,0,0,0,0,0,0,0
1998,11,10,3,0,,6.1,-5.4,44,101010,0,0,265,0,0,0,0,0,0,0,360,4,0,0,0,0,0,0,0,0,0,0,0,0,0
1998,11,10,4,0,,5.2,-5.7,45,101040,0,0,261,0,0,0,0,0,0,0,360,3,0,0,0,0,0,0,0,0,0,0,0,0,0
1998,11,10,5,0,,5,-6.1,45,101080,0,0,260,0,0,0,0,0,0,0,340,5,0,0,0,0,0,0,0,0,0,0,0,0,0
1998,11,10,6,0,,4.6,-6.4,46,101110,0,0,258,0,0,0,0,0,0,0,340,3.3,0,0,0,0,0,0,0,0,0,0,0,0,0
1998,11,10,7,0,,4.5,-6.9,43,101180,0,0,257,0,0,0,0,0,0,0,320,3.7,0,0,0,0,0,0,0,0,0,0,0,0,0
1998,11,10,8,0,,4.8,-7.3,40,101240,0,0,258,85,63,23,6288,5975,3873,0,320,4,0,0,0,0,0,0,0,0,0,0,0,0,0
1998,11,10,9,0,,5.6,-7.8,37,101310,0,0,261,251,689,54,43503,68047,8073,0,320,3,0,0,0,0,0,0,0,0,0,0,0,0,0
1998,11,10,10,0,,8.1,-8.2,33,101300,0,0,270,415,793,70,56730,79010,10101,0,320,3,0,0,0,0,0,0,0,0,0,0,0,0,0
1998,11,10,11,0,,9.7,-8.6,29,101280,0,0,276,522,788,93,61423,79351,13193,0,320,2.3,0,0,0,0,0,0,0,0,0,0,0,0,0
1998,11,10,12,0,,10.5,-9,25,101270,0,0,279,597,829,97,61062,82720,13711,0,320,3,0,0,0,0,0,0,0,0,0,0,0,0,0
1998,11,10,13,0,,11.4,-7,27,101200,0,0,284,587,780,111,52916,76140,15880,0,320,3.7,0,0,0,0,0,0,0,0,0,0,0,0,0
1998,11,10,14,0,,13,-5,29,101140,0,0,293,529,745,109,39092,67197,15194,0,320,2,0,0,0,0,0,0,0,0,0,0,0,0,0
1998,11,10,15,0,,13.8,-3,31,101070,0,0,298,433,737,87,21468,51473,11740,0,110,1.5,0,0,0,0,0,0,0,0,0,0,0,0,0
1998,11,10,16,0,,13.1,-4.2,30,101090,0,0,294,297,723,59,0,0,0,0,290,2.7,0,0,0,0,0,0,0,0,0,0,0,0,0
1998,11,10,17,0,,12.2,-5.5,29,101110,0,0,289,130,626,32,0,0,0,0,270,2.7,0,0,0,0,0,0,0,0,0,0,0,0,0
1998,11,10,18,0,,10.9,-6.7,28,101130,0,0,283,17,8,8,0,0,0,0,290,1,0,0,0,0,0,0,0,0,0,0,0,0,0
1998,11,10,19,0,,10,-6.8,29,101170,0,0,279,0,0,0,0,0,0,0,270,0.5,0,0,0,0,0,0,0,0,0,0,0,0,0
1998,11,10,20,0,,9.7,-7,29,101200,0,0,278,0,0,0,0,0,0,0,340,4,0,0,0,0,0,0,0,0,0,0,0,0,0
1998,11,10,21,0,,9.4,-7.1,30,101240,0,0,276,0,0,0,0,0,0,0,340,3,0,0,0,0,0,0,0,0,0,0,0,0,0
1998,11,10,22,0,,9,-7.5,30,101230,0,0,274,0,0,0,0,0,0,0,340,5,0,0,0,0,0,0,0,0,0,0,0,0,0
1998,11,10,23,0,,8.4,-7.8,30,101230,0,0,272,0,0,0,0,0,0,0,340,4,0,0,0,0,0,0,0,0,0,0,0,0,0
1998,11,10,24,0,,8,-8.2,30,101220,0,0,270,0,0,0,0,0,0,0,340,3.3,0,0,0,0,0,0,0,0,0,0,0,0,0
1998,11,11,1,0,,7.5,-7.9,31,101200,0,0,268,0,0,0,0,0,0,0,320,4.7,0,0,0,0,0,0,0,0,0,0,0,0,0
1998,11,11,2,0,,7.3,-7.7,32,101170,0,0,267,0,0,0,0,0,0,0,340,2.2,0,0,0,0,0,0,0,0,0,0,0,0,0
1998,11,11,3,0,,7.8,-7.4,33,101150,0,0,270,0,0,0,0,0,0,0,360,5.3,0,0,0,0,0,0,0,0,0,0,0,0,0
1998,11,11,4,0,,7.6,-6,38,101160,0,0,270,0,0,0,0,0,0,0,20,2.8,0,0,0,0,0,0,0,0,0,0,0,0,0
1998,11,11,5,0,,7.1,-4.7,43,101160,0,0,269,0,0,0,0,0,0,0,340,0.7,0,0,0,0,0,0,0,0,0,0,0,0,0
1998,11,11,6,0,,6.9,-3.3,48,101170,0,0,270,0,0,0,0,0,0,0,320,2,0,0,0,0,0,0,0,0,0,0,0,0,0
1998,11,11,7,0,,7,-2.3,48,101190,0,0,271,0,0,0,0,0,0,0,320,1.8,0,0,0,0,0,0,0,0,0,0,0,0,0
1998,11,11,8,0,,7,-1.2,49,101200,0,0,272,75,48,27,5695,4608,3851,0,320,0.7,0,0,0,0,0,0,0,0,0,0,0,0,0
1998,11,11,9,0,,10,-0.2,49,101220,0,0,285,245,673,55,42732,66765,8228,0,160,1,0,0,0,0,0,0,0,0,0,0,0,0,0
1998,11,11,10,0,,12.3,1.4,49,101180,0,0,296,396,735,79,55092,74418,11462,0,140,1.3,0,0,0,0,0,0,0,0,0,0,0,0,0
1998,11,11,11,0,,14.1,2.9,49,101150,0,0,306,518,790,92,61365,79824,13151,0,180,2.3,0,0,0,0,0,0,0,0,0,0,0,0,0
1998,11,11,12,0,,15.1,4.5,49,101110,0,0,312,569,758,114,59483,75261,16677,0,270,4.2,0,0,0,0,0,0,0,0,0,0,0,0,0
1998,11,11,13,0,,15.8,5,48,101050,0,0,316,550,680,137,50511,64976,19129,0,230,3,0,0,0,0,0,0,0,0,0,0,0,0,0
1998,11,11,14,0,,18.2,5.4,46,100990,0,0,327,538,784,98,39049,70329,14259,0,230,4.7,0,0,0,0,0,0,0,0,0,0,0,0,0
1998,11,11,15,0,,17.8,5.9,45,100930,0,0,326,425,721,90,21330,49201,12170,0,230,5.2,0,0,0,0,0,0,0,0,0,0,0,0,0
1998,11,11,16,0,,17,6.2,50,100920,0,0,322,295,726,58,0,0,0,0,230,6.7,0,0,0,0,0,0,0,0,0,0,0,0,0
1998,11,11,17,0,,15.9,6.5,54,100910,0,0,318,118,525,38,0,0,0,0,230,5,0,0,0,0,0,0,0,0,0,0,0,0,0
1998,11,11,18,0,,14.9,6.8,59,100900,0,0,314,15,6,9,0,0,0,0,250,5,0,0,0,0,0,0,0,0,0,0,0,0,0
1998,11,11,19,0,,14.4,6.9,60,100920,0,0,311,0,0,0,0,0,0,0,250,4.2,0,0,0,0,0,0,0,0,0,0,0,0,0
1998,11,11,20,0,,14.2,6.9,62,100950,0,0,311,0,0,0,0,0,0,0,250,4,0,0,0,0,0,0,0,0,0,0,0,0,0
1998,11,11,21,0,,14,7,63,100970,0,0,310,0,0,0,0,0,0,0,250,4,0,0,0,0,0,0,0,0,0,0,0,0,0
1998,11,11,22,0,,13.8,6.2,59,100980,0,0,308,0,0,0,0,0,0,0,270,4.2,0,0,0,0,0,0,0,0,0,0,0,0,0
1998,11,11,23,0,,14.2,5.4,56,101000,0,0,309,0,0,0,0,0,0,0,270,5.3,0,0,0,0,0,0,0,0,0,0,0,0,0
1998,11,11,24,0,,14.3,4.6,52,101010,0,0,308,0,0,0,0,0,0,0,250,5,0,0,0,0,0,0,0,0,0,0,0,0,0
1998,11,12,1,0,,13.7,4.2,54,101030,0,0,305,0,0,0,0,0,0,0,360,2.3,0,0,0,0,0,0,0,0,0,0,0,0,0
1998,11,12,2,0,,12.6,3.8,55,101040,0,0,300,0,0,0,0,0,0,0,320,1.5,0,0,0,0,0,0,0,0,0,0,0,0,0
1998,11,12,3,0,,11.7,3.4,57,101060,0,0,296,0,0,0,0,0,0,0,320,1.7,0,0,0,0,0,0,0,0,0,0,0,0,0
1998,11,12,4,0,,11,1,50,101100,0,0,290,0,0,0,0,0,0,0,340,1.8,0,0,0,0,0,0,0,0,0,0,0,0,0
1998,11,12,5,0,,11,-1.4,44,101140,0,0,288,0,0,0,0,0,0,0,320,1.5,0,0,0,0,0,0,0,0,0,0,0,0,0
1998,11,12,6,0,,10.5,-3.8,37,101180,0,0,284,0,0,0,0,0,0,0,250,1.7,0,0,0,0,0,0,0,0,0,0,0,0,0
1998,11,12,7,0,,10.5,-2.7,38,101240,0,0,285,0,0,0,0,0,0,0,320,5.2,0,0,0,0,0,0,0,0,0,0,0,0,0
1998,11,12,8,0,,10.5,-1.6,39,101300,0,0,286,74,49,25,5459,4684,3602,0,320,0.8,0,0,0,0,0,0,0,0,0,0,0,0,0
1998,11,12,9,0,,12.9,-0.5,40,101360,0,0,297,241,671,55,42270,66489,8163,0,180,1.2,0,0,0,0,0,0,0,0,0,0,0,0,0
1998,11,12,10,0,,14,0.4,38,101340,0,0,303,385,705,84,53485,71136,12052,0,340,1.8,0,0,0,0,0,0,0,0,0,0,0,0,0
1998,11,12,11,0,,15.3,1.2,37,101330,0,0,309,505,760,98,59838,76558,13884,0,230,1,0,0,0,0,0,0,0,0,0,0,0,0,0
1998,11,12,12,0,,17.8,2.1,35,101310,0,0,321,574,787,106,59324,78402,15012,0,200,3,0,0,0,0,0,0,0,0,0,0,0,0,0
1998,11,12,13,0,,18.7,2.2,35,101250,0,0,325,590,811,101,52530,78940,14668,0,200,4.3,0,0,0,0,0,0,0,0,0,0,0,0,0
1998,11,12,14,0,,18.1,2.2,34,101200,0,0,323,524,749,106,38406,66994,14998,0,180,4,0,0,0,0,0,0,0,0,0,0,0,0,0
1998,11,12,15,0,,18.2,2.3,34,101140,0,0,323,414,690,95,21137,46576,12594,0,200,4,0,0,0,0,0,0,0,0,0,0,0,0,0
1998,11,12,16,0,,17.3,2.1,37,101150,0,0,319,270,608,73,0,0,0,0,200,4,0,0,0,0,0,0,0,0,0,0,0,0,0
1998,11,12,17,0,,15.7,1.9,39,101160,0,0,312,117,538,36,0,0,0,0,200,4.3,0,0,0,0,0,0,0,0,0,0,0,0,0
1998,11,12,18,0,,14.2,1.7,42,101170,0,0,305,14,5,8,0,0,0,0,230,3.5,0,0,0,0,0,0,0,0,0,0,0,0,0
1998,11,12,19,0,,13.4,2.5,46,101180,0,0,302,0,0,0,0,0,0,0,250,2.7,0,0,0,0,0,0,0,0,0,0,0,0,0
1998,11,12,20,0,,13.5,3.3,51,101190,0,0,304,0,0,0,0,0,0,0,270,2.8,0,0,0,0,0,0,0,0,0,0,0,0,0
1998,11,12,21,0,,13.1,4.1,55,101200,0,0,303,0,0,0,0,0,0,0,270,1,0,0,0,0,0,0,0,0,0,0,0,0,0
1998,11,12,22,0,,12.6,4.2,56,101170,0,0,301,0,0,0,0,0,0,0,270,1.5,0,0,0,0,0,0,0,0,0,0,0,0,0
1998,11,12,23,0,,12.6,4.4,56,101130,0,0,301,0,0,0,0,0,0,0,270,2.2,0,0,0,0,0,0,0,0,0,0,0,0,0
1998,11,12,24,0,,12.9,4.5,57,101100,0,0,302,0,0,0,0,0,0,0,270,3.7,0,0,0,0,0,0,0,0,0,0,0,0,0
1998,11,13,1,0,,12.9,4.9,59,101060,0,0,307,0,0,0,0,0,0,0,270,3.7,1,0,0,0,0,0,0,0,0,0,0,0,0
1998,11,13,2,0,,12.7,5.4,60,101020,0,0,310,0,0,0,0,0,0,0,250,2,1,0,0,0,0,0,0,0,0,0,0,0,0
1998,11,13,3,0,,12.8,5.8,62,100980,0,0,313,0,0,0,0,0,0,0,270,3.7,2,0,0,0,0,0,0,0,0,0,0,0,0
1998,11,13,4,0,,12.4,6.6,67,100960,0,0,317,0,0,0,0,0,0,0,270,3.7,3,0,0,0,0,0,0,0,0,0,0,0,0
1998,11,13,5,0,,12.4,7.4,71,100930,0,0,321,0,0,0,0,0,0,0,270,4,5,0,0,0,0,0,0,0,0,0,0,0,0
1998,11,13,6,0,,12.3,8.2,76,100910,0,0,325,0,0,0,0,0,0,0,270,3,6,0,0,0,0,0,0,0,0,0,0,0,0
1998,11,13,7,0,,12.2,8.3,75,101000,0,0,327,0,0,0,0,0,0,0,270,3.3,7,0,0,0,0,0,0,0,0,0,0,0,0
1998,11,13,8,0,,12.7,8.4,73,101080,0,0,332,49,19,30,4675,1783,3975,0,270,4.7,7,0,0,0,0,0,0,0,0,0,0,0,0
1998,11,13,9,0,,13.5,8.5,72,101170,0,0,340,139,157,96,20244,14943,12636,0,270,3.5,8,0,0,0,0,0,0,0,0,0,0,0,0
1998,11,13,10,0,,14.5,7.7,64,101100,0,0,344,240,185,162,30654,18047,20211,0,250,4.7,8,0,0,0,0,0,0,0,0,0,0,0,0
1998,11,13,11,0,,15.9,7,55,101040,0,0,350,329,211,217,38447,20655,26125,0,250,5.7,8,0,0,0,0,0,0,0,0,0,0,0,0
1998,11,13,12,0,,17.4,6.2,47,100970,0,0,356,381,223,250,41082,21680,28905,0,250,5.5,8,0,0,0,0,0,0,0,0,0,0,0,0
1998,11,13,13,0,,18.2,7,49,100910,0,0,363,390,227,254,39330,21321,29174,0,250,6.7,8,0,0,0,0,0,0,0,0,0,0,0,0
1998,11,13,14,0,,19.3,7.7,50,100850,0,0,373,309,152,225,30194,13028,25681,0,250,6.7,9,0,0,0,0,0,0,0,0,0,0,0,0
1998,11,13,15,0,,18.6,8.5,52,100790,0,0,373,218,107,169,20244,8370,18731,0,200,4.2,9,0,0,0,0,0,0,0,0,0,0,0,0
1998,11,13,16,0,,18.5,9.1,56,100820,0,0,355,219,349,107,0,0,0,0,230,6.3,6,0,0,0,0,0,0,0,0,0,0,0,0
1998,11,13,17,0,,17.4,9.6,61,100840,0,0,342,109,69,40,0,0,0,0,230,6.3,3,0,0,0,0,0,0,0,0,0,0,0,0
1998,11,13,18,0,,16.7,10.2,65,100870,0,0,325,13,5,8,0,0,0,0,230,4.3,0,0,0,0,0,0,0,0,0,0,0,0,0
1998,11,13,19,0,,16.3,11.1,72,100900,0,0,325,0,0,0,0,0,0,0,230,6,0,0,0,0,0,0,0,0,0,0,0,0,0
1998,11,13,20,0,,14.7,12.1,79,100930,0,0,319,0,0,0,0,0,0,0,250,4.3,0,0,0,0,0,0,0,0,0,0,0,0,0
1998,11,13,21,0,,15.3,13,86,100960,0,0,322,0,0,0,0,0,0,0,230,4,0,0,0,0,0,0,0,0,0,0,0,0,0
1998,11,13,22,0,,15.4,13.2,87,100960,0,0,323,0,0,0,0,0,0,0,250,6,0,0,0,0,0,0,0,0,0,0,0,0,0
1998,11,13,23,0,,15.4,13.4,89,100970,0,0,323,0,0,0,0,0,0,0,250,7,0,0,0,0,0,0,0,0,0,0,0,0,0
1998,11,13,24,0,,15.3,13.6,90,100970,0,0,323,0,0,0,0,0,0,0,250,6.3,0,0,0,0,0,0,0,0,0,0,0,0,0
1998,11,14,1,0,,15.2,13.8,92,100970,0,0,323,0,0,0,0,0,0,0,270,6.3,0,0,0,0,0,0,0,0,0,0,0,0,0
1998,11,14,2,0,,15.2,14,93,100960,0,0,323,0,0,0,0,0,0,0,270,5.3,0,0,0,0,0,0,0,0,0,0,0,0,0
1998,11,14,3,0,,15,14.2,95,100960,0,0,323,0,0,0,0,0,0,0,270,6,0,0,0,0,0,0,0,0,0,0,0,0,0
1998,11,14,4,0,,15,14,95,100960,0,0,322,0,0,0,0,0,0,0,270,5.8,0,0,0,0,0,0,0,0,0,0,0,0,0
1998,11,14,5,0,,14.8,13.9,94,100960,0,0,321,0,0,0,0,0,0,0,270,5.2,0,0,0,0,0,0,0,0,0,0,0,0,0
1998,11,14,6,0,,14.7,13.7,94,100960,0,0,321,0,0,0,0,0,0,0,270,4.7,0,0,0,0,0,0,0,0,0,0,0,0,0
1998,11,14,7,0,,14.8,13.1,89,100990,0,0,320,0,0,0,0,0,0,0,270,3,0,0,0,0,0,0,0,0,0,0,0,0,0
1998,11,14,8,0,,14.9,12.4,85,101030,0,0,320,66,38,28,5438,3315,4148,0,320,3,0,0,0,0,0,0,0,0,0,0,0,0,0
1998,11,14,9,0,,15.1,11.8,80,101060,0,0,320,208,504,72,36512,49364,11563,0,320,3,0,0,0,0,0,0,0,0,0,0,0,0,0
1998,11,14,10,0,,17.9,12,73,101060,0,0,333,357,620,97,50196,61338,14932,0,250,3.5,0,0,0,0,0,0,0,0,0,0,0,0,0
1998,11,14,11,0,,19.3,12.2,66,101060,0,0,340,479,698,110,57537,68953,16653,0,270,4.3,0,0,0,0,0,0,0,0,0,0,0,0,0
1998,11,14,12,0,,20.8,12.4,59,101060,0,0,347,553,744,115,57797,72766,17176,0,230,4.8,0,0,0,0,0,0,0,0,0,0,0,0,0
1998,11,14,13,0,,21.6,13,60,101020,0,0,352,543,691,131,49685,65000,18928,0,230,4.2,0,0,0,0,0,0,0,0,0,0,0,0,0
1998,11,14,14,0,,22.5,13.5,60,100980,0,0,357,500,696,117,37516,60317,16794,0,230,4.5,0,0,0,0,0,0,0,0,0,0,0,0,0
1998,11,14,15,0,,22,14.1,61,100940,0,0,355,390,624,106,20643,37333,13990,0,200,4.3,0,0,0,0,0,0,0,0,0,0,0,0,0
1998,11,14,16,0,,21.4,14.1,66,100960,0,0,352,260,583,75,0,0,0,0,230,4.2,0,0,0,0,0,0,0,0,0,0,0,0,0
1998,11,14,17,0,,19.9,14.1,72,100990,0,0,345,102,59,43,0,0,0,0,200,2,0,0,0,0,0,0,0,0,0,0,0,0,0
1998,11,14,18,0,,18.2,14.1,77,101010,0,0,337,10,2,7,0,0,0,0,180,2.3,0,0,0,0,0,0,0,0,0,0,0,0,0
1998,11,14,19,0,,17.4,13.9,79,101060,0,0,333,0,0,0,0,0,0,0,290,1.3,0,0,0,0,0,0,0,0,0,0,0,0,0
1998,11,14,20,0,,17,13.7,81,101100,0,0,331,0,0,0,0,0,0,0,250,3.2,0,0,0,0,0,0,0,0,0,0,0,0,0
1998,11,14,21,0,,16.5,13.5,83,101150,0,0,328,0,0,0,0,0,0,0,250,2.3,0,0,0,0,0,0,0,0,0,0,0,0,0
1998,11,14,22,0,,16.6,13.6,83,101150,0,0,329,0,0,0,0,0,0,0,230,2.3,0,0,0,0,0,0,0,0,0,0,0,0,0
1998,11,14,23,0,,16.7,13.6,83,101140,0,0,329,0,0,0,0,0,0,0,230,1.5,0,0,0,0,0,0,0,0,0,0,0,0,0
1998,11,14,24,0,,16.7,13.7,83,101140,0,0,329,0,0,0,0,0,0,0,230,1.7,0,0,0,0,0,0,0,0,0,0,0,0,0
1998,11,15,1,0,,16.7,13.5,82,101140,0,0,329,0,0,0,0,0,0,0,270,5.7,0,0,0,0,0,0,0,0,0,0,0,0,0
1998,11,15,2,0,,16.7,13.3,81,101140,0,0,329,0,0,0,0,0,0,0,270,5.3,0,0,0,0,0,0,0,0,0,0,0,0,0
1998,11,15,3,0,,16.6,13.1,80,101140,0,0,328,0,0,0,0,0,0,0,270,3.8,0,0,0,0,0,0,0,0,0,0,0,0,0
1998,11,15,4,0,,16,12.4,78,101140,0,0,325,0,0,0,0,0,0,0,250,0.3,0,0,0,0,0,0,0,0,0,0,0,0,0
1998,11,15,5,0,,15.3,11.6,77,101130,0,0,321,0,0,0,0,0,0,0,70,1.2,0,0,0,0,0,0,0,0,0,0,0,0,0
1998,11,15,6,0,,15.3,10.9,75,101130,0,0,320,0,0,0,0,0,0,0,230,2.8,0,0,0,0,0,0,0,0,0,0,0,0,0
1998,11,15,7,0,,15.1,11.2,74,101170,0,0,320,0,0,0,0,0,0,0,230,3.2,0,0,0,0,0,0,0,0,0,0,0,0,0
1998,11,15,8,0,,15.6,11.6,73,101200,0,0,322,68,43,25,5198,3740,3756,0,250,5.8,0,0,0,0,0,0,0,0,0,0,0,0,0
1998,11,15,9,0,,16.9,11.9,72,101240,0,0,328,217,580,62,38830,58468,9497,0,250,4.5,0,0,0,0,0,0,0,0,0,0,0,0,0
1998,11,15,10,0,,18.7,12.3,67,101220,0,0,337,368,678,86,51864,68816,12553,0,250,4.2,0,0,0,0,0,0,0,0,0,0,0,0,0
1998,11,15,11,0,,20.5,12.6,62,101190,0,0,346,484,728,103,58172,73640,14771,0,200,4,0,0,0,0,0,0,0,0,0,0,0,0,0
1998,11,15,12,0,,21.8,13,57,101170,0,0,353,545,731,118,57031,71192,17529,0,200,4,0,0,0,0,0,0,0,0,0,0,0,0,0
1998,11,15,13,0,,22.5,13.8,59,101090,0,0,357,538,688,131,49299,64543,18959,0,200,4.3,0,0,0,0,0,0,0,0,0,0,0,0,0
1998,11,15,14,0,,22.9,14.7,60,101020,0,0,360,478,633,131,35779,51622,18187,0,230,4.5,0,0,0,0,0,0,0,0,0,0,0,0,0
1998,11,15,15,0,,23.2,15.5,62,100940,0,0,362,389,629,104,20363,36716,13910,0,250,4.7,0,0,0,0,0,0,0,0,0,0,0,0,0
1998,11,15,16,0,,22.2,14.8,65,100900,0,0,357,256,573,75,0,0,0,0,180,4.8,0,0,0,0,0,0,0,0,0,0,0,0,0
1998,11,15,17,0,,20.5,14,68,100870,0,0,348,105,65,39,0,0,0,0,230,4.2,0,0,0,0,0,0,0,0,0,0,0,0,0
1998,11,15,18,0,,18.9,13.3,71,100830,0,0,339,9,2,7,0,0,0,0,250,4,0,0,0,0,0,0,0,0,0,0,0,0,0
1998,11,15,19,0,,18,13.2,73,100830,0,0,335,0,0,0,0,0,0,0,250,3.3,0,0,0,0,0,0,0,0,0,0,0,0,0
1998,11,15,20,0,,17.7,13,74,100830,0,0,333,0,0,0,0,0,0,0,230,5.3,0,0,0,0,0,0,0,0,0,0,0,0,0
1998,11,15,21,0,,17.2,12.9,76,100830,0,0,331,0,0,0,0,0,0,0,250,5,0,0,0,0,0,0,0,0,0,0,0,0,0
1998,11,15,22,0,,16.7,13.1,78,100820,0,0,329,0,0,0,0,0,0,0,250,4.8,0,0,0,0,0,0,0,0,0,0,0,0,0
1998,11,15,23,0,,16.8,13.3,80,100800,0,0,329,0,0,0,0,0,0,0,250,4.2,0,0,0,0,0,0,0,0,0,0,0,0,0
1998,11,15,24,0,,16.7,13.5,82,100790,0,0,329,0,0,0,0,0,0,0,270,3.8,0,0,0,0,0,0,0,0,0,0,0,0,0
1998,11,16,1,0,,16.5,13.6,83,100730,0,0,336,0,0,0,0,0,0,0,230,2.7,1,0,0,0,0,0,0,0,0,0,0,0,0
1998,11,16,2,0,,16.3,13.7,85,100680,0,0,341,0,0,0,0,0,0,0,250,3.7,3,0,0,0,0,0,0,0,0,0,0,0,0
1998,11,16,3,0,,16.1,13.8,86,100620,0,0,344,0,0,0,0,0,0,0,250,2.3,4,0,0,0,0,0,0,0,0,0,0,0,0
1998,11,16,4,0,,16.2,13.8,86,100600,0,0,342,0,0,0,0,0,0,0,250,4,3,0,0,0,0,0,0,0,0,0,0,0,0
1998,11,16,5,0,,16.2,13.8,85,100590,0,0,338,0,0,0,0,0,0,0,250,4,2,0,0,0,0,0,0,0,0,0,0,0,0
1998,11,16,6,0,,16.3,13.8,85,100570,0,0,334,0,0,0,0,0,0,0,270,0.8,1,0,0,0,0,0,0,0,0,0,0,0,0
1998,11,16,7,0,,16.2,14.1,84,100520,0,0,341,0,0,0,0,0,0,0,290,0.7,3,0,0,0,0,0,0,0,0,0,0,0,0
1998,11,16,8,0,,15.9,14.4,82,100470,0,0,344,54,30,24,4282,2645,3272,0,20,0.8,4,0,0,0,0,0,0,0,0,0,0,0,0
1998,11,16,9,0,,18,14.7,81,100420,0,0,360,158,269,87,25550,24433,13383,0,90,1,6,0,0,0,0,0,0,0,0,0,0,0,0
1998,11,16,10,0,,18.5,14.6,78,100330,0,0,368,235,189,157,30321,17299,20502,0,50,1,7,0,0,0,0,0,0,0,0,0,0,0,0
1998,11,16,11,0,,18.9,14.6,76,100250,0,0,379,224,75,184,25477,6886,21443,0,90,0.8,9,0,0,0,0,0,0,0,0,0,0,0,0
1998,11,16,12,0,,19.4,14.5,73,100160,0,0,396,188,33,170,21354,2960,19721,0,70,1.2,10,0,0,0,0,0,0,0,0,0,0,0,0
1998,11,16,13,0,,18.7,15.1,75,100040,0,0,376,278,91,224,29526,8246,25674,0,70,1.3,8,0,0,0,0,0,0,0,0,0,0,0,0
1998,11,16,14,0,,20.2,15.6,77,99930,0,0,375,313,168,222,30577,13329,26071,0,200,2.7,7,0,0,0,0,0,0,0,0,0,0,0,0
1998,11,16,15,0,,20,16.2,79,99810,0,0,368,303,309,164,22038,17194,19056,0,200,3.3,5,0,0,0,0,0,0,0,0,0,0,0,0
1998,11,16,16,0,,19.3,16.2,83,99810,0,0,369,195,290,105,0,0,0,0,200,4.3,6,0,0,0,0,0,0,0,0,0,0,0,0
1998,11,16,17,0,,18.6,16.3,87,99810,0,0,373,55,12,43,0,0,0,0,250,3.7,8,0,0,0,0,0,0,0,0,0,0,0,0
1998,11,16,18,0,,17.9,16.3,91,99810,0,0,379,0,0,0,0,0,0,0,250,5.3,9,0,0,0,0,0,0,0,0,0,0,0,0
1998,11,16,19,0,,17.9,16.3,92,99840,0,0,371,0,0,0,0,0,0,0,250,5.3,8,0,0,0,0,0,0,0,0,0,0,0,0
1998,11,16,20,0,,17.5,16.3,92,99870,0,0,364,0,0,0,0,0,0,0,250,5.3,7,0,0,0,0,0,0,0,0,0,0,0,0
1998,11,16,21,0,,17.4,16.3,93,99900,0,0,359,0,0,0,0,0,0,0,270,5.2,6,0,0,0,0,0,0,0,0,0,0,0,0
1998,11,16,22,0,,17.3,16.2,94,99840,0,0,364,0,0,0,0,0,0,0,270,4.3,7,0,0,0,0,0,0,0,0,0,0,0,0
1998,11,16,23,0,,17,16.2,94,99790,0,0,372,0,0,0,0,0,0,0,360,2.7,9,0,0,0,0,0,0,0,0,0,0,0,0
1998,11,16,24,0,,16.9,16.1,95,99730,0,0,385,0,0,0,0,0,0,0,270,1,10,0,0,0,0,0,0,0,0,0,0,0,0
1998,11,17,1,0,,16.6,14.9,89,99730,0,0,381,0,0,0,0,0,0,0,320,1.3,10,0,0,0,0,0,0,0,0,0,0,0,0
1998,11,17,2,0,,16.5,13.7,84,99730,0,0,379,0,0,0,0,0,0,0,230,1.7,10,0,0,0,0,0,0,0,0,0,0,0,0
1998,11,17,3,0,,16.3,12.5,78,99730,0,0,377,0,0,0,0,0,0,0,340,3,10,0,0,0,0,0,0,0,0,0,0,0,0
1998,11,17,4,0,,16,10,70,99790,0,0,347,0,0,0,0,0,0,0,270,2.7,7,0,0,0,0,0,0,0,0,0,0,0,0
1998,11,17,5,0,,15.6,7.6,62,99840,0,0,332,0,0,0,0,0,0,0,290,5.8,3,0,0,0,0,0,0,0,0,0,0,0,0
1998,11,17,6,0,,14.5,5.1,54,99900,0,0,310,0,0,0,0,0,0,0,360,6,0,0,0,0,0,0,0,0,0,0,0,0,0
1998,11,17,7,0,,12.2,0.9,45,99960,0,0,300,0,0,0,0,0,0,0,320,6,1,0,0,0,0,0,0,0,0,0,0,0,0
1998,11,17,8,0,,11.3,-3.2,36,100020,0,0,295,68,45,22,4838,4282,3218,0,320,8,1,0,0,0,0,0,0,0,0,0,0,0,0
1998,11,17,9,0,,10.7,-7.4,27,100080,0,0,291,219,626,55,39297,62472,8411,0,270,8.2,2,0,0,0,0,0,0,0,0,0,0,0,0
1998,11,17,10,0,,10.3,-6.8,28,100170,0,0,289,351,635,91,48819,63431,13042,0,290,5.3,2,0,0,0,0,0,0,0,0,0,0,0,0
1998,11,17,11,0,,10.8,-6.3,29,100250,0,0,292,450,635,122,54297,63509,17306,0,270,4.2,2,0,0,0,0,0,0,0,0,0,0,0,0
1998,11,17,12,0,,11.1,-5.7,30,100340,0,0,294,528,700,124,55490,69395,17435,0,360,6,2,0,0,0,0,0,0,0,0,0,0,0,0
1998,11,17,13,0,,10.3,-6,30,100350,0,0,290,529,679,131,48260,65042,18071,0,360,6.3,2,0,0,0,0,0,0,0,0,0,0,0,0
1998,11,17,14,0,,10.6,-6.4,29,100370,0,0,291,492,700,114,36312,61821,15572,0,320,6.7,2,0,0,0,0,0,0,0,0,0,0,0,0
1998,11,17,15,0,,10.6,-6.7,29,100380,0,0,291,389,649,99,19336,42821,12007,0,340,4,2,0,0,0,0,0,0,0,0,0,0,0,0
1998,11,17,16,0,,8.9,-6.5,32,100470,0,0,284,266,653,64,0,0,0,0,290,6.5,2,0,0,0,0,0,0,0,0,0,0,0,0
1998,11,17,17,0,,8.3,-6.2,35,100560,0,0,282,108,74,34,0,0,0,0,290,3.3,2,0,0,0,0,0,0,0,0,0,0,0,0
1998,11,17,18,0,,6.9,-6,38,100650,0,0,276,10,3,7,0,0,0,0,270,7,2,0,0,0,0,0,0,0,0,0,0,0,0
1998,11,17,19,0,,6.1,-5.7,41,100730,0,0,271,0,0,0,0,0,0,0,270,4.3,1,0,0,0,0,0,0,0,0,0,0,0,0
1998,11,17,20,0,,5.4,-5.3,44,100800,0,0,266,0,0,0,0,0,0,0,270,5.3,1,0,0,0,0,0,0,0,0,0,0,0,0
1998,11,17,21,0,,5,-5,47,100880,0,0,261,0,0,0,0,0,0,0,270,6,0,0,0,0,0,0,0,0,0,0,0,0,0
1998,11,17,22,0,,4.6,-5.8,45,100920,0,0,259,0,0,0,0,0,0,0,290,3.7,0,0,0,0,0,0,0,0,0,0,0,0,0
1998,11,17,23,0,,4.5,-6.6,43,100960,0,0,257,0,0,0,0,0,0,0,290,3.5,0,0,0,0,0,0,0,0,0,0,0,0,0
1998,11,17,24,0,,4.2,-7.4,41,101000,0,0,256,0,0,0,0,0,0,0,270,3.7,0,0,0,0,0,0,0,0,0,0,0,0,0
1998,11,18,1,0,,3.8,-7.8,42,101060,0,0,253,0,0,0,0,0,0,0,270,4.5,0,0,0,0,0,0,0,0,0,0,0,0,0
1998,11,18,2,0,,3.3,-8.2,42,101120,0,0,251,0,0,0,0,0,0,0,270,3,0,0,0,0,0,0,0,0,0,0,0,0,0
1998,11,18,3,0,,2.7,-8.6,43,101180,0,0,249,0,0,0,0,0,0,0,270,3.7,0,0,0,0,0,0,0,0,0,0,0,0,0
1998,11,18,4,0,,2.2,-8.3,45,101210,0,0,247,0,0,0,0,0,0,0,270,1.3,0,0,0,0,0,0,0,0,0,0,0,0,0
1998,11,18,5,0,,1.5,-8.1,48,101240,0,0,244,0,0,0,0,0,0,0,320,2,0,0,0,0,0,0,0,0,0,0,0,0,0
1998,11,18,6,0,,1.2,-7.8,50,101270,0,0,244,0,0,0,0,0,0,0,270,1.3,0,0,0,0,0,0,0,0,0,0,0,0,0
1998,11,18,7,0,,1,-7.9,49,101350,0,0,246,0,0,0,0,0,0,0,270,0.8,1,0,0,0,0,0,0,0,0,0,0,0,0
1998,11,18,8,0,,1,-8.1,47,101420,0,0,248,65,42,23,4755,4049,3238,0,320,2,1,0,0,0,0,0,0,0,0,0,0,0,0
1998,11,18,9,0,,2.3,-8.2,46,101500,0,0,256,214,612,56,38433,61007,8491,0,270,1.7,2,0,0,0,0,0,0,0,0,0,0,0,0
1998,11,18,10,0,,3.7,-7.4,46,101510,0,0,260,369,724,75,51757,72814,10944,0,270,3.7,1,0,0,0,0,0,0,0,0,0,0,0,0
1998,11,18,11,0,,4,-6.5,45,101520,0,0,259,473,723,101,56050,72205,14237,0,290,4.5,1,0,0,0,0,0,0,0,0,0,0,0,0
1998,11,18,12,0,,5.3,-5.7,45,101530,0,0,261,520,687,126,54741,67961,17684,0,320,2.3,0,0,0,0,0,0,0,0,0,0,0,0,0
1998,11,18,13,0,,6.5,-5.5,42,101490,0,0,270,535,708,123,48503,68010,17129,0,270,3.8,1,0,0,0,0,0,0,0,0,0,0,0,0
1998,11,18,14,0,,8.7,-5.2,40,101440,0,0,282,523,810,87,36799,72562,12638,0,230,4.2,1,0,0,0,0,0,0,0,0,0,0,0,0
1998,11,18,15,0,,8.9,-5,37,101400,0,0,285,404,719,85,19267,47349,11265,0,250,2.8,2,0,0,0,0,0,0,0,0,0,0,0,0
1998,11,18,16,0,,7.9,-4.4,42,101420,0,0,284,262,641,65,0,0,0,0,250,4.5,3,0,0,0,0,0,0,0,0,0,0,0,0
1998,11,18,17,0,,6.5,-3.9,47,101440,0,0,281,96,56,40,0,0,0,0,200,3.5,4,0,0,0,0,0,0,0,0,0,0,0,0
1998,11,18,18,0,,5.5,-3.3,52,101460,0,0,280,6,1,5,0,0,0,0,270,2.2,5,0,0,0,0,0,0,0,0,0,0,0,0
1998,11,18,19,0,,5.7,-4.1,51,101460,0,0,277,0,0,0,0,0,0,0,270,4.2,4,0,0,0,0,0,0,0,0,0,0,0,0
1998,11,18,20,0,,4.7,-4.9,50,101460,0,0,269,0,0,0,0,0,0,0,340,3,2,0,0,0,0,0,0,0,0,0,0,0,0
1998,11,18,21,0,,4.3,-5.7,49,101460,0,0,262,0,0,0,0,0,0,0,340,5.2,1,0,0,0,0,0,0,0,0,0,0,0,0
1998,11,18,22,0,,3.8,-5.9,50,101480,0,0,259,0,0,0,0,0,0,0,340,5,1,0,0,0,0,0,0,0,0,0,0,0,0
1998,11,18,23,0,,3.3,-6.2,51,101510,0,0,255,0,0,0,0,0,0,0,340,3.2,0,0,0,0,0,0,0,0,0,0,0,0,0
1998,11,18,24,0,,2.8,-6.4,52,101530,0,0,251,0,0,0,0,0,0,0,360,5,0,0,0,0,0,0,0,0,0,0,0,0,0
1998,11,19,1,0,,2.1,-6.7,53,101580,0,0,248,0,0,0,0,0,0,0,340,1.7,0,0,0,0,0,0,0,0,0,0,0,0,0
1998,11,19,2,0,,1.3,-7.1,53,101620,0,0,245,0,0,0,0,0,0,0,360,1.7,0,0,0,0,0,0,0,0,0,0,0,0,0
1998,11,19,3,0,,0.8,-7.4,54,101670,0,0,242,0,0,0,0,0,0,0,320,2,0,0,0,0,0,0,0,0,0,0,0,0,0
1998,11,19,4,0,,0.3,-7.2,56,101690,0,0,241,0,0,0,0,0,0,0,20,3.3,0,0,0,0,0,0,0,0,0,0,0,0,0
1998,11,19,5,0,,0,-6.9,58,101710,0,0,240,0,0,0,0,0,0,0,20,3.3,0,0,0,0,0,0,0,0,0,0,0,0,0
1998,11,19,6,0,,0.2,-6.7,60,101730,0,0,241,0,0,0,0,0,0,0,50,2,0,0,0,0,0,0,0,0,0,0,0,0,0
1998,11,19,7,0,,0.1,-7.6,54,101800,0,0,248,0,0,0,0,0,0,0,20,1,2,0,0,0,0,0,0,0,0,0,0,0,0
1998,11,19,8,0,,0.7,-8.5,47,101880,0,0,255,56,28,28,4591,2746,3572,0,340,2.3,5,0,0,0,0,0,0,0,0,0,0,0,0
1998,11,19,9,0,,2.7,-9.4,41,101950,0,0,268,168,324,86,27641,31959,12069,0,20,2.3,7,0,0,0,0,0,0,0,0,0,0,0,0
1998,11,19,10,0,,4.1,-8.6,39,101920,0,0,268,331,577,99,46849,57880,14606,0,360,3,5,0,0,0,0,0,0,0,0,0,0,0,0
1998,11,19,11,0,,4.9,-7.9,38,101890,0,0,267,491,796,84,58152,79940,12122,0,340,5,2,0,0,0,0,0,0,0,0,0,0,0,0
1998,11,19,12,0,,6.6,-7.1,36,101860,0,0,265,537,751,109,56263,74779,15717,0,340,2.7,0,0,0,0,0,0,0,0,0,0,0,0,0
1998,11,19,13,0,,7.9,-6.5,36,101800,0,0,271,544,744,113,48867,71722,15977,0,320,2.3,0,0,0,0,0,0,0,0,0,0,0,0,0
1998,11,19,14,0,,9.1,-6,35,101740,0,0,276,502,751,100,36082,66576,14073,0,230,2.3,0,0,0,0,0,0,0,0,0,0,0,0,0
1998,11,19,15,0,,9.6,-5.4,35,101680,0,0,279,405,732,82,18951,48127,10916,0,230,2.7,0,0,0,0,0,0,0,0,0,0,0,0,0
1998,11,19,16,0,,9.2,-5.5,37,101680,0,0,281,268,686,59,0,0,0,0,250,1.7,1,0,0,0,0,0,0,0,0,0,0,0,0
1998,11,19,17,0,,7.5,-5.6,40,101670,0,0,277,106,75,32,0,0,0,0,230,2,1,0,0,0,0,0,0,0,0,0,0,0,0
1998,11,19,18,0,,6.1,-5.7,42,101670,0,0,273,8,2,6,0,0,0,0,230,2.8,2,0,0,0,0,0,0,0,0,0,0,0,0
1998,11,19,19,0,,5.7,-4,48,101670,0,0,275,0,0,0,0,0,0,0,250,2.7,3,0,0,0,0,0,0,0,0,0,0,0,0
1998,11,19,20,0,,6,-2.4,55,101680,0,0,279,0,0,0,0,0,0,0,230,3.3,3,0,0,0,0,0,0,0,0,0,0,0,0
1998,11,19,21,0,,6.1,-0.7,61,101680,0,0,283,0,0,0,0,0,0,0,270,3.3,4,0,0,0,0,0,0,0,0,0,0,0,0
1998,11,19,22,0,,6.1,-0.5,62,101690,0,0,280,0,0,0,0,0,0,0,250,2.7,3,0,0,0,0,0,0,0,0,0,0,0,0
1998,11,19,23,0,,6,-0.4,63,101690,0,0,276,0,0,0,0,0,0,0,250,3.7,1,0,0,0,0,0,0,0,0,0,0,0,0
1998,11,19,24,0,,5.8,-0.2,64,101700,0,0,268,0,0,0,0,0,0,0,230,4,0,0,0,0,0,0,0,0,0,0,0,0,0
1998,11,20,1,0,,5.7,0.1,65,101660,0,0,279,0,0,0,0,0,0,0,250,3.3,3,0,0,0,0,0,0,0,0,0,0,0,0
1998,11,20,2,0,,5.7,0.3,67,101630,0,0,285,0,0,0,0,0,0,0,250,4.2,5,0,0,0,0,0,0,0,0,0,0,0,0
1998,11,20,3,0,,6.1,0.6,68,101590,0,0,297,0,0,0,0,0,0,0,250,4,8,0,0,0,0,0,0,0,0,0,0,0,0
1998,11,20,4,0,,6.1,0.2,68,101590,0,0,289,0,0,0,0,0,0,0,320,2.7,6,0,0,0,0,0,0,0,0,0,0,0,0
1998,11,20,5,0,,5.3,-0.3,68,101600,0,0,280,0,0,0,0,0,0,0,320,1.7,4,0,0,0,0,0,0,0,0,0,0,0,0
1998,11,20,6,0,,4.6,-0.7,68,101600,0,0,272,0,0,0,0,0,0,0,360,1.3,2,0,0,0,0,0,0,0,0,0,0,0,0
1998,11,20,7,0,,4.3,-0.5,68,101650,0,0,270,0,0,0,0,0,0,0,340,3,2,0,0,0,0,0,0,0,0,0,0,0,0
1998,11,20,8,0,,4.2,-0.2,69,101710,0,0,269,56,29,26,4477,2780,3455,0,340,1.2,1,0,0,0,0,0,0,0,0,0,0,0,0
1998,11,20,9,0,,5.2,0,69,101760,0,0,272,199,556,60,35876,55334,9107,0,20,3.5,1,0,0,0,0,0,0,0,0,0,0,0,0
1998,11,20,10,0,,6.4,-0.3,63,101760,0,0,274,341,632,89,47788,63141,12828,0,270,3,1,0,0,0,0,0,0,0,0,0,0,0,0
1998,11,20,11,0,,7.9,-0.6,56,101760,0,0,278,448,661,113,54170,66049,16350,0,360,2.5,0,0,0,0,0,0,0,0,0,0,0,0,0
1998,11,20,12,0,,8.8,-0.9,50,101760,0,0,280,518,702,120,54512,69333,17123,0,320,3.3,0,0,0,0,0,0,0,0,0,0,0,0,0
1998,11,20,13,0,,9.8,-2.1,45,101700,0,0,283,525,698,124,47681,66667,17285,0,360,2,0,0,0,0,0,0,0,0,0,0,0,0,0
1998,11,20,14,0,,10.4,-3.2,39,101640,0,0,284,487,712,108,35543,62564,15005,0,270,2.5,0,0,0,0,0,0,0,0,0,0,0,0,0
1998,11,20,15,0,,10.4,-4.4,34,101580,0,0,283,399,716,84,18837,46466,11169,0,320,3.5,0,0,0,0,0,0,0,0,0,0,0,0,0
1998,11,20,16,0,,10.3,-5.1,34,101610,0,0,282,261,662,61,0,0,0,0,340,2,0,0,0,0,0,0,0,0,0,0,0,0,0
1998,11,20,17,0,,9.3,-5.7,35,101650,0,0,277,105,74,31,0,0,0,0,340,1.8,0,0,0,0,0,0,0,0,0,0,0,0,0
1998,11,20,18,0,,8,-6.4,35,101680,0,0,271,0,0,0,0,0,0,0,340,2.2,0,0,0,0,0,0,0,0,0,0,0,0,0
1998,11,20,19,0,,7.3,-7,35,101700,0,0,268,0,0,0,0,0,0,0,360,2,0,0,0,0,0,0,0,0,0,0,0,0,0
1998,11,20,20,0,,6.5,-7.6,36,101730,0,0,264,0,0,0,0,0,0,0,340,3,0,0,0,0,0,0,0,0,0,0,0,0,0
1998,11,20,21,0,,5.7,-8.2,36,101750,0,0,261,0,0,0,0,0,0,0,20,1.8,0,0,0,0,0,0,0,0,0,0,0,0,0
1998,11,20,22,0,,5.5,-9.4,33,101770,0,0,259,0,0,0,0,0,0,0,360,0.8,0,0,0,0,0,0,0,0,0,0,0,0,0
1998,11,20,23,0,,5.8,-10.5,30,101790,0,0,259,0,0,0,0,0,0,0,320,1.3,0,0,0,0,0,0,0,0,0,0,0,0,0
1998,11,20,24,0,,6,-11.7,27,101810,0,0,259,0,0,0,0,0,0,0,360,3.5,0,0,0,0,0,0,0,0,0,0,0,0,0
1998,11,21,1,0,,5.7,-12.2,27,101820,0,0,257,0,0,0,0,0,0,0,340,4.2,0,0,0,0,0,0,0,0,0,0,0,0,0
1998,11,21,2,0,,5,-12.8,26,101820,0,0,254,0,0,0,0,0,0,0,340,4.3,0,0,0,0,0,0,0,0,0,0,0,0,0
1998,11,21,3,0,,4.8,-13.3,26,101830,0,0,253,0,0,0,0,0,0,0,90,1,0,0,0,0,0,0,0,0,0,0,0,0,0
1998,11,21,4,0,,5.3,-11.9,30,101780,0,0,256,0,0,0,0,0,0,0,340,2.2,0,0,0,0,0,0,0,0,0,0,0,0,0
1998,11,21,5,0,,5,-10.4,33,101720,0,0,256,0,0,0,0,0,0,0,90,0.5,0,0,0,0,0,0,0,0,0,0,0,0,0
1998,11,21,6,0,,4.5,-9,37,101670,0,0,255,0,0,0,0,0,0,0,270,0.5,0,0,0,0,0,0,0,0,0,0,0,0,0
1998,11,21,7,0,,4.4,-7.1,41,101700,0,0,268,0,0,0,0,0,0,0,160,0.7,3,0,0,0,0,0,0,0,0,0,0,0,0
1998,11,21,8,0,,5.1,-5.2,45,101730,0,0,281,44,20,25,3893,1863,3215,0,270,3.7,7,0,0,0,0,0,0,0,0,0,0,0,0
1998,11,21,9,0,,6.9,-3.3,49,101760,0,0,311,99,83,78,13618,8271,9645,0,270,4.5,10,0,0,0,0,0,0,0,0,0,0,0,0
1998,11,21,10,0,,7.5,-3.2,48,101750,0,0,314,176,95,138,21786,9696,16450,0,270,5,10,0,0,0,0,0,0,0,0,0,0,0,0
1998,11,21,11,0,,7.9,-3.1,47,101730,0,0,316,226,87,182,26298,8838,21265,0,270,6,10,0,0,0,0,0,0,0,0,0,0,0,0
1998,11,21,12,0,,8.1,-3,46,101720,0,0,317,219,55,188,24290,5336,21427,0,290,2.3,10,0,0,0,0,0,0,0,0,0,0,0,0
1998,11,21,13,0,,8.2,-2.1,48,101670,0,0,319,212,48,185,23012,4564,20943,0,290,2.8,10,0,0,0,0,0,0,0,0,0,0,0,0
1998,11,21,14,0,,9.3,-1.1,50,101630,0,0,325,200,53,172,20894,4795,19330,0,320,1.5,10,0,0,0,0,0,0,0,0,0,0,0,0
1998,11,21,15,0,,9.1,-0.2,52,101580,0,0,325,156,50,135,15500,3834,14875,0,360,3.7,10,0,0,0,0,0,0,0,0,0,0,0,0
1998,11,21,16,0,,8.6,-0.9,51,101590,0,0,322,100,46,86,0,0,0,0,360,2.2,10,0,0,0,0,0,0,0,0,0,0,0,0
1998,11,21,17,0,,8.3,-1.5,50,101590,0,0,320,36,4,32,0,0,0,0,20,1.7,10,0,0,0,0,0,0,0,0,0,0,0,0
1998,11,21,18,0,,7.9,-2.2,49,101600,0,0,317,0,0,0,0,0,0,0,360,1,10,0,0,0,0,0,0,0,0,0,0,0,0
1998,11,21,19,0,,7.6,-3,47,101600,0,0,315,0,0,0,0,0,0,0,340,0.5,10,0,0,0,0,0,0,0,0,0,0,0,0
1998,11,21,20,0,,7.4,-3.9,45,101600,0,0,313,0,0,0,0,0,0,0,360,2,10,0,0,0,0,0,0,0,0,0,0,0,0
1998,11,21,21,0,,7.3,-4.7,43,101600,0,0,312,0,0,0,0,0,0,0,360,1.8,10,0,0,0,0,0,0,0,0,0,0,0,0
1998,11,21,22,0,,6.8,-4.1,46,101550,0,0,307,0,0,0,0,0,0,0,20,4.3,10,0,0,0,0,0,0,0,0,0,0,0,0
1998,11,21,23,0,,6.6,-3.6,49,101490,0,0,304,0,0,0,0,0,0,0,50,4,9,0,0,0,0,0,0,0,0,0,0,0,0
1998,11,21,24,0,,6.4,-3,52,101440,0,0,301,0,0,0,0,0,0,0,50,1.7,9,0,0,0,0,0,0,0,0,0,0,0,0
1998,11,22,1,0,,6.6,-0.8,61,101370,0,0,307,0,0,0,0,0,0,0,20,3,9,0,0,0,0,0,0,0,0,0,0,0,0
1998,11,22,2,0,,6.8,1.4,70,101300,0,0,313,0,0,0,0,0,0,0,50,2,10,0,0,0,0,0,0,0,0,0,0,0,0
1998,11,22,3,0,,7,3.6,79,101230,0,0,320,0,0,0,0,0,0,0,50,5.7,10,0,0,0,0,0,0,0,0,0,0,0,0
1998,11,22,4,0,,6.9,3.4,85,101200,0,0,319,0,0,0,0,0,0,0,20,3.3,10,0,0,0,0,0,0,0,0,0,0,0,0
1998,11,22,5,0,,4.6,3.1,91,101160,0,0,309,0,0,0,0,0,0,0,340,4.7,10,0,0,0,0,0,0,0,0,0,0,0,0
1998,11,22,6,0,,3.2,2.9,97,101130,0,0,303,0,0,0,0,0,0,0,320,7,10,0,0,0,0,0,0,0,0,0,0,0,0
1998,11,22,7,0,,4.1,3.1,94,101150,0,0,304,0,0,0,0,0,0,0,50,4,10,0,0,0,0,0,0,0,0,0,0,0,0
1998,11,22,8,0,,4.5,3.4,91,101180,0,0,303,23,3,20,2623,111,2583,0,50,4.3,9,0,0,0,0,0,0,0,0,0,0,0,0
1998,11,22,9,0,,5.2,3.6,88,101200,0,0,304,90,65,74,12271,6403,9217,0,50,2,9,0,0,0,0,0,0,0,0,0,0,0,0
1998,11,22,10,0,,4.2,3.5,84,101220,0,0,293,195,132,144,24391,13087,17231,0,340,7.3,8,0,0,0,0,0,0,0,0,0,0,0,0
1998,11,22,11,0,,4.4,3.5,81,101240,0,0,289,268,144,196,31105,14310,23000,0,340,4,7,0,0,0,0,0,0,0,0,0,0,0,0
1998,11,22,12,0,,7,3.4,77,101260,0,0,296,372,252,230,40188,24776,26966,0,320,3,6,0,0,0,0,0,0,0,0,0,0,0,0
1998,11,22,13,0,,7.3,2.8,72,101260,0,0,293,437,433,190,41142,41332,22504,0,320,5.7,5,0,0,0,0,0,0,0,0,0,0,0,0
1998,11,22,14,0,,8.1,2.3,67,101260,0,0,293,451,608,131,33803,52479,16801,0,320,4.3,3,0,0,0,0,0,0,0,0,0,0,0,0
1998,11,22,15,0,,8.5,1.7,62,101260,0,0,290,350,541,116,19144,33429,13747,0,320,2.7,2,0,0,0,0,0,0,0,0,0,0,0,0
1998,11,22,16,0,,8.5,0.5,59,101310,0,0,287,251,623,65,0,0,0,0,290,4,1,0,0,0,0,0,0,0,0,0,0,0,0
1998,11,22,17,0,,7.5,-0.7,57,101350,0,0,278,99,67,32,0,0,0,0,290,3,1,0,0,0,0,0,0,0,0,0,0,0,0
1998,11,22,18,0,,6.6,-1.9,54,101400,0,0,270,0,0,0,0,0,0,0,290,1,0,0,0,0,0,0,0,0,0,0,0,0,0
1998,11,22,19,0,,5.8,-1.3,56,101390,0,0,267,0,0,0,0,0,0,0,340,1.5,0,0,0,0,0,0,0,0,0,0,0,0,0
1998,11,22,20,0,,5.1,-0.8,57,101370,0,0,265,0,0,0,0,0,0,0,320,3.7,0,0,0,0,0,0,0,0,0,0,0,0,0
1998,11,22,21,0,,4.5,-0.2,59,101360,0,0,264,0,0,0,0,0,0,0,360,9,0,0,0,0,0,0,0,0,0,0,0,0,0
1998,11,22,22,0,,4.8,-1.3,58,101390,0,0,264,0,0,0,0,0,0,0,360,5,0,0,0,0,0,0,0,0,0,0,0,0,0
1998,11,22,23,0,,4.4,-2.5,57,101410,0,0,261,0,0,0,0,0,0,0,360,4.7,0,0,0,0,0,0,0,0,0,0,0,0,0
1998,11,22,24,0,,4.3,-3.6,56,101440,0,0,259,0,0,0,0,0,0,0,360,6.3,0,0,0,0,0,0,0,0,0,0,0,0,0
1998,11,23,1,0,,4.3,-3.8,55,101430,0,0,259,0,0,0,0,0,0,0,340,5,0,0,0,0,0,0,0,0,0,0,0,0,0
1998,11,23,2,0,,4.3,-3.9,55,101410,0,0,259,0,0,0,0,0,0,0,340,8.7,0,0,0,0,0,0,0,0,0,0,0,0,0
1998,11,23,3,0,,4.3,-4.1,54,101400,0,0,259,0,0,0,0,0,0,0,340,7.7,0,0,0,0,0,0,0,0,0,0,0,0,0
1998,11,23,4,0,,4.1,-4.2,54,101450,0,0,258,0,0,0,0,0,0,0,360,5.3,0,0,0,0,0,0,0,0,0,0,0,0,0
1998,11,23,5,0,,3.9,-4.3,54,101490,0,0,257,0,0,0,0,0,0,0,360,2.3,0,0,0,0,0,0,0,0,0,0,0,0,0
1998,11,23,6,0,,3.9,-4.4,54,101540,0,0,257,0,0,0,0,0,0,0,360,3.3,0,0,0,0,0,0,0,0,0,0,0,0,0
1998,11,23,7,0,,4,-4,53,101570,0,0,258,0,0,0,0,0,0,0,180,6,0,0,0,0,0,0,0,0,0,0,0,0,0
1998,11,23,8,0,,4.2,-3.7,52,101590,0,0,259,61,43,19,4148,3973,2727,0,360,5.7,0,0,0,0,0,0,0,0,0,0,0,0,0
1998,11,23,9,0,,6.1,-3.3,51,101620,0,0,267,203,641,49,37239,62866,7463,0,70,1.2,0,0,0,0,0,0,0,0,0,0,0,0,0
1998,11,23,10,0,,7.8,-2.3,48,101650,0,0,274,346,695,76,49016,69656,11129,0,90,1.2,0,0,0,0,0,0,0,0,0,0,0,0,0
1998,11,23,11,0,,10.1,-1.2,46,101670,0,0,285,466,758,90,55622,75890,12862,0,200,1.8,0,0,0,0,0,0,0,0,0,0,0,0,0
1998,11,23,12,0,,12.1,-0.2,43,101700,0,0,294,531,772,101,54917,76347,14382,0,140,1.7,0,0,0,0,0,0,0,0,0,0,0,0,0
1998,11,23,13,0,,12.1,-1,41,101650,0,0,293,531,743,110,47646,71158,15726,0,290,2.2,0,0,0,0,0,0,0,0,0,0,0,0,0
1998,11,23,14,0,,12.2,-1.7,38,101600,0,0,293,474,696,110,34684,60577,15178,0,290,3,0,0,0,0,0,0,0,0,0,0,0,0,0
1998,11,23,15,0,,11.8,-2.5,36,101550,0,0,290,366,611,102,18387,38257,12273,0,270,2.7,0,0,0,0,0,0,0,0,0,0,0,0,0
1998,11,23,16,0,,11.6,-2,41,101560,0,0,290,246,602,67,0,0,0,0,20,1.3,0,0,0,0,0,0,0,0,0,0,0,0,0
1998,11,23,17,0,,10.4,-1.4,45,101570,0,0,286,97,65,32,0,0,0,0,20,1.7,0,0,0,0,0,0,0,0,0,0,0,0,0
1998,11,23,18,0,,9.1,-0.9,50,101580,0,0,281,0,0,0,0,0,0,0,320,0.5,0,0,0,0,0,0,0,0,0,0,0,0,0
1998,11,23,19,0,,8.8,-0.8,51,101590,0,0,280,0,0,0,0,0,0,0,0,0,0,0,0,0,0,0,0,0,0,0,0,0,0
1998,11,23,20,0,,8.7,-0.6,52,101590,0,0,279,0,0,0,0,0,0,0,320,1.2,0,0,0,0,0,0,0,0,0,0,0,0,0
1998,11,23,21,0,,8.5,-0.5,53,101600,0,0,279,0,0,0,0,0,0,0,270,1.5,0,0,0,0,0,0,0,0,0,0,0,0,0
1998,11,23,22,0,,8.4,0.3,57,101580,0,0,279,0,0,0,0,0,0,0,0,0.2,0,0,0,0,0,0,0,0,0,0,0,0,0
1998,11,23,23,0,,8.2,1.1,62,101550,0,0,279,0,0,0,0,0,0,0,230,0.7,0,0,0,0,0,0,0,0,0,0,0,0,0
1998,11,23,24,0,,7.9,1.9,66,101530,0,0,279,0,0,0,0,0,0,0,0,0,0,0,0,0,0,0,0,0,0,0,0,0,0
1998,11,24,1,0,,7.8,1.9,67,101480,0,0,278,0,0,0,0,0,0,0,0,0,0,0,0,0,0,0,0,0,0,0,0,0,0
1998,11,24,2,0,,7.6,1.9,68,101420,0,0,278,0,0,0,0,0,0,0,0,0,0,0,0,0,0,0,0,0,0,0,0,0,0
1998,11,24,3,0,,7.2,1.9,69,101370,0,0,276,0,0,0,0,0,0,0,290,1,0,0,0,0,0,0,0,0,0,0,0,0,0
1998,11,24,4,0,,7.3,2.4,70,101310,0,0,277,0,0,0,0,0,0,0,200,0.8,0,0,0,0,0,0,0,0,0,0,0,0,0
1998,11,24,5,0,,8.2,2.9,70,101260,0,0,281,0,0,0,0,0,0,0,270,6.2,0,0,0,0,0,0,0,0,0,0,0,0,0
1998,11,24,6,0,,8.3,3.4,71,101200,0,0,282,0,0,0,0,0,0,0,270,6,0,0,0,0,0,0,0,0,0,0,0,0,0
1998,11,24,7,0,,8.5,4,70,101170,0,0,296,0,0,0,0,0,0,0,270,5.5,3,0,0,0,0,0,0,0,0,0,0,0,0
1998,11,24,8,0,,9.8,4.7,68,101140,0,0,309,46,26,20,3501,2427,2642,0,270,5.2,6,0,0,0,0,0,0,0,0,0,0,0,0
1998,11,24,9,0,,11.3,5.3,67,101110,0,0,333,118,155,81,17648,14883,10647,0,250,8,9,0,0,0,0,0,0,0,0,0,0,0,0
1998,11,24,10,0,,11.8,5.7,68,101130,0,0,331,225,212,143,29129,20789,17886,0,290,6,8,0,0,0,0,0,0,0,0,0,0,0,0
1998,11,24,11,0,,10.6,6.1,69,101150,0,0,322,252,127,190,29388,12429,22421,0,360,4.7,8,0,0,0,0,0,0,0,0,0,0,0,0
1998,11,24,12,0,,11.7,6.5,70,101170,0,0,324,318,164,227,34754,15877,26365,0,340,2,7,0,0,0,0,0,0,0,0,0,0,0,0
1998,11,24,13,0,,11.1,6,67,101160,0,0,313,382,270,230,37743,25268,26465,0,320,2.5,5,0,0,0,0,0,0,0,0,0,0,0,0
1998,11,24,14,0,,12.4,5.6,64,101150,0,0,312,428,543,144,33119,45948,18410,0,320,2,2,0,0,0,0,0,0,0,0,0,0,0,0
1998,11,24,15,0,,12.5,5.1,61,101140,0,0,301,366,620,100,18248,37384,12330,0,340,4.7,0,0,0,0,0,0,0,0,0,0,0,0,0
1998,11,24,16,0,,11.9,3.2,57,101200,0,0,301,246,616,65,0,0,0,0,340,4.8,1,0,0,0,0,0,0,0,0,0,0,0,0
1998,11,24,17,0,,10.8,1.2,53,101270,0,0,297,98,68,31,0,0,0,0,340,5.2,1,0,0,0,0,0,0,0,0,0,0,0,0
1998,11,24,18,0,,9.7,-0.7,49,101330,0,0,293,0,0,0,0,0,0,0,340,3,2,0,0,0,0,0,0,0,0,0,0,0,0
1998,11,24,19,0,,8.7,-1.3,50,101400,0,0,286,0,0,0,0,0,0,0,340,3,1,0,0,0,0,0,0,0,0,0,0,0,0
1998,11,24,20,0,,7.8,-1.9,50,101480,0,0,278,0,0,0,0,0,0,0,320,2.2,1,0,0,0,0,0,0,0,0,0,0,0,0
1998,11,24,21,0,,6.9,-2.5,51,101550,0,0,271,0,0,0,0,0,0,0,340,2.8,0,0,0,0,0,0,0,0,0,0,0,0,0
1998,11,24,22,0,,6.4,-2.7,52,101580,0,0,268,0,0,0,0,0,0,0,320,2.5,0,0,0,0,0,0,0,0,0,0,0,0,0
1998,11,24,23,0,,5.7,-2.8,54,101610,0,0,266,0,0,0,0,0,0,0,360,2.8,0,0,0,0,0,0,0,0,0,0,0,0,0
1998,11,24,24,0,,5,-3,55,101640,0,0,263,0,0,0,0,0,0,0,340,4.3,0,0,0,0,0,0,0,0,0,0,0,0,0
1998,11,25,1,0,,4.2,-3.3,57,101640,0,0,259,0,0,0,0,0,0,0,320,7,0,0,0,0,0,0,0,0,0,0,0,0,0
1998,11,25,2,0,,3.7,-3.5,59,101640,0,0,257,0,0,0,0,0,0,0,320,7.7,0,0,0,0,0,0,0,0,0,0,0,0,0
1998,11,25,3,0,,3.5,-3.8,61,101640,0,0,256,0,0,0,0,0,0,0,320,8.7,0,0,0,0,0,0,0,0,0,0,0,0,0
1998,11,25,4,0,,3.2,-3.4,62,101650,0,0,255,0,0,0,0,0,0,0,320,8.3,0,0,0,0,0,0,0,0,0,0,0,0,0
1998,11,25,5,0,,3.2,-3.1,64,101650,0,0,256,0,0,0,0,0,0,0,320,4,0,0,0,0,0,0,0,0,0,0,0,0,0
1998,11,25,6,0,,3.2,-2.7,65,101660,0,0,256,0,0,0,0,0,0,0,320,2.3,0,0,0,0,0,0,0,0,0,0,0,0,0
1998,11,25,7,0,,3.1,-2,66,101740,0,0,265,0,0,0,0,0,0,0,340,1,2,0,0,0,0,0,0,0,0,0,0,0,0
1998,11,25,8,0,,3.7,-1.2,68,101830,0,0,273,48,23,25,4036,2145,3284,0,320,2,4,0,0,0,0,0,0,0,0,0,0,0,0
1998,11,25,9,0,,4.8,-0.5,69,101910,0,0,283,148,339,69,26376,33277,10829,0,320,0.8,6,0,0,0,0,0,0,0,0,0,0,0,0
1998,11,25,10,0,,7,0.4,62,101880,0,0,288,307,548,98,43861,54471,14569,0,320,1,4,0,0,0,0,0,0,0,0,0,0,0,0
1998,11,25,11,0,,10.1,1.2,56,101860,0,0,296,449,721,96,53832,71946,13703,0,200,1.3,2,0,0,0,0,0,0,0,0,0,0,0,0
1998,11,25,12,0,,12.5,2.1,49,101830,0,0,298,535,806,91,55272,80010,13199,0,70,1.3,0,0,0,0,0,0,0,0,0,0,0,0,0
1998,11,25,13,0,,13.7,2.8,50,101760,0,0,304,539,786,98,47866,75288,14424,0,140,2.3,0,0,0,0,0,0,0,0,0,0,0,0,0
1998,11,25,14,0,,14.1,3.6,51,101700,0,0,306,463,674,113,34160,57998,15696,0,140,1.7,0,0,0,0,0,0,0,0,0,0,0,0,0
1998,11,25,15,0,,14.1,4.3,52,101630,0,0,307,361,607,101,18185,36526,12454,0,140,2,0,0,0,0,0,0,0,0,0,0,0,0,0
1998,11,25,16,0,,13.1,4.4,56,101650,0,0,303,237,568,70,0,0,0,0,110,3,0,0,0,0,0,0,0,0,0,0,0,0,0
1998,11,25,17,0,,11.9,4.4,60,101680,0,0,298,90,55,35,0,0,0,0,70,3,0,0,0,0,0,0,0,0,0,0,0,0,0
1998,11,25,18,0,,10.9,4.5,64,101700,0,0,294,0,0,0,0,0,0,0,360,3,0,0,0,0,0,0,0,0,0,0,0,0,0
1998,11,25,19,0,,10.3,4.2,64,101780,0,0,297,0,0,0,0,0,0,0,340,1.7,1,0,0,0,0,0,0,0,0,0,0,0,0
1998,11,25,20,0,,9.9,3.9,65,101850,0,0,299,0,0,0,0,0,0,0,320,1.3,2,0,0,0,0,0,0,0,0,0,0,0,0
1998,11,25,21,0,,9.9,3.6,65,101930,0,0,301,0,0,0,0,0,0,0,340,4,3,0,0,0,0,0,0,0,0,0,0,0,0
1998,11,25,22,0,,9.7,3.4,65,101910,0,0,297,0,0,0,0,0,0,0,360,1.7,2,0,0,0,0,0,0,0,0,0,0,0,0
1998,11,25,23,0,,9.3,3.2,66,101880,0,0,291,0,0,0,0,0,0,0,50,0.7,1,0,0,0,0,0,0,0,0,0,0,0,0
1998,11,25,24,0,,9,3,66,101860,0,0,284,0,0,0,0,0,0,0,50,1,0,0,0,0,0,0,0,0,0,0,0,0,0
1998,11,26,1,0,,8.9,3.4,69,101840,0,0,284,0,0,0,0,0,0,0,50,0.5,0,0,0,0,0,0,0,0,0,0,0,0,0
1998,11,26,2,0,,8.6,3.7,72,101820,0,0,284,0,0,0,0,0,0,0,0,0.2,0,0,0,0,0,0,0,0,0,0,0,0,0
1998,11,26,3,0,,8.3,4.1,75,101800,0,0,283,0,0,0,0,0,0,0,0,0.2,0,0,0,0,0,0,0,0,0,0,0,0,0
1998,11,26,4,0,,8.1,4.6,78,101810,0,0,283,0,0,0,0,0,0,0,70,0.8,0,0,0,0,0,0,0,0,0,0,0,0,0
1998,11,26,5,0,,7.9,5,82,101820,0,0,282,0,0,0,0,0,0,0,70,0.7,0,0,0,0,0,0,0,0,0,0,0,0,0
1998,11,26,6,0,,7.9,5.5,85,101830,0,0,283,0,0,0,0,0,0,0,70,0.8,0,0,0,0,0,0,0,0,0,0,0,0,0
1998,11,26,7,0,,7.8,5.7,83,101820,0,0,283,0,0,0,0,0,0,0,70,0.7,0,0,0,0,0,0,0,0,0,0,0,0,0
1998,11,26,8,0,,7.9,6,80,101800,0,0,284,46,21,25,3983,1930,3312,0,70,0.5,0,0,0,0,0,0,0,0,0,0,0,0,0
1998,11,26,9,0,,10,6.2,78,101790,0,0,292,177,513,59,32685,50952,9040,0,0,0.2,0,0,0,0,0,0,0,0,0,0,0,0,0
1998,11,26,10,0,,13.4,7.3,71,101770,0,0,310,335,688,75,48132,69258,11093,0,140,1.2,0,0,0,0,0,0,0,0,0,0,0,0,0
1998,11,26,11,0,,16,8.4,64,101740,0,0,325,465,790,81,56125,79731,11871,0,70,1,1,0,0,0,0,0,0,0,0,0,0,0,0
1998,11,26,12,0,,18.1,9.5,57,101720,0,0,337,530,797,93,55123,79455,13533,0,110,1.8,1,0,0,0,0,0,0,0,0,0,0,0,0
1998,11,26,13,0,,18.4,9.5,56,101660,0,0,339,505,687,121,45920,64403,17445,0,160,1.3,1,0,0,0,0,0,0,0,0,0,0,0,0
1998,11,26,14,0,,19.2,9.4,55,101610,0,0,343,465,688,110,34121,58699,15532,0,180,3.3,1,0,0,0,0,0,0,0,0,0,0,0,0
1998,11,26,15,0,,18.8,9.4,54,101550,0,0,341,354,588,104,18336,33839,13071,0,180,2.5,1,0,0,0,0,0,0,0,0,0,0,0,0
1998,11,26,16,0,,17.7,10.1,64,101580,0,0,336,228,525,75,0,0,0,0,180,2.3,1,0,0,0,0,0,0,0,0,0,0,0,0
1998,11,26,17,0,,15.5,10.9,75,101610,0,0,327,81,40,40,0,0,0,0,180,1.7,1,0,0,0,0,0,0,0,0,0,0,0,0
1998,11,26,18,0,,14.2,11.6,85,101640,0,0,322,0,0,0,0,0,0,0,230,1,1,0,0,0,0,0,0,0,0,0,0,0,0
1998,11,26,19,0,,13.3,10.8,83,101650,0,0,320,0,0,0,0,0,0,0,320,1,2,0,0,0,0,0,0,0,0,0,0,0,0
1998,11,26,20,0,,13.2,10,81,101660,0,0,321,0,0,0,0,0,0,0,0,0.2,2,0,0,0,0,0,0,0,0,0,0,0,0
1998,11,26,21,0,,12.7,9.2,79,101670,0,0,320,0,0,0,0,0,0,0,0,0,3,0,0,0,0,0,0,0,0,0,0,0,0
1998,11,26,22,0,,12.2,9.1,81,101630,0,0,316,0,0,0,0,0,0,0,0,0,2,0,0,0,0,0,0,0,0,0,0,0,0
1998,11,26,23,0,,12.1,9,83,101590,0,0,313,0,0,0,0,0,0,0,50,0.3,2,0,0,0,0,0,0,0,0,0,0,0,0
1998,11,26,24,0,,11.5,8.9,85,101550,0,0,307,0,0,0,0,0,0,0,50,0.7,1,0,0,0,0,0,0,0,0,0,0,0,0
1998,11,27,1,0,,11.4,9.3,87,101480,0,0,314,0,0,0,0,0,0,0,50,1.3,3,0,0,0,0,0,0,0,0,0,0,0,0
1998,11,27,2,0,,11.7,9.8,90,101410,0,0,320,0,0,0,0,0,0,0,340,0.3,4,0,0,0,0,0,0,0,0,0,0,0,0
1998,11,27,3,0,,11.4,10.2,92,101340,0,0,323,0,0,0,0,0,0,0,0,0,6,0,0,0,0,0,0,0,0,0,0,0,0
1998,11,27,4,0,,11.2,10.2,91,101260,0,0,328,0,0,0,0,0,0,0,0,0,7,0,0,0,0,0,0,0,0,0,0,0,0
1998,11,27,5,0,,11.4,10.2,90,101190,0,0,337,0,0,0,0,0,0,0,0,0,9,0,0,0,0,0,0,0,0,0,0,0,0
1998,11,27,6,0,,12,10.2,89,101110,0,0,352,0,0,0,0,0,0,0,50,0.7,10,0,0,0,0,0,0,0,0,0,0,0,0
1998,11,27,7,0,,12.3,10.7,90,101100,0,0,354,0,0,0,0,0,0,0,340,0.3,10,0,0,0,0,0,0,0,0,0,0,0,0
1998,11,27,8,0,,12.5,11.1,92,101100,0,0,356,12,1,12,1556,18,1550,0,50,0.3,10,0,0,0,0,0,0,0,0,0,0,0,0
1998,11,27,9,0,,12.7,11.6,93,101090,0,0,357,53,19,49,6651,1648,5891,0,230,1.2,10,0,0,0,0,0,0,0,0,0,0,0,0
1998,11,27,10,0,,13.1,11.9,93,101010,0,0,360,100,23,92,11943,2102,10825,0,200,0.3,10,0,0,0,0,0,0,0,0,0,0,0,0
1998,11,27,11,0,,13.4,12.3,94,100920,0,0,362,121,17,113,14149,1585,13274,0,230,0.7,10,0,0,0,0,0,0,0,0,0,0,0,0
1998,11,27,12,0,,13.6,12.6,94,100840,0,0,363,155,23,142,17640,2110,16540,0,250,3.7,10,0,0,0,0,0,0,0,0,0,0,0,0
1998,11,27,13,0,,13.9,11.9,93,100760,0,0,364,165,26,151,18415,2359,17377,0,250,4,10,0,0,0,0,0,0,0,0,0,0,0,0
1998,11,27,14,0,,12.2,11.1,91,100680,0,0,354,123,15,116,13206,792,12957,0,360,2.8,10,0,0,0,0,0,0,0,0,0,0,0,0
1998,11,27,15,0,,12,10.4,90,100600,0,0,352,102,16,95,10089,515,10010,0,340,1.7,10,0,0,0,0,0,0,0,0,0,0,0,0
1998,11,27,16,0,,12.5,9,83,100610,0,0,340,101,53,86,0,0,0,0,340,1.5,9,0,0,0,0,0,0,0,0,0,0,0,0
1998,11,27,17,0,,12.1,7.5,75,100630,0,0,329,62,23,39,0,0,0,0,340,1.7,7,0,0,0,0,0,0,0,0,0,0,0,0
1998,11,27,18,0,,11.7,6.1,68,100640,0,0,320,0,0,0,0,0,0,0,340,1.3,6,0,0,0,0,0,0,0,0,0,0,0,0
1998,11,27,19,0,,10.9,5.2,67,100690,0,0,311,0,0,0,0,0,0,0,360,3.5,5,0,0,0,0,0,0,0,0,0,0,0,0
1998,11,27,20,0,,10.3,4.3,65,100750,0,0,305,0,0,0,0,0,0,0,20,1.8,3,0,0,0,0,0,0,0,0,0,0,0,0
1998,11,27,21,0,,9.9,3.4,64,100800,0,0,298,0,0,0,0,0,0,0,290,0.8,2,0,0,0,0,0,0,0,0,0,0,0,0
1998,11,27,22,0,,9.3,3.3,66,100840,0,0,295,0,0,0,0,0,0,0,320,2.7,2,0,0,0,0,0,0,0,0,0,0,0,0
1998,11,27,23,0,,8.9,3.3,68,100870,0,0,294,0,0,0,0,0,0,0,320,4.3,2,0,0,0,0,0,0,0,0,0,0,0,0
1998,11,27,24,0,,8.4,3.2,70,100910,0,0,292,0,0,0,0,0,0,0,320,2.8,2,0,0,0,0,0,0,0,0,0,0,0,0
1998,11,28,1,0,,8.2,2.4,67,100940,0,0,287,0,0,0,0,0,0,0,320,2.3,1,0,0,0,0,0,0,0,0,0,0,0,0
1998,11,28,2,0,,7.9,1.7,63,100980,0,0,282,0,0,0,0,0,0,0,320,0.8,1,0,0,0,0,0,0,0,0,0,0,0,0
1998,11,28,3,0,,8,0.9,60,101010,0,0,278,0,0,0,0,0,0,0,320,1.7,0,0,0,0,0,0,0,0,0,0,0,0,0
1998,11,28,4,0,,7.5,0.3,60,101010,0,0,276,0,0,0,0,0,0,0,320,2.7,0,0,0,0,0,0,0,0,0,0,0,0,0
1998,11,28,5,0,,7,-0.3,59,101000,0,0,273,0,0,0,0,0,0,0,320,2.3,0,0,0,0,0,0,0,0,0,0,0,0,0
1998,11,28,6,0,,6.5,-0.9,59,101000,0,0,271,0,0,0,0,0,0,0,340,5,0,0,0,0,0,0,0,0,0,0,0,0,0
1998,11,28,7,0,,6.1,-1,58,101080,0,0,269,0,0,0,0,0,0,0,320,4.7,0,0,0,0,0,0,0,0,0,0,0,0,0
1998,11,28,8,0,,6,-1.1,58,101150,0,0,268,51,31,20,3815,2818,2853,0,320,5.3,0,0,0,0,0,0,0,0,0,0,0,0,0
1998,11,28,9,0,,6.8,-1.2,57,101230,0,0,271,180,573,52,33977,56757,7982,0,320,3,0,0,0,0,0,0,0,0,0,0,0,0,0
1998,11,28,10,0,,9.6,-1.2,51,101220,0,0,283,334,706,71,47888,70787,10435,0,20,2.7,0,0,0,0,0,0,0,0,0,0,0,0,0
1998,11,28,11,0,,11.8,-1.2,44,101200,0,0,292,462,798,78,55414,80105,11365,0,20,3.3,0,0,0,0,0,0,0,0,0,0,0,0,0
1998,11,28,12,0,,12.8,-1.2,38,101190,0,0,296,531,821,86,54741,81421,12489,0,360,3.2,0,0,0,0,0,0,0,0,0,0,0,0,0
1998,11,28,13,0,,12.6,-1,37,101160,0,0,295,510,720,112,45962,68445,15958,0,340,2.7,0,0,0,0,0,0,0,0,0,0,0,0,0
1998,11,28,14,0,,13.9,-0.7,37,101130,0,0,301,457,674,112,33531,57994,15341,0,140,1.3,0,0,0,0,0,0,0,0,0,0,0,0,0
1998,11,28,15,0,,14.3,-0.5,36,101100,0,0,303,370,665,89,17834,40696,11594,0,180,1,0,0,0,0,0,0,0,0,0,0,0,0,0
1998,11,28,16,0,,13.3,-1,38,101130,0,0,298,247,651,59,0,0,0,0,180,2.3,0,0,0,0,0,0,0,0,0,0,0,0,0
1998,11,28,17,0,,11.9,-1.4,39,101150,0,0,292,92,61,31,0,0,0,0,270,2,0,0,0,0,0,0,0,0,0,0,0,0,0
1998,11,28,18,0,,10.5,-1.9,41,101180,0,0,286,0,0,0,0,0,0,0,320,3.3,0,0,0,0,0,0,0,0,0,0,0,0,0
1998,11,28,19,0,,9.9,-1.8,43,101200,0,0,283,0,0,0,0,0,0,0,320,2.7,0,0,0,0,0,0,0,0,0,0,0,0,0
1998,11,28,20,0,,9.5,-1.8,44,101220,0,0,282,0,0,0,0,0,0,0,320,1.3,0,0,0,0,0,0,0,0,0,0,0,0,0
1998,11,28,21,0,,8.9,-1.7,46,101240,0,0,279,0,0,0,0,0,0,0,140,2,0,0,0,0,0,0,0,0,0,0,0,0,0
1998,11,28,22,0,,8.8,-0.8,51,101230,0,0,280,0,0,0,0,0,0,0,110,0.7,0,0,0,0,0,0,0,0,0,0,0,0,0
1998,11,28,23,0,,8.4,0.2,56,101230,0,0,279,0,0,0,0,0,0,0,360,0.7,0,0,0,0,0,0,0,0,0,0,0,0,0
1998,11,28,24,0,,8.1,1.1,61,101220,0,0,279,0,0,0,0,0,0,0,360,0.7,0,0,0,0,0,0,0,0,0,0,0,0,0
1998,11,29,1,0,,7.7,1.1,62,101190,0,0,277,0,0,0,0,0,0,0,340,0.5,0,0,0,0,0,0,0,0,0,0,0,0,0
1998,11,29,2,0,,7.4,1.1,62,101170,0,0,276,0,0,0,0,0,0,0,0,0,0,0,0,0,0,0,0,0,0,0,0,0,0
1998,11,29,3,0,,7.5,1.1,63,101140,0,0,276,0,0,0,0,0,0,0,340,2.7,0,0,0,0,0,0,0,0,0,0,0,0,0
1998,11,29,4,0,,7.7,1.2,63,101140,0,0,277,0,0,0,0,0,0,0,320,3,0,0,0,0,0,0,0,0,0,0,0,0,0
1998,11,29,5,0,,7.7,1.2,64,101130,0,0,277,0,0,0,0,0,0,0,200,2.3,0,0,0,0,0,0,0,0,0,0,0,0,0
1998,11,29,6,0,,7.7,1.3,64,101130,0,0,277,0,0,0,0,0,0,0,340,3.3,0,0,0,0,0,0,0,0,0,0,0,0,0
1998,11,29,7,0,,8.3,1.6,62,101150,0,0,287,0,0,0,0,0,0,0,320,3,1,0,0,0,0,0,0,0,0,0,0,0,0
1998,11,29,8,0,,9.1,2,59,101160,0,0,295,49,29,20,3771,2579,2898,0,360,3.8,3,0,0,0,0,0,0,0,0,0,0,0,0
1998,11,29,9,0,,10.4,2.3,57,101180,0,0,304,174,547,53,32883,54171,8232,0,340,3.2,4,0,0,0,0,0,0,0,0,0,0,0,0
1998,11,29,10,0,,11.7,2.1,54,101160,0,0,313,280,470,107,40026,46390,15607,0,90,1,5,0,0,0,0,0,0,0,0,0,0,0,0
1998,11,29,11,0,,13.3,1.9,50,101130,0,0,324,327,311,178,38415,31036,21424,0,320,0.8,7,0,0,0,0,0,0,0,0,0,0,0,0
1998,11,29,12,0,,12.8,1.7,47,101110,0,0,328,305,160,219,33339,15749,25200,0,320,1.3,8,0,0,0,0,0,0,0,0,0,0,0,0
1998,11,29,13,0,,12.9,-0.1,40,101070,0,0,320,362,248,225,35935,23661,25604,0,340,3.7,7,0,0,0,0,0,0,0,0,0,0,0,0
1998,11,29,14,0,,13.9,-1.8,33,101040,0,0,319,392,452,161,30921,39115,18705,0,360,2.5,5,0,0,0,0,0,0,0,0,0,0,0,0
1998,11,29,15,0,,15.3,-3.6,26,101000,0,0,320,363,644,93,17270,39455,11259,0,200,2.7,4,0,0,0,0,0,0,0,0,0,0,0,0
1998,11,29,16,0,,14.7,-2.2,32,101020,0,0,322,225,528,73,0,0,0,0,250,2.8,5,0,0,0,0,0,0,0,0,0,0,0,0
1998,11,29,17,0,,13.3,-0.8,39,101040,0,0,321,68,33,36,0,0,0,0,200,2.8,7,0,0,0,0,0,0,0,0,0,0,0,0
1998,11,29,18,0,,12.2,0.6,45,101060,0,0,324,0,0,0,0,0,0,0,250,4.3,8,0,0,0,0,0,0,0,0,0,0,0,0
1998,11,29,19,0,,12.2,0.8,47,101080,0,0,317,0,0,0,0,0,0,0,290,3,6,0,0,0,0,0,0,0,0,0,0,0,0
1998,11,29,20,0,,11.2,0.9,48,101090,0,0,308,0,0,0,0,0,0,0,270,3,5,0,0,0,0,0,0,0,0,0,0,0,0
1998,11,29,21,0,,11.1,1.1,50,101110,0,0,304,0,0,0,0,0,0,0,290,2.2,3,0,0,0,0,0,0,0,0,0,0,0,0
1998,11,29,22,0,,10.7,0.8,49,101090,0,0,302,0,0,0,0,0,0,0,270,2.5,3,0,0,0,0,0,0,0,0,0,0,0,0
1998,11,29,23,0,,10.6,0.5,47,101080,0,0,301,0,0,0,0,0,0,0,270,3.3,3,0,0,0,0,0,0,0,0,0,0,0,0
1998,11,29,24,0,,11.2,0.2,46,101060,0,0,303,0,0,0,0,0,0,0,290,2.3,3,0,0,0,0,0,0,0,0,0,0,0,0
1998,11,30,1,0,,10.8,1.3,50,101040,0,0,308,0,0,0,0,0,0,0,270,0.8,5,0,0,0,0,0,0,0,0,0,0,0,0
1998,11,30,2,0,,11.1,2.3,55,101030,0,0,319,0,0,0,0,0,0,0,250,0.8,8,0,0,0,0,0,0,0,0,0,0,0,0
1998,11,30,3,0,,10.8,3.4,59,101010,0,0,337,0,0,0,0,0,0,0,70,1,10,0,0,0,0,0,0,0,0,0,0,0,0
1998,11,30,4,0,,10.8,3.6,60,100970,0,0,337,0,0,0,0,0,0,0,50,0.8,10,0,0,0,0,0,0,0,0,0,0,0,0
1998,11,30,5,0,,10.5,3.7,62,100940,0,0,336,0,0,0,0,0,0,0,70,0.7,10,0,0,0,0,0,0,0,0,0,0,0,0
1998,11,30,6,0,,10.4,3.9,63,100900,0,0,336,0,0,0,0,0,0,0,70,0.7,10,0,0,0,0,0,0,0,0,0,0,0,0
1998,11,30,7,0,,10.4,4.1,63,100900,0,0,336,0,0,0,0,0,0,0,70,0.8,10,0,0,0,0,0,0,0,0,0,0,0,0
1998,11,30,8,0,,10.6,4.3,64,100910,0,0,337,14,1,13,1684,29,1675,0,50,1.7,10,0,0,0,0,0,0,0,0,0,0,0,0
1998,11,30,9,0,,11.1,4.5,64,100910,0,0,340,65,36,57,8792,3520,7200,0,70,1.2,10,0,0,0,0,0,0,0,0,0,0,0,0
1998,11,30,10,0,,10.9,5.7,68,100900,0,0,341,114,36,101,13488,3318,11750,0,50,2.3,10,0,0,0,0,0,0,0,0,0,0,0,0
1998,11,30,11,0,,12.8,6.9,71,100890,0,0,351,172,49,149,19743,4651,17208,0,50,3,10,0,0,0,0,0,0,0,0,0,0,0,0
1998,11,30,12,0,,12.3,8.1,75,100880,0,0,351,177,36,158,19948,3335,18231,0,90,3.7,10,0,0,0,0,0,0,0,0,0,0,0,0
1998,11,30,13,0,,11.4,8.4,78,100830,0,0,347,159,25,146,17711,2250,16732,0,50,2,10,0,0,0,0,0,0,0,0,0,0,0,0
1998,11,30,14,0,,11,8.7,82,100790,0,0,345,124,16,116,13266,862,12998,0,70,2.5,10,0,0,0,0,0,0,0,0,0,0,0,0
1998,11,30,15,0,,11.5,9,85,100740,0,0,348,111,22,102,10804,783,10685,0,70,2.3,10,0,0,0,0,0,0,0,0,0,0,0,0
1998,11,30,16,0,,12,8.9,84,100730,0,0,330,153,183,101,0,0,0,0,50,2.2,7,0,0,0,0,0,0,0,0,0,0,0,0
1998,11,30,17,0,,12.1,8.7,84,100710,0,0,321,74,32,42,0,0,0,0,360,0.3,5,0,0,0,0,0,0,0,0,0,0,0,0
1998,11,30,18,0,,11.4,8.6,83,100700,0,0,311,0,0,0,0,0,0,0,0,0,2,0,0,0,0,0,0,0,0,0,0,0,0
1998,11,30,19,0,,10.9,8.5,84,100710,0,0,308,0,0,0,0,0,0,0,0,0.2,2,0,0,0,0,0,0,0,0,0,0,0,0
1998,11,30,20,0,,10.9,8.5,86,100720,0,0,308,0,0,0,0,0,0,0,110,0.3,2,0,0,0,0,0,0,0,0,0,0,0,0
1998,11,30,21,0,,10.4,8.4,87,100730,0,0,306,0,0,0,0,0,0,0,340,2.3,2,0,0,0,0,0,0,0,0,0,0,0,0
1998,11,30,22,0,,10.6,8,87,100720,0,0,304,0,0,0,0,0,0,0,340,0.3,1,0,0,0,0,0,0,0,0,0,0,0,0
1998,11,30,23,0,,10.1,7.7,86,100720,0,0,298,0,0,0,0,0,0,0,360,1,1,0,0,0,0,0,0,0,0,0,0,0,0
1998,11,30,24,0,,9.4,7.3,86,100710,0,0,291,0,0,0,0,0,0,0,0,0.2,0,0,0,0,0,0,0,0,0,0,0,0,0
2008,12,1,1,0,,6.4,-7.6,36,101900,0,0,264,0,0,0,0,0,0,0,360,2.9,0,0,0,0,0,0,0,0,0,0,0,0,0
2008,12,1,2,0,,6.4,-7.6,36,101880,0,0,264,0,0,0,0,0,0,0,340,4.9,0,0,0,0,0,0,0,0,0,0,0,0,0
2008,12,1,3,0,,6.5,-7.5,36,101870,0,0,264,0,0,0,0,0,0,0,340,3.3,0,0,0,0,0,0,0,0,0,0,0,0,0
2008,12,1,4,0,,6.2,-7,38,101820,0,0,264,0,0,0,0,0,0,0,320,4,0,0,0,0,0,0,0,0,0,0,0,0,0
2008,12,1,5,0,,6.2,-7,38,101790,0,0,264,0,0,0,0,0,0,0,340,4.3,0,0,0,0,0,0,0,0,0,0,0,0,0
2008,12,1,6,0,,6.4,-6.5,39,101790,0,0,265,0,0,0,0,0,0,0,340,3.8,0,0,0,0,0,0,0,0,0,0,0,0,0
2008,12,1,7,0,,6.1,-6.1,41,101830,0,0,264,0,0,0,0,0,0,0,340,2.5,0,0,0,0,0,0,0,0,0,0,0,0,0
2008,12,1,8,0,,6.4,-3.8,48,101850,0,0,267,47,29,18,3528,2648,2652,0,90,0.5,0,0,0,0,0,0,0,0,0,0,0,0,0
2008,12,1,9,0,,8.3,-2,48,101860,0,0,277,180,626,45,34242,61048,6896,0,140,0.9,0,0,0,0,0,0,0,0,0,0,0,0,0
2008,12,1,10,0,,10.3,-2.4,41,101850,0,0,284,332,739,64,47483,73165,9453,0,140,0.8,0,0,0,0,0,0,0,0,0,0,0,0,0
2008,12,1,11,0,,12.9,-4.2,30,101800,0,0,293,465,840,68,55129,83283,10023,0,180,2.3,0,0,0,0,0,0,0,0,0,0,0,0,0
2008,12,1,12,0,,12.6,-5.4,28,101720,0,0,291,522,815,85,53728,80667,12436,0,250,3.7,0,0,0,0,0,0,0,0,0,0,0,0,0
2008,12,1,13,0,,13.6,-5.5,26,101600,0,0,295,515,756,102,45959,72242,14702,0,250,3.1,0,0,0,0,0,0,0,0,0,0,0,0,0
2008,12,1,14,0,,13.9,-2.5,32,101530,0,0,299,457,693,106,33159,59765,14671,0,250,3.6,0,0,0,0,0,0,0,0,0,0,0,0,0
2008,12,1,15,0,,13.6,0.9,42,101450,0,0,301,360,643,92,17107,38520,11318,0,230,3.6,0,0,0,0,0,0,0,0,0,0,0,0,0
2008,12,1,16,0,,13.2,0.2,41,101410,0,0,299,239,626,61,0,0,0,0,200,2.6,0,0,0,0,0,0,0,0,0,0,0,0,0
2008,12,1,17,0,,11.1,0.7,49,101400,0,0,291,91,61,30,0,0,0,0,230,5,0,0,0,0,0,0,0,0,0,0,0,0,0
2008,12,1,18,0,,10.4,1.4,54,101410,0,0,288,0,0,0,0,0,0,0,230,4.1,0,0,0,0,0,0,0,0,0,0,0,0,0
2008,12,1,19,0,,10.1,2.9,61,101420,0,0,289,0,0,0,0,0,0,0,270,5.2,0,0,0,0,0,0,0,0,0,0,0,0,0
2008,12,1,20,0,,10.1,2.9,61,101430,0,0,289,0,0,0,0,0,0,0,270,4,0,0,0,0,0,0,0,0,0,0,0,0,0
2008,12,1,21,0,,9.5,3.2,65,101420,0,0,287,0,0,0,0,0,0,0,270,2.7,0,0,0,0,0,0,0,0,0,0,0,0,0
2008,12,1,22,0,,9.3,3.6,68,101410,0,0,286,0,0,0,0,0,0,0,270,3,0,0,0,0,0,0,0,0,0,0,0,0,0
2008,12,1,23,0,,9.5,3.4,66,101360,0,0,287,0,0,0,0,0,0,0,290,3,0,0,0,0,0,0,0,0,0,0,0,0,0
2008,12,1,24,0,,9.4,3.7,68,101350,0,0,287,0,0,0,0,0,0,0,250,2.7,0,0,0,0,0,0,0,0,0,0,0,0,0
2008,12,2,1,0,,10,4.3,68,101310,0,0,295,0,0,0,0,0,0,0,290,3.9,1,0,0,0,0,0,0,0,0,0,0,0,0
2008,12,2,2,0,,9.8,4.9,72,101290,0,0,299,0,0,0,0,0,0,0,270,2.9,2,0,0,0,0,0,0,0,0,0,0,0,0
2008,12,2,3,0,,10,5.3,73,101280,0,0,304,0,0,0,0,0,0,0,250,2.4,3,0,0,0,0,0,0,0,0,0,0,0,0
2008,12,2,4,0,,10.6,5.9,73,101230,0,0,307,0,0,0,0,0,0,0,270,3.5,3,0,0,0,0,0,0,0,0,0,0,0,0
2008,12,2,5,0,,11,6.5,74,101200,0,0,306,0,0,0,0,0,0,0,270,2.3,2,0,0,0,0,0,0,0,0,0,0,0,0
2008,12,2,6,0,,10.6,6.3,75,101190,0,0,295,0,0,0,0,0,0,0,270,3,0,0,0,0,0,0,0,0,0,0,0,0,0
2008,12,2,7,0,,10.4,6.1,75,101210,0,0,294,0,0,0,0,0,0,0,270,3,0,0,0,0,0,0,0,0,0,0,0,0,0
2008,12,2,8,0,,10.9,6,72,101240,0,0,296,44,25,19,3324,2196,2603,0,270,3.1,0,0,0,0,0,0,0,0,0,0,0,0,0
2008,12,2,9,0,,12.2,6.4,68,101260,0,0,301,171,577,49,33089,57253,7595,0,270,3,0,0,0,0,0,0,0,0,0,0,0,0,0
2008,12,2,10,0,,13.2,5.8,61,101290,0,0,305,314,663,74,45431,66448,11052,0,270,3.6,0,0,0,0,0,0,0,0,0,0,0,0,0
2008,12,2,11,0,,13.7,5.3,57,101270,0,0,307,421,690,97,51491,68359,14611,0,270,5,0,0,0,0,0,0,0,0,0,0,0,0,0
2008,12,2,12,0,,15.6,4.3,47,101190,0,0,314,492,729,105,51880,71397,15457,0,250,5,0,0,0,0,0,0,0,0,0,0,0,0,0
2008,12,2,13,0,,16,4.9,48,101130,0,0,316,502,723,109,45236,68324,15766,0,250,5.4,0,0,0,0,0,0,0,0,0,0,0,0,0
2008,12,2,14,0,,16.5,3.8,43,101070,0,0,317,468,740,95,33319,63837,13633,0,250,5,0,0,0,0,0,0,0,0,0,0,0,0,0
2008,12,2,15,0,,16.7,3.7,42,101020,0,0,318,369,686,84,17376,41604,11148,0,250,4.5,0,0,0,0,0,0,0,0,0,0,0,0,0
2008,12,2,16,0,,16,3,42,101010,0,0,314,243,652,58,0,0,0,0,250,4.2,0,0,0,0,0,0,0,0,0,0,0,0,0
2008,12,2,17,0,,14.5,3.3,47,101050,0,0,308,89,58,31,0,0,0,0,250,3.1,0,0,0,0,0,0,0,0,0,0,0,0,0
2008,12,2,18,0,,13.5,3.8,52,101080,0,0,304,0,0,0,0,0,0,0,270,2.7,0,0,0,0,0,0,0,0,0,0,0,0,0
2008,12,2,19,0,,12.6,4,56,101120,0,0,300,0,0,0,0,0,0,0,250,2.5,0,0,0,0,0,0,0,0,0,0,0,0,0
2008,12,2,20,0,,12.7,4.8,59,101130,0,0,302,0,0,0,0,0,0,0,320,1.7,0,0,0,0,0,0,0,0,0,0,0,0,0
2008,12,2,21,0,,12.1,4.7,61,101150,0,0,299,0,0,0,0,0,0,0,270,2.4,0,0,0,0,0,0,0,0,0,0,0,0,0
2008,12,2,22,0,,12,5.3,64,101150,0,0,299,0,0,0,0,0,0,0,180,0.5,0,0,0,0,0,0,0,0,0,0,0,0,0
2008,12,2,23,0,,11.8,5.4,65,101140,0,0,299,0,0,0,0,0,0,0,250,0.5,0,0,0,0,0,0,0,0,0,0,0,0,0
2008,12,2,24,0,,11.3,5.8,69,101150,0,0,297,0,0,0,0,0,0,0,340,1.6,0,0,0,0,0,0,0,0,0,0,0,0,0
2008,12,3,1,0,,11.1,5.6,69,101150,0,0,296,0,0,0,0,0,0,0,50,0.7,0,0,0,0,0,0,0,0,0,0,0,0,0
2008,12,3,2,0,,10.8,5.1,68,101160,0,0,294,0,0,0,0,0,0,0,360,1.9,0,0,0,0,0,0,0,0,0,0,0,0,0
2008,12,3,3,0,,10.4,6.1,75,101160,0,0,294,0,0,0,0,0,0,0,110,0.8,0,0,0,0,0,0,0,0,0,0,0,0,0
2008,12,3,4,0,,9.9,5.4,74,101170,0,0,291,0,0,0,0,0,0,0,140,0.9,0,0,0,0,0,0,0,0,0,0,0,0,0
2008,12,3,5,0,,9.2,5.5,78,101210,0,0,288,0,0,0,0,0,0,0,0,0.1,0,0,0,0,0,0,0,0,0,0,0,0,0
2008,12,3,6,0,,9.2,5,75,101270,0,0,288,0,0,0,0,0,0,0,70,0.9,0,0,0,0,0,0,0,0,0,0,0,0,0
2008,12,3,7,0,,9,4.9,76,101280,0,0,287,0,0,0,0,0,0,0,0,0,0,0,0,0,0,0,0,0,0,0,0,0,0
2008,12,3,8,0,,9.1,3.9,70,101330,0,0,286,41,20,20,3320,1818,2729,0,340,1.3,0,0,0,0,0,0,0,0,0,0,0,0,0
2008,12,3,9,0,,10.3,3.5,63,101380,0,0,290,166,551,50,31908,54488,7785,0,200,0.9,0,0,0,0,0,0,0,0,0,0,0,0,0
2008,12,3,10,0,,12.6,2.7,51,101420,0,0,299,315,682,71,45716,68280,10548,0,50,0.7,0,0,0,0,0,0,0,0,0,0,0,0,0
2008,12,3,11,0,,14.5,2,43,101390,0,0,306,440,770,80,53226,77107,11780,0,70,1.7,0,0,0,0,0,0,0,0,0,0,0,0,0
2008,12,3,12,0,,15,1.8,41,101330,0,0,308,489,726,105,51623,71284,15373,0,90,1.6,0,0,0,0,0,0,0,0,0,0,0,0,0
2008,12,3,13,0,,15.7,2.4,41,101300,0,0,326,466,611,135,43206,57152,18626,0,70,0.9,3,0,0,0,0,0,0,0,0,0,0,0,0
2008,12,3,14,0,,16.2,2.5,40,101280,0,0,315,440,645,115,32710,54893,15828,0,140,1.5,0,0,0,0,0,0,0,0,0,0,0,0,0
2008,12,3,15,0,,15.5,2.9,43,101280,0,0,318,351,614,96,17223,36156,11828,0,110,2.1,1,0,0,0,0,0,0,0,0,0,0,0,0
2008,12,3,16,0,,14.7,3.7,48,101330,0,0,309,221,525,72,0,0,0,0,110,1.2,0,0,0,0,0,0,0,0,0,0,0,0,0
2008,12,3,17,0,,13.7,4.8,55,101310,0,0,312,85,53,33,0,0,0,0,70,1.5,1,0,0,0,0,0,0,0,0,0,0,0,0
2008,12,3,18,0,,12.7,4.3,57,101360,0,0,301,0,0,0,0,0,0,0,50,2.3,0,0,0,0,0,0,0,0,0,0,0,0,0
2008,12,3,19,0,,12.3,4.5,59,101340,0,0,310,0,0,0,0,0,0,0,50,2.2,2,0,0,0,0,0,0,0,0,0,0,0,0
2008,12,3,20,0,,12.6,4.7,59,101390,0,0,317,0,0,0,0,0,0,0,50,1.7,4,0,0,0,0,0,0,0,0,0,0,0,0
2008,12,3,21,0,,12.8,5.9,63,101420,0,0,324,0,0,0,0,0,0,0,50,1.8,6,0,0,0,0,0,0,0,0,0,0,0,0
2008,12,3,22,0,,12.6,6.4,66,101420,0,0,325,0,0,0,0,0,0,0,20,2.5,6,0,0,0,0,0,0,0,0,0,0,0,0
2008,12,3,23,0,,12.5,6.3,66,101420,0,0,326,0,0,0,0,0,0,0,0,0.4,7,0,0,0,0,0,0,0,0,0,0,0,0
2008,12,3,24,0,,12.1,6.3,68,101280,0,0,325,0,0,0,0,0,0,0,50,2.9,7,0,0,0,0,0,0,0,0,0,0,0,0
2008,12,4,1,0,,12.5,6.7,68,101320,0,0,333,0,0,0,0,0,0,0,70,1.4,8,0,0,0,0,0,0,0,0,0,0,0,0
2008,12,4,2,0,,12.2,7,71,101270,0,0,339,0,0,0,0,0,0,0,90,0.8,9,0,0,0,0,0,0,0,0,0,0,0,0
2008,12,4,3,0,,11.6,7.1,74,101210,0,0,346,0,0,0,0,0,0,0,270,1.5,10,0,0,0,0,0,0,0,0,0,0,0,0
2008,12,4,4,0,,12.1,7.3,73,101230,0,0,349,0,0,0,0,0,0,0,270,0.9,10,0,0,0,0,0,0,0,0,0,0,0,0
2008,12,4,5,0,,13.4,7.3,67,101210,0,0,355,0,0,0,0,0,0,0,270,3.2,10,0,0,0,0,0,0,0,0,0,0,0,0
2008,12,4,6,0,,12.6,8.4,76,101230,0,0,352,0,0,0,0,0,0,0,250,4.4,10,0,0,0,0,0,0,0,0,0,0,0,0
2008,12,4,7,0,,11,9.4,90,101170,0,0,346,0,0,0,0,0,0,0,250,3.1,10,0,0,0,0,0,0,0,0,0,0,0,0
2008,12,4,8,0,,11.4,8,80,101110,0,0,346,9,0,9,1222,11,1218,0,270,3.8,10,0,0,0,0,0,0,0,0,0,0,0,0
2008,12,4,9,0,,12,8.4,79,101140,0,0,350,53,25,48,6736,2232,5754,0,270,2,10,0,0,0,0,0,0,0,0,0,0,0,0
2008,12,4,10,0,,13.3,9.7,79,101130,0,0,358,119,44,103,14128,4053,12049,0,230,3.1,10,0,0,0,0,0,0,0,0,0,0,0,0
2008,12,4,11,0,,14.9,12,83,101040,0,0,359,229,117,174,26952,11002,21060,0,200,7.6,9,0,0,0,0,0,0,0,0,0,0,0,0
2008,12,4,12,0,,15.7,10.8,73,100970,0,0,361,276,130,207,30715,12127,24566,0,230,8.7,9,0,0,0,0,0,0,0,0,0,0,0,0
2008,12,4,13,0,,15.9,10.8,72,100860,0,0,354,323,189,221,33141,17042,25831,0,230,7.7,8,0,0,0,0,0,0,0,0,0,0,0,0
2008,12,4,14,0,,15.8,9.8,68,100760,0,0,370,172,41,151,18248,3542,17161,0,250,4.7,10,0,0,0,0,0,0,0,0,0,0,0,0
2008,12,4,15,0,,15.6,10.1,70,100730,0,0,370,140,44,122,14109,3140,13642,0,250,5.5,10,0,0,0,0,0,0,0,0,0,0,0,0
2008,12,4,16,0,,15.6,10.9,74,100700,0,0,371,84,35,74,0,0,0,0,250,4.7,10,0,0,0,0,0,0,0,0,0,0,0,0
2008,12,4,17,0,,15,11.3,79,100720,0,0,368,28,3,25,0,0,0,0,270,3.7,10,0,0,0,0,0,0,0,0,0,0,0,0
2008,12,4,18,0,,14.9,11.6,81,100700,0,0,351,0,0,0,0,0,0,0,270,3.9,8,0,0,0,0,0,0,0,0,0,0,0,0
2008,12,4,19,0,,14.7,11.8,83,100700,0,0,355,0,0,0,0,0,0,0,270,3.5,9,0,0,0,0,0,0,0,0,0,0,0,0
2008,12,4,20,0,,13.8,8.4,70,100710,0,0,352,0,0,0,0,0,0,0,50,2.7,9,0,0,0,0,0,0,0,0,0,0,0,0
2008,12,4,21,0,,12.7,7.7,72,100780,0,0,352,0,0,0,0,0,0,0,160,2.7,10,0,0,0,0,0,0,0,0,0,0,0,0
2008,12,4,22,0,,10.4,4,65,100750,0,0,336,0,0,0,0,0,0,0,360,7.3,10,0,0,0,0,0,0,0,0,0,0,0,0
2008,12,4,23,0,,9.7,-1.6,45,100730,0,0,326,0,0,0,0,0,0,0,360,7.9,10,0,0,0,0,0,0,0,0,0,0,0,0
2008,12,4,24,0,,9,-2.6,44,100690,0,0,322,0,0,0,0,0,0,0,20,3.8,10,0,0,0,0,0,0,0,0,0,0,0,0
2008,12,5,1,0,,8.5,-3.3,43,100760,0,0,319,0,0,0,0,0,0,0,250,5.1,10,0,0,0,0,0,0,0,0,0,0,0,0
2008,12,5,2,0,,7.7,-4.7,41,100910,0,0,314,0,0,0,0,0,0,0,250,5.6,10,0,0,0,0,0,0,0,0,0,0,0,0
2008,12,5,3,0,,6.8,-8,34,100950,0,0,306,0,0,0,0,0,0,0,270,6.6,10,0,0,0,0,0,0,0,0,0,0,0,0
2008,12,5,4,0,,6,-7.9,36,100990,0,0,303,0,0,0,0,0,0,0,290,6.6,10,0,0,0,0,0,0,0,0,0,0,0,0
2008,12,5,5,0,,5.3,-7.5,39,101090,0,0,278,0,0,0,0,0,0,0,290,4.3,6,0,0,0,0,0,0,0,0,0,0,0,0
2008,12,5,6,0,,4.7,-6.8,43,101210,0,0,276,0,0,0,0,0,0,0,290,4.4,6,0,0,0,0,0,0,0,0,0,0,0,0
2008,12,5,7,0,,4.1,-6.2,47,101310,0,0,271,0,0,0,0,0,0,0,290,2.7,5,0,0,0,0,0,0,0,0,0,0,0,0
2008,12,5,8,0,,4.4,-5.9,47,101330,0,0,266,44,27,16,3173,2461,2385,0,290,6.1,2,0,0,0,0,0,0,0,0,0,0,0,0
2008,12,5,9,0,,4.3,-4.7,52,101310,0,0,272,157,515,52,30104,50556,7970,0,270,5,4,0,0,0,0,0,0,0,0,0,0,0,0
2008,12,5,10,0,,5.3,-7.2,40,101300,0,0,286,224,291,122,31030,28805,16320,0,270,7.7,8,0,0,0,0,0,0,0,0,0,0,0,0
2008,12,5,11,0,,3.5,-3.3,61,101300,0,0,262,367,513,130,45190,50501,18232,0,340,3,1,0,0,0,0,0,0,0,0,0,0,0,0
2008,12,5,12,0,,4.9,-7.5,40,101170,0,0,274,415,486,159,44502,47854,20308,0,320,4.9,5,0,0,0,0,0,0,0,0,0,0,0,0
2008,12,5,13,0,,7.1,-8.1,33,101090,0,0,288,385,334,205,37339,32492,23434,0,270,6.2,7,0,0,0,0,0,0,0,0,0,0,0,0
2008,12,5,14,0,,2.9,-4.7,57,101190,0,0,264,398,507,145,31162,43547,17828,0,340,4.7,3,0,0,0,0,0,0,0,0,0,0,0,0
2008,12,5,15,0,,2.8,-10.4,37,101220,0,0,252,347,608,97,17026,37306,11482,0,360,4.8,1,0,0,0,0,0,0,0,0,0,0,0,0
2008,12,5,16,0,,1.9,-11.9,35,101320,0,0,243,216,500,75,0,0,0,0,360,4.2,0,0,0,0,0,0,0,0,0,0,0,0,0
2008,12,5,17,0,,0.7,-13,35,101380,0,0,242,91,63,28,0,0,0,0,290,2.7,1,0,0,0,0,0,0,0,0,0,0,0,0
2008,12,5,18,0,,-0.4,-12.6,39,101490,0,0,243,0,0,0,0,0,0,0,360,4.4,2,0,0,0,0,0,0,0,0,0,0,0,0
2008,12,5,19,0,,-1.1,-13,40,101550,0,0,238,0,0,0,0,0,0,0,290,4.4,1,0,0,0,0,0,0,0,0,0,0,0,0
2008,12,5,20,0,,-2,-13.5,41,101630,0,0,232,0,0,0,0,0,0,0,360,4.3,1,0,0,0,0,0,0,0,0,0,0,0,0
2008,12,5,21,0,,-2.5,-13.6,42,101680,0,0,227,0,0,0,0,0,0,0,290,3.2,0,0,0,0,0,0,0,0,0,0,0,0,0
2008,12,5,22,0,,-3,-13.5,44,101690,0,0,225,0,0,0,0,0,0,0,340,2.3,0,0,0,0,0,0,0,0,0,0,0,0,0
2008,12,5,23,0,,-3.4,-13.6,45,101710,0,0,223,0,0,0,0,0,0,0,320,3.4,0,0,0,0,0,0,0,0,0,0,0,0,0
2008,12,5,24,0,,-3.7,-12.8,49,101720,0,0,223,0,0,0,0,0,0,0,290,2.5,0,0,0,0,0,0,0,0,0,0,0,0,0
2008,12,6,1,0,,-4.2,-13.5,48,101750,0,0,220,0,0,0,0,0,0,0,290,2.8,0,0,0,0,0,0,0,0,0,0,0,0,0
2008,12,6,2,0,,-4.6,-13.4,50,101790,0,0,219,0,0,0,0,0,0,0,140,1.1,0,0,0,0,0,0,0,0,0,0,0,0,0
2008,12,6,3,0,,-4.9,-13.2,52,101820,0,0,218,0,0,0,0,0,0,0,110,1.1,0,0,0,0,0,0,0,0,0,0,0,0,0
2008,12,6,4,0,,-5.3,-13.6,52,101830,0,0,216,0,0,0,0,0,0,0,340,1.8,0,0,0,0,0,0,0,0,0,0,0,0,0
2008,12,6,5,0,,-5.6,-14.6,49,101860,0,0,215,0,0,0,0,0,0,0,270,1.7,0,0,0,0,0,0,0,0,0,0,0,0,0
2008,12,6,6,0,,-5.8,-14.8,49,101870,0,0,214,0,0,0,0,0,0,0,110,1.2,0,0,0,0,0,0,0,0,0,0,0,0,0
2008,12,6,7,0,,-6,-15.2,48,101950,0,0,213,0,0,0,0,0,0,0,270,3.5,0,0,0,0,0,0,0,0,0,0,0,0,0
2008,12,6,8,0,,-5.6,-15.6,45,102000,0,0,214,42,26,16,3114,2333,2372,0,360,2.3,0,0,0,0,0,0,0,0,0,0,0,0,0
2008,12,6,9,0,,-4.3,-16.2,39,102080,0,0,219,174,675,38,34281,65213,5882,0,360,3.2,0,0,0,0,0,0,0,0,0,0,0,0,0
2008,12,6,10,0,,-2.8,-16.5,34,102100,0,0,224,322,750,60,46291,73564,8873,0,180,1.7,0,0,0,0,0,0,0,0,0,0,0,0,0
2008,12,6,11,0,,-2.1,-17,31,102120,0,0,227,431,763,80,52069,75964,11649,0,320,2.3,0,0,0,0,0,0,0,0,0,0,0,0,0
2008,12,6,12,0,,-0.9,-17.6,27,102070,0,0,231,497,773,92,51577,75913,13295,0,340,2.4,0,0,0,0,0,0,0,0,0,0,0,0,0
2008,12,6,13,0,,-0.1,-16.4,28,102020,0,0,235,503,750,101,45111,71783,14456,0,320,2.8,0,0,0,0,0,0,0,0,0,0,0,0,0
2008,12,6,14,0,,0.9,-16,27,101980,0,0,236,476,789,83,33149,69231,11986,0,320,3.2,0,0,0,0,0,0,0,0,0,0,0,0,0
2008,12,6,15,0,,1.3,-15.6,27,101970,0,0,238,381,753,71,16606,47347,9577,0,320,3.2,0,0,0,0,0,0,0,0,0,0,0,0,0
2008,12,6,16,0,,0.6,-16.3,27,102010,0,0,235,250,707,51,0,0,0,0,320,3.2,0,0,0,0,0,0,0,0,0,0,0,0,0
2008,12,6,17,0,,-0.1,-15.2,31,102050,0,0,235,92,65,27,0,0,0,0,250,1.2,0,0,0,0,0,0,0,0,0,0,0,0,0
2008,12,6,18,0,,-0.7,-15,33,102090,0,0,233,0,0,0,0,0,0,0,270,2.4,0,0,0,0,0,0,0,0,0,0,0,0,0
2008,12,6,19,0,,-0.6,-14.9,33,102140,0,0,233,0,0,0,0,0,0,0,340,1.5,0,0,0,0,0,0,0,0,0,0,0,0,0
2008,12,6,20,0,,-1.2,-14.7,35,102200,0,0,231,0,0,0,0,0,0,0,340,1.9,0,0,0,0,0,0,0,0,0,0,0,0,0
2008,12,6,21,0,,-1.4,-15.2,34,102240,0,0,230,0,0,0,0,0,0,0,360,1.1,0,0,0,0,0,0,0,0,0,0,0,0,0
2008,12,6,22,0,,-1.8,-14.9,36,102250,0,0,229,0,0,0,0,0,0,0,320,2,0,0,0,0,0,0,0,0,0,0,0,0,0
2008,12,6,23,0,,-1.8,-14.6,37,102230,0,0,229,0,0,0,0,0,0,0,180,2.1,0,0,0,0,0,0,0,0,0,0,0,0,0
2008,12,6,24,0,,-2.1,-13.9,40,102240,0,0,228,0,0,0,0,0,0,0,360,4,0,0,0,0,0,0,0,0,0,0,0,0,0
2008,12,7,1,0,,-2.6,-13.7,42,102230,0,0,226,0,0,0,0,0,0,0,360,2.1,0,0,0,0,0,0,0,0,0,0,0,0,0
2008,12,7,2,0,,-3,-12.7,47,102250,0,0,225,0,0,0,0,0,0,0,360,3.7,0,0,0,0,0,0,0,0,0,0,0,0,0
2008,12,7,3,0,,-2.8,-12.5,47,102240,0,0,226,0,0,0,0,0,0,0,340,2.7,0,0,0,0,0,0,0,0,0,0,0,0,0
2008,12,7,4,0,,-2.6,-12.6,46,102190,0,0,227,0,0,0,0,0,0,0,360,6.2,0,0,0,0,0,0,0,0,0,0,0,0,0
2008,12,7,5,0,,-3,-12.2,49,102180,0,0,225,0,0,0,0,0,0,0,290,3.8,0,0,0,0,0,0,0,0,0,0,0,0,0
2008,12,7,6,0,,-2.5,-11.7,49,102140,0,0,228,0,0,0,0,0,0,0,290,3.5,0,0,0,0,0,0,0,0,0,0,0,0,0
2008,12,7,7,0,,-2.2,-11.7,48,102190,0,0,229,0,0,0,0,0,0,0,290,4,0,0,0,0,0,0,0,0,0,0,0,0,0
2008,12,7,8,0,,-1.9,-11.7,47,102190,0,0,230,42,26,16,3017,2359,2274,0,230,1.5,0,0,0,0,0,0,0,0,0,0,0,0,0
2008,12,7,9,0,,0.1,-10.4,45,102180,0,0,237,171,674,38,34036,65111,5826,0,320,2,0,0,0,0,0,0,0,0,0,0,0,0,0
2008,12,7,10,0,,1,-10.8,41,102210,0,0,240,316,731,62,45538,71795,9160,0,340,2,0,0,0,0,0,0,0,0,0,0,0,0,0
2008,12,7,11,0,,2.9,-9.7,39,102130,0,0,248,429,763,80,51919,75995,11603,0,20,2.8,0,0,0,0,0,0,0,0,0,0,0,0,0
2008,12,7,12,0,,4.7,-9.1,36,102050,0,0,264,482,731,101,51080,72160,14778,0,250,1.5,2,0,0,0,0,0,0,0,0,0,0,0,0
2008,12,7,13,0,,5.3,-8.9,35,101950,0,0,276,417,467,167,39678,44397,20753,0,290,1.5,6,0,0,0,0,0,0,0,0,0,0,0,0
2008,12,7,14,0,,6.4,-7.9,35,101890,0,0,282,393,498,146,30943,42928,17837,0,250,3.4,6,0,0,0,0,0,0,0,0,0,0,0,0
2008,12,7,15,0,,6,-6.9,39,101900,0,0,295,210,140,153,18300,10865,16687,0,250,3.4,9,0,0,0,0,0,0,0,0,0,0,0,0
2008,12,7,16,0,,5.1,-5.8,45,101880,0,0,301,99,55,83,0,0,0,0,250,3.4,10,0,0,0,0,0,0,0,0,0,0,0,0
2008,12,7,17,0,,4.8,-4.5,51,101920,0,0,292,42,8,34,0,0,0,0,250,2.1,9,0,0,0,0,0,0,0,0,0,0,0,0
2008,12,7,18,0,,4.6,-3.4,56,101910,0,0,279,0,0,0,0,0,0,0,270,1.9,6,0,0,0,0,0,0,0,0,0,0,0,0
2008,12,7,19,0,,4.7,-2.8,58,101910,0,0,280,0,0,0,0,0,0,0,270,2.3,6,0,0,0,0,0,0,0,0,0,0,0,0
2008,12,7,20,0,,4.8,-2.7,58,101940,0,0,280,0,0,0,0,0,0,0,270,2.6,6,0,0,0,0,0,0,0,0,0,0,0,0
2008,12,7,21,0,,4.4,-2.7,60,101940,0,0,279,0,0,0,0,0,0,0,250,2.5,6,0,0,0,0,0,0,0,0,0,0,0,0
2008,12,7,22,0,,4.3,-2.1,63,101920,0,0,276,0,0,0,0,0,0,0,250,1.5,5,0,0,0,0,0,0,0,0,0,0,0,0
2008,12,7,23,0,,4.6,-1.4,65,101850,0,0,276,0,0,0,0,0,0,0,0,0.4,4,0,0,0,0,0,0,0,0,0,0,0,0
2008,12,7,24,0,,4.7,-1.3,65,101790,0,0,275,0,0,0,0,0,0,0,0,0.1,3,0,0,0,0,0,0,0,0,0,0,0,0
2008,12,8,1,0,,4.5,-0.1,72,101720,0,0,275,0,0,0,0,0,0,0,0,0.3,3,0,0,0,0,0,0,0,0,0,0,0,0
2008,12,8,2,0,,4.2,-0.2,73,101690,0,0,274,0,0,0,0,0,0,0,0,0.4,3,0,0,0,0,0,0,0,0,0,0,0,0
2008,12,8,3,0,,4,0,75,101640,0,0,273,0,0,0,0,0,0,0,110,1,3,0,0,0,0,0,0,0,0,0,0,0,0
2008,12,8,4,0,,4.3,0.6,77,101580,0,0,275,0,0,0,0,0,0,0,70,0.7,3,0,0,0,0,0,0,0,0,0,0,0,0
2008,12,8,5,0,,4.1,0.6,78,101530,0,0,276,0,0,0,0,0,0,0,160,0.6,4,0,0,0,0,0,0,0,0,0,0,0,0
2008,12,8,6,0,,5.3,2.1,80,101480,0,0,283,0,0,0,0,0,0,0,340,0.8,4,0,0,0,0,0,0,0,0,0,0,0,0
2008,12,8,7,0,,5,1.8,80,101440,0,0,281,0,0,0,0,0,0,0,0,0.4,4,0,0,0,0,0,0,0,0,0,0,0,0
2008,12,8,8,0,,5.9,2.5,79,101430,0,0,305,15,2,14,1794,57,1777,0,0,0.3,9,0,0,0,0,0,0,0,0,0,0,0,0
2008,12,8,9,0,,6.8,2.6,75,101410,0,0,318,52,28,47,7141,2666,5992,0,0,0.3,10,0,0,0,0,0,0,0,0,0,0,0,0
2008,12,8,10,0,,9.4,4.5,72,101450,0,0,332,129,62,108,16238,6063,13178,0,270,2.6,10,0,0,0,0,0,0,0,0,0,0,0,0
2008,12,8,11,0,,11,4.2,63,101340,0,0,339,195,81,159,23076,7942,18874,0,250,4.1,10,0,0,0,0,0,0,0,0,0,0,0,0
2008,12,8,12,0,,10.4,4.3,66,101300,0,0,336,217,70,181,24010,6675,20659,0,270,4.5,10,0,0,0,0,0,0,0,0,0,0,0,0
2008,12,8,13,0,,11.4,4.8,64,101220,0,0,332,257,102,202,26928,9578,22852,0,270,4.8,9,0,0,0,0,0,0,0,0,0,0,0,0
2008,12,8,14,0,,13.2,4,54,101150,0,0,319,419,595,124,31360,49950,16124,0,250,6.2,4,0,0,0,0,0,0,0,0,0,0,0,0
2008,12,8,15,0,,13.3,3.9,53,101100,0,0,319,344,606,96,17116,35424,11856,0,250,5,4,0,0,0,0,0,0,0,0,0,0,0,0
2008,12,8,16,0,,12.4,2.5,51,101120,0,0,311,232,604,62,0,0,0,0,270,6.1,3,0,0,0,0,0,0,0,0,0,0,0,0
2008,12,8,17,0,,11.4,1.3,50,101120,0,0,305,86,55,31,0,0,0,0,270,4.5,3,0,0,0,0,0,0,0,0,0,0,0,0
2008,12,8,18,0,,10.9,1.6,53,101170,0,0,291,0,0,0,0,0,0,0,250,4.9,0,0,0,0,0,0,0,0,0,0,0,0,0
2008,12,8,19,0,,10.7,2.2,56,101180,0,0,290,0,0,0,0,0,0,0,270,5.1,0,0,0,0,0,0,0,0,0,0,0,0,0
2008,12,8,20,0,,10,2.5,60,101210,0,0,288,0,0,0,0,0,0,0,270,1.8,0,0,0,0,0,0,0,0,0,0,0,0,0
2008,12,8,21,0,,9.9,3.1,63,101210,0,0,288,0,0,0,0,0,0,0,270,4.1,0,0,0,0,0,0,0,0,0,0,0,0,0
2008,12,8,22,0,,9.5,3,64,101210,0,0,293,0,0,0,0,0,0,0,270,2.9,1,0,0,0,0,0,0,0,0,0,0,0,0
2008,12,8,23,0,,9.2,3.3,67,101220,0,0,297,0,0,0,0,0,0,0,270,2.7,3,0,0,0,0,0,0,0,0,0,0,0,0
2008,12,8,24,0,,9,4,71,101220,0,0,300,0,0,0,0,0,0,0,270,2.8,4,0,0,0,0,0,0,0,0,0,0,0,0
2008,12,9,1,0,,9.3,3.2,66,101210,0,0,300,0,0,0,0,0,0,0,270,2.7,4,0,0,0,0,0,0,0,0,0,0,0,0
2008,12,9,2,0,,9.5,1.3,57,101200,0,0,298,0,0,0,0,0,0,0,270,2.4,3,0,0,0,0,0,0,0,0,0,0,0,0
2008,12,9,3,0,,10.2,1.7,56,101140,0,0,300,0,0,0,0,0,0,0,270,3.3,3,0,0,0,0,0,0,0,0,0,0,0,0
2008,12,9,4,0,,10.1,1.7,56,101080,0,0,293,0,0,0,0,0,0,0,270,3.3,1,0,0,0,0,0,0,0,0,0,0,0,0
2008,12,9,5,0,,10.2,2.5,59,101100,0,0,289,0,0,0,0,0,0,0,270,2.9,0,0,0,0,0,0,0,0,0,0,0,0,0
2008,12,9,6,0,,9.9,2.9,62,101150,0,0,288,0,0,0,0,0,0,0,250,2.1,0,0,0,0,0,0,0,0,0,0,0,0,0
2008,12,9,7,0,,9.9,3.3,64,101210,0,0,288,0,0,0,0,0,0,0,270,1.7,0,0,0,0,0,0,0,0,0,0,0,0,0
2008,12,9,8,0,,10.3,3.7,64,101260,0,0,296,37,21,16,2793,1848,2219,0,290,2.9,1,0,0,0,0,0,0,0,0,0,0,0,0
2008,12,9,9,0,,11.3,3.8,60,101310,0,0,295,156,577,44,30928,56287,6779,0,250,3,0,0,0,0,0,0,0,0,0,0,0,0,0
2008,12,9,10,0,,12.6,2.4,50,101330,0,0,299,306,706,64,45169,70617,9642,0,270,4.2,0,0,0,0,0,0,0,0,0,0,0,0,0
2008,12,9,11,0,,13.7,-1.5,35,101290,0,0,299,420,745,82,51156,74219,11995,0,290,2.8,0,0,0,0,0,0,0,0,0,0,0,0,0
2008,12,9,12,0,,15,-3.8,27,101190,0,0,303,492,777,90,51409,76481,13090,0,270,2.1,0,0,0,0,0,0,0,0,0,0,0,0,0
2008,12,9,13,0,,15.8,-6.5,21,101130,0,0,303,518,816,85,45686,78059,12509,0,270,5,0,0,0,0,0,0,0,0,0,0,0,0,0
2008,12,9,14,0,,16.3,-5.4,22,101080,0,0,306,468,771,86,32896,67185,12415,0,270,3.6,0,0,0,0,0,0,0,0,0,0,0,0,0
2008,12,9,15,0,,15.9,-5.2,23,101050,0,0,305,375,738,74,16718,45950,9887,0,270,3.6,0,0,0,0,0,0,0,0,0,0,0,0,0
2008,12,9,16,0,,15.9,-3.1,27,101060,0,0,307,245,686,53,0,0,0,0,250,2,0,0,0,0,0,0,0,0,0,0,0,0,0
2008,12,9,17,0,,13.7,-2.3,33,101080,0,0,299,90,63,28,0,0,0,0,250,3,0,0,0,0,0,0,0,0,0,0,0,0,0
2008,12,9,18,0,,12.6,-1.7,37,101130,0,0,295,0,0,0,0,0,0,0,290,2.2,0,0,0,0,0,0,0,0,0,0,0,0,0
2008,12,9,19,0,,12.4,0.1,43,101150,0,0,296,0,0,0,0,0,0,0,290,1.9,0,0,0,0,0,0,0,0,0,0,0,0,0
2008,12,9,20,0,,11.6,0.9,48,101190,0,0,293,0,0,0,0,0,0,0,270,2.1,0,0,0,0,0,0,0,0,0,0,0,0,0
2008,12,9,21,0,,11.4,1.8,52,101210,0,0,293,0,0,0,0,0,0,0,270,1.8,0,0,0,0,0,0,0,0,0,0,0,0,0
2008,12,9,22,0,,11.6,2.3,53,101240,0,0,294,0,0,0,0,0,0,0,270,2.2,0,0,0,0,0,0,0,0,0,0,0,0,0
2008,12,9,23,0,,11.4,2.9,56,101250,0,0,294,0,0,0,0,0,0,0,270,2.2,0,0,0,0,0,0,0,0,0,0,0,0,0
2008,12,9,24,0,,11.3,3,57,101240,0,0,294,0,0,0,0,0,0,0,230,1.3,0,0,0,0,0,0,0,0,0,0,0,0,0
2008,12,10,1,0,,11.1,3.3,59,101220,0,0,293,0,0,0,0,0,0,0,50,1.3,0,0,0,0,0,0,0,0,0,0,0,0,0
2008,12,10,2,0,,10.4,3.8,64,101210,0,0,291,0,0,0,0,0,0,0,0,0.3,0,0,0,0,0,0,0,0,0,0,0,0,0
2008,12,10,3,0,,10.7,3.9,63,101220,0,0,292,0,0,0,0,0,0,0,270,1.3,0,0,0,0,0,0,0,0,0,0,0,0,0
2008,12,10,4,0,,10.6,4.2,65,101210,0,0,292,0,0,0,0,0,0,0,270,2.6,0,0,0,0,0,0,0,0,0,0,0,0,0
2008,12,10,5,0,,10.9,4.7,66,101200,0,0,294,0,0,0,0,0,0,0,270,3.1,0,0,0,0,0,0,0,0,0,0,0,0,0
2008,12,10,6,0,,10.8,4.6,66,101210,0,0,294,0,0,0,0,0,0,0,270,2,0,0,0,0,0,0,0,0,0,0,0,0,0
2008,12,10,7,0,,11,4.8,66,101230,0,0,295,0,0,0,0,0,0,0,250,0.9,0,0,0,0,0,0,0,0,0,0,0,0,0
2008,12,10,8,0,,11.1,4.9,66,101240,0,0,295,35,17,17,2804,1515,2337,0,230,0.8,0,0,0,0,0,0,0,0,0,0,0,0,0
2008,12,10,9,0,,13.3,5.1,58,101270,0,0,305,162,649,38,33004,63491,5888,0,270,2.4,0,0,0,0,0,0,0,0,0,0,0,0,0
2008,12,10,10,0,,15.3,5.4,52,101310,0,0,314,310,735,60,45594,73165,8906,0,250,2.4,0,0,0,0,0,0,0,0,0,0,0,0,0
2008,12,10,11,0,,16.1,5.3,49,101250,0,0,317,427,781,75,52355,78355,11111,0,250,4.6,0,0,0,0,0,0,0,0,0,0,0,0,0
2008,12,10,12,0,,17.2,6,48,101180,0,0,323,485,756,94,51100,74680,13749,0,250,4.9,0,0,0,0,0,0,0,0,0,0,0,0,0
2008,12,10,13,0,,17.8,6.3,47,101120,0,0,326,478,687,114,43696,64356,16372,0,250,4.7,0,0,0,0,0,0,0,0,0,0,0,0,0
2008,12,10,14,0,,18.4,6.2,45,101060,0,0,329,445,696,102,32530,59240,14475,0,270,3.9,0,0,0,0,0,0,0,0,0,0,0,0,0
2008,12,10,15,0,,17.8,6,46,101000,0,0,326,353,648,89,17448,38556,11706,0,250,4.5,0,0,0,0,0,0,0,0,0,0,0,0,0
2008,12,10,16,0,,16.8,6.8,52,100990,0,0,322,228,584,65,0,0,0,0,230,4.1,0,0,0,0,0,0,0,0,0,0,0,0,0
2008,12,10,17,0,,15.6,6.5,55,100990,0,0,316,87,56,31,0,0,0,0,230,4.9,0,0,0,0,0,0,0,0,0,0,0,0,0
2008,12,10,18,0,,14.9,6.9,59,101030,0,0,314,0,0,0,0,0,0,0,200,4.3,0,0,0,0,0,0,0,0,0,0,0,0,0
2008,12,10,19,0,,14.3,7.5,64,101070,0,0,318,0,0,0,0,0,0,0,250,4.8,1,0,0,0,0,0,0,0,0,0,0,0,0
2008,12,10,20,0,,13.7,7.6,67,101050,0,0,319,0,0,0,0,0,0,0,250,3,2,0,0,0,0,0,0,0,0,0,0,0,0
2008,12,10,21,0,,13.5,8.3,71,100990,0,0,323,0,0,0,0,0,0,0,250,4,3,0,0,0,0,0,0,0,0,0,0,0,0
2008,12,10,22,0,,13.6,8.8,73,101000,0,0,324,0,0,0,0,0,0,0,250,4.9,3,0,0,0,0,0,0,0,0,0,0,0,0
2008,12,10,23,0,,13.3,8.9,75,100950,0,0,322,0,0,0,0,0,0,0,270,4.6,3,0,0,0,0,0,0,0,0,0,0,0,0
2008,12,10,24,0,,13.5,9.3,76,100870,0,0,324,0,0,0,0,0,0,0,270,4.3,3,0,0,0,0,0,0,0,0,0,0,0,0
2008,12,11,1,0,,13.3,9.3,77,100830,0,0,323,0,0,0,0,0,0,0,270,4.3,3,0,0,0,0,0,0,0,0,0,0,0,0
2008,12,11,2,0,,12.9,9.5,80,100770,0,0,321,0,0,0,0,0,0,0,270,3.4,3,0,0,0,0,0,0,0,0,0,0,0,0
2008,12,11,3,0,,13,9.9,82,100690,0,0,322,0,0,0,0,0,0,0,270,4.1,3,0,0,0,0,0,0,0,0,0,0,0,0
2008,12,11,4,0,,13.2,10.1,82,100590,0,0,323,0,0,0,0,0,0,0,270,3.9,3,0,0,0,0,0,0,0,0,0,0,0,0
2008,12,11,5,0,,13.5,9.5,77,100540,0,0,324,0,0,0,0,0,0,0,270,5.7,3,0,0,0,0,0,0,0,0,0,0,0,0
2008,12,11,6,0,,13.7,9.7,77,100530,0,0,333,0,0,0,0,0,0,0,270,5,6,0,0,0,0,0,0,0,0,0,0,0,0
2008,12,11,7,0,,13.6,9,74,100540,0,0,326,0,0,0,0,0,0,0,270,5.8,4,0,0,0,0,0,0,0,0,0,0,0,0
2008,12,11,8,0,,13.9,7.4,65,100580,0,0,331,29,14,15,2386,1205,2018,0,250,7.6,6,0,0,0,0,0,0,0,0,0,0,0,0
2008,12,11,9,0,,13.7,6.7,63,100620,0,0,356,60,46,51,8428,4320,6591,0,250,4.8,10,0,0,0,0,0,0,0,0,0,0,0,0
2008,12,11,10,0,,13.8,6.8,63,100730,0,0,356,124,59,104,15664,5685,12822,0,270,6.6,10,0,0,0,0,0,0,0,0,0,0,0,0
2008,12,11,11,0,,13.7,7.2,65,100770,0,0,334,270,215,174,32248,20663,21396,0,270,4.8,7,0,0,0,0,0,0,0,0,0,0,0,0
2008,12,11,12,0,,13,3.8,54,100720,0,0,323,346,281,202,37610,27308,23972,0,360,5.7,6,0,0,0,0,0,0,0,0,0,0,0,0
2008,12,11,13,0,,13.5,1.7,45,100710,0,0,302,453,607,132,42272,56644,18242,0,360,4.6,0,0,0,0,0,0,0,0,0,0,0,0,0
2008,12,11,14,0,,13.9,-1.3,35,100610,0,0,301,433,655,110,32219,55877,15186,0,320,4.3,0,0,0,0,0,0,0,0,0,0,0,0,0
2008,12,11,15,0,,14.1,-1.9,33,100620,0,0,301,362,688,82,17088,42125,10798,0,320,3.1,0,0,0,0,0,0,0,0,0,0,0,0,0
2008,12,11,16,0,,13.3,-2.6,33,100670,0,0,297,244,682,54,0,0,0,0,290,4.2,0,0,0,0,0,0,0,0,0,0,0,0,0
2008,12,11,17,0,,12.2,-2.8,35,100730,0,0,292,90,61,29,0,0,0,0,320,1.7,0,0,0,0,0,0,0,0,0,0,0,0,0
2008,12,11,18,0,,11.2,-2.9,37,100800,0,0,288,0,0,0,0,0,0,0,230,1.5,0,0,0,0,0,0,0,0,0,0,0,0,0
2008,12,11,19,0,,10.5,-2.8,39,100900,0,0,285,0,0,0,0,0,0,0,70,1.2,0,0,0,0,0,0,0,0,0,0,0,0,0
2008,12,11,20,0,,9.6,-2.7,42,100930,0,0,281,0,0,0,0,0,0,0,50,1.2,0,0,0,0,0,0,0,0,0,0,0,0,0
2008,12,11,21,0,,8.7,-2.5,45,100970,0,0,278,0,0,0,0,0,0,0,20,2.5,0,0,0,0,0,0,0,0,0,0,0,0,0
2008,12,11,22,0,,8,-2.9,46,101020,0,0,275,0,0,0,0,0,0,0,320,3,0,0,0,0,0,0,0,0,0,0,0,0,0
2008,12,11,23,0,,7.6,-3.3,46,101010,0,0,273,0,0,0,0,0,0,0,340,3.4,0,0,0,0,0,0,0,0,0,0,0,0,0
2008,12,11,24,0,,6.9,-3.3,48,101040,0,0,270,0,0,0,0,0,0,0,110,1.7,0,0,0,0,0,0,0,0,0,0,0,0,0
2008,12,12,1,0,,6.2,-3.2,51,101040,0,0,267,0,0,0,0,0,0,0,320,4,0,0,0,0,0,0,0,0,0,0,0,0,0
2008,12,12,2,0,,5.4,-2.9,55,101120,0,0,264,0,0,0,0,0,0,0,230,2.3,0,0,0,0,0,0,0,0,0,0,0,0,0
2008,12,12,3,0,,5.8,-4.9,46,101130,0,0,264,0,0,0,0,0,0,0,70,3.4,0,0,0,0,0,0,0,0,0,0,0,0,0
2008,12,12,4,0,,5.4,-7.4,39,101120,0,0,260,0,0,0,0,0,0,0,360,6.7,0,0,0,0,0,0,0,0,0,0,0,0,0
2008,12,12,5,0,,5.5,-11.1,29,101130,0,0,257,0,0,0,0,0,0,0,360,8.4,0,0,0,0,0,0,0,0,0,0,0,0,0
2008,12,12,6,0,,4.2,-7.2,43,101180,0,0,256,0,0,0,0,0,0,0,20,3.6,0,0,0,0,0,0,0,0,0,0,0,0,0
2008,12,12,7,0,,3.9,-5.8,49,101240,0,0,256,0,0,0,0,0,0,0,360,7.4,0,0,0,0,0,0,0,0,0,0,0,0,0
2008,12,12,8,0,,4.2,-6.1,47,101360,0,0,257,37,23,14,2688,2036,2069,0,340,7.1,0,0,0,0,0,0,0,0,0,0,0,0,0
2008,12,12,9,0,,4.7,-5.1,49,101420,0,0,260,155,618,39,31372,59745,6075,0,340,4.4,0,0,0,0,0,0,0,0,0,0,0,0,0
2008,12,12,10,0,,7,-6,39,101480,0,0,268,305,733,59,44736,72043,8825,0,360,1.7,0,0,0,0,0,0,0,0,0,0,0,0,0
2008,12,12,11,0,,9.4,-5.3,35,101430,0,0,278,424,785,73,51893,78361,10820,0,160,1.6,0,0,0,0,0,0,0,0,0,0,0,0,0
2008,12,12,12,0,,10.2,-5.7,32,101410,0,0,281,492,794,85,51469,78207,12462,0,320,1.2,0,0,0,0,0,0,0,0,0,0,0,0,0
2008,12,12,13,0,,11.9,-3.8,33,101310,0,0,290,512,806,86,45402,77089,12716,0,180,3.9,0,0,0,0,0,0,0,0,0,0,0,0,0
2008,12,12,14,0,,11.7,-4.4,32,101260,0,0,305,404,552,132,31034,47289,16612,0,180,3.9,5,0,0,0,0,0,0,0,0,0,0,0,0
2008,12,12,15,0,,10.3,-3.4,38,101250,0,0,303,288,372,137,18326,21441,15114,0,180,3.2,6,0,0,0,0,0,0,0,0,0,0,0,0
2008,12,12,16,0,,10.9,-3.6,36,101320,0,0,295,232,607,62,0,0,0,0,200,2.5,2,0,0,0,0,0,0,0,0,0,0,0,0
2008,12,12,17,0,,9.2,-2.7,43,101340,0,0,289,86,54,32,0,0,0,0,230,1.7,2,0,0,0,0,0,0,0,0,0,0,0,0
2008,12,12,18,0,,8.3,-2.6,46,101350,0,0,281,0,0,0,0,0,0,0,320,1.3,1,0,0,0,0,0,0,0,0,0,0,0,0
2008,12,12,19,0,,8.1,-3.1,45,101340,0,0,283,0,0,0,0,0,0,0,0,0,2,0,0,0,0,0,0,0,0,0,0,0,0
2008,12,12,20,0,,7.9,-2.7,47,101390,0,0,284,0,0,0,0,0,0,0,0,0,2,0,0,0,0,0,0,0,0,0,0,0,0
2008,12,12,21,0,,7.9,-3.9,43,101430,0,0,285,0,0,0,0,0,0,0,320,0.6,3,0,0,0,0,0,0,0,0,0,0,0,0
2008,12,12,22,0,,8.2,-3.3,44,101360,0,0,289,0,0,0,0,0,0,0,70,0.6,4,0,0,0,0,0,0,0,0,0,0,0,0
2008,12,12,23,0,,7.6,-3.3,46,101360,0,0,289,0,0,0,0,0,0,0,20,2,5,0,0,0,0,0,0,0,0,0,0,0,0
2008,12,12,24,0,,8,-3.5,44,101340,0,0,293,0,0,0,0,0,0,0,340,0.8,6,0,0,0,0,0,0,0,0,0,0,0,0
2008,12,13,1,0,,8,-3.2,45,101280,0,0,293,0,0,0,0,0,0,0,0,0.2,6,0,0,0,0,0,0,0,0,0,0,0,0
2008,12,13,2,0,,7.7,-3.8,44,101280,0,0,291,0,0,0,0,0,0,0,360,3.3,6,0,0,0,0,0,0,0,0,0,0,0,0
2008,12,13,3,0,,7.8,-3.7,44,101270,0,0,292,0,0,0,0,0,0,0,360,5.5,6,0,0,0,0,0,0,0,0,0,0,0,0
2008,12,13,4,0,,7.8,-2.2,49,101240,0,0,291,0,0,0,0,0,0,0,50,1.3,5,0,0,0,0,0,0,0,0,0,0,0,0
2008,12,13,5,0,,7.4,-3.4,46,101190,0,0,286,0,0,0,0,0,0,0,320,1.6,4,0,0,0,0,0,0,0,0,0,0,0,0
2008,12,13,6,0,,5.9,-3.4,51,101290,0,0,277,0,0,0,0,0,0,0,340,6.7,3,0,0,0,0,0,0,0,0,0,0,0,0
2008,12,13,7,0,,6.9,-4.2,45,101310,0,0,274,0,0,0,0,0,0,0,360,4.5,1,0,0,0,0,0,0,0,0,0,0,0,0
2008,12,13,8,0,,6.9,-3.6,47,101360,0,0,269,34,18,15,2546,1660,2044,0,360,3,0,0,0,0,0,0,0,0,0,0,0,0,0
2008,12,13,9,0,,7.3,-3,48,101380,0,0,283,152,615,39,31141,59499,6048,0,340,5.8,3,0,0,0,0,0,0,0,0,0,0,0,0
2008,12,13,10,0,,8.5,-3.7,42,101390,0,0,276,300,716,61,44117,70443,9099,0,360,4.8,0,0,0,0,0,0,0,0,0,0,0,0,0
2008,12,13,11,0,,10.7,-3.4,37,101360,0,0,297,400,697,89,49074,69048,12948,0,360,2.5,3,0,0,0,0,0,0,0,0,0,0,0,0
2008,12,13,12,0,,11.9,-5.1,30,101240,0,0,305,424,561,137,45956,54462,18821,0,50,0.6,5,0,0,0,0,0,0,0,0,0,0,0,0
2008,12,13,13,0,,12.4,-5.1,29,101120,0,0,314,376,336,199,36634,32428,22888,0,160,1.3,7,0,0,0,0,0,0,0,0,0,0,0,0
2008,12,13,14,0,,10.8,-2.6,39,101040,0,0,330,183,53,158,19111,4718,17671,0,340,2.6,10,0,0,0,0,0,0,0,0,0,0,0,0
2008,12,13,15,0,,10.7,-2.7,39,101030,0,0,330,138,44,120,13768,3307,13270,0,20,1.4,10,0,0,0,0,0,0,0,0,0,0,0,0
2008,12,13,16,0,,10.3,-2.4,41,101070,0,0,319,122,103,94,0,0,0,0,340,4.1,9,0,0,0,0,0,0,0,0,0,0,0,0
2008,12,13,17,0,,9.7,-2.2,43,101100,0,0,305,67,32,35,0,0,0,0,340,4.6,7,0,0,0,0,0,0,0,0,0,0,0,0
2008,12,13,18,0,,9.5,-2.4,43,101110,0,0,304,0,0,0,0,0,0,0,340,5.2,7,0,0,0,0,0,0,0,0,0,0,0,0
2008,12,13,19,0,,9.2,-2.7,43,101150,0,0,323,0,0,0,0,0,0,0,340,4.7,10,0,0,0,0,0,0,0,0,0,0,0,0
2008,12,13,20,0,,9,-2,46,101130,0,0,322,0,0,0,0,0,0,0,340,4.6,10,0,0,0,0,0,0,0,0,0,0,0,0
2008,12,13,21,0,,8.7,-2.2,46,101130,0,0,321,0,0,0,0,0,0,0,340,6.6,10,0,0,0,0,0,0,0,0,0,0,0,0
2008,12,13,22,0,,8.4,-2.2,47,101110,0,0,298,0,0,0,0,0,0,0,360,5.6,7,0,0,0,0,0,0,0,0,0,0,0,0
2008,12,13,23,0,,8,-4.4,41,101040,0,0,286,0,0,0,0,0,0,0,340,5,3,0,0,0,0,0,0,0,0,0,0,0,0
2008,12,13,24,0,,7.1,-5.6,40,101030,0,0,268,0,0,0,0,0,0,0,360,5.8,0,0,0,0,0,0,0,0,0,0,0,0,0
2008,12,14,1,0,,6.2,-6.4,40,101000,0,0,264,0,0,0,0,0,0,0,20,2.7,0,0,0,0,0,0,0,0,0,0,0,0,0
2008,12,14,2,0,,5.2,-7.3,40,100980,0,0,260,0,0,0,0,0,0,0,360,7.4,0,0,0,0,0,0,0,0,0,0,0,0,0
2008,12,14,3,0,,4.5,-14.8,23,100990,0,0,251,0,0,0,0,0,0,0,20,4.6,0,0,0,0,0,0,0,0,0,0,0,0,0
2008,12,14,4,0,,3.6,-19.2,17,101030,0,0,244,0,0,0,0,0,0,0,180,2.7,0,0,0,0,0,0,0,0,0,0,0,0,0
2008,12,14,5,0,,2.6,-18.7,19,101010,0,0,241,0,0,0,0,0,0,0,140,2.8,0,0,0,0,0,0,0,0,0,0,0,0,0
2008,12,14,6,0,,1.8,-17.1,23,101070,0,0,239,0,0,0,0,0,0,0,340,4.6,0,0,0,0,0,0,0,0,0,0,0,0,0
2008,12,14,7,0,,1.3,-15.2,28,101070,0,0,238,0,0,0,0,0,0,0,340,5.6,0,0,0,0,0,0,0,0,0,0,0,0,0
2008,12,14,8,0,,1.3,-14,31,101100,0,0,249,35,22,13,2563,1931,1983,0,340,9,3,0,0,0,0,0,0,0,0,0,0,0,0
2008,12,14,9,0,,1.9,-13.8,30,101100,0,0,254,156,660,35,32154,63439,5500,0,340,9.5,4,0,0,0,0,0,0,0,0,0,0,0,0
2008,12,14,10,0,,2.5,-13.7,29,101100,0,0,254,314,795,50,46213,77979,7545,0,340,9.9,3,0,0,0,0,0,0,0,0,0,0,0,0
2008,12,14,11,0,,3.8,-13,28,101060,0,0,260,423,792,72,51194,77846,10530,0,360,7.8,3,0,0,0,0,0,0,0,0,0,0,0,0
2008,12,14,12,0,,5.7,-11.8,27,101000,0,0,273,443,635,120,47786,62171,16836,0,360,4.8,5,0,0,0,0,0,0,0,0,0,0,0,0
2008,12,14,13,0,,8,-11.9,23,100970,0,0,278,507,796,88,45076,75911,12898,0,340,3.8,3,0,0,0,0,0,0,0,0,0,0,0,0
2008,12,14,14,0,,8,-13.6,20,100960,0,0,278,452,728,94,32606,63321,13253,0,340,4,4,0,0,0,0,0,0,0,0,0,0,0,0
2008,12,14,15,0,,7.8,-15.1,18,100990,0,0,281,315,488,116,17830,30107,13281,0,360,2.1,6,0,0,0,0,0,0,0,0,0,0,0,0
2008,12,14,16,0,,7.4,-18.4,14,101010,0,0,271,229,590,64,0,0,0,0,360,2.1,4,0,0,0,0,0,0,0,0,0,0,0,0
2008,12,14,17,0,,6.9,-19.7,13,101030,0,0,266,97,73,25,0,0,0,0,360,4.6,3,0,0,0,0,0,0,0,0,0,0,0,0
2008,12,14,18,0,,6.4,-20.1,13,101070,0,0,264,0,0,0,0,0,0,0,360,6.2,3,0,0,0,0,0,0,0,0,0,0,0,0
2008,12,14,19,0,,5.5,-20.8,13,101090,0,0,258,0,0,0,0,0,0,0,360,7.1,2,0,0,0,0,0,0,0,0,0,0,0,0
2008,12,14,20,0,,4.4,-20.8,14,101120,0,0,251,0,0,0,0,0,0,0,360,9.3,1,0,0,0,0,0,0,0,0,0,0,0,0
2008,12,14,21,0,,3.9,-22.1,13,101130,0,0,244,0,0,0,0,0,0,0,360,9.7,0,0,0,0,0,0,0,0,0,0,0,0,0
2008,12,14,22,0,,3.2,-21.8,14,101170,0,0,242,0,0,0,0,0,0,0,360,9,0,0,0,0,0,0,0,0,0,0,0,0,0
2008,12,14,23,0,,2.9,-16.2,23,101200,0,0,244,0,0,0,0,0,0,0,360,8.3,0,0,0,0,0,0,0,0,0,0,0,0,0
2008,12,14,24,0,,2.9,-13.4,29,101220,0,0,246,0,0,0,0,0,0,0,360,8.7,0,0,0,0,0,0,0,0,0,0,0,0,0
2008,12,15,1,0,,3,-11.3,34,101200,0,0,248,0,0,0,0,0,0,0,360,9.3,0,0,0,0,0,0,0,0,0,0,0,0,0
2008,12,15,2,0,,3.6,-10.8,34,101230,0,0,250,0,0,0,0,0,0,0,360,8.8,0,0,0,0,0,0,0,0,0,0,0,0,0
2008,12,15,3,0,,3.5,-9.1,39,101250,0,0,251,0,0,0,0,0,0,0,360,8.6,0,0,0,0,0,0,0,0,0,0,0,0,0
2008,12,15,4,0,,3.3,-8.7,41,101280,0,0,251,0,0,0,0,0,0,0,50,3.3,0,0,0,0,0,0,0,0,0,0,0,0,0
2008,12,15,5,0,,2.5,-8.8,43,101300,0,0,248,0,0,0,0,0,0,0,360,4.4,0,0,0,0,0,0,0,0,0,0,0,0,0
2008,12,15,6,0,,2.8,-7.6,46,101310,0,0,250,0,0,0,0,0,0,0,160,2.3,0,0,0,0,0,0,0,0,0,0,0,0,0
2008,12,15,7,0,,2.3,-8.7,44,101380,0,0,247,0,0,0,0,0,0,0,360,2.8,0,0,0,0,0,0,0,0,0,0,0,0,0
2008,12,15,8,0,,2.4,-7.7,47,101430,0,0,248,31,16,15,2454,1489,2010,0,250,1.1,0,0,0,0,0,0,0,0,0,0,0,0,0
2008,12,15,9,0,,4.3,-5.7,48,101480,0,0,266,148,604,39,30420,58279,6020,0,340,1.6,2,0,0,0,0,0,0,0,0,0,0,0,0
2008,12,15,10,0,,6.7,-4.7,44,101540,0,0,277,297,717,60,43849,70516,8960,0,320,1.3,2,0,0,0,0,0,0,0,0,0,0,0,0
2008,12,15,11,0,,7.1,-4.9,42,101520,0,0,269,423,797,70,51395,78645,10370,0,360,3.5,0,0,0,0,0,0,0,0,0,0,0,0,0
2008,12,15,12,0,,8.3,-4.5,40,101470,0,0,274,470,732,98,50298,72139,14408,0,340,1.9,0,0,0,0,0,0,0,0,0,0,0,0,0
2008,12,15,13,0,,8,-4.8,40,101410,0,0,273,467,667,117,43101,62986,16395,0,290,3.5,0,0,0,0,0,0,0,0,0,0,0,0,0
2008,12,15,14,0,,9.1,-4.4,38,101380,0,0,278,444,702,100,32511,60599,13961,0,290,4.1,0,0,0,0,0,0,0,0,0,0,0,0,0
2008,12,15,15,0,,8.9,-4.6,38,101350,0,0,277,360,684,82,17276,42418,10833,0,290,4.4,0,0,0,0,0,0,0,0,0,0,0,0,0
2008,12,15,16,0,,9,-3.5,41,101400,0,0,278,242,664,56,0,0,0,0,290,2.9,0,0,0,0,0,0,0,0,0,0,0,0,0
2008,12,15,17,0,,7.6,-2.7,48,101440,0,0,273,93,65,28,0,0,0,0,290,4.2,0,0,0,0,0,0,0,0,0,0,0,0,0
2008,12,15,18,0,,6.8,-2.3,52,101510,0,0,270,0,0,0,0,0,0,0,360,2.9,0,0,0,0,0,0,0,0,0,0,0,0,0
2008,12,15,19,0,,6.4,-2.5,53,101550,0,0,269,0,0,0,0,0,0,0,340,3.4,0,0,0,0,0,0,0,0,0,0,0,0,0
2008,12,15,20,0,,6.5,-2.6,52,101570,0,0,269,0,0,0,0,0,0,0,360,4.8,0,0,0,0,0,0,0,0,0,0,0,0,0
2008,12,15,21,0,,6.5,-3.4,49,101590,0,0,268,0,0,0,0,0,0,0,340,4.8,0,0,0,0,0,0,0,0,0,0,0,0,0
2008,12,15,22,0,,6.3,-3.3,50,101610,0,0,267,0,0,0,0,0,0,0,340,5.3,0,0,0,0,0,0,0,0,0,0,0,0,0
2008,12,15,23,0,,6,-3.1,52,101640,0,0,266,0,0,0,0,0,0,0,360,3.6,0,0,0,0,0,0,0,0,0,0,0,0,0
2008,12,15,24,0,,5.5,-3,54,101630,0,0,265,0,0,0,0,0,0,0,360,5.4,0,0,0,0,0,0,0,0,0,0,0,0,0
2008,12,16,1,0,,5.3,-3.2,54,101590,0,0,264,0,0,0,0,0,0,0,340,3.7,0,0,0,0,0,0,0,0,0,0,0,0,0
2008,12,16,2,0,,5.3,-3.2,54,101610,0,0,264,0,0,0,0,0,0,0,340,4.4,0,0,0,0,0,0,0,0,0,0,0,0,0
2008,12,16,3,0,,4.8,-3.4,55,101600,0,0,262,0,0,0,0,0,0,0,340,3.1,0,0,0,0,0,0,0,0,0,0,0,0,0
2008,12,16,4,0,,4.6,-3.6,55,101590,0,0,261,0,0,0,0,0,0,0,360,5.2,0,0,0,0,0,0,0,0,0,0,0,0,0
2008,12,16,5,0,,4.7,-4,53,101590,0,0,261,0,0,0,0,0,0,0,360,5.6,0,0,0,0,0,0,0,0,0,0,0,0,0
2008,12,16,6,0,,4.3,-4.2,54,101590,0,0,259,0,0,0,0,0,0,0,360,6.4,0,0,0,0,0,0,0,0,0,0,0,0,0
2008,12,16,7,0,,4.3,-4.4,53,101660,0,0,259,0,0,0,0,0,0,0,340,3.3,0,0,0,0,0,0,0,0,0,0,0,0,0
2008,12,16,8,0,,5,-5.9,45,101670,0,0,260,33,20,13,2462,1788,1931,0,360,4.5,0,0,0,0,0,0,0,0,0,0,0,0,0
2008,12,16,9,0,,6.6,-6.3,39,101680,0,0,266,156,696,32,33018,67107,5015,0,360,3,0,0,0,0,0,0,0,0,0,0,0,0,0
2008,12,16,10,0,,8.6,-6.7,33,101700,0,0,273,304,762,54,45032,74842,8080,0,320,1.5,0,0,0,0,0,0,0,0,0,0,0,0,0
2008,12,16,11,0,,9.6,-6.3,32,101640,0,0,278,420,792,71,51157,78174,10426,0,360,2.6,0,0,0,0,0,0,0,0,0,0,0,0,0
2008,12,16,12,0,,10.2,-6.2,31,101540,0,0,280,485,786,86,51023,77378,12541,0,320,3.9,0,0,0,0,0,0,0,0,0,0,0,0,0
2008,12,16,13,0,,11.8,-4.3,32,101460,0,0,289,496,766,94,44825,73115,13808,0,270,3.6,0,0,0,0,0,0,0,0,0,0,0,0,0
2008,12,16,14,0,,12.7,-4,31,101390,0,0,293,464,774,85,32982,67567,12259,0,270,3.7,0,0,0,0,0,0,0,0,0,0,0,0,0
2008,12,16,15,0,,12.2,-1.7,38,101380,0,0,293,369,719,76,17164,45186,10260,0,270,3.5,0,0,0,0,0,0,0,0,0,0,0,0,0
2008,12,16,16,0,,11.5,-0.9,42,101390,0,0,291,240,652,57,0,0,0,0,250,4,0,0,0,0,0,0,0,0,0,0,0,0,0
2008,12,16,17,0,,9.7,-0.2,50,101400,0,0,284,85,52,34,0,0,0,0,250,2.7,0,0,0,0,0,0,0,0,0,0,0,0,0
2008,12,16,18,0,,8.8,0.2,55,101430,0,0,281,0,0,0,0,0,0,0,230,2.2,0,0,0,0,0,0,0,0,0,0,0,0,0
2008,12,16,19,0,,8.2,0.6,59,101450,0,0,279,0,0,0,0,0,0,0,270,1.6,0,0,0,0,0,0,0,0,0,0,0,0,0
2008,12,16,20,0,,7.9,1,62,101440,0,0,278,0,0,0,0,0,0,0,290,1.7,0,0,0,0,0,0,0,0,0,0,0,0,0
2008,12,16,21,0,,7.4,0.3,61,101450,0,0,275,0,0,0,0,0,0,0,320,2.1,0,0,0,0,0,0,0,0,0,0,0,0,0
2008,12,16,22,0,,6.9,0.3,63,101450,0,0,273,0,0,0,0,0,0,0,290,2.3,0,0,0,0,0,0,0,0,0,0,0,0,0
2008,12,16,23,0,,7,-0.2,60,101470,0,0,273,0,0,0,0,0,0,0,290,1,0,0,0,0,0,0,0,0,0,0,0,0,0
2008,12,16,24,0,,6.9,-0.5,59,101430,0,0,272,0,0,0,0,0,0,0,270,2.6,0,0,0,0,0,0,0,0,0,0,0,0,0
2008,12,17,1,0,,7.4,0.3,61,101420,0,0,275,0,0,0,0,0,0,0,270,3.6,0,0,0,0,0,0,0,0,0,0,0,0,0
2008,12,17,2,0,,6.9,-0.5,59,101410,0,0,272,0,0,0,0,0,0,0,270,3.7,0,0,0,0,0,0,0,0,0,0,0,0,0
2008,12,17,3,0,,6.7,0.1,63,101390,0,0,272,0,0,0,0,0,0,0,270,5,0,0,0,0,0,0,0,0,0,0,0,0,0
2008,12,17,4,0,,6.5,-0.4,61,101370,0,0,271,0,0,0,0,0,0,0,250,4.7,0,0,0,0,0,0,0,0,0,0,0,0,0
2008,12,17,5,0,,7.2,0.8,64,101330,0,0,275,0,0,0,0,0,0,0,250,3.7,0,0,0,0,0,0,0,0,0,0,0,0,0
2008,12,17,6,0,,6.3,-1.6,57,101300,0,0,269,0,0,0,0,0,0,0,320,4.1,0,0,0,0,0,0,0,0,0,0,0,0,0
2008,12,17,7,0,,6.1,-1.5,58,101280,0,0,268,0,0,0,0,0,0,0,110,2.1,0,0,0,0,0,0,0,0,0,0,0,0,0
2008,12,17,8,0,,5.9,-1.7,58,101300,0,0,267,28,13,16,2437,1114,2108,0,160,1.8,0,0,0,0,0,0,0,0,0,0,0,0,0
2008,12,17,9,0,,7.4,-1.3,54,101280,0,0,274,146,621,37,30717,60061,5731,0,340,4,0,0,0,0,0,0,0,0,0,0,0,0,0
2008,12,17,10,0,,9.7,-1,47,101300,0,0,283,288,691,63,43368,68842,9441,0,270,1.3,0,0,0,0,0,0,0,0,0,0,0,0,0
2008,12,17,11,0,,11.8,0,44,101260,0,0,293,410,760,76,50736,75857,11250,0,250,1.6,0,0,0,0,0,0,0,0,0,0,0,0,0
2008,12,17,12,0,,13,1,44,101170,0,0,299,491,810,81,51748,80149,11894,0,250,4.5,0,0,0,0,0,0,0,0,0,0,0,0,0
2008,12,17,13,0,,13.2,2.1,47,101060,0,0,301,494,761,95,44735,72271,14052,0,250,5.1,0,0,0,0,0,0,0,0,0,0,0,0,0
2008,12,17,14,0,,13.8,3.5,50,101010,0,0,305,440,690,102,32595,59171,14406,0,250,5.2,0,0,0,0,0,0,0,0,0,0,0,0,0
2008,12,17,15,0,,13.7,4,52,100970,0,0,305,358,672,84,17599,41434,11227,0,230,5.6,0,0,0,0,0,0,0,0,0,0,0,0,0
2008,12,17,16,0,,13.7,3.1,49,100950,0,0,304,243,666,56,0,0,0,0,250,5.3,0,0,0,0,0,0,0,0,0,0,0,0,0
2008,12,17,17,0,,12.2,3.1,54,100960,0,0,298,92,62,30,0,0,0,0,270,4.7,0,0,0,0,0,0,0,0,0,0,0,0,0
2008,12,17,18,0,,11.3,3.8,60,100960,0,0,308,0,0,0,0,0,0,0,270,3.8,3,0,0,0,0,0,0,0,0,0,0,0,0
2008,12,17,19,0,,11.2,4.4,63,100930,0,0,305,0,0,0,0,0,0,0,270,5.1,2,0,0,0,0,0,0,0,0,0,0,0,0
2008,12,17,20,0,,10.8,4.9,67,100920,0,0,300,0,0,0,0,0,0,0,250,3.7,1,0,0,0,0,0,0,0,0,0,0,0,0
2008,12,17,21,0,,10.8,5.7,71,100910,0,0,295,0,0,0,0,0,0,0,270,4.8,0,0,0,0,0,0,0,0,0,0,0,0,0
2008,12,17,22,0,,10.3,5.6,73,100850,0,0,293,0,0,0,0,0,0,0,270,3.8,0,0,0,0,0,0,0,0,0,0,0,0,0
2008,12,17,23,0,,9.9,6.6,80,100850,0,0,292,0,0,0,0,0,0,0,270,4.1,0,0,0,0,0,0,0,0,0,0,0,0,0
2008,12,17,24,0,,10,4.1,67,100820,0,0,290,0,0,0,0,0,0,0,270,5.6,0,0,0,0,0,0,0,0,0,0,0,0,0
2008,12,18,1,0,,9.6,2.2,60,100810,0,0,286,0,0,0,0,0,0,0,290,6.1,0,0,0,0,0,0,0,0,0,0,0,0,0
2008,12,18,2,0,,8.6,0,55,100820,0,0,280,0,0,0,0,0,0,0,20,3,0,0,0,0,0,0,0,0,0,0,0,0,0
2008,12,18,3,0,,7.9,-2.1,49,100840,0,0,275,0,0,0,0,0,0,0,110,2.4,0,0,0,0,0,0,0,0,0,0,0,0,0
2008,12,18,4,0,,6.9,-3.6,47,100950,0,0,270,0,0,0,0,0,0,0,20,5.5,0,0,0,0,0,0,0,0,0,0,0,0,0
2008,12,18,5,0,,5.9,-5.1,45,100970,0,0,264,0,0,0,0,0,0,0,140,2.1,0,0,0,0,0,0,0,0,0,0,0,0,0
2008,12,18,6,0,,5.1,-5.8,45,101000,0,0,261,0,0,0,0,0,0,0,180,1.5,0,0,0,0,0,0,0,0,0,0,0,0,0
2008,12,18,7,0,,4.8,-6.1,45,101090,0,0,259,0,0,0,0,0,0,0,360,2.3,0,0,0,0,0,0,0,0,0,0,0,0,0
2008,12,18,8,0,,4.8,-8.3,38,101170,0,0,257,29,15,14,2296,1363,1895,0,90,1.5,0,0,0,0,0,0,0,0,0,0,0,0,0
2008,12,18,9,0,,5.8,-8.5,35,101230,0,0,261,145,626,36,30624,60263,5625,0,320,1.4,0,0,0,0,0,0,0,0,0,0,0,0,0
2008,12,18,10,0,,6.7,-9.2,31,101310,0,0,264,290,709,60,43154,69463,8976,0,360,2.3,0,0,0,0,0,0,0,0,0,0,0,0,0
2008,12,18,11,0,,7.6,-9.7,28,101310,0,0,267,414,780,72,51124,77767,10674,0,270,4.1,0,0,0,0,0,0,0,0,0,0,0,0,0
2008,12,18,12,0,,7.9,-12,23,101250,0,0,266,481,779,87,50717,76588,12631,0,290,4,0,0,0,0,0,0,0,0,0,0,0,0,0
2008,12,18,13,0,,9.7,-12.8,19,101160,0,0,272,505,801,86,45164,76437,12678,0,320,3.7,0,0,0,0,0,0,0,0,0,0,0,0,0
2008,12,18,14,0,,10.5,-14.3,16,101160,0,0,273,477,821,75,33736,72734,11318,0,290,4.1,0,0,0,0,0,0,0,0,0,0,0,0,0
2008,12,18,15,0,,11.1,-14.6,15,101150,0,0,274,394,820,60,16738,54023,8371,0,320,2.8,0,0,0,0,0,0,0,0,0,0,0,0,0
2008,12,18,16,0,,10.6,-15,15,101170,0,0,272,259,760,45,0,0,0,0,320,2.9,0,0,0,0,0,0,0,0,0,0,0,0,0
2008,12,18,17,0,,8.6,-14.4,18,101220,0,0,266,99,72,26,0,0,0,0,340,3,0,0,0,0,0,0,0,0,0,0,0,0,0
2008,12,18,18,0,,7.9,-14.3,19,101300,0,0,264,0,0,0,0,0,0,0,320,3.3,0,0,0,0,0,0,0,0,0,0,0,0,0
2008,12,18,19,0,,7.1,-15,19,101330,0,0,260,0,0,0,0,0,0,0,320,3.1,0,0,0,0,0,0,0,0,0,0,0,0,0
2008,12,18,20,0,,6.2,-13.9,22,101340,0,0,258,0,0,0,0,0,0,0,340,2.4,0,0,0,0,0,0,0,0,0,0,0,0,0
2008,12,18,21,0,,5.7,-13.3,24,101370,0,0,256,0,0,0,0,0,0,0,200,2.5,0,0,0,0,0,0,0,0,0,0,0,0,0
2008,12,18,22,0,,5.4,-12.6,26,101380,0,0,256,0,0,0,0,0,0,0,320,3,0,0,0,0,0,0,0,0,0,0,0,0,0
2008,12,18,23,0,,5,-12.9,26,101370,0,0,254,0,0,0,0,0,0,0,320,3.6,0,0,0,0,0,0,0,0,0,0,0,0,0
2008,12,18,24,0,,4.5,-12.9,27,101360,0,0,252,0,0,0,0,0,0,0,70,1.2,0,0,0,0,0,0,0,0,0,0,0,0,0
2008,12,19,1,0,,3.4,-12.9,29,101330,0,0,248,0,0,0,0,0,0,0,290,2.7,0,0,0,0,0,0,0,0,0,0,0,0,0
2008,12,19,2,0,,2.7,-12.7,31,101340,0,0,245,0,0,0,0,0,0,0,290,3.8,0,0,0,0,0,0,0,0,0,0,0,0,0
2008,12,19,3,0,,2.9,-14.3,27,101340,0,0,245,0,0,0,0,0,0,0,270,1.5,0,0,0,0,0,0,0,0,0,0,0,0,0
2008,12,19,4,0,,3.1,-14.5,26,101330,0,0,246,0,0,0,0,0,0,0,320,3.1,0,0,0,0,0,0,0,0,0,0,0,0,0
2008,12,19,5,0,,3.7,-16.6,21,101360,0,0,246,0,0,0,0,0,0,0,340,5.2,0,0,0,0,0,0,0,0,0,0,0,0,0
2008,12,19,6,0,,3,-14.6,26,101340,0,0,245,0,0,0,0,0,0,0,360,4.2,0,0,0,0,0,0,0,0,0,0,0,0,0
2008,12,19,7,0,,3.6,-16.7,21,101350,0,0,246,0,0,0,0,0,0,0,340,5.3,0,0,0,0,0,0,0,0,0,0,0,0,0
2008,12,19,8,0,,3.3,-13.9,27,101350,0,0,247,30,17,13,2210,1526,1763,0,290,0.8,0,0,0,0,0,0,0,0,0,0,0,0,0
2008,12,19,9,0,,4.4,-15.5,22,101410,0,0,250,157,753,27,34229,72339,4299,0,320,4.3,0,0,0,0,0,0,0,0,0,0,0,0,0
2008,12,19,10,0,,5.6,-13.9,23,101440,0,0,255,301,772,52,44913,75606,7766,0,320,3.3,0,0,0,0,0,0,0,0,0,0,0,0,0
2008,12,19,11,0,,7.7,-14.5,19,101430,0,0,263,426,830,64,51830,81587,9416,0,340,2,0,0,0,0,0,0,0,0,0,0,0,0,0
2008,12,19,12,0,,9.5,-15.1,16,101360,0,0,268,516,897,63,53002,87822,9317,0,250,4.7,0,0,0,0,0,0,0,0,0,0,0,0,0
2008,12,19,13,0,,10.3,-11.1,21,101280,0,0,276,525,865,72,46273,83379,10790,0,230,3.7,0,0,0,0,0,0,0,0,0,0,0,0,0
2008,12,19,14,0,,11.3,-8,25,101220,0,0,283,481,833,73,33932,74181,11001,0,250,5.7,0,0,0,0,0,0,0,0,0,0,0,0,0
2008,12,19,15,0,,11.5,-8.4,24,101200,0,0,283,388,796,64,16998,52091,8868,0,250,5.3,0,0,0,0,0,0,0,0,0,0,0,0,0
2008,12,19,16,0,,11.5,-10.1,21,101230,0,0,281,261,766,45,0,0,0,0,270,4.4,0,0,0,0,0,0,0,0,0,0,0,0,0
2008,12,19,17,0,,9.2,-10.9,23,101200,0,0,272,101,75,26,0,0,0,0,270,4,0,0,0,0,0,0,0,0,0,0,0,0,0
2008,12,19,18,0,,8,-9.9,27,101250,0,0,268,0,0,0,0,0,0,0,270,3.4,0,0,0,0,0,0,0,0,0,0,0,0,0
2008,12,19,19,0,,7.6,-8,32,101310,0,0,268,0,0,0,0,0,0,0,290,2.5,0,0,0,0,0,0,0,0,0,0,0,0,0
2008,12,19,20,0,,7.2,-3.9,45,101360,0,0,270,0,0,0,0,0,0,0,270,4.2,0,0,0,0,0,0,0,0,0,0,0,0,0
2008,12,19,21,0,,7,-3.5,47,101360,0,0,270,0,0,0,0,0,0,0,250,3.8,0,0,0,0,0,0,0,0,0,0,0,0,0
2008,12,19,22,0,,7.3,-2.4,50,101350,0,0,272,0,0,0,0,0,0,0,270,4,0,0,0,0,0,0,0,0,0,0,0,0,0
2008,12,19,23,0,,7,-2.4,51,101320,0,0,271,0,0,0,0,0,0,0,270,2.8,0,0,0,0,0,0,0,0,0,0,0,0,0
2008,12,19,24,0,,7.1,-1.5,54,101270,0,0,272,0,0,0,0,0,0,0,270,4.6,0,0,0,0,0,0,0,0,0,0,0,0,0
2008,12,20,1,0,,7.3,-0.6,57,101240,0,0,274,0,0,0,0,0,0,0,270,5.1,0,0,0,0,0,0,0,0,0,0,0,0,0
2008,12,20,2,0,,8.1,0.3,58,101220,0,0,278,0,0,0,0,0,0,0,270,5.5,0,0,0,0,0,0,0,0,0,0,0,0,0
2008,12,20,3,0,,8.1,1.9,65,101220,0,0,280,0,0,0,0,0,0,0,250,4.8,0,0,0,0,0,0,0,0,0,0,0,0,0
2008,12,20,4,0,,8.7,2.9,67,101190,0,0,283,0,0,0,0,0,0,0,270,5.6,0,0,0,0,0,0,0,0,0,0,0,0,0
2008,12,20,5,0,,9.1,2.8,65,101200,0,0,285,0,0,0,0,0,0,0,270,4.2,0,0,0,0,0,0,0,0,0,0,0,0,0
2008,12,20,6,0,,9.2,3.3,67,101170,0,0,298,0,0,0,0,0,0,0,270,3.8,3,0,0,0,0,0,0,0,0,0,0,0,0
2008,12,20,7,0,,9.7,4,68,101170,0,0,288,0,0,0,0,0,0,0,250,5.1,0,0,0,0,0,0,0,0,0,0,0,0,0
2008,12,20,8,0,,10.9,5,67,101160,0,0,294,30,17,12,2145,1504,1707,0,250,5.9,0,0,0,0,0,0,0,0,0,0,0,0,0
2008,12,20,9,0,,12.5,5.1,61,101150,0,0,322,122,427,49,25188,41112,8217,0,250,6,6,0,0,0,0,0,0,0,0,0,0,0,0
2008,12,20,10,0,,14.1,7.1,63,101100,0,0,341,202,288,109,28824,27222,15465,0,250,8.2,8,0,0,0,0,0,0,0,0,0,0,0,0
2008,12,20,11,0,,14,7.7,66,101140,0,0,358,165,58,140,18955,5375,16161,0,270,4.3,10,0,0,0,0,0,0,0,0,0,0,0,0
2008,12,20,12,0,,13.2,8.6,74,101100,0,0,356,173,41,152,19469,3815,17570,0,270,5,10,0,0,0,0,0,0,0,0,0,0,0,0
2008,12,20,13,0,,13.8,8.4,70,101000,0,0,336,324,215,212,33007,19682,24618,0,270,7.1,7,0,0,0,0,0,0,0,0,0,0,0,0
2008,12,20,14,0,,14,9.4,74,100950,0,0,361,147,28,133,15884,2443,15126,0,270,3.1,10,0,0,0,0,0,0,0,0,0,0,0,0
2008,12,20,15,0,,14.3,9.3,72,100960,0,0,352,164,71,135,15892,5208,15072,0,290,1.1,9,0,0,0,0,0,0,0,0,0,0,0,0
2008,12,20,16,0,,13.2,8.6,74,100990,0,0,346,108,69,88,0,0,0,0,340,2.5,9,0,0,0,0,0,0,0,0,0,0,0,0
2008,12,20,17,0,,11.7,7.9,78,101050,0,0,338,37,5,32,0,0,0,0,320,2.2,9,0,0,0,0,0,0,0,0,0,0,0,0
2008,12,20,18,0,,11.1,7.4,78,101110,0,0,327,0,0,0,0,0,0,0,340,1.4,8,0,0,0,0,0,0,0,0,0,0,0,0
2008,12,20,19,0,,11.5,7.7,78,101120,0,0,332,0,0,0,0,0,0,0,90,0.8,8,0,0,0,0,0,0,0,0,0,0,0,0
2008,12,20,20,0,,11,7.4,79,101210,0,0,331,0,0,0,0,0,0,0,20,1.1,9,0,0,0,0,0,0,0,0,0,0,0,0
2008,12,20,21,0,,11,7.2,77,101200,0,0,334,0,0,0,0,0,0,0,110,0.7,9,0,0,0,0,0,0,0,0,0,0,0,0
2008,12,20,22,0,,10.6,6.7,77,101190,0,0,336,0,0,0,0,0,0,0,0,0.4,10,0,0,0,0,0,0,0,0,0,0,0,0
2008,12,20,23,0,,9.5,5.8,78,101240,0,0,334,0,0,0,0,0,0,0,340,1.5,10,0,0,0,0,0,0,0,0,0,0,0,0
2008,12,20,24,0,,9.7,5.4,75,101180,0,0,335,0,0,0,0,0,0,0,50,3.1,10,0,0,0,0,0,0,0,0,0,0,0,0
2008,12,21,1,0,,9.4,4.5,72,101130,0,0,332,0,0,0,0,0,0,0,20,3.3,10,0,0,0,0,0,0,0,0,0,0,0,0
2008,12,21,2,0,,9.7,5,73,101130,0,0,334,0,0,0,0,0,0,0,50,2.9,10,0,0,0,0,0,0,0,0,0,0,0,0
2008,12,21,3,0,,9.6,5.5,76,101160,0,0,334,0,0,0,0,0,0,0,20,2.4,10,0,0,0,0,0,0,0,0,0,0,0,0
2008,12,21,4,0,,9.4,5.5,77,101080,0,0,333,0,0,0,0,0,0,0,90,1.1,10,0,0,0,0,0,0,0,0,0,0,0,0
2008,12,21,5,0,,9.5,5,74,101060,0,0,333,0,0,0,0,0,0,0,50,1.2,10,0,0,0,0,0,0,0,0,0,0,0,0
2008,12,21,6,0,,8,4,76,101130,0,0,325,0,0,0,0,0,0,0,340,5,10,0,0,0,0,0,0,0,0,0,0,0,0
2008,12,21,7,0,,7.8,3.8,76,101080,0,0,324,0,0,0,0,0,0,0,340,1.2,10,0,0,0,0,0,0,0,0,0,0,0,0
2008,12,21,8,0,,7.6,3.6,76,101110,0,0,323,3,0,3,432,0,432,0,360,1.3,10,0,0,0,0,0,0,0,0,0,0,0,0
2008,12,21,9,0,,6.2,3.1,81,101220,0,0,316,43,24,39,5989,2338,5026,0,340,6.3,10,0,0,0,0,0,0,0,0,0,0,0,0
2008,12,21,10,0,,5.7,3.6,87,101320,0,0,314,70,14,65,8330,1262,7712,0,360,3.2,10,0,0,0,0,0,0,0,0,0,0,0,0
2008,12,21,11,0,,6.4,5,91,101230,0,0,319,106,17,99,12328,1569,11512,0,20,1.3,10,0,0,0,0,0,0,0,0,0,0,0,0
2008,12,21,12,0,,4.6,3.5,93,101200,0,0,310,137,22,126,15619,2030,14608,0,340,6.8,10,0,0,0,0,0,0,0,0,0,0,0,0
2008,12,21,13,0,,5,3.9,93,101090,0,0,312,142,21,131,15668,1347,15093,0,340,4.2,10,0,0,0,0,0,0,0,0,0,0,0,0
2008,12,21,14,0,,4.4,3.2,92,101120,0,0,308,106,12,101,11626,604,11438,0,70,2.3,10,0,0,0,0,0,0,0,0,0,0,0,0
2008,12,21,15,0,,4.4,3,91,101160,0,0,308,100,17,93,9990,594,9896,0,230,1.1,10,0,0,0,0,0,0,0,0,0,0,0,0
2008,12,21,16,0,,4,2.8,92,101220,0,0,306,63,15,59,0,0,0,0,230,2.1,10,0,0,0,0,0,0,0,0,0,0,0,0
2008,12,21,17,0,,3.4,2.3,93,101220,0,0,303,25,2,23,0,0,0,0,360,3,10,0,0,0,0,0,0,0,0,0,0,0,0
2008,12,21,18,0,,3.7,2.6,93,101280,0,0,305,0,0,0,0,0,0,0,360,2.5,10,0,0,0,0,0,0,0,0,0,0,0,0
2008,12,21,19,0,,3.6,1.9,89,101330,0,0,303,0,0,0,0,0,0,0,290,1.9,10,0,0,0,0,0,0,0,0,0,0,0,0
2008,12,21,20,0,,3.5,1.6,88,101360,0,0,302,0,0,0,0,0,0,0,290,2.2,10,0,0,0,0,0,0,0,0,0,0,0,0
2008,12,21,21,0,,3.6,1.6,87,101310,0,0,303,0,0,0,0,0,0,0,160,1.3,10,0,0,0,0,0,0,0,0,0,0,0,0
2008,12,21,22,0,,3.6,1.4,86,101330,0,0,290,0,0,0,0,0,0,0,140,1.5,8,0,0,0,0,0,0,0,0,0,0,0,0
2008,12,21,23,0,,3.6,1.1,84,101340,0,0,282,0,0,0,0,0,0,0,250,1.9,7,0,0,0,0,0,0,0,0,0,0,0,0
2008,12,21,24,0,,3.4,0.2,80,101340,0,0,275,0,0,0,0,0,0,0,90,1.5,5,0,0,0,0,0,0,0,0,0,0,0,0
2008,12,22,1,0,,3.1,-0.7,76,101320,0,0,270,0,0,0,0,0,0,0,180,2.1,3,0,0,0,0,0,0,0,0,0,0,0,0
2008,12,22,2,0,,2.4,-1.4,76,101330,0,0,262,0,0,0,0,0,0,0,360,3.6,2,0,0,0,0,0,0,0,0,0,0,0,0
2008,12,22,3,0,,1.8,-1.4,79,101360,0,0,253,0,0,0,0,0,0,0,360,5.8,0,0,0,0,0,0,0,0,0,0,0,0,0
2008,12,22,4,0,,1.4,-2.5,75,101390,0,0,250,0,0,0,0,0,0,0,360,5.1,0,0,0,0,0,0,0,0,0,0,0,0,0
2008,12,22,5,0,,1.1,-3.2,73,101410,0,0,248,0,0,0,0,0,0,0,360,6.8,0,0,0,0,0,0,0,0,0,0,0,0,0
2008,12,22,6,0,,0.8,-4.8,66,101520,0,0,245,0,0,0,0,0,0,0,360,5,0,0,0,0,0,0,0,0,0,0,0,0,0
2008,12,22,7,0,,0.3,-6.1,62,101600,0,0,242,0,0,0,0,0,0,0,360,6,0,0,0,0,0,0,0,0,0,0,0,0,0
2008,12,22,8,0,,0.1,-6.7,60,101680,0,0,253,23,11,12,1853,996,1565,0,360,3,4,0,0,0,0,0,0,0,0,0,0,0,0
2008,12,22,9,0,,0.3,-7,58,101550,0,0,241,139,610,36,29692,58635,5584,0,290,5.3,0,0,0,0,0,0,0,0,0,0,0,0,0
2008,12,22,10,0,,0.3,-8.9,50,101620,0,0,239,284,702,60,42594,68701,8937,0,360,8,0,0,0,0,0,0,0,0,0,0,0,0,0
2008,12,22,11,0,,0.9,-10.5,42,101660,0,0,240,397,727,81,49299,72143,11805,0,360,6.3,0,0,0,0,0,0,0,0,0,0,0,0,0
2008,12,22,12,0,,1.7,-11.1,38,101620,0,0,243,460,715,100,49810,70625,14600,0,360,5.4,0,0,0,0,0,0,0,0,0,0,0,0,0
2008,12,22,13,0,,2.6,-12,33,101610,0,0,245,491,756,96,44962,72557,13916,0,340,4.7,0,0,0,0,0,0,0,0,0,0,0,0,0
2008,12,22,14,0,,3.5,-13.3,28,101560,0,0,248,459,754,89,33406,66408,12654,0,360,3.5,0,0,0,0,0,0,0,0,0,0,0,0,0
2008,12,22,15,0,,3.6,-13.2,28,101590,0,0,248,382,763,70,17571,50284,9513,0,340,4.6,0,0,0,0,0,0,0,0,0,0,0,0,0
2008,12,22,16,0,,3.4,-12.9,29,101640,0,0,248,259,738,48,0,0,0,0,340,4.9,0,0,0,0,0,0,0,0,0,0,0,0,0
2008,12,22,17,0,,2.5,-13.7,29,101640,0,0,244,106,81,25,0,0,0,0,340,4.1,0,0,0,0,0,0,0,0,0,0,0,0,0
2008,12,22,18,0,,1.9,-13.8,30,101680,0,0,241,0,0,0,0,0,0,0,340,5.2,0,0,0,0,0,0,0,0,0,0,0,0,0
2008,12,22,19,0,,1.7,-15.3,27,101720,0,0,240,0,0,0,0,0,0,0,360,6.8,0,0,0,0,0,0,0,0,0,0,0,0,0
2008,12,22,20,0,,1.3,-15.2,28,101740,0,0,238,0,0,0,0,0,0,0,360,7.2,0,0,0,0,0,0,0,0,0,0,0,0,0
2008,12,22,21,0,,0.7,-14.5,31,101760,0,0,236,0,0,0,0,0,0,0,340,3.6,0,0,0,0,0,0,0,0,0,0,0,0,0
2008,12,22,22,0,,0.3,-13.7,34,101760,0,0,235,0,0,0,0,0,0,0,90,3.3,0,0,0,0,0,0,0,0,0,0,0,0,0
2008,12,22,23,0,,-0.2,-13.1,37,101750,0,0,236,0,0,0,0,0,0,0,50,3.5,0,0,0,0,0,0,0,0,0,0,0,0,0
2008,12,22,24,0,,-0.7,-12.9,39,101790,0,0,234,0,0,0,0,0,0,0,160,4.4,0,0,0,0,0,0,0,0,0,0,0,0,0
2008,12,23,1,0,,-0.9,-11.9,43,101780,0,0,234,0,0,0,0,0,0,0,340,4.9,0,0,0,0,0,0,0,0,0,0,0,0,0
2008,12,23,2,0,,-0.8,-11,46,101780,0,0,235,0,0,0,0,0,0,0,360,1.7,0,0,0,0,0,0,0,0,0,0,0,0,0
2008,12,23,3,0,,-0.6,-10.2,48,101800,0,0,236,0,0,0,0,0,0,0,160,0.9,0,0,0,0,0,0,0,0,0,0,0,0,0
2008,12,23,4,0,,-0.4,-9,52,101790,0,0,238,0,0,0,0,0,0,0,320,1.9,0,0,0,0,0,0,0,0,0,0,0,0,0
2008,12,23,5,0,,-0.5,-8.6,54,101830,0,0,238,0,0,0,0,0,0,0,20,1.1,0,0,0,0,0,0,0,0,0,0,0,0,0
2008,12,23,6,0,,-0.7,-8.6,55,101820,0,0,237,0,0,0,0,0,0,0,360,1.1,0,0,0,0,0,0,0,0,0,0,0,0,0
2008,12,23,7,0,,-0.8,-7.8,59,101900,0,0,237,0,0,0,0,0,0,0,320,1,0,0,0,0,0,0,0,0,0,0,0,0,0
2008,12,23,8,0,,-0.3,-7.8,57,101960,0,0,239,25,10,14,1974,879,1721,0,0,0.2,0,0,0,0,0,0,0,0,0,0,0,0,0
2008,12,23,9,0,,1.1,-7.6,52,101990,0,0,243,137,606,36,29476,58200,5584,0,230,1.1,0,0,0,0,0,0,0,0,0,0,0,0,0
2008,12,23,10,0,,3,-7.2,47,102020,0,0,251,287,722,57,43200,70782,8541,0,230,3,0,0,0,0,0,0,0,0,0,0,0,0,0
2008,12,23,11,0,,4.3,-6.9,44,102000,0,0,256,417,808,67,51252,79627,9854,0,250,4.4,0,0,0,0,0,0,0,0,0,0,0,0,0
2008,12,23,12,0,,5.7,-7.2,39,101910,0,0,261,475,767,89,50544,75369,12923,0,270,2.5,0,0,0,0,0,0,0,0,0,0,0,0,0
2008,12,23,13,0,,5.4,-7.1,40,101830,0,0,260,484,732,101,44587,69890,14613,0,320,3.5,0,0,0,0,0,0,0,0,0,0,0,0,0
2008,12,23,14,0,,6.8,-6.9,37,101780,0,0,266,444,700,100,33181,61095,14008,0,320,2.4,0,0,0,0,0,0,0,0,0,0,0,0,0
2008,12,23,15,0,,6.3,-7,38,101750,0,0,264,356,651,89,18316,41620,11581,0,340,2.2,0,0,0,0,0,0,0,0,0,0,0,0,0
2008,12,23,16,0,,6.2,-7,38,101730,0,0,264,246,656,58,0,0,0,0,360,2.3,0,0,0,0,0,0,0,0,0,0,0,0,0
2008,12,23,17,0,,5.1,-5.8,45,101760,0,0,260,97,65,32,0,0,0,0,360,2.1,0,0,0,0,0,0,0,0,0,0,0,0,0
2008,12,23,18,0,,4.4,-5.6,48,101800,0,0,258,0,0,0,0,0,0,0,340,1.7,0,0,0,0,0,0,0,0,0,0,0,0,0
2008,12,23,19,0,,4.1,-5.1,51,101800,0,0,257,0,0,0,0,0,0,0,340,0.7,0,0,0,0,0,0,0,0,0,0,0,0,0
2008,12,23,20,0,,3.4,-5,54,101800,0,0,255,0,0,0,0,0,0,0,340,2.2,0,0,0,0,0,0,0,0,0,0,0,0,0
2008,12,23,21,0,,3.3,-4.8,55,101780,0,0,254,0,0,0,0,0,0,0,290,1.3,0,0,0,0,0,0,0,0,0,0,0,0,0
2008,12,23,22,0,,3,-4.9,56,101760,0,0,253,0,0,0,0,0,0,0,340,2.7,0,0,0,0,0,0,0,0,0,0,0,0,0
2008,12,23,23,0,,2.5,-4.9,58,101770,0,0,251,0,0,0,0,0,0,0,320,2.9,0,0,0,0,0,0,0,0,0,0,0,0,0
2008,12,23,24,0,,2.3,-4.9,59,101700,0,0,251,0,0,0,0,0,0,0,320,2.5,0,0,0,0,0,0,0,0,0,0,0,0,0
2008,12,24,1,0,,1.8,-5.1,60,101680,0,0,252,0,0,0,0,0,0,0,290,1.7,1,0,0,0,0,0,0,0,0,0,0,0,0
2008,12,24,2,0,,2.4,-5,58,101600,0,0,257,0,0,0,0,0,0,0,50,1.1,1,0,0,0,0,0,0,0,0,0,0,0,0
2008,12,24,3,0,,2.7,-5.4,55,101610,0,0,260,0,0,0,0,0,0,0,360,2.3,2,0,0,0,0,0,0,0,0,0,0,0,0
2008,12,24,4,0,,2.3,-5.3,57,101570,0,0,265,0,0,0,0,0,0,0,320,1.9,5,0,0,0,0,0,0,0,0,0,0,0,0
2008,12,24,5,0,,2.1,-5,59,101540,0,0,267,0,0,0,0,0,0,0,320,3.4,6,0,0,0,0,0,0,0,0,0,0,0,0
2008,12,24,6,0,,2,-4.9,60,101550,0,0,264,0,0,0,0,0,0,0,110,0.8,5,0,0,0,0,0,0,0,0,0,0,0,0
2008,12,24,7,0,,2.2,-4.7,60,101520,0,0,271,0,0,0,0,0,0,0,360,2.7,7,0,0,0,0,0,0,0,0,0,0,0,0
2008,12,24,8,0,,2.2,-4.5,61,101490,0,0,275,13,2,11,1378,195,1322,0,360,4.2,8,0,0,0,0,0,0,0,0,0,0,0,0
2008,12,24,9,0,,2.4,-4.3,61,101480,0,0,276,83,172,54,14882,16330,8188,0,360,4.4,8,0,0,0,0,0,0,0,0,0,0,0,0
2008,12,24,10,0,,3.8,-4.6,54,101500,0,0,274,216,345,107,31186,33826,14628,0,360,2.3,6,0,0,0,0,0,0,0,0,0,0,0,0
2008,12,24,11,0,,5.7,-4.2,49,101430,0,0,290,258,214,166,30993,21634,19740,0,290,2.8,8,0,0,0,0,0,0,0,0,0,0,0,0
2008,12,24,12,0,,5.5,-4.1,50,101320,0,0,296,259,128,195,28822,12798,22424,0,320,3.3,9,0,0,0,0,0,0,0,0,0,0,0,0
2008,12,24,13,0,,6.6,-4.5,45,101200,0,0,300,265,120,202,28057,11596,23071,0,290,2,9,0,0,0,0,0,0,0,0,0,0,0,0
2008,12,24,14,0,,6.9,-3,49,101140,0,0,312,184,53,158,19268,4816,17750,0,270,3.3,10,0,0,0,0,0,0,0,0,0,0,0,0
2008,12,24,15,0,,6.5,-2.4,53,101080,0,0,311,154,58,130,15125,4461,14396,0,290,3.8,10,0,0,0,0,0,0,0,0,0,0,0,0
2008,12,24,16,0,,6.4,-1.5,57,101060,0,0,311,97,49,83,0,0,0,0,270,3.4,10,0,0,0,0,0,0,0,0,0,0,0,0
2008,12,24,17,0,,6.4,-1.5,57,101020,0,0,302,50,11,39,0,0,0,0,270,2.9,9,0,0,0,0,0,0,0,0,0,0,0,0
2008,12,24,18,0,,6.3,-1.1,59,101060,0,0,291,0,0,0,0,0,0,0,270,2.8,7,0,0,0,0,0,0,0,0,0,0,0,0
2008,12,24,19,0,,5.9,-1.5,59,101050,0,0,283,0,0,0,0,0,0,0,290,0.6,5,0,0,0,0,0,0,0,0,0,0,0,0
2008,12,24,20,0,,5.9,-0.8,62,101030,0,0,278,0,0,0,0,0,0,0,270,0.9,2,0,0,0,0,0,0,0,0,0,0,0,0
2008,12,24,21,0,,5.5,-0.3,66,101030,0,0,267,0,0,0,0,0,0,0,270,2.1,0,0,0,0,0,0,0,0,0,0,0,0,0
2008,12,24,22,0,,5.4,0,68,100960,0,0,267,0,0,0,0,0,0,0,250,3.6,0,0,0,0,0,0,0,0,0,0,0,0,0
2008,12,24,23,0,,5.4,-0.4,66,100890,0,0,267,0,0,0,0,0,0,0,250,4.1,0,0,0,0,0,0,0,0,0,0,0,0,0
2008,12,24,24,0,,5.2,-0.6,66,100850,0,0,266,0,0,0,0,0,0,0,250,4.1,0,0,0,0,0,0,0,0,0,0,0,0,0
2008,12,25,1,0,,5.3,-0.1,68,100780,0,0,267,0,0,0,0,0,0,0,270,5.3,0,0,0,0,0,0,0,0,0,0,0,0,0
2008,12,25,2,0,,5.7,-1,62,100790,0,0,267,0,0,0,0,0,0,0,290,4.8,0,0,0,0,0,0,0,0,0,0,0,0,0
2008,12,25,3,0,,5.1,-1.5,62,100770,0,0,265,0,0,0,0,0,0,0,270,2.6,0,0,0,0,0,0,0,0,0,0,0,0,0
2008,12,25,4,0,,4.3,-1.5,66,100720,0,0,262,0,0,0,0,0,0,0,270,4.2,0,0,0,0,0,0,0,0,0,0,0,0,0
2008,12,25,5,0,,4.5,-1.3,66,100700,0,0,262,0,0,0,0,0,0,0,270,6,0,0,0,0,0,0,0,0,0,0,0,0,0
2008,12,25,6,0,,4.4,-1.6,65,100690,0,0,262,0,0,0,0,0,0,0,270,4.9,0,0,0,0,0,0,0,0,0,0,0,0,0
2008,12,25,7,0,,4.5,-2.1,62,100730,0,0,262,0,0,0,0,0,0,0,270,5.4,0,0,0,0,0,0,0,0,0,0,0,0,0
2008,12,25,8,0,,4.6,-2.2,61,100750,0,0,262,25,12,13,2054,1060,1751,0,270,5.8,0,0,0,0,0,0,0,0,0,0,0,0,0
2008,12,25,9,0,,5.6,-5.4,45,100810,0,0,263,144,695,30,32049,66906,4649,0,270,6.6,0,0,0,0,0,0,0,0,0,0,0,0,0
2008,12,25,10,0,,6.5,-5.5,42,100860,0,0,266,287,732,55,43492,71865,8315,0,270,4.7,0,0,0,0,0,0,0,0,0,0,0,0,0
2008,12,25,11,0,,7.5,-4.9,41,100840,0,0,271,416,810,66,51416,79998,9771,0,270,7.2,0,0,0,0,0,0,0,0,0,0,0,0,0
2008,12,25,12,0,,7.2,-5.5,40,100810,0,0,274,460,717,100,49995,70668,14612,0,320,5,1,0,0,0,0,0,0,0,0,0,0,0,0
2008,12,25,13,0,,7.8,-6,37,100760,0,0,271,476,705,107,44323,67215,15341,0,290,5,0,0,0,0,0,0,0,0,0,0,0,0,0
2008,12,25,14,0,,7.8,-11,25,100810,0,0,266,447,708,99,33518,62133,13837,0,290,4.6,0,0,0,0,0,0,0,0,0,0,0,0,0
2008,12,25,15,0,,7.1,-12.6,23,100920,0,0,262,375,725,77,18252,48022,10316,0,340,4.6,0,0,0,0,0,0,0,0,0,0,0,0,0
2008,12,25,16,0,,6.8,-12.4,24,100980,0,0,261,250,664,58,0,0,0,0,290,3.2,0,0,0,0,0,0,0,0,0,0,0,0,0
2008,12,25,17,0,,5.3,-12.2,27,101060,0,0,256,104,75,30,0,0,0,0,340,2.5,0,0,0,0,0,0,0,0,0,0,0,0,0
2008,12,25,18,0,,4.4,-11.7,30,101170,0,0,253,9,3,6,0,0,0,0,360,3.4,0,0,0,0,0,0,0,0,0,0,0,0,0
2008,12,25,19,0,,3.5,-11.6,32,101280,0,0,249,0,0,0,0,0,0,0,360,4.1,0,0,0,0,0,0,0,0,0,0,0,0,0
2008,12,25,20,0,,2.6,-12.8,31,101380,0,0,245,0,0,0,0,0,0,0,340,3.1,0,0,0,0,0,0,0,0,0,0,0,0,0
2008,12,25,21,0,,1.9,-14.7,28,101430,0,0,241,0,0,0,0,0,0,0,320,2,0,0,0,0,0,0,0,0,0,0,0,0,0
2008,12,25,22,0,,1.2,-13.7,32,101500,0,0,239,0,0,0,0,0,0,0,340,2.6,0,0,0,0,0,0,0,0,0,0,0,0,0
2008,12,25,23,0,,0.9,-14.7,30,101510,0,0,237,0,0,0,0,0,0,0,290,4.1,0,0,0,0,0,0,0,0,0,0,0,0,0
2008,12,25,24,0,,0.3,-14.1,33,101590,0,0,235,0,0,0,0,0,0,0,290,4.5,0,0,0,0,0,0,0,0,0,0,0,0,0
2008,12,26,1,0,,0,-14,34,101610,0,0,234,0,0,0,0,0,0,0,270,2.8,0,0,0,0,0,0,0,0,0,0,0,0,0
2008,12,26,2,0,,-0.4,-13.3,37,101640,0,0,235,0,0,0,0,0,0,0,290,3.7,0,0,0,0,0,0,0,0,0,0,0,0,0
2008,12,26,3,0,,-1,-12.6,41,101670,0,0,233,0,0,0,0,0,0,0,290,2.6,0,0,0,0,0,0,0,0,0,0,0,0,0
2008,12,26,4,0,,-1.2,-13.4,39,101670,0,0,232,0,0,0,0,0,0,0,290,5.1,0,0,0,0,0,0,0,0,0,0,0,0,0
2008,12,26,5,0,,-1.6,-13.7,39,101620,0,0,230,0,0,0,0,0,0,0,290,5.3,0,0,0,0,0,0,0,0,0,0,0,0,0
2008,12,26,6,0,,-2.2,-14,40,101700,0,0,228,0,0,0,0,0,0,0,360,4.7,0,0,0,0,0,0,0,0,0,0,0,0,0
2008,12,26,7,0,,-2.3,-15.3,36,101770,0,0,227,0,0,0,0,0,0,0,20,5.5,0,0,0,0,0,0,0,0,0,0,0,0,0
2008,12,26,8,0,,-2.4,-14.8,38,101840,0,0,226,26,15,12,1957,1308,1584,0,360,5.1,0,0,0,0,0,0,0,0,0,0,0,0,0
2008,12,26,9,0,,-1.9,-15.3,35,101870,0,0,228,142,687,30,31649,65914,4677,0,360,4.7,0,0,0,0,0,0,0,0,0,0,0,0,0
2008,12,26,10,0,,-0.9,-16.3,30,101890,0,0,232,297,785,49,44982,76889,7339,0,360,7.2,0,0,0,0,0,0,0,0,0,0,0,0,0
2008,12,26,11,0,,0.1,-16.7,27,101860,0,0,233,419,824,63,51617,81020,9398,0,360,7.3,0,0,0,0,0,0,0,0,0,0,0,0,0
2008,12,26,12,0,,1.5,-16.4,25,101760,0,0,238,509,884,65,53038,86586,9604,0,360,8.8,0,0,0,0,0,0,0,0,0,0,0,0,0
2008,12,26,13,0,,2.8,-17.4,21,101650,0,0,243,538,906,64,47257,87066,9602,0,360,8,0,0,0,0,0,0,0,0,0,0,0,0,0
2008,12,26,14,0,,4.4,-17.2,19,101620,0,0,248,491,857,69,34945,77088,10401,0,360,3.7,0,0,0,0,0,0,0,0,0,0,0,0,0
2008,12,26,15,0,,5.2,-17.9,17,101680,0,0,251,407,850,56,18798,60885,8624,0,160,4.5,0,0,0,0,0,0,0,0,0,0,0,0,0
2008,12,26,16,0,,5.1,-18,17,101700,0,0,258,267,755,47,0,0,0,0,110,2.3,2,0,0,0,0,0,0,0,0,0,0,0,0
2008,12,26,17,0,,3.7,-19.1,17,101750,0,0,245,112,86,26,0,0,0,0,270,2.5,0,0,0,0,0,0,0,0,0,0,0,0,0
2008,12,26,18,0,,3.3,-20.2,16,101740,0,0,243,11,5,6,0,0,0,0,360,3.8,0,0,0,0,0,0,0,0,0,0,0,0,0
2008,12,26,19,0,,2.7,-19.3,18,101780,0,0,241,0,0,0,0,0,0,0,110,1.6,0,0,0,0,0,0,0,0,0,0,0,0,0
2008,12,26,20,0,,2.5,-20.8,16,101780,0,0,240,0,0,0,0,0,0,0,340,3,0,0,0,0,0,0,0,0,0,0,0,0,0
2008,12,26,21,0,,1.9,-20.6,17,101800,0,0,238,0,0,0,0,0,0,0,160,1.9,0,0,0,0,0,0,0,0,0,0,0,0,0
2008,12,26,22,0,,1.5,-20.9,17,101770,0,0,236,0,0,0,0,0,0,0,290,2.6,0,0,0,0,0,0,0,0,0,0,0,0,0
2008,12,26,23,0,,0.9,-20.1,19,101720,0,0,235,0,0,0,0,0,0,0,110,3,0,0,0,0,0,0,0,0,0,0,0,0,0
2008,12,26,24,0,,0.5,-20.5,19,101710,0,0,233,0,0,0,0,0,0,0,360,5.4,0,0,0,0,0,0,0,0,0,0,0,0,0
2008,12,27,1,0,,0.4,-21.2,18,101630,0,0,233,0,0,0,0,0,0,0,340,8.3,0,0,0,0,0,0,0,0,0,0,0,0,0
2008,12,27,2,0,,-0.2,-20.5,20,101650,0,0,233,0,0,0,0,0,0,0,200,2.2,0,0,0,0,0,0,0,0,0,0,0,0,0
2008,12,27,3,0,,-0.4,-20.6,20,101670,0,0,233,0,0,0,0,0,0,0,340,7.7,0,0,0,0,0,0,0,0,0,0,0,0,0
2008,12,27,4,0,,-0.5,-21.3,19,101640,0,0,240,0,0,0,0,0,0,0,340,6.2,2,0,0,0,0,0,0,0,0,0,0,0,0
2008,12,27,5,0,,0.1,-23.5,15,101630,0,0,231,0,0,0,0,0,0,0,340,6.4,0,0,0,0,0,0,0,0,0,0,0,0,0
2008,12,27,6,0,,0.4,-24.9,13,101630,0,0,232,0,0,0,0,0,0,0,360,9.1,0,0,0,0,0,0,0,0,0,0,0,0,0
2008,12,27,7,0,,0.6,-24.7,13,101660,0,0,233,0,0,0,0,0,0,0,360,5.2,0,0,0,0,0,0,0,0,0,0,0,0,0
2008,12,27,8,0,,1,-23.5,14,101700,0,0,234,28,17,10,1986,1523,1552,0,360,3.3,0,0,0,0,0,0,0,0,0,0,0,0,0
2008,12,27,9,0,,2.4,-22.4,14,101720,0,0,239,145,725,27,32696,69427,4301,0,340,1.1,0,0,0,0,0,0,0,0,0,0,0,0,0
2008,12,27,10,0,,3,-21.9,14,101750,0,0,241,301,811,45,45709,79313,6864,0,340,3.6,0,0,0,0,0,0,0,0,0,0,0,0,0
2008,12,27,11,0,,4.6,-20.6,14,101750,0,0,247,418,822,64,51580,80748,9452,0,340,2.6,0,0,0,0,0,0,0,0,0,0,0,0,0
2008,12,27,12,0,,6.3,-19.3,14,101610,0,0,253,491,825,77,52242,81573,11239,0,290,1.9,0,0,0,0,0,0,0,0,0,0,0,0,0
2008,12,27,13,0,,6.2,-17.1,17,101520,0,0,263,500,782,90,45634,74737,13206,0,340,2.3,2,0,0,0,0,0,0,0,0,0,0,0,0
2008,12,27,14,0,,7.6,-18.2,14,101430,0,0,267,478,809,78,34627,72418,11446,0,290,3.2,2,0,0,0,0,0,0,0,0,0,0,0,0
2008,12,27,15,0,,7.5,-17.5,15,101450,0,0,268,390,775,69,18386,52861,9451,0,320,4.1,2,0,0,0,0,0,0,0,0,0,0,0,0
2008,12,27,16,0,,7.6,-17.4,15,101460,0,0,268,271,769,46,0,0,0,0,340,3.7,2,0,0,0,0,0,0,0,0,0,0,0,0
2008,12,27,17,0,,6.2,-16.4,18,101480,0,0,264,112,85,27,0,0,0,0,320,4.6,2,0,0,0,0,0,0,0,0,0,0,0,0
2008,12,27,18,0,,5.5,-16.3,19,101490,0,0,261,11,5,7,0,0,0,0,340,4.7,2,0,0,0,0,0,0,0,0,0,0,0,0
2008,12,27,19,0,,4.7,-16.4,20,101540,0,0,256,0,0,0,0,0,0,0,320,2.9,1,0,0,0,0,0,0,0,0,0,0,0,0
2008,12,27,20,0,,4.1,-15.7,22,101580,0,0,252,0,0,0,0,0,0,0,360,4.9,1,0,0,0,0,0,0,0,0,0,0,0,0
2008,12,27,21,0,,3.7,-15,24,101570,0,0,247,0,0,0,0,0,0,0,290,3.4,0,0,0,0,0,0,0,0,0,0,0,0,0
2008,12,27,22,0,,3.3,-13.9,27,101580,0,0,247,0,0,0,0,0,0,0,340,3.7,0,0,0,0,0,0,0,0,0,0,0,0,0
2008,12,27,23,0,,3.2,-11.9,32,101570,0,0,248,0,0,0,0,0,0,0,340,4.9,0,0,0,0,0,0,0,0,0,0,0,0,0
2008,12,27,24,0,,2.7,-9.2,41,101560,0,0,248,0,0,0,0,0,0,0,360,9.1,0,0,0,0,0,0,0,0,0,0,0,0,0
2008,12,28,1,0,,2.9,-7.6,46,101570,0,0,250,0,0,0,0,0,0,0,360,9.4,0,0,0,0,0,0,0,0,0,0,0,0,0
2008,12,28,2,0,,2.4,-7.7,47,101520,0,0,248,0,0,0,0,0,0,0,360,9.4,0,0,0,0,0,0,0,0,0,0,0,0,0
2008,12,28,3,0,,2.2,-7.1,50,101510,0,0,248,0,0,0,0,0,0,0,360,4.8,0,0,0,0,0,0,0,0,0,0,0,0,0
2008,12,28,4,0,,2.4,-6.7,51,101530,0,0,249,0,0,0,0,0,0,0,50,4.2,0,0,0,0,0,0,0,0,0,0,0,0,0
2008,12,28,5,0,,2.7,-6.4,51,101440,0,0,251,0,0,0,0,0,0,0,20,4.3,0,0,0,0,0,0,0,0,0,0,0,0,0
2008,12,28,6,0,,3.2,-6.5,49,101420,0,0,252,0,0,0,0,0,0,0,70,3.1,0,0,0,0,0,0,0,0,0,0,0,0,0
2008,12,28,7,0,,2.9,-6.5,50,101520,0,0,251,0,0,0,0,0,0,0,250,1.4,0,0,0,0,0,0,0,0,0,0,0,0,0
2008,12,28,8,0,,2.5,-5.8,54,101520,0,0,250,24,11,13,1992,961,1718,0,320,3.8,0,0,0,0,0,0,0,0,0,0,0,0,0
2008,12,28,9,0,,3.3,-5.6,52,101520,0,0,259,135,634,33,30081,61031,5127,0,340,6.6,1,0,0,0,0,0,0,0,0,0,0,0,0
2008,12,28,10,0,,4.4,-5.9,47,101580,0,0,258,281,706,58,42673,69297,8712,0,360,4.4,0,0,0,0,0,0,0,0,0,0,0,0,0
2008,12,28,11,0,,6.6,-6.3,39,101520,0,0,266,395,730,80,49619,72617,11680,0,340,1,0,0,0,0,0,0,0,0,0,0,0,0,0
2008,12,28,12,0,,8,-6.1,36,101440,0,0,290,385,450,159,42544,44144,20304,0,20,0.7,6,0,0,0,0,0,0,0,0,0,0,0,0
2008,12,28,13,0,,7.9,-5.9,37,101360,0,0,305,281,140,208,29499,13560,23595,0,340,2.3,9,0,0,0,0,0,0,0,0,0,0,0,0
2008,12,28,14,0,,7.9,-6.2,36,101260,0,0,304,238,106,185,23823,9772,20677,0,360,1,9,0,0,0,0,0,0,0,0,0,0,0,0
2008,12,28,15,0,,8.5,-4.3,40,101300,0,0,309,196,110,151,18071,8742,16576,0,180,2.2,9,0,0,0,0,0,0,0,0,0,0,0,0
2008,12,28,16,0,,7.7,-4.4,42,101320,0,0,305,132,109,100,0,0,0,0,270,2.2,9,0,0,0,0,0,0,0,0,0,0,0,0
2008,12,28,17,0,,6.9,-4.5,44,101340,0,0,302,53,12,41,0,0,0,0,290,2.2,9,0,0,0,0,0,0,0,0,0,0,0,0
2008,12,28,18,0,,6.7,-4.7,44,101250,0,0,309,0,0,0,0,0,0,0,320,0.7,10,0,0,0,0,0,0,0,0,0,0,0,0
2008,12,28,19,0,,6.6,-3.9,47,101340,0,0,301,0,0,0,0,0,0,0,320,2.6,9,0,0,0,0,0,0,0,0,0,0,0,0
2008,12,28,20,0,,6.9,-3.3,48,101330,0,0,296,0,0,0,0,0,0,0,320,1.5,8,0,0,0,0,0,0,0,0,0,0,0,0
2008,12,28,21,0,,6.7,-3.5,48,101290,0,0,291,0,0,0,0,0,0,0,320,1.6,7,0,0,0,0,0,0,0,0,0,0,0,0
2008,12,28,22,0,,6.2,-2.6,53,101280,0,0,289,0,0,0,0,0,0,0,320,1.1,7,0,0,0,0,0,0,0,0,0,0,0,0
2008,12,28,23,0,,6.5,-2.1,54,101280,0,0,291,0,0,0,0,0,0,0,320,1.5,7,0,0,0,0,0,0,0,0,0,0,0,0
2008,12,28,24,0,,6.7,-2.2,53,101220,0,0,292,0,0,0,0,0,0,0,320,0.9,7,0,0,0,0,0,0,0,0,0,0,0,0
2008,12,29,1,0,,6.7,-4.1,46,101130,0,0,295,0,0,0,0,0,0,0,340,1.5,8,0,0,0,0,0,0,0,0,0,0,0,0
2008,12,29,2,0,,6.5,-4,47,101100,0,0,300,0,0,0,0,0,0,0,320,1.7,9,0,0,0,0,0,0,0,0,0,0,0,0
2008,12,29,3,0,,6.1,-4.9,45,101090,0,0,306,0,0,0,0,0,0,0,340,2.5,10,0,0,0,0,0,0,0,0,0,0,0,0
2008,12,29,4,0,,6.2,-5.4,43,101050,0,0,306,0,0,0,0,0,0,0,340,3.3,10,0,0,0,0,0,0,0,0,0,0,0,0
2008,12,29,5,0,,6,-5,45,101020,0,0,305,0,0,0,0,0,0,0,320,1.9,10,0,0,0,0,0,0,0,0,0,0,0,0
2008,12,29,6,0,,5.8,-5.5,44,100990,0,0,304,0,0,0,0,0,0,0,340,5.8,10,0,0,0,0,0,0,0,0,0,0,0,0
2008,12,29,7,0,,5.5,-4.9,47,101000,0,0,303,0,0,0,0,0,0,0,320,4.1,10,0,0,0,0,0,0,0,0,0,0,0,0
2008,12,29,8,0,,5.6,-4.8,47,101040,0,0,296,9,1,8,1089,23,1082,0,360,3.6,9,0,0,0,0,0,0,0,0,0,0,0,0
2008,12,29,9,0,,5.7,-4.7,47,101090,0,0,304,52,50,44,7613,4892,5612,0,340,3.1,10,0,0,0,0,0,0,0,0,0,0,0,0
2008,12,29,10,0,,5.8,-4.9,46,101100,0,0,305,114,57,95,14412,5783,11576,0,320,3.4,10,0,0,0,0,0,0,0,0,0,0,0,0
2008,12,29,11,0,,6.6,-5.7,41,101070,0,0,299,211,120,159,24992,12097,18662,0,290,3,9,0,0,0,0,0,0,0,0,0,0,0,0
2008,12,29,12,0,,8.9,-7.3,31,100930,0,0,286,449,677,108,49308,66710,15615,0,270,1.7,3,0,0,0,0,0,0,0,0,0,0,0,0
2008,12,29,13,0,,9.9,-6,32,100850,0,0,279,506,796,88,46319,76551,12864,0,270,3.3,0,0,0,0,0,0,0,0,0,0,0,0,0
2008,12,29,14,0,,10.5,-5.1,33,100790,0,0,283,478,802,80,34976,71635,11780,0,270,4.4,0,0,0,0,0,0,0,0,0,0,0,0,0
2008,12,29,15,0,,10.5,-4.3,35,100850,0,0,283,379,718,79,19102,48497,10705,0,320,3.4,0,0,0,0,0,0,0,0,0,0,0,0,0
2008,12,29,16,0,,10.3,-3,39,100880,0,0,284,259,684,57,0,0,0,0,290,4.5,0,0,0,0,0,0,0,0,0,0,0,0,0
2008,12,29,17,0,,9.3,-2.3,44,100880,0,0,280,113,85,29,0,0,0,0,290,6.5,0,0,0,0,0,0,0,0,0,0,0,0,0
2008,12,29,18,0,,8.4,-1.7,49,101010,0,0,289,11,4,7,0,0,0,0,290,5,3,0,0,0,0,0,0,0,0,0,0,0,0
2008,12,29,19,0,,7.6,-2.1,50,101050,0,0,283,0,0,0,0,0,0,0,290,4.4,2,0,0,0,0,0,0,0,0,0,0,0,0
2008,12,29,20,0,,7.1,-2.1,52,101090,0,0,277,0,0,0,0,0,0,0,290,5.3,1,0,0,0,0,0,0,0,0,0,0,0,0
2008,12,29,21,0,,6.4,-3,51,101090,0,0,268,0,0,0,0,0,0,0,290,3.8,0,0,0,0,0,0,0,0,0,0,0,0,0
2008,12,29,22,0,,5.9,-4.5,47,101100,0,0,265,0,0,0,0,0,0,0,230,3.1,0,0,0,0,0,0,0,0,0,0,0,0,0
2008,12,29,23,0,,5.5,-4.6,48,101100,0,0,263,0,0,0,0,0,0,0,320,2.6,0,0,0,0,0,0,0,0,0,0,0,0,0
2008,12,29,24,0,,5.3,-4.5,49,101110,0,0,262,0,0,0,0,0,0,0,290,1.7,0,0,0,0,0,0,0,0,0,0,0,0,0
2008,12,30,1,0,,5.1,-4.4,50,101080,0,0,262,0,0,0,0,0,0,0,340,3.3,0,0,0,0,0,0,0,0,0,0,0,0,0
2008,12,30,2,0,,5.1,-4.2,51,101110,0,0,262,0,0,0,0,0,0,0,230,2,0,0,0,0,0,0,0,0,0,0,0,0,0
2008,12,30,3,0,,4.5,-4.7,51,101160,0,0,259,0,0,0,0,0,0,0,290,2.7,0,0,0,0,0,0,0,0,0,0,0,0,0
2008,12,30,4,0,,4.1,-5.1,51,101120,0,0,257,0,0,0,0,0,0,0,320,3.1,0,0,0,0,0,0,0,0,0,0,0,0,0
2008,12,30,5,0,,3.6,-5.3,52,101130,0,0,255,0,0,0,0,0,0,0,290,1.8,0,0,0,0,0,0,0,0,0,0,0,0,0
2008,12,30,6,0,,3.4,-6.8,47,101110,0,0,264,0,0,0,0,0,0,0,270,4.9,3,0,0,0,0,0,0,0,0,0,0,0,0
2008,12,30,7,0,,3.6,-6.4,48,101150,0,0,263,0,0,0,0,0,0,0,290,4.4,2,0,0,0,0,0,0,0,0,0,0,0,0
2008,12,30,8,0,,3.3,-5.8,51,101220,0,0,254,24,11,12,1917,1014,1629,0,270,5.1,0,0,0,0,0,0,0,0,0,0,0,0,0
2008,12,30,9,0,,4.1,-5.6,49,101290,0,0,257,134,631,33,29956,60743,5112,0,290,4.9,0,0,0,0,0,0,0,0,0,0,0,0,0
2008,12,30,10,0,,5.3,-5.6,45,101310,0,0,266,277,693,60,42348,68069,8923,0,290,2.9,1,0,0,0,0,0,0,0,0,0,0,0,0
2008,12,30,11,0,,4.9,-6,45,101310,0,0,265,389,707,84,49016,70167,12230,0,360,4.7,1,0,0,0,0,0,0,0,0,0,0,0,0
2008,12,30,12,0,,5.9,-6.6,40,101220,0,0,274,441,649,115,48646,63759,16357,0,320,3.1,3,0,0,0,0,0,0,0,0,0,0,0,0
2008,12,30,13,0,,5.7,-7.5,38,101120,0,0,273,448,598,133,43016,56636,18167,0,360,4.5,3,0,0,0,0,0,0,0,0,0,0,0,0
2008,12,30,14,0,,6.5,-7.5,36,101060,0,0,276,430,629,117,33209,55618,15088,0,290,2.6,3,0,0,0,0,0,0,0,0,0,0,0,0
2008,12,30,15,0,,5.6,-8.3,36,101070,0,0,272,350,592,102,19277,39772,12304,0,320,4.2,3,0,0,0,0,0,0,0,0,0,0,0,0
2008,12,30,16,0,,5.1,-8,38,101130,0,0,267,247,608,66,0,0,0,0,320,2.6,2,0,0,0,0,0,0,0,0,0,0,0,0
2008,12,30,17,0,,4.6,-9.9,34,101160,0,0,255,112,81,31,0,0,0,0,320,4,0,0,0,0,0,0,0,0,0,0,0,0,0
2008,12,30,18,0,,3.7,-9,39,101220,0,0,252,14,6,7,0,0,0,0,290,5,0,0,0,0,0,0,0,0,0,0,0,0,0
2008,12,30,19,0,,2.7,-9.2,41,101290,0,0,248,0,0,0,0,0,0,0,290,5.7,0,0,0,0,0,0,0,0,0,0,0,0,0
2008,12,30,20,0,,1.9,-9.3,43,101340,0,0,245,0,0,0,0,0,0,0,290,4.8,0,0,0,0,0,0,0,0,0,0,0,0,0
2008,12,30,21,0,,1.2,-9.1,46,101400,0,0,242,0,0,0,0,0,0,0,140,2.2,0,0,0,0,0,0,0,0,0,0,0,0,0
2008,12,30,22,0,,0.6,-9.1,48,101420,0,0,240,0,0,0,0,0,0,0,90,2.2,0,0,0,0,0,0,0,0,0,0,0,0,0
2008,12,30,23,0,,-0.2,-9.6,49,101490,0,0,238,0,0,0,0,0,0,0,360,4.4,0,0,0,0,0,0,0,0,0,0,0,0,0
2008,12,30,24,0,,-0.6,-9.7,50,101430,0,0,236,0,0,0,0,0,0,0,290,4.2,0,0,0,0,0,0,0,0,0,0,0,0,0
2008,12,31,1,0,,-0.9,-10.8,47,101390,0,0,234,0,0,0,0,0,0,0,140,3.5,0,0,0,0,0,0,0,0,0,0,0,0,0
2008,12,31,2,0,,-1.3,-11.1,47,101360,0,0,233,0,0,0,0,0,0,0,360,6.4,0,0,0,0,0,0,0,0,0,0,0,0,0
2008,12,31,3,0,,-1.5,-10.8,49,101380,0,0,232,0,0,0,0,0,0,0,160,3.5,0,0,0,0,0,0,0,0,0,0,0,0,0
2008,12,31,4,0,,-2.1,-11.1,50,101420,0,0,230,0,0,0,0,0,0,0,160,2.3,0,0,0,0,0,0,0,0,0,0,0,0,0
2008,12,31,5,0,,-2.4,-11.1,51,101450,0,0,229,0,0,0,0,0,0,0,180,1.5,0,0,0,0,0,0,0,0,0,0,0,0,0
2008,12,31,6,0,,-2.5,-11,52,101400,0,0,228,0,0,0,0,0,0,0,160,1.8,0,0,0,0,0,0,0,0,0,0,0,0,0
2008,12,31,7,0,,-3.1,-10.6,56,101480,0,0,226,0,0,0,0,0,0,0,340,2.3,0,0,0,0,0,0,0,0,0,0,0,0,0
2008,12,31,8,0,,-3,-10.3,57,101470,0,0,227,22,9,13,1951,843,1712,0,160,3,0,0,0,0,0,0,0,0,0,0,0,0,0
2008,12,31,9,0,,-1.3,-10.6,49,101450,0,0,233,133,631,33,29876,60519,5110,0,160,3.2,0,0,0,0,0,0,0,0,0,0,0,0,0
2008,12,31,10,0,,-1.1,-11.5,45,101490,0,0,233,276,685,61,42580,68046,9123,0,340,2.2,0,0,0,0,0,0,0,0,0,0,0,0,0
2008,12,31,11,0,,0.2,-12.4,38,101440,0,0,236,396,733,79,49852,72884,11563,0,320,3,0,0,0,0,0,0,0,0,0,0,0,0,0
2008,12,31,12,0,,1.4,-13.5,32,101330,0,0,240,476,767,89,51231,75447,12912,0,270,3.9,0,0,0,0,0,0,0,0,0,0,0,0,0
2008,12,31,13,0,,2.3,-13.1,31,101230,0,0,244,499,768,94,46461,74259,13746,0,270,2.9,0,0,0,0,0,0,0,0,0,0,0,0,0
2008,12,31,14,0,,3.6,-13.7,27,101160,0,0,248,479,796,82,35388,71554,11925,0,270,3.4,0,0,0,0,0,0,0,0,0,0,0,0,0
2008,12,31,15,0,,4,-13.8,26,101100,0,0,250,399,788,68,19241,55184,9440,0,270,4.4,0,0,0,0,0,0,0,0,0,0,0,0,0
2008,12,31,16,0,,3.9,-14.3,25,101080,0,0,249,275,755,49,0,0,0,0,340,3.5,0,0,0,0,0,0,0,0,0,0,0,0,0
2008,12,31,17,0,,3.1,-12.8,30,101090,0,0,247,118,90,29,0,0,0,0,360,1.9,0,0,0,0,0,0,0,0,0,0,0,0,0
2008,12,31,18,0,,2.2,-14,29,101130,0,0,243,15,8,7,0,0,0,0,360,4.6,0,0,0,0,0,0,0,0,0,0,0,0,0
2008,12,31,19,0,,1.8,-14.3,29,101150,0,0,241,0,0,0,0,0,0,0,20,2.3,0,0,0,0,0,0,0,0,0,0,0,0,0
2008,12,31,20,0,,1.3,-14.4,30,101160,0,0,239,0,0,0,0,0,0,0,360,5.9,0,0,0,0,0,0,0,0,0,0,0,0,0
2008,12,31,21,0,,0.5,-13.9,33,101210,0,0,236,0,0,0,0,0,0,0,360,6,0,0,0,0,0,0,0,0,0,0,0,0,0
2008,12,31,22,0,,-0.1,-13.4,36,101180,0,0,236,0,0,0,0,0,0,0,160,3.2,0,0,0,0,0,0,0,0,0,0,0,0,0
2008,12,31,23,0,,-0.6,-13.1,38,101230,0,0,234,0,0,0,0,0,0,0,110,2.8,0,0,0,0,0,0,0,0,0,0,0,0,0
2008,12,31,24,0,,-1,-12.9,40,101220,0,0,233,0,0,0,0,0,0,0,180,1.7,0,0,0,0,0,0,0,0,0,0,0,0,0
