LOCATION,CHUNCHON,<not available>,<not available>,<not available>,<not available>,37.5,-127.44,-9,75
DESIGN CONDITIONS,0
TYPICAL/EXTREME PERIODS,0
GROUND TEMPERATURES,0
HOLIDAYS/DAYLIGHT SAVINGS,No,0,0,0
COMMENTS 1, NA
COMMENTS 2, NA
DATA PERIODS,1,1,Data,Sunday,1/1,12/31
2016,1,1,1,0,,-4.5,-4.5,100,102350,0,0,228,0,0,0,0,0,0,0,340,0.8,0,0,0,0,0,0,0,0,0,0,0,0,0
2016,1,1,2,0,,-5,-5,100,102380,0,0,226,0,0,0,0,0,0,0,110,0.8,0,0,0,0,0,0,0,0,0,0,0,0,0
2016,1,1,3,0,,-5.2,-5.2,100,102390,0,0,225,0,0,0,0,0,0,0,90,0.7,0,0,0,0,0,0,0,0,0,0,0,0,0
2016,1,1,4,0,,-5.8,-5.8,100,102390,0,0,223,0,0,0,0,0,0,0,50,0.6,0,0,0,0,0,0,0,0,0,0,0,0,0
2016,1,1,5,0,,-5.2,-5.2,100,102390,0,0,225,0,0,0,0,0,0,0,20,0.6,0,0,0,0,0,0,0,0,0,0,0,0,0
2016,1,1,6,0,,-4.7,-4.7,100,102380,0,0,263,0,0,0,0,0,0,0,50,0.7,10,0,0,0,0,0,0,0,0,0,0,0,0
2016,1,1,7,0,,-4.3,-4.3,100,102440,0,0,264,0,0,0,0,0,0,0,360,1.2,10,0,0,0,0,0,0,0,0,0,0,0,0
2016,1,1,8,0,,-4.2,-4.2,100,102460,0,0,265,0,0,0,0,0,0,0,50,0.5,10,0,0,0,0,0,0,0,0,0,0,0,0
2016,1,1,9,0,,-4.1,-4.1,100,102460,0,0,265,21,1,20,2654,50,2634,0,0,0.3,10,0,0,0,0,0,0,0,0,0,0,0,0
2016,1,1,10,0,,-3.6,-3.7,99,102510,0,0,268,67,21,61,8101,1946,7201,0,50,1.1,10,0,0,0,0,0,0,0,0,0,0,0,0
2016,1,1,11,0,,-3.2,-3.4,98,102480,0,0,270,95,18,88,11119,1703,10284,0,50,0.5,10,0,0,0,0,0,0,0,0,0,0,0,0
2016,1,1,12,0,,-2.6,-3.2,95,102360,0,0,272,123,21,113,13968,1958,13051,0,20,0.8,10,0,0,0,0,0,0,0,0,0,0,0,0
2016,1,1,13,0,,-2.1,-3.3,91,102220,0,0,254,291,193,196,29575,18216,22322,0,340,0.7,6,0,0,0,0,0,0,0,0,0,0,0,0
2016,1,1,14,0,,-0.5,-3.5,80,102110,0,0,242,380,535,129,28844,44662,16129,0,0,0.4,0,0,0,0,0,0,0,0,0,0,0,0,0
2016,1,1,15,0,,1,-3.4,72,102050,0,0,258,323,551,103,16339,31283,12095,0,0,0.4,3,0,0,0,0,0,0,0,0,0,0,0,0
2016,1,1,16,0,,2.2,-3.9,64,102030,0,0,269,203,397,89,0,0,0,0,200,1.7,6,0,0,0,0,0,0,0,0,0,0,0,0
2016,1,1,17,0,,2.2,-4.1,63,101980,0,0,271,79,38,41,0,0,0,0,180,1,7,0,0,0,0,0,0,0,0,0,0,0,0
2016,1,1,18,0,,1.2,-0.8,86,102010,0,0,272,5,0,5,0,0,0,0,340,0.9,7,0,0,0,0,0,0,0,0,0,0,0,0
2016,1,1,19,0,,0.8,-1.6,84,101980,0,0,270,0,0,0,0,0,0,0,0,0.3,7,0,0,0,0,0,0,0,0,0,0,0,0
2016,1,1,20,0,,0.6,-1.7,84,101960,0,0,271,0,0,0,0,0,0,0,0,0.2,8,0,0,0,0,0,0,0,0,0,0,0,0
2016,1,1,21,0,,0.4,-1.3,88,101930,0,0,272,0,0,0,0,0,0,0,0,0.2,8,0,0,0,0,0,0,0,0,0,0,0,0
2016,1,1,22,0,,0.3,-1.7,86,101850,0,0,271,0,0,0,0,0,0,0,20,0.8,8,0,0,0,0,0,0,0,0,0,0,0,0
2016,1,1,23,0,,0.6,-1.7,84,101860,0,0,272,0,0,0,0,0,0,0,0,0.4,8,0,0,0,0,0,0,0,0,0,0,0,0
2016,1,1,24,0,,0.6,-1.6,85,101770,0,0,273,0,0,0,0,0,0,0,0,0.4,8,0,0,0,0,0,0,0,0,0,0,0,0
2016,1,2,1,0,,0.5,-1.7,85,101750,0,0,274,0,0,0,0,0,0,0,140,0.5,8,0,0,0,0,0,0,0,0,0,0,0,0
2016,1,2,2,0,,0.4,-1.3,88,101740,0,0,276,0,0,0,0,0,0,0,0,0.2,9,0,0,0,0,0,0,0,0,0,0,0,0
2016,1,2,3,0,,0.5,-1.5,86,101690,0,0,278,0,0,0,0,0,0,0,0,0.1,9,0,0,0,0,0,0,0,0,0,0,0,0
2016,1,2,4,0,,0.4,-1.2,89,101640,0,0,272,0,0,0,0,0,0,0,20,1.3,8,0,0,0,0,0,0,0,0,0,0,0,0
2016,1,2,5,0,,0,-1.1,92,101600,0,0,271,0,0,0,0,0,0,0,0,0.1,8,0,0,0,0,0,0,0,0,0,0,0,0
2016,1,2,6,0,,0.1,-1,92,101560,0,0,277,0,0,0,0,0,0,0,0,0.2,9,0,0,0,0,0,0,0,0,0,0,0,0
2016,1,2,7,0,,0.2,-0.8,93,101520,0,0,286,0,0,0,0,0,0,0,360,0.5,10,0,0,0,0,0,0,0,0,0,0,0,0
2016,1,2,8,0,,0.3,-1.3,89,101520,0,0,286,0,0,0,0,0,0,0,0,0.1,10,0,0,0,0,0,0,0,0,0,0,0,0
2016,1,2,9,0,,0.6,-1,89,101550,0,0,279,35,5,30,3892,208,3812,0,0,0,9,0,0,0,0,0,0,0,0,0,0,0,0
2016,1,2,10,0,,1.3,-1.4,82,101580,0,0,281,98,62,82,12848,6092,10024,0,0,0.2,9,0,0,0,0,0,0,0,0,0,0,0,0
2016,1,2,11,0,,2.7,-1.2,75,101540,0,0,287,160,77,130,19305,7690,15524,0,0,0.4,9,0,0,0,0,0,0,0,0,0,0,0,0
2016,1,2,12,0,,4.4,-0.8,69,101460,0,0,295,215,98,169,24253,9611,19736,0,250,0.9,9,0,0,0,0,0,0,0,0,0,0,0,0
2016,1,2,13,0,,5.2,0,69,101340,0,0,299,225,92,180,23769,8647,20309,0,360,0.5,9,0,0,0,0,0,0,0,0,0,0,0,0
2016,1,2,14,0,,6,0.3,67,101250,0,0,303,217,97,172,21656,8575,19196,0,340,0.7,9,0,0,0,0,0,0,0,0,0,0,0,0
2016,1,2,15,0,,6.5,0.5,66,101210,0,0,294,242,229,150,18223,12999,16429,0,270,0.8,7,0,0,0,0,0,0,0,0,0,0,0,0
2016,1,2,16,0,,6.6,1.3,69,101160,0,0,300,140,138,101,0,0,0,0,0,0.4,8,0,0,0,0,0,0,0,0,0,0,0,0
2016,1,2,17,0,,7,1.4,68,101160,0,0,297,76,32,44,0,0,0,0,200,1.6,7,0,0,0,0,0,0,0,0,0,0,0,0
2016,1,2,18,0,,5.4,2.7,83,101160,0,0,292,5,0,5,0,0,0,0,0,0.2,7,0,0,0,0,0,0,0,0,0,0,0,0
2016,1,2,19,0,,4.3,2.4,88,101190,0,0,286,0,0,0,0,0,0,0,70,0.5,7,0,0,0,0,0,0,0,0,0,0,0,0
2016,1,2,20,0,,2.8,1.9,94,101160,0,0,279,0,0,0,0,0,0,0,20,1.1,6,0,0,0,0,0,0,0,0,0,0,0,0
2016,1,2,21,0,,2.3,1.7,96,101170,0,0,276,0,0,0,0,0,0,0,360,0.7,6,0,0,0,0,0,0,0,0,0,0,0,0
2016,1,2,22,0,,1.6,1.1,97,101150,0,0,274,0,0,0,0,0,0,0,360,0.9,7,0,0,0,0,0,0,0,0,0,0,0,0
2016,1,2,23,0,,1.6,1.5,100,101110,0,0,277,0,0,0,0,0,0,0,0,0.3,7,0,0,0,0,0,0,0,0,0,0,0,0
2016,1,2,24,0,,1.6,1.4,99,101110,0,0,280,0,0,0,0,0,0,0,0,0.4,8,0,0,0,0,0,0,0,0,0,0,0,0
2016,1,3,1,0,,1.6,1.4,99,101090,0,0,273,0,0,0,0,0,0,0,320,0.7,6,0,0,0,0,0,0,0,0,0,0,0,0
2016,1,3,2,0,,0.9,0.8,100,101080,0,0,265,0,0,0,0,0,0,0,290,0.5,4,0,0,0,0,0,0,0,0,0,0,0,0
2016,1,3,3,0,,0.6,0.5,100,101060,0,0,259,0,0,0,0,0,0,0,0,0.2,2,0,0,0,0,0,0,0,0,0,0,0,0
2016,1,3,4,0,,-0.1,-0.1,100,101040,0,0,258,0,0,0,0,0,0,0,20,0.5,3,0,0,0,0,0,0,0,0,0,0,0,0
2016,1,3,5,0,,0,0,100,101020,0,0,286,0,0,0,0,0,0,0,360,0.5,10,0,0,0,0,0,0,0,0,0,0,0,0
2016,1,3,6,0,,0.2,0.1,100,101050,0,0,287,0,0,0,0,0,0,0,360,0.8,10,0,0,0,0,0,0,0,0,0,0,0,0
2016,1,3,7,0,,0.1,0,100,101100,0,0,287,0,0,0,0,0,0,0,50,0.6,10,0,0,0,0,0,0,0,0,0,0,0,0
2016,1,3,8,0,,0.1,0,100,101130,0,0,287,0,0,0,0,0,0,0,90,0.5,10,0,0,0,0,0,0,0,0,0,0,0,0
2016,1,3,9,0,,0.1,0,100,101170,0,0,287,20,1,19,2490,41,2474,0,0,0.4,10,0,0,0,0,0,0,0,0,0,0,0,0
2016,1,3,10,0,,0.6,0.5,100,101180,0,0,289,60,16,56,7308,1446,6636,0,0,0.3,10,0,0,0,0,0,0,0,0,0,0,0,0
2016,1,3,11,0,,1.4,1.3,100,101170,0,0,294,103,22,94,12006,2082,10980,0,0,0.2,10,0,0,0,0,0,0,0,0,0,0,0,0
2016,1,3,12,0,,2.5,1.7,95,101100,0,0,298,137,28,124,15570,2629,14330,0,360,0.7,10,0,0,0,0,0,0,0,0,0,0,0,0
2016,1,3,13,0,,4.5,2,84,101010,0,0,292,254,128,191,26778,11976,21961,0,320,0.7,8,0,0,0,0,0,0,0,0,0,0,0,0
2016,1,3,14,0,,5.1,2.1,81,100960,0,0,282,350,412,155,28077,34013,18239,0,0,0.3,4,0,0,0,0,0,0,0,0,0,0,0,0
2016,1,3,15,0,,6.9,2.1,72,100900,0,0,289,315,498,113,17285,28158,13329,0,90,0.8,4,0,0,0,0,0,0,0,0,0,0,0,0
2016,1,3,16,0,,7.1,1.7,69,100880,0,0,294,191,352,88,0,0,0,0,0,0.2,6,0,0,0,0,0,0,0,0,0,0,0,0
2016,1,3,17,0,,6.2,3.6,84,100860,0,0,297,70,24,46,0,0,0,0,0,0.3,7,0,0,0,0,0,0,0,0,0,0,0,0
2016,1,3,18,0,,3.9,3.1,95,100930,0,0,284,6,1,6,0,0,0,0,0,0.2,6,0,0,0,0,0,0,0,0,0,0,0,0
2016,1,3,19,0,,2.7,2.4,98,100960,0,0,280,0,0,0,0,0,0,0,0,0.3,7,0,0,0,0,0,0,0,0,0,0,0,0
2016,1,3,20,0,,1.6,1.5,99,100980,0,0,277,0,0,0,0,0,0,0,0,0.4,7,0,0,0,0,0,0,0,0,0,0,0,0
2016,1,3,21,0,,1.3,1.2,100,101010,0,0,279,0,0,0,0,0,0,0,340,0.7,8,0,0,0,0,0,0,0,0,0,0,0,0
2016,1,3,22,0,,1.2,1.1,100,101040,0,0,278,0,0,0,0,0,0,0,0,0.1,8,0,0,0,0,0,0,0,0,0,0,0,0
2016,1,3,23,0,,1.1,1,100,101040,0,0,278,0,0,0,0,0,0,0,20,0.8,8,0,0,0,0,0,0,0,0,0,0,0,0
2016,1,3,24,0,,0.8,0.7,100,101010,0,0,276,0,0,0,0,0,0,0,20,0.5,8,0,0,0,0,0,0,0,0,0,0,0,0
2016,1,4,1,0,,0.5,0.4,100,100990,0,0,275,0,0,0,0,0,0,0,0,0.1,8,0,0,0,0,0,0,0,0,0,0,0,0
2016,1,4,2,0,,0.5,0.4,100,101030,0,0,275,0,0,0,0,0,0,0,0,0.4,8,0,0,0,0,0,0,0,0,0,0,0,0
2016,1,4,3,0,,0.6,0.5,100,101050,0,0,268,0,0,0,0,0,0,0,70,0.5,6,0,0,0,0,0,0,0,0,0,0,0,0
2016,1,4,4,0,,0.1,0,100,101050,0,0,266,0,0,0,0,0,0,0,340,0.7,6,0,0,0,0,0,0,0,0,0,0,0,0
2016,1,4,5,0,,-0.5,-0.5,100,101070,0,0,263,0,0,0,0,0,0,0,90,0.7,6,0,0,0,0,0,0,0,0,0,0,0,0
2016,1,4,6,0,,-1.3,-1.3,100,101130,0,0,262,0,0,0,0,0,0,0,360,0.8,7,0,0,0,0,0,0,0,0,0,0,0,0
2016,1,4,7,0,,-2.1,-2.1,100,101220,0,0,255,0,0,0,0,0,0,0,360,0.6,6,0,0,0,0,0,0,0,0,0,0,0,0
2016,1,4,8,0,,-2.1,-2.1,100,101280,0,0,262,0,0,0,0,0,0,0,360,0.8,8,0,0,0,0,0,0,0,0,0,0,0,0
2016,1,4,9,0,,-2.4,-2.4,100,101350,0,0,248,70,39,31,5479,3788,4004,0,360,0.7,3,0,0,0,0,0,0,0,0,0,0,0,0
2016,1,4,10,0,,0.1,0,100,101400,0,0,261,182,342,89,28081,32853,12778,0,50,0.6,4,0,0,0,0,0,0,0,0,0,0,0,0
2016,1,4,11,0,,3.8,-7.9,42,101390,0,0,264,367,781,63,47230,76578,9359,0,200,3.5,3,0,0,0,0,0,0,0,0,0,0,0,0
2016,1,4,12,0,,5.2,-8.6,36,101310,0,0,274,422,703,93,46448,68902,13816,0,200,4.1,5,0,0,0,0,0,0,0,0,0,0,0,0
2016,1,4,13,0,,6.2,-10.1,30,101240,0,0,272,481,813,78,42875,77315,11608,0,200,3.4,3,0,0,0,0,0,0,0,0,0,0,0,0
2016,1,4,14,0,,6.6,-11.5,26,101200,0,0,273,436,725,91,30982,62125,12862,0,200,3.7,3,0,0,0,0,0,0,0,0,0,0,0,0
2016,1,4,15,0,,6.6,-11.5,26,101200,0,0,277,329,552,105,16899,32961,12184,0,230,3.3,5,0,0,0,0,0,0,0,0,0,0,0,0
2016,1,4,16,0,,6.2,-11,28,101230,0,0,278,210,412,89,0,0,0,0,230,2.9,6,0,0,0,0,0,0,0,0,0,0,0,0
2016,1,4,17,0,,4.8,-13.1,26,101280,0,0,268,101,59,42,0,0,0,0,270,2.3,5,0,0,0,0,0,0,0,0,0,0,0,0
2016,1,4,18,0,,3.1,-13.6,28,101340,0,0,257,15,7,9,0,0,0,0,270,1.9,3,0,0,0,0,0,0,0,0,0,0,0,0
2016,1,4,19,0,,2,-10.8,38,101420,0,0,252,0,0,0,0,0,0,0,270,2,2,0,0,0,0,0,0,0,0,0,0,0,0
2016,1,4,20,0,,1.6,-12.6,34,101450,0,0,246,0,0,0,0,0,0,0,270,2.5,1,0,0,0,0,0,0,0,0,0,0,0,0
2016,1,4,21,0,,0.4,-12.6,37,101520,0,0,237,0,0,0,0,0,0,0,250,2,0,0,0,0,0,0,0,0,0,0,0,0,0
2016,1,4,22,0,,0.3,-11.1,42,101580,0,0,237,0,0,0,0,0,0,0,250,1.4,0,0,0,0,0,0,0,0,0,0,0,0,0
2016,1,4,23,0,,-0.1,-9.5,49,101600,0,0,238,0,0,0,0,0,0,0,180,0.9,0,0,0,0,0,0,0,0,0,0,0,0,0
2016,1,4,24,0,,-1.4,-7.9,61,101600,0,0,235,0,0,0,0,0,0,0,340,0.7,0,0,0,0,0,0,0,0,0,0,0,0,0
2016,1,5,1,0,,-3.4,-7.2,75,101630,0,0,235,0,0,0,0,0,0,0,20,0.6,2,0,0,0,0,0,0,0,0,0,0,0,0
2016,1,5,2,0,,-4.1,-7.5,77,101650,0,0,236,0,0,0,0,0,0,0,0,0.4,3,0,0,0,0,0,0,0,0,0,0,0,0
2016,1,5,3,0,,-4.8,-6.6,87,101690,0,0,238,0,0,0,0,0,0,0,0,0.2,5,0,0,0,0,0,0,0,0,0,0,0,0
2016,1,5,4,0,,-4.7,-7.3,82,101620,0,0,240,0,0,0,0,0,0,0,0,0.3,6,0,0,0,0,0,0,0,0,0,0,0,0
2016,1,5,5,0,,-4.8,-9.4,70,101620,0,0,237,0,0,0,0,0,0,0,140,0.7,6,0,0,0,0,0,0,0,0,0,0,0,0
2016,1,5,6,0,,-5.1,-7.2,85,101630,0,0,235,0,0,0,0,0,0,0,0,0.2,4,0,0,0,0,0,0,0,0,0,0,0,0
2016,1,5,7,0,,-5.6,-8.1,82,101670,0,0,236,0,0,0,0,0,0,0,0,0.3,6,0,0,0,0,0,0,0,0,0,0,0,0
2016,1,5,8,0,,-6.1,-7.7,88,101760,0,0,235,0,0,0,0,0,0,0,0,0.3,6,0,0,0,0,0,0,0,0,0,0,0,0
2016,1,5,9,0,,-5.4,-13.4,53,101810,0,0,231,68,36,32,5537,3514,4167,0,160,1,6,0,0,0,0,0,0,0,0,0,0,0,0
2016,1,5,10,0,,-3.8,-15.4,40,101870,0,0,239,173,334,83,27068,32929,11689,0,180,1.4,7,0,0,0,0,0,0,0,0,0,0,0,0
2016,1,5,11,0,,-2.1,-15.2,36,101900,0,0,243,297,468,114,39012,45998,16189,0,250,1.1,6,0,0,0,0,0,0,0,0,0,0,0,0
2016,1,5,12,0,,-0.7,-15,33,101840,0,0,249,371,508,133,41088,49888,17362,0,200,0.9,6,0,0,0,0,0,0,0,0,0,0,0,0
2016,1,5,13,0,,0.7,-16.2,27,101730,0,0,248,444,678,107,41107,64019,15071,0,250,1.4,4,0,0,0,0,0,0,0,0,0,0,0,0
2016,1,5,14,0,,2.1,-16.9,23,101620,0,0,248,454,787,79,31588,68363,11479,0,140,1.5,2,0,0,0,0,0,0,0,0,0,0,0,0
2016,1,5,15,0,,2.5,-18.2,20,101560,0,0,241,383,774,67,16206,48601,9127,0,140,0.7,0,0,0,0,0,0,0,0,0,0,0,0,0
2016,1,5,16,0,,2.3,-17.2,22,101590,0,0,241,273,761,48,0,0,0,0,230,3.3,0,0,0,0,0,0,0,0,0,0,0,0,0
2016,1,5,17,0,,1.1,-16.7,25,101660,0,0,237,122,92,30,0,0,0,0,230,2.9,0,0,0,0,0,0,0,0,0,0,0,0,0
2016,1,5,18,0,,0,-15.9,29,101750,0,0,233,18,10,8,0,0,0,0,250,2.1,0,0,0,0,0,0,0,0,0,0,0,0,0
2016,1,5,19,0,,-1,-16.4,30,101810,0,0,231,0,0,0,0,0,0,0,250,1.5,0,0,0,0,0,0,0,0,0,0,0,0,0
2016,1,5,20,0,,-2.5,-12,48,101840,0,0,227,0,0,0,0,0,0,0,90,0.5,0,0,0,0,0,0,0,0,0,0,0,0,0
2016,1,5,21,0,,-4.1,-10.5,61,101860,0,0,223,0,0,0,0,0,0,0,0,0.3,0,0,0,0,0,0,0,0,0,0,0,0,0
2016,1,5,22,0,,-5.6,-10.9,66,101860,0,0,217,0,0,0,0,0,0,0,20,0.6,0,0,0,0,0,0,0,0,0,0,0,0,0
2016,1,5,23,0,,-6.4,-11.9,65,101870,0,0,214,0,0,0,0,0,0,0,0,0.1,0,0,0,0,0,0,0,0,0,0,0,0,0
2016,1,5,24,0,,-7.1,-11.1,73,101850,0,0,212,0,0,0,0,0,0,0,0,0.2,0,0,0,0,0,0,0,0,0,0,0,0,0
2016,1,6,1,0,,-8,-10.3,83,101810,0,0,211,0,0,0,0,0,0,0,0,0.1,0,0,0,0,0,0,0,0,0,0,0,0,0
2016,1,6,2,0,,-8.3,-10.8,82,101800,0,0,209,0,0,0,0,0,0,0,20,0.8,0,0,0,0,0,0,0,0,0,0,0,0,0
2016,1,6,3,0,,-8.9,-11.2,83,101800,0,0,207,0,0,0,0,0,0,0,0,0.1,0,0,0,0,0,0,0,0,0,0,0,0,0
2016,1,6,4,0,,-9.1,-11.9,80,101770,0,0,205,0,0,0,0,0,0,0,0,0.3,0,0,0,0,0,0,0,0,0,0,0,0,0
2016,1,6,5,0,,-9.4,-11,88,101730,0,0,206,0,0,0,0,0,0,0,0,0.2,0,0,0,0,0,0,0,0,0,0,0,0,0
2016,1,6,6,0,,-9.8,-10.9,91,101740,0,0,205,0,0,0,0,0,0,0,0,0.3,0,0,0,0,0,0,0,0,0,0,0,0,0
2016,1,6,7,0,,-10.1,-11.4,90,101780,0,0,215,0,0,0,0,0,0,0,0,0,5,0,0,0,0,0,0,0,0,0,0,0,0
2016,1,6,8,0,,-10.3,-11.3,92,101790,0,0,213,0,0,0,0,0,0,0,0,0.3,4,0,0,0,0,0,0,0,0,0,0,0,0
2016,1,6,9,0,,-9.1,-10.5,89,101800,0,0,224,56,19,37,5055,1736,4377,0,360,0.7,7,0,0,0,0,0,0,0,0,0,0,0,0
2016,1,6,10,0,,-7.8,-10.9,78,101780,0,0,228,153,222,93,23129,21790,12924,0,0,0.2,7,0,0,0,0,0,0,0,0,0,0,0,0
2016,1,6,11,0,,-4.6,-10.5,63,101760,0,0,233,329,609,91,43574,60382,13510,0,70,0.6,4,0,0,0,0,0,0,0,0,0,0,0,0
2016,1,6,12,0,,-1.9,-10.7,51,101650,0,0,238,445,781,79,48178,76609,11584,0,90,0.9,2,0,0,0,0,0,0,0,0,0,0,0,0
2016,1,6,13,0,,0.8,-9.2,47,101550,0,0,251,477,788,84,42988,74830,12378,0,200,1.5,3,0,0,0,0,0,0,0,0,0,0,0,0
2016,1,6,14,0,,2.4,-8,46,101420,0,0,259,448,758,85,31716,65639,12239,0,200,2.4,3,0,0,0,0,0,0,0,0,0,0,0,0
2016,1,6,15,0,,2.5,-8.2,45,101360,0,0,256,380,752,71,16639,47190,9639,0,200,3.7,2,0,0,0,0,0,0,0,0,0,0,0,0
2016,1,6,16,0,,2.3,-8.1,46,101340,0,0,258,247,605,67,0,0,0,0,230,2.3,3,0,0,0,0,0,0,0,0,0,0,0,0
2016,1,6,17,0,,1.6,-7.9,49,101310,0,0,250,118,84,35,0,0,0,0,200,2.6,1,0,0,0,0,0,0,0,0,0,0,0,0
2016,1,6,18,0,,0.9,-7.6,53,101340,0,0,253,17,7,10,0,0,0,0,200,1.2,3,0,0,0,0,0,0,0,0,0,0,0,0
2016,1,6,19,0,,0.1,-7.2,58,101360,0,0,248,0,0,0,0,0,0,0,160,0.9,2,0,0,0,0,0,0,0,0,0,0,0,0
2016,1,6,20,0,,-1.9,-5.7,75,101390,0,0,240,0,0,0,0,0,0,0,0,0,1,0,0,0,0,0,0,0,0,0,0,0,0
2016,1,6,21,0,,-3.4,-5.8,83,101400,0,0,230,0,0,0,0,0,0,0,0,0.1,0,0,0,0,0,0,0,0,0,0,0,0,0
2016,1,6,22,0,,-4.3,-6.4,85,101430,0,0,227,0,0,0,0,0,0,0,0,0.4,0,0,0,0,0,0,0,0,0,0,0,0,0
2016,1,6,23,0,,-5.2,-6.4,91,101440,0,0,224,0,0,0,0,0,0,0,0,0.4,0,0,0,0,0,0,0,0,0,0,0,0,0
2016,1,6,24,0,,-5.9,-6.9,92,101460,0,0,221,0,0,0,0,0,0,0,0,0.1,0,0,0,0,0,0,0,0,0,0,0,0,0
2016,1,7,1,0,,-6.5,-7.4,93,101480,0,0,219,0,0,0,0,0,0,0,90,0.5,0,0,0,0,0,0,0,0,0,0,0,0,0
2016,1,7,2,0,,-7.2,-7.8,95,101460,0,0,216,0,0,0,0,0,0,0,0,0.1,0,0,0,0,0,0,0,0,0,0,0,0,0
2016,1,7,3,0,,-7.9,-8.5,95,101480,0,0,213,0,0,0,0,0,0,0,0,0.4,0,0,0,0,0,0,0,0,0,0,0,0,0
2016,1,7,4,0,,-8,-8.7,94,101470,0,0,213,0,0,0,0,0,0,0,70,0.5,0,0,0,0,0,0,0,0,0,0,0,0,0
2016,1,7,5,0,,-8.3,-8.9,95,101510,0,0,212,0,0,0,0,0,0,0,0,0.2,0,0,0,0,0,0,0,0,0,0,0,0,0
2016,1,7,6,0,,-9,-9.5,96,101490,0,0,209,0,0,0,0,0,0,0,0,0.3,0,0,0,0,0,0,0,0,0,0,0,0,0
2016,1,7,7,0,,-9.4,-9.9,96,101570,0,0,207,0,0,0,0,0,0,0,0,0.4,0,0,0,0,0,0,0,0,0,0,0,0,0
2016,1,7,8,0,,-9.9,-10.2,97,101580,0,0,206,0,0,0,0,0,0,0,0,0.2,0,0,0,0,0,0,0,0,0,0,0,0,0
2016,1,7,9,0,,-9,-9.6,95,101630,0,0,209,77,41,37,6249,3962,4695,0,20,0.5,0,0,0,0,0,0,0,0,0,0,0,0,0
2016,1,7,10,0,,-6.9,-8.7,87,101630,0,0,216,213,530,69,35370,52441,10733,0,0,0.4,0,0,0,0,0,0,0,0,0,0,0,0,0
2016,1,7,11,0,,-4.4,-9.4,68,101600,0,0,223,348,688,78,45430,67967,11464,0,340,1,0,0,0,0,0,0,0,0,0,0,0,0,0
2016,1,7,12,0,,-1.4,-11.2,47,101500,0,0,232,457,819,72,49359,80684,10642,0,140,1.3,0,0,0,0,0,0,0,0,0,0,0,0,0
2016,1,7,13,0,,0.2,-12.4,38,101390,0,0,236,487,817,78,43659,77878,11610,0,110,0.8,0,0,0,0,0,0,0,0,0,0,0,0,0
2016,1,7,14,0,,1.8,-15.2,27,101300,0,0,240,480,862,65,32869,76400,9995,0,200,2.4,0,0,0,0,0,0,0,0,0,0,0,0,0
2016,1,7,15,0,,2.3,-15.2,26,101220,0,0,242,394,801,64,16612,51718,8798,0,200,2.5,0,0,0,0,0,0,0,0,0,0,0,0,0
2016,1,7,16,0,,2.1,-15.4,26,101240,0,0,241,277,762,48,0,0,0,0,200,3.1,0,0,0,0,0,0,0,0,0,0,0,0,0
2016,1,7,17,0,,1,-14.6,30,101300,0,0,245,124,607,32,0,0,0,0,250,2.6,2,0,0,0,0,0,0,0,0,0,0,0,0
2016,1,7,18,0,,0,-14,34,101350,0,0,244,19,10,9,0,0,0,0,250,2.2,3,0,0,0,0,0,0,0,0,0,0,0,0
2016,1,7,19,0,,-0.7,-13.2,38,101370,0,0,241,0,0,0,0,0,0,0,250,1.2,2,0,0,0,0,0,0,0,0,0,0,0,0
2016,1,7,20,0,,-1.4,-12.9,41,101390,0,0,236,0,0,0,0,0,0,0,200,1.8,1,0,0,0,0,0,0,0,0,0,0,0,0
2016,1,7,21,0,,-2.1,-13.9,40,101400,0,0,228,0,0,0,0,0,0,0,180,1.4,0,0,0,0,0,0,0,0,0,0,0,0,0
2016,1,7,22,0,,-2.5,-13.6,42,101400,0,0,227,0,0,0,0,0,0,0,200,2,0,0,0,0,0,0,0,0,0,0,0,0,0
2016,1,7,23,0,,-4.9,-11.2,61,101400,0,0,219,0,0,0,0,0,0,0,20,1,0,0,0,0,0,0,0,0,0,0,0,0,0
2016,1,7,24,0,,-6.2,-10,74,101370,0,0,216,0,0,0,0,0,0,0,20,0.7,0,0,0,0,0,0,0,0,0,0,0,0,0
2016,1,8,1,0,,-7.1,-11.2,72,101330,0,0,212,0,0,0,0,0,0,0,20,0.5,0,0,0,0,0,0,0,0,0,0,0,0,0
2016,1,8,2,0,,-7.8,-11.6,74,101350,0,0,210,0,0,0,0,0,0,0,0,0.2,0,0,0,0,0,0,0,0,0,0,0,0,0
2016,1,8,3,0,,-8.6,-11.9,77,101350,0,0,207,0,0,0,0,0,0,0,340,1,0,0,0,0,0,0,0,0,0,0,0,0,0
2016,1,8,4,0,,-9.1,-12.2,78,101350,0,0,205,0,0,0,0,0,0,0,0,0.2,0,0,0,0,0,0,0,0,0,0,0,0,0
2016,1,8,5,0,,-10.1,-11.2,91,101340,0,0,204,0,0,0,0,0,0,0,0,0.1,0,0,0,0,0,0,0,0,0,0,0,0,0
2016,1,8,6,0,,-10.6,-12.3,87,101300,0,0,201,0,0,0,0,0,0,0,0,0,0,0,0,0,0,0,0,0,0,0,0,0,0
2016,1,8,7,0,,-10.9,-12.2,90,101360,0,0,200,0,0,0,0,0,0,0,90,0.9,0,0,0,0,0,0,0,0,0,0,0,0,0
2016,1,8,8,0,,-11.2,-12.6,89,101420,0,0,199,0,0,0,0,0,0,0,20,0.8,0,0,0,0,0,0,0,0,0,0,0,0,0
2016,1,8,9,0,,-10.6,-12.4,86,101490,0,0,201,79,44,36,6241,4321,4542,0,0,0.1,0,0,0,0,0,0,0,0,0,0,0,0,0
2016,1,8,10,0,,-7.8,-12.1,71,101490,0,0,209,227,617,59,37668,60929,8948,0,340,0.9,0,0,0,0,0,0,0,0,0,0,0,0,0
2016,1,8,11,0,,-4.9,-12.7,54,101460,0,0,218,366,761,67,47268,74533,9877,0,90,1.2,0,0,0,0,0,0,0,0,0,0,0,0,0
2016,1,8,12,0,,-2.4,-14.1,40,101370,0,0,227,470,862,64,50075,84085,9534,0,110,0.6,0,0,0,0,0,0,0,0,0,0,0,0,0
2016,1,8,13,0,,-0.6,-14.9,33,101260,0,0,233,501,859,70,44617,82405,10495,0,180,1.1,0,0,0,0,0,0,0,0,0,0,0,0,0
2016,1,8,14,0,,0.7,-15.3,29,101190,0,0,236,468,814,75,32996,71757,11316,0,90,0.9,0,0,0,0,0,0,0,0,0,0,0,0,0
2016,1,8,15,0,,1.3,-15.2,28,101190,0,0,238,393,788,66,16988,51139,9117,0,230,3.2,0,0,0,0,0,0,0,0,0,0,0,0,0
2016,1,8,16,0,,1.3,-15.2,28,101200,0,0,238,274,729,53,0,0,0,0,250,2.5,0,0,0,0,0,0,0,0,0,0,0,0,0
2016,1,8,17,0,,0.3,-14.5,32,101230,0,0,235,129,630,32,0,0,0,0,250,2.1,0,0,0,0,0,0,0,0,0,0,0,0,0
2016,1,8,18,0,,-0.6,-13.8,36,101280,0,0,234,21,9,12,0,0,0,0,270,2,0,0,0,0,0,0,0,0,0,0,0,0,0
2016,1,8,19,0,,-1.8,-12.1,45,101320,0,0,230,0,0,0,0,0,0,0,340,1.3,0,0,0,0,0,0,0,0,0,0,0,0,0
2016,1,8,20,0,,-3.4,-10.9,56,101380,0,0,225,0,0,0,0,0,0,0,250,0.9,0,0,0,0,0,0,0,0,0,0,0,0,0
2016,1,8,21,0,,-5,-10,68,101410,0,0,220,0,0,0,0,0,0,0,0,0.4,0,0,0,0,0,0,0,0,0,0,0,0,0
2016,1,8,22,0,,-6.3,-10.5,72,101430,0,0,216,0,0,0,0,0,0,0,70,0.6,0,0,0,0,0,0,0,0,0,0,0,0,0
2016,1,8,23,0,,-7.4,-10.7,77,101450,0,0,212,0,0,0,0,0,0,0,20,0.7,0,0,0,0,0,0,0,0,0,0,0,0,0
2016,1,8,24,0,,-8.2,-11.8,75,101470,0,0,208,0,0,0,0,0,0,0,0,0.4,0,0,0,0,0,0,0,0,0,0,0,0,0
2016,1,9,1,0,,-8.8,-11.7,79,101450,0,0,207,0,0,0,0,0,0,0,0,0.3,0,0,0,0,0,0,0,0,0,0,0,0,0
2016,1,9,2,0,,-8.9,-11.8,79,101490,0,0,206,0,0,0,0,0,0,0,0,0.3,0,0,0,0,0,0,0,0,0,0,0,0,0
2016,1,9,3,0,,-9.3,-11.3,85,101520,0,0,206,0,0,0,0,0,0,0,0,0.2,0,0,0,0,0,0,0,0,0,0,0,0,0
2016,1,9,4,0,,-9.9,-11.8,86,101500,0,0,203,0,0,0,0,0,0,0,50,0.6,0,0,0,0,0,0,0,0,0,0,0,0,0
2016,1,9,5,0,,-10.1,-11.7,88,101480,0,0,203,0,0,0,0,0,0,0,0,0.3,0,0,0,0,0,0,0,0,0,0,0,0,0
2016,1,9,6,0,,-10.4,-11.5,91,101530,0,0,202,0,0,0,0,0,0,0,70,0.6,0,0,0,0,0,0,0,0,0,0,0,0,0
2016,1,9,7,0,,-10.6,-11.7,91,101590,0,0,208,0,0,0,0,0,0,0,0,0.2,2,0,0,0,0,0,0,0,0,0,0,0,0
2016,1,9,8,0,,-11,-11.9,93,101640,0,0,200,0,0,0,0,0,0,0,0,0,0,0,0,0,0,0,0,0,0,0,0,0,0
2016,1,9,9,0,,-10,-11.4,89,101680,0,0,204,81,46,35,6255,4514,4474,0,0,0.3,0,0,0,0,0,0,0,0,0,0,0,0,0
2016,1,9,10,0,,-7.8,-10.9,78,101720,0,0,210,220,572,64,36344,56408,9662,0,360,0.6,0,0,0,0,0,0,0,0,0,0,0,0,0
2016,1,9,11,0,,-4.9,-10,67,101680,0,0,221,354,706,76,46335,69882,11134,0,320,0.8,0,0,0,0,0,0,0,0,0,0,0,0,0
2016,1,9,12,0,,-1.7,-11.2,48,101570,0,0,231,468,848,67,50062,82808,9940,0,200,0.9,0,0,0,0,0,0,0,0,0,0,0,0,0
2016,1,9,13,0,,0.4,-12.3,38,101480,0,0,237,514,895,63,45213,85685,9506,0,230,2.6,0,0,0,0,0,0,0,0,0,0,0,0,0
2016,1,9,14,0,,1.3,-12.5,35,101410,0,0,240,490,880,63,33596,78665,9608,0,230,4.7,0,0,0,0,0,0,0,0,0,0,0,0,0
2016,1,9,15,0,,1.9,-11.9,35,101410,0,0,243,392,774,69,17384,50458,9471,0,230,4.2,0,0,0,0,0,0,0,0,0,0,0,0,0
2016,1,9,16,0,,2,-14.2,29,101400,0,0,242,280,749,51,0,0,0,0,230,3.6,0,0,0,0,0,0,0,0,0,0,0,0,0
2016,1,9,17,0,,1.1,-14.1,31,101430,0,0,238,133,644,31,0,0,0,0,250,2.8,0,0,0,0,0,0,0,0,0,0,0,0,0
2016,1,9,18,0,,0.4,-13.3,35,101460,0,0,236,23,11,12,0,0,0,0,230,2.3,0,0,0,0,0,0,0,0,0,0,0,0,0
2016,1,9,19,0,,-0.1,-10,47,101470,0,0,243,0,0,0,0,0,0,0,230,2.5,1,0,0,0,0,0,0,0,0,0,0,0,0
2016,1,9,20,0,,-0.3,-9.2,51,101490,0,0,246,0,0,0,0,0,0,0,230,3.5,2,0,0,0,0,0,0,0,0,0,0,0,0
2016,1,9,21,0,,-0.5,-8.9,53,101510,0,0,248,0,0,0,0,0,0,0,230,2.4,3,0,0,0,0,0,0,0,0,0,0,0,0
2016,1,9,22,0,,-0.3,-8.4,54,101560,0,0,252,0,0,0,0,0,0,0,200,2.5,5,0,0,0,0,0,0,0,0,0,0,0,0
2016,1,9,23,0,,-0.2,-7.9,56,101540,0,0,257,0,0,0,0,0,0,0,180,2.8,6,0,0,0,0,0,0,0,0,0,0,0,0
2016,1,9,24,0,,-0.1,-7.3,58,101530,0,0,264,0,0,0,0,0,0,0,180,2.9,8,0,0,0,0,0,0,0,0,0,0,0,0
2016,1,10,1,0,,0.1,-7.2,58,101450,0,0,264,0,0,0,0,0,0,0,180,2.4,8,0,0,0,0,0,0,0,0,0,0,0,0
2016,1,10,2,0,,0,-6.2,63,101480,0,0,265,0,0,0,0,0,0,0,250,1.3,8,0,0,0,0,0,0,0,0,0,0,0,0
2016,1,10,3,0,,-0.7,-5.6,69,101480,0,0,263,0,0,0,0,0,0,0,0,0.3,8,0,0,0,0,0,0,0,0,0,0,0,0
2016,1,10,4,0,,-0.7,-6.8,63,101460,0,0,262,0,0,0,0,0,0,0,200,0.9,8,0,0,0,0,0,0,0,0,0,0,0,0
2016,1,10,5,0,,0.3,-6.3,61,101440,0,0,266,0,0,0,0,0,0,0,200,1.5,8,0,0,0,0,0,0,0,0,0,0,0,0
2016,1,10,6,0,,-0.1,-5.3,68,101450,0,0,262,0,0,0,0,0,0,0,200,0.7,7,0,0,0,0,0,0,0,0,0,0,0,0
2016,1,10,7,0,,-1.2,-4.7,77,101500,0,0,268,0,0,0,0,0,0,0,340,1.3,9,0,0,0,0,0,0,0,0,0,0,0,0
2016,1,10,8,0,,-1.9,-4.8,80,101550,0,0,253,0,0,0,0,0,0,0,0,0.4,6,0,0,0,0,0,0,0,0,0,0,0,0
2016,1,10,9,0,,-2.2,-4.8,82,101610,0,0,240,78,40,37,6350,3918,4799,0,320,0.9,1,0,0,0,0,0,0,0,0,0,0,0,0
2016,1,10,10,0,,1.2,-10.3,42,101670,0,0,241,241,697,51,39970,68004,7681,0,230,2.1,0,0,0,0,0,0,0,0,0,0,0,0,0
2016,1,10,11,0,,2.7,-12,33,101680,0,0,246,373,781,64,48270,76685,9476,0,230,1.5,0,0,0,0,0,0,0,0,0,0,0,0,0
2016,1,10,12,0,,4.2,-14.1,25,101610,0,0,250,474,863,64,50624,84335,9553,0,200,1,0,0,0,0,0,0,0,0,0,0,0,0,0
2016,1,10,13,0,,4.9,-16.2,20,101530,0,0,251,488,800,83,44245,76374,12209,0,200,1.3,0,0,0,0,0,0,0,0,0,0,0,0,0
2016,1,10,14,0,,4.8,-16.3,20,101500,0,0,251,462,777,84,33092,68372,12045,0,290,3.2,0,0,0,0,0,0,0,0,0,0,0,0,0
2016,1,10,15,0,,4.9,-15.6,21,101500,0,0,251,385,733,77,17919,47719,10295,0,250,3.6,0,0,0,0,0,0,0,0,0,0,0,0,0
2016,1,10,16,0,,4.3,-16.7,20,101510,0,0,248,272,693,58,0,0,0,0,250,3.1,0,0,0,0,0,0,0,0,0,0,0,0,0
2016,1,10,17,0,,3,-16.1,23,101560,0,0,244,130,590,35,0,0,0,0,270,2,0,0,0,0,0,0,0,0,0,0,0,0,0
2016,1,10,18,0,,1.3,-14.8,29,101650,0,0,239,23,13,9,0,0,0,0,290,1.6,0,0,0,0,0,0,0,0,0,0,0,0,0
2016,1,10,19,0,,-0.3,-13.5,36,101730,0,0,235,0,0,0,0,0,0,0,0,0.4,0,0,0,0,0,0,0,0,0,0,0,0,0
2016,1,10,20,0,,-2.1,-11.9,47,101770,0,0,229,0,0,0,0,0,0,0,110,0.6,0,0,0,0,0,0,0,0,0,0,0,0,0
2016,1,10,21,0,,-3.6,-9.6,63,101770,0,0,225,0,0,0,0,0,0,0,0,0.4,0,0,0,0,0,0,0,0,0,0,0,0,0
2016,1,10,22,0,,-4.9,-10.4,65,101750,0,0,220,0,0,0,0,0,0,0,20,0.8,0,0,0,0,0,0,0,0,0,0,0,0,0
2016,1,10,23,0,,-5.6,-10.2,70,101700,0,0,218,0,0,0,0,0,0,0,50,0.8,0,0,0,0,0,0,0,0,0,0,0,0,0
2016,1,10,24,0,,-6.4,-11.9,65,101760,0,0,214,0,0,0,0,0,0,0,70,0.5,0,0,0,0,0,0,0,0,0,0,0,0,0
2016,1,11,1,0,,-7,-11.2,72,101800,0,0,213,0,0,0,0,0,0,0,110,0.5,0,0,0,0,0,0,0,0,0,0,0,0,0
2016,1,11,2,0,,-7.6,-11.4,74,101790,0,0,210,0,0,0,0,0,0,0,0,0.1,0,0,0,0,0,0,0,0,0,0,0,0,0
2016,1,11,3,0,,-8.4,-11.5,78,101760,0,0,208,0,0,0,0,0,0,0,0,0,0,0,0,0,0,0,0,0,0,0,0,0,0
2016,1,11,4,0,,-9,-11.6,81,101720,0,0,206,0,0,0,0,0,0,0,0,0.3,0,0,0,0,0,0,0,0,0,0,0,0,0
2016,1,11,5,0,,-9.1,-12.2,78,101710,0,0,205,0,0,0,0,0,0,0,0,0.3,0,0,0,0,0,0,0,0,0,0,0,0,0
2016,1,11,6,0,,-9.6,-12.4,80,101720,0,0,203,0,0,0,0,0,0,0,0,0.3,0,0,0,0,0,0,0,0,0,0,0,0,0
2016,1,11,7,0,,-10,-12,85,101750,0,0,203,0,0,0,0,0,0,0,90,0.6,0,0,0,0,0,0,0,0,0,0,0,0,0
2016,1,11,8,0,,-10.5,-12.2,87,101820,0,0,201,0,0,0,0,0,0,0,0,0.1,0,0,0,0,0,0,0,0,0,0,0,0,0
2016,1,11,9,0,,-9.6,-13.7,72,101870,0,0,202,86,54,32,6550,5252,4463,0,20,0.7,0,0,0,0,0,0,0,0,0,0,0,0,0
2016,1,11,10,0,,-6.5,-14,55,101890,0,0,212,236,660,55,38943,64331,8277,0,0,0.3,0,0,0,0,0,0,0,0,0,0,0,0,0
2016,1,11,11,0,,-4.1,-14.8,43,101880,0,0,224,383,819,58,49521,80374,8680,0,230,0.9,1,0,0,0,0,0,0,0,0,0,0,0,0
2016,1,11,12,0,,-2,-15.4,35,101790,0,0,232,473,854,66,50681,83384,9858,0,270,1.4,1,0,0,0,0,0,0,0,0,0,0,0,0
2016,1,11,13,0,,-0.8,-17.9,26,101680,0,0,236,503,842,74,45250,80863,11104,0,90,1,1,0,0,0,0,0,0,0,0,0,0,0,0
2016,1,11,14,0,,1,-17.8,23,101570,0,0,236,476,815,76,33694,72341,11210,0,200,0.9,0,0,0,0,0,0,0,0,0,0,0,0,0
2016,1,11,15,0,,1.5,-19,20,101520,0,0,237,405,805,65,17847,54083,9043,0,110,1.4,0,0,0,0,0,0,0,0,0,0,0,0,0
2016,1,11,16,0,,1.9,-18.7,20,101490,0,0,239,285,747,52,0,0,0,0,250,0.8,0,0,0,0,0,0,0,0,0,0,0,0,0
2016,1,11,17,0,,1,-16.8,25,101480,0,0,241,136,629,33,0,0,0,0,270,0.5,1,0,0,0,0,0,0,0,0,0,0,0,0
2016,1,11,18,0,,-1.3,-13.5,39,101510,0,0,236,24,10,14,0,0,0,0,250,1.6,1,0,0,0,0,0,0,0,0,0,0,0,0
2016,1,11,19,0,,-3.6,-12.7,49,101550,0,0,229,0,0,0,0,0,0,0,70,0.5,2,0,0,0,0,0,0,0,0,0,0,0,0
2016,1,11,20,0,,-5.3,-10.8,65,101660,0,0,227,0,0,0,0,0,0,0,20,0.5,2,0,0,0,0,0,0,0,0,0,0,0,0
2016,1,11,21,0,,-6.4,-12.2,63,101690,0,0,223,0,0,0,0,0,0,0,0,0.4,3,0,0,0,0,0,0,0,0,0,0,0,0
2016,1,11,22,0,,-7.4,-12.3,68,101680,0,0,220,0,0,0,0,0,0,0,0,0.1,4,0,0,0,0,0,0,0,0,0,0,0,0
2016,1,11,23,0,,-7.9,-12.6,69,101670,0,0,219,0,0,0,0,0,0,0,110,0.7,4,0,0,0,0,0,0,0,0,0,0,0,0
2016,1,11,24,0,,-8.5,-12.4,73,101650,0,0,219,0,0,0,0,0,0,0,0,0.4,5,0,0,0,0,0,0,0,0,0,0,0,0
2016,1,12,1,0,,-8.9,-12.3,76,101640,0,0,217,0,0,0,0,0,0,0,0,0.4,4,0,0,0,0,0,0,0,0,0,0,0,0
2016,1,12,2,0,,-9.6,-12.5,79,101640,0,0,213,0,0,0,0,0,0,0,0,0.3,4,0,0,0,0,0,0,0,0,0,0,0,0
2016,1,12,3,0,,-10,-13.5,75,101640,0,0,210,0,0,0,0,0,0,0,0,0.4,3,0,0,0,0,0,0,0,0,0,0,0,0
2016,1,12,4,0,,-10.6,-13.5,79,101610,0,0,208,0,0,0,0,0,0,0,0,0.3,3,0,0,0,0,0,0,0,0,0,0,0,0
2016,1,12,5,0,,-11.2,-13.2,85,101600,0,0,207,0,0,0,0,0,0,0,90,0.7,3,0,0,0,0,0,0,0,0,0,0,0,0
2016,1,12,6,0,,-11.7,-13.7,85,101610,0,0,196,0,0,0,0,0,0,0,0,0.3,0,0,0,0,0,0,0,0,0,0,0,0,0
2016,1,12,7,0,,-12.4,-13.8,89,101620,0,0,194,0,0,0,0,0,0,0,0,0.2,0,0,0,0,0,0,0,0,0,0,0,0,0
2016,1,12,8,0,,-12.6,-14,89,101620,0,0,193,0,0,0,0,0,0,0,0,0.4,0,0,0,0,0,0,0,0,0,0,0,0,0
2016,1,12,9,0,,-11.8,-14.1,83,101650,0,0,195,83,48,35,6663,4737,4773,0,0,0.3,0,0,0,0,0,0,0,0,0,0,0,0,0
2016,1,12,10,0,,-9.3,-13.4,72,101650,0,0,203,223,573,65,36811,56583,9725,0,0,0.3,0,0,0,0,0,0,0,0,0,0,0,0,0
2016,1,12,11,0,,-6.9,-12.9,62,101610,0,0,211,363,728,73,47654,72266,10763,0,360,0.6,0,0,0,0,0,0,0,0,0,0,0,0,0
2016,1,12,12,0,,-4.4,-14.5,45,101490,0,0,219,463,811,75,50414,79997,11037,0,320,0.9,0,0,0,0,0,0,0,0,0,0,0,0,0
2016,1,12,13,0,,-2.3,-15.3,36,101340,0,0,227,505,844,74,45606,81158,11100,0,360,0.9,0,0,0,0,0,0,0,0,0,0,0,0,0
2016,1,12,14,0,,-0.1,-16.4,28,101230,0,0,235,490,854,69,34506,76523,10489,0,110,0.9,0,0,0,0,0,0,0,0,0,0,0,0,0
2016,1,12,15,0,,1.2,-16.7,25,101160,0,0,237,415,830,61,18059,56719,8650,0,140,0.8,0,0,0,0,0,0,0,0,0,0,0,0,0
2016,1,12,16,0,,1.8,-17.1,23,101130,0,0,239,301,815,45,0,0,0,0,230,2.4,0,0,0,0,0,0,0,0,0,0,0,0,0
2016,1,12,17,0,,0.5,-17.3,25,101110,0,0,234,144,684,30,0,0,0,0,200,2.6,0,0,0,0,0,0,0,0,0,0,0,0,0
2016,1,12,18,0,,-0.6,-16.4,29,101160,0,0,233,27,15,13,0,0,0,0,230,2.9,0,0,0,0,0,0,0,0,0,0,0,0,0
2016,1,12,19,0,,-1.4,-16.3,31,101190,0,0,230,0,0,0,0,0,0,0,230,2.7,0,0,0,0,0,0,0,0,0,0,0,0,0
2016,1,12,20,0,,-2.2,-16.3,33,101220,0,0,227,0,0,0,0,0,0,0,230,1.8,0,0,0,0,0,0,0,0,0,0,0,0,0
2016,1,12,21,0,,-3.1,-16.4,35,101230,0,0,223,0,0,0,0,0,0,0,230,1.5,0,0,0,0,0,0,0,0,0,0,0,0,0
2016,1,12,22,0,,-3.7,-15.9,38,101230,0,0,221,0,0,0,0,0,0,0,200,2.4,0,0,0,0,0,0,0,0,0,0,0,0,0
2016,1,12,23,0,,-4.4,-15.4,42,101220,0,0,219,0,0,0,0,0,0,0,140,1.1,0,0,0,0,0,0,0,0,0,0,0,0,0
2016,1,12,24,0,,-7.4,-12.4,67,101210,0,0,210,0,0,0,0,0,0,0,20,1,0,0,0,0,0,0,0,0,0,0,0,0,0
2016,1,13,1,0,,-7.4,-14.4,57,101190,0,0,212,0,0,0,0,0,0,0,250,2.1,1,0,0,0,0,0,0,0,0,0,0,0,0
2016,1,13,2,0,,-6.2,-14,54,101200,0,0,220,0,0,0,0,0,0,0,230,2.1,2,0,0,0,0,0,0,0,0,0,0,0,0
2016,1,13,3,0,,-7,-13.2,61,101240,0,0,220,0,0,0,0,0,0,0,230,1.1,3,0,0,0,0,0,0,0,0,0,0,0,0
2016,1,13,4,0,,-9.6,-12.7,78,101220,0,0,212,0,0,0,0,0,0,0,20,1.3,3,0,0,0,0,0,0,0,0,0,0,0,0
2016,1,13,5,0,,-10.4,-13.5,78,101190,0,0,208,0,0,0,0,0,0,0,0,0.4,3,0,0,0,0,0,0,0,0,0,0,0,0
2016,1,13,6,0,,-11.3,-13.3,85,101160,0,0,206,0,0,0,0,0,0,0,50,0.5,3,0,0,0,0,0,0,0,0,0,0,0,0
2016,1,13,7,0,,-11.8,-13.5,87,101170,0,0,200,0,0,0,0,0,0,0,0,0.3,1,0,0,0,0,0,0,0,0,0,0,0,0
2016,1,13,8,0,,-12.4,-14.1,87,101180,0,0,197,0,0,0,0,0,0,0,20,0.6,1,0,0,0,0,0,0,0,0,0,0,0,0
2016,1,13,9,0,,-11.6,-13.4,86,101230,0,0,197,81,44,37,6459,4364,4710,0,360,0.6,0,0,0,0,0,0,0,0,0,0,0,0,0
2016,1,13,10,0,,-8.7,-13.3,69,101260,0,0,205,228,595,63,37719,58853,9423,0,360,0.9,0,0,0,0,0,0,0,0,0,0,0,0,0
2016,1,13,11,0,,-5.2,-15,46,101190,0,0,220,387,822,58,50086,80711,8686,0,180,1,1,0,0,0,0,0,0,0,0,0,0,0,0
2016,1,13,12,0,,-2.6,-16.6,33,101030,0,0,235,476,851,68,51196,83164,10030,0,200,1.2,3,0,0,0,0,0,0,0,0,0,0,0,0
2016,1,13,13,0,,-1.5,-16.8,30,100900,0,0,248,404,486,154,39321,46666,19341,0,180,2.5,7,0,0,0,0,0,0,0,0,0,0,0,0
2016,1,13,14,0,,-0.2,-13.1,37,100800,0,0,255,373,428,161,30502,38309,18360,0,230,4,7,0,0,0,0,0,0,0,0,0,0,0,0
2016,1,13,15,0,,-0.6,-11.9,42,100740,0,0,264,217,133,160,19358,10723,17546,0,200,2.8,9,0,0,0,0,0,0,0,0,0,0,0,0
2016,1,13,16,0,,-1.2,-7.9,60,100760,0,0,264,140,100,108,0,0,0,0,230,3.5,9,0,0,0,0,0,0,0,0,0,0,0,0
2016,1,13,17,0,,-1.8,-5.4,76,100780,0,0,259,71,105,54,0,0,0,0,230,2.6,8,0,0,0,0,0,0,0,0,0,0,0,0
2016,1,13,18,0,,-2,-4.6,82,100800,0,0,259,10,1,9,0,0,0,0,0,0.1,8,0,0,0,0,0,0,0,0,0,0,0,0
2016,1,13,19,0,,-2.1,-4.2,85,100840,0,0,260,0,0,0,0,0,0,0,160,1.3,8,0,0,0,0,0,0,0,0,0,0,0,0
2016,1,13,20,0,,-2.1,-3.6,89,100880,0,0,260,0,0,0,0,0,0,0,160,0.6,8,0,0,0,0,0,0,0,0,0,0,0,0
2016,1,13,21,0,,-2.2,-5.8,76,100930,0,0,257,0,0,0,0,0,0,0,250,1.4,8,0,0,0,0,0,0,0,0,0,0,0,0
2016,1,13,22,0,,-2.4,-8.2,64,100960,0,0,250,0,0,0,0,0,0,0,230,1.6,7,0,0,0,0,0,0,0,0,0,0,0,0
2016,1,13,23,0,,-2.6,-7.8,67,100990,0,0,244,0,0,0,0,0,0,0,230,1.9,5,0,0,0,0,0,0,0,0,0,0,0,0
2016,1,13,24,0,,-3.6,-10,61,101030,0,0,235,0,0,0,0,0,0,0,270,2.2,3,0,0,0,0,0,0,0,0,0,0,0,0
2016,1,14,1,0,,-4.7,-11.9,57,101100,0,0,228,0,0,0,0,0,0,0,230,1.7,3,0,0,0,0,0,0,0,0,0,0,0,0
2016,1,14,2,0,,-5.7,-15.5,46,101180,0,0,222,0,0,0,0,0,0,0,0,0.2,2,0,0,0,0,0,0,0,0,0,0,0,0
2016,1,14,3,0,,-7.3,-14.8,55,101190,0,0,215,0,0,0,0,0,0,0,0,0.4,2,0,0,0,0,0,0,0,0,0,0,0,0
2016,1,14,4,0,,-9.4,-13.1,74,101180,0,0,203,0,0,0,0,0,0,0,360,1.3,0,0,0,0,0,0,0,0,0,0,0,0,0
2016,1,14,5,0,,-10.3,-12.6,83,101200,0,0,205,0,0,0,0,0,0,0,50,0.6,1,0,0,0,0,0,0,0,0,0,0,0,0
2016,1,14,6,0,,-11.3,-13.3,85,101260,0,0,201,0,0,0,0,0,0,0,20,0.5,1,0,0,0,0,0,0,0,0,0,0,0,0
2016,1,14,7,0,,-12,-14,85,101330,0,0,195,0,0,0,0,0,0,0,70,0.6,0,0,0,0,0,0,0,0,0,0,0,0,0
2016,1,14,8,0,,-12.7,-14.4,87,101390,0,0,192,0,0,0,0,0,0,0,0,0.3,0,0,0,0,0,0,0,0,0,0,0,0,0
2016,1,14,9,0,,-12,-14.7,80,101410,0,0,194,81,43,38,6535,4308,4801,0,0,0.4,0,0,0,0,0,0,0,0,0,0,0,0,0
2016,1,14,10,0,,-9,-15.9,57,101440,0,0,202,240,662,56,39550,64593,8352,0,0,0.4,0,0,0,0,0,0,0,0,0,0,0,0,0
2016,1,14,11,0,,-5.3,-16.8,40,101410,0,0,215,393,839,56,50827,82416,8342,0,180,1.7,0,0,0,0,0,0,0,0,0,0,0,0,0
2016,1,14,12,0,,-3,-17,33,101320,0,0,224,503,934,52,53409,91525,7845,0,200,0.9,0,0,0,0,0,0,0,0,0,0,0,0,0
2016,1,14,13,0,,-1.5,-17.2,29,101190,0,0,237,512,850,74,46398,82008,11036,0,140,1,2,0,0,0,0,0,0,0,0,0,0,0,0
2016,1,14,14,0,,-0.5,-16.8,28,101140,0,0,252,369,406,167,30638,36520,18946,0,180,1.3,7,0,0,0,0,0,0,0,0,0,0,0,0
2016,1,14,15,0,,-0.2,-14.5,33,101100,0,0,271,189,88,151,17835,7105,16611,0,230,2.6,10,0,0,0,0,0,0,0,0,0,0,0,0
2016,1,14,16,0,,-0.6,-12.5,40,101100,0,0,251,231,415,98,0,0,0,0,250,2.9,6,0,0,0,0,0,0,0,0,0,0,0,0
2016,1,14,17,0,,-0.9,-12.8,40,101100,0,0,249,112,315,57,0,0,0,0,250,1.5,6,0,0,0,0,0,0,0,0,0,0,0,0
2016,1,14,18,0,,-1.2,-11.6,45,101130,0,0,256,15,3,12,0,0,0,0,250,2,8,0,0,0,0,0,0,0,0,0,0,0,0
2016,1,14,19,0,,-1.3,-10.6,49,101160,0,0,254,0,0,0,0,0,0,0,230,2.3,8,0,0,0,0,0,0,0,0,0,0,0,0
2016,1,14,20,0,,-1.5,-10,52,101170,0,0,253,0,0,0,0,0,0,0,230,1.2,7,0,0,0,0,0,0,0,0,0,0,0,0
2016,1,14,21,0,,-1.7,-10,53,101190,0,0,251,0,0,0,0,0,0,0,180,0.5,7,0,0,0,0,0,0,0,0,0,0,0,0
2016,1,14,22,0,,-2.2,-8.9,60,101210,0,0,252,0,0,0,0,0,0,0,360,1.1,8,0,0,0,0,0,0,0,0,0,0,0,0
2016,1,14,23,0,,-2.1,-7.4,67,101210,0,0,256,0,0,0,0,0,0,0,180,1.7,8,0,0,0,0,0,0,0,0,0,0,0,0
2016,1,14,24,0,,-2.4,-5.2,81,101180,0,0,263,0,0,0,0,0,0,0,200,1.2,9,0,0,0,0,0,0,0,0,0,0,0,0
2016,1,15,1,0,,-3.8,-5.5,88,101160,0,0,248,0,0,0,0,0,0,0,0,0.3,7,0,0,0,0,0,0,0,0,0,0,0,0
2016,1,15,2,0,,-5,-6.5,89,101170,0,0,238,0,0,0,0,0,0,0,0,0.3,5,0,0,0,0,0,0,0,0,0,0,0,0
2016,1,15,3,0,,-6.2,-7.4,91,101210,0,0,229,0,0,0,0,0,0,0,90,0.5,3,0,0,0,0,0,0,0,0,0,0,0,0
2016,1,15,4,0,,-7.5,-8.4,93,101200,0,0,224,0,0,0,0,0,0,0,70,0.5,3,0,0,0,0,0,0,0,0,0,0,0,0
2016,1,15,5,0,,-8.3,-8.9,95,101190,0,0,221,0,0,0,0,0,0,0,0,0.2,3,0,0,0,0,0,0,0,0,0,0,0,0
2016,1,15,6,0,,-8.8,-9.3,96,101210,0,0,210,0,0,0,0,0,0,0,110,0.6,0,0,0,0,0,0,0,0,0,0,0,0,0
2016,1,15,7,0,,-9.3,-9.8,96,101270,0,0,208,0,0,0,0,0,0,0,0,0.2,0,0,0,0,0,0,0,0,0,0,0,0,0
2016,1,15,8,0,,-9.3,-10,94,101320,0,0,214,0,0,0,0,0,0,0,110,0.7,2,0,0,0,0,0,0,0,0,0,0,0,0
2016,1,15,9,0,,-8.8,-9.4,95,101360,0,0,210,82,43,38,6603,4254,4882,0,360,0.7,0,0,0,0,0,0,0,0,0,0,0,0,0
2016,1,15,10,0,,-6.8,-8,91,101370,0,0,217,216,507,74,35834,50313,11417,0,0,0.2,0,0,0,0,0,0,0,0,0,0,0,0,0
2016,1,15,11,0,,-3.7,-7.4,75,101360,0,0,232,350,652,87,46043,64521,12612,0,0,0.4,1,0,0,0,0,0,0,0,0,0,0,0,0
2016,1,15,12,0,,-1.3,-8,60,101280,0,0,243,453,754,88,49885,74177,12740,0,360,0.7,2,0,0,0,0,0,0,0,0,0,0,0,0
2016,1,15,13,0,,0.9,-10.5,42,101190,0,0,250,495,785,88,45666,75282,12969,0,290,1.1,3,0,0,0,0,0,0,0,0,0,0,0,0
2016,1,15,14,0,,2.7,-10.5,37,101140,0,0,258,474,771,88,34839,68739,12609,0,230,1.7,3,0,0,0,0,0,0,0,0,0,0,0,0
2016,1,15,15,0,,3.4,-9.9,37,101130,0,0,261,395,717,83,19677,48726,11127,0,180,1.9,3,0,0,0,0,0,0,0,0,0,0,0,0
2016,1,15,16,0,,3.1,-9.8,38,101180,0,0,260,275,637,69,6322,0,6322,0,250,1.2,3,0,0,0,0,0,0,0,0,0,0,0,0
2016,1,15,17,0,,2.3,-9.3,42,101200,0,0,255,139,562,41,0,0,0,0,200,1.5,2,0,0,0,0,0,0,0,0,0,0,0,0
2016,1,15,18,0,,0.2,-7.3,57,101220,0,0,245,27,15,12,0,0,0,0,270,0.8,1,0,0,0,0,0,0,0,0,0,0,0,0
2016,1,15,19,0,,-1.7,-8.2,61,101250,0,0,237,0,0,0,0,0,0,0,0,0.3,1,0,0,0,0,0,0,0,0,0,0,0,0
2016,1,15,20,0,,-3.4,-7.9,71,101300,0,0,229,0,0,0,0,0,0,0,0,0.3,0,0,0,0,0,0,0,0,0,0,0,0,0
2016,1,15,21,0,,-4.5,-8.4,74,101330,0,0,224,0,0,0,0,0,0,0,290,0.7,0,0,0,0,0,0,0,0,0,0,0,0,0
2016,1,15,22,0,,-5.2,-9.1,74,101360,0,0,221,0,0,0,0,0,0,0,0,0.3,0,0,0,0,0,0,0,0,0,0,0,0,0
2016,1,15,23,0,,-6,-8.7,81,101400,0,0,219,0,0,0,0,0,0,0,0,0.3,0,0,0,0,0,0,0,0,0,0,0,0,0
2016,1,15,24,0,,-6.8,-8.9,85,101390,0,0,216,0,0,0,0,0,0,0,320,0.7,0,0,0,0,0,0,0,0,0,0,0,0,0
2016,1,16,1,0,,-7.1,-8.9,87,101390,0,0,215,0,0,0,0,0,0,0,140,0.6,0,0,0,0,0,0,0,0,0,0,0,0,0
2016,1,16,2,0,,-7.7,-9.2,89,101450,0,0,213,0,0,0,0,0,0,0,0,0.3,0,0,0,0,0,0,0,0,0,0,0,0,0
2016,1,16,3,0,,-7.7,-9,90,101500,0,0,213,0,0,0,0,0,0,0,0,0.2,0,0,0,0,0,0,0,0,0,0,0,0,0
2016,1,16,4,0,,-8.2,-9.2,92,101500,0,0,221,0,0,0,0,0,0,0,0,0.3,3,0,0,0,0,0,0,0,0,0,0,0,0
2016,1,16,5,0,,-8.5,-9.7,91,101480,0,0,219,0,0,0,0,0,0,0,20,0.8,3,0,0,0,0,0,0,0,0,0,0,0,0
2016,1,16,6,0,,-8.6,-9.5,93,101520,0,0,221,0,0,0,0,0,0,0,0,0.4,4,0,0,0,0,0,0,0,0,0,0,0,0
2016,1,16,7,0,,-9,-9.9,93,101540,0,0,212,0,0,0,0,0,0,0,20,0.8,1,0,0,0,0,0,0,0,0,0,0,0,0
2016,1,16,8,0,,-9.3,-10.2,93,101560,0,0,207,0,0,0,0,0,0,0,0,0.1,0,0,0,0,0,0,0,0,0,0,0,0,0
2016,1,16,9,0,,-8.4,-9.3,93,101620,0,0,220,79,39,41,6723,3794,5180,0,20,0.7,3,0,0,0,0,0,0,0,0,0,0,0,0
2016,1,16,10,0,,-6.8,-8.9,85,101630,0,0,231,172,280,93,26467,27586,13013,0,0,0.3,6,0,0,0,0,0,0,0,0,0,0,0,0
2016,1,16,11,0,,-4.8,-8.3,76,101610,0,0,245,220,167,153,27101,16992,18250,0,0,0.4,8,0,0,0,0,0,0,0,0,0,0,0,0
2016,1,16,12,0,,-3.2,-7.7,71,101560,0,0,264,189,59,160,21154,5709,18278,0,160,0.7,10,0,0,0,0,0,0,0,0,0,0,0,0
2016,1,16,13,0,,-2.1,-6.4,72,101500,0,0,270,196,53,169,21334,5029,19134,0,0,0.4,10,0,0,0,0,0,0,0,0,0,0,0,0
2016,1,16,14,0,,-2,-3.5,89,101440,0,0,274,149,27,135,16088,2450,15287,0,0,0.4,10,0,0,0,0,0,0,0,0,0,0,0,0
2016,1,16,15,0,,-1.4,-2.6,91,101400,0,0,277,119,23,109,11792,1016,11610,0,0,0.2,10,0,0,0,0,0,0,0,0,0,0,0,0
2016,1,16,16,0,,-1,-2.4,90,101430,0,0,279,85,23,78,7092,2549,7082,0,0,0.3,10,0,0,0,0,0,0,0,0,0,0,0,0
2016,1,16,17,0,,-1,-2.4,90,101430,0,0,259,99,235,57,0,0,0,0,0,0.2,6,0,0,0,0,0,0,0,0,0,0,0,0
2016,1,16,18,0,,-2.2,-2.7,96,101420,0,0,248,24,10,14,0,0,0,0,0,0.1,3,0,0,0,0,0,0,0,0,0,0,0,0
2016,1,16,19,0,,-3.4,-3.4,100,101460,0,0,250,0,0,0,0,0,0,0,0,0.1,7,0,0,0,0,0,0,0,0,0,0,0,0
2016,1,16,20,0,,-4.4,-4.4,100,101470,0,0,264,0,0,0,0,0,0,0,0,0.1,10,0,0,0,0,0,0,0,0,0,0,0,0
2016,1,16,21,0,,-5,-5,100,101500,0,0,261,0,0,0,0,0,0,0,140,0.6,10,0,0,0,0,0,0,0,0,0,0,0,0
2016,1,16,22,0,,-5.8,-5.8,100,101480,0,0,223,0,0,0,0,0,0,0,0,0.3,0,0,0,0,0,0,0,0,0,0,0,0,0
2016,1,16,23,0,,-5.2,-5.2,100,101450,0,0,233,0,0,0,0,0,0,0,110,0.5,2,0,0,0,0,0,0,0,0,0,0,0,0
2016,1,16,24,0,,-4.5,-4.5,100,101390,0,0,240,0,0,0,0,0,0,0,0,0.2,4,0,0,0,0,0,0,0,0,0,0,0,0
2016,1,17,1,0,,-4.2,-4.2,100,101370,0,0,243,0,0,0,0,0,0,0,360,0.6,5,0,0,0,0,0,0,0,0,0,0,0,0
2016,1,17,2,0,,-3.8,-3.8,100,101390,0,0,246,0,0,0,0,0,0,0,0,0.4,5,0,0,0,0,0,0,0,0,0,0,0,0
2016,1,17,3,0,,-3.5,-3.5,100,101410,0,0,249,0,0,0,0,0,0,0,0,0.3,6,0,0,0,0,0,0,0,0,0,0,0,0
2016,1,17,4,0,,-3.3,-3.3,100,101390,0,0,253,0,0,0,0,0,0,0,0,0.1,7,0,0,0,0,0,0,0,0,0,0,0,0
2016,1,17,5,0,,-3.2,-3.4,98,101340,0,0,257,0,0,0,0,0,0,0,0,0.2,8,0,0,0,0,0,0,0,0,0,0,0,0
2016,1,17,6,0,,-3.2,-3.4,98,101280,0,0,257,0,0,0,0,0,0,0,20,0.8,8,0,0,0,0,0,0,0,0,0,0,0,0
2016,1,17,7,0,,-3.2,-3.4,98,101240,0,0,262,0,0,0,0,0,0,0,0,0.2,9,0,0,0,0,0,0,0,0,0,0,0,0
2016,1,17,8,0,,-3.5,-3.7,98,101210,0,0,261,0,0,0,0,0,0,0,110,0.8,9,0,0,0,0,0,0,0,0,0,0,0,0
2016,1,17,9,0,,-3.5,-3.7,98,101190,0,0,255,46,9,37,4721,851,4373,0,0,0.3,8,0,0,0,0,0,0,0,0,0,0,0,0
2016,1,17,10,0,,-2.8,-3.9,92,101230,0,0,257,120,94,94,16018,9419,11400,0,0,0.2,8,0,0,0,0,0,0,0,0,0,0,0,0
2016,1,17,11,0,,-1.9,-3.4,89,101170,0,0,261,189,105,146,22814,10570,17279,0,250,0.6,8,0,0,0,0,0,0,0,0,0,0,0,0
2016,1,17,12,0,,-0.8,-3.1,84,101020,0,0,266,246,122,187,27812,12113,21672,0,200,0.5,8,0,0,0,0,0,0,0,0,0,0,0,0
2016,1,17,13,0,,0.2,-2.5,82,100850,0,0,270,261,114,201,27899,11023,23040,0,290,0.5,8,0,0,0,0,0,0,0,0,0,0,0,0
2016,1,17,14,0,,1.3,-2.6,75,100720,0,0,274,264,132,197,26019,12129,22015,0,160,1,8,0,0,0,0,0,0,0,0,0,0,0,0
2016,1,17,15,0,,2,-2.5,72,100680,0,0,283,189,82,153,18100,6610,16896,0,290,0.5,9,0,0,0,0,0,0,0,0,0,0,0,0
2016,1,17,16,0,,2.5,-2.4,70,100690,0,0,285,141,91,111,11640,5867,11598,0,20,0.6,9,0,0,0,0,0,0,0,0,0,0,0,0
2016,1,17,17,0,,2.2,-2.1,73,100670,0,0,292,49,29,44,0,0,0,0,0,0.1,10,0,0,0,0,0,0,0,0,0,0,0,0
2016,1,17,18,0,,1.5,-1.4,81,100630,0,0,282,10,1,9,0,0,0,0,290,0.7,9,0,0,0,0,0,0,0,0,0,0,0,0
2016,1,17,19,0,,0.6,-1.3,87,100620,0,0,279,0,0,0,0,0,0,0,0,0.2,9,0,0,0,0,0,0,0,0,0,0,0,0
2016,1,17,20,0,,0.2,-1.2,90,100550,0,0,278,0,0,0,0,0,0,0,110,0.9,9,0,0,0,0,0,0,0,0,0,0,0,0
2016,1,17,21,0,,-1.2,-1.6,97,100460,0,0,272,0,0,0,0,0,0,0,20,0.6,9,0,0,0,0,0,0,0,0,0,0,0,0
2016,1,17,22,0,,-0.9,-1.6,95,100430,0,0,275,0,0,0,0,0,0,0,140,0.7,9,0,0,0,0,0,0,0,0,0,0,0,0
2016,1,17,23,0,,-0.8,-1.5,95,100370,0,0,278,0,0,0,0,0,0,0,20,0.7,10,0,0,0,0,0,0,0,0,0,0,0,0
2016,1,17,24,0,,-1,-1.4,97,100310,0,0,281,0,0,0,0,0,0,0,110,0.5,10,0,0,0,0,0,0,0,0,0,0,0,0
2016,1,18,1,0,,-0.9,-1.6,95,100240,0,0,281,0,0,0,0,0,0,0,0,0.4,10,0,0,0,0,0,0,0,0,0,0,0,0
2016,1,18,2,0,,-2.1,-2.2,99,100190,0,0,275,0,0,0,0,0,0,0,0,0.3,10,0,0,0,0,0,0,0,0,0,0,0,0
2016,1,18,3,0,,-3.2,-3.2,100,100140,0,0,270,0,0,0,0,0,0,0,0,0.4,10,0,0,0,0,0,0,0,0,0,0,0,0
2016,1,18,4,0,,-2.8,-2.8,100,100080,0,0,272,0,0,0,0,0,0,0,0,0.1,10,0,0,0,0,0,0,0,0,0,0,0,0
2016,1,18,5,0,,-2.6,-2.6,100,100030,0,0,273,0,0,0,0,0,0,0,0,0.3,10,0,0,0,0,0,0,0,0,0,0,0,0
2016,1,18,6,0,,-2.6,-2.6,100,99990,0,0,273,0,0,0,0,0,0,0,360,0.7,10,0,0,0,0,0,0,0,0,0,0,0,0
2016,1,18,7,0,,-2.4,-2.4,100,99960,0,0,274,0,0,0,0,0,0,0,140,0.9,10,0,0,0,0,0,0,0,0,0,0,0,0
2016,1,18,8,0,,-1.5,-2.4,93,99990,0,0,277,0,0,0,0,0,0,0,250,1.6,10,0,0,0,0,0,0,0,0,0,0,0,0
2016,1,18,9,0,,-0.9,-6.6,65,100040,0,0,261,64,24,40,6084,2372,5109,0,250,5.3,8,0,0,0,0,0,0,0,0,0,0,0,0
2016,1,18,10,0,,-1.4,-9.5,54,100130,0,0,244,230,570,68,37947,56534,10086,0,250,3.6,3,0,0,0,0,0,0,0,0,0,0,0,0
2016,1,18,11,0,,-1.1,-12.7,41,100150,0,0,240,354,646,90,47454,64635,13413,0,230,3.7,2,0,0,0,0,0,0,0,0,0,0,0,0
2016,1,18,12,0,,-2,-14.7,37,100170,0,0,233,441,685,104,49668,67838,15066,0,250,7.5,1,0,0,0,0,0,0,0,0,0,0,0,0
2016,1,18,13,0,,-2.6,-15.9,35,100170,0,0,235,446,593,134,43344,56460,18265,0,270,5.4,3,0,0,0,0,0,0,0,0,0,0,0,0
2016,1,18,14,0,,-2.8,-16.1,35,100130,0,0,232,439,618,123,34188,55581,15651,0,250,5.1,2,0,0,0,0,0,0,0,0,0,0,0,0
2016,1,18,15,0,,-3.3,-17.3,33,100150,0,0,230,385,642,99,20457,45003,12106,0,250,4.8,2,0,0,0,0,0,0,0,0,0,0,0,0
2016,1,18,16,0,,-4.5,-19.8,29,100240,0,0,225,288,657,69,6608,0,6608,0,250,5.1,2,0,0,0,0,0,0,0,0,0,0,0,0
2016,1,18,17,0,,-6.3,-19.9,33,100360,0,0,218,149,576,42,0,0,0,0,290,5.2,2,0,0,0,0,0,0,0,0,0,0,0,0
2016,1,18,18,0,,-7.7,-20.8,34,100460,0,0,213,33,16,17,0,0,0,0,250,4.3,2,0,0,0,0,0,0,0,0,0,0,0,0
2016,1,18,19,0,,-8.8,-20.8,37,100530,0,0,208,0,0,0,0,0,0,0,250,3.4,2,0,0,0,0,0,0,0,0,0,0,0,0
2016,1,18,20,0,,-9.8,-20.6,41,100580,0,0,203,0,0,0,0,0,0,0,250,3.7,1,0,0,0,0,0,0,0,0,0,0,0,0
2016,1,18,21,0,,-10.4,-19.5,47,100660,0,0,200,0,0,0,0,0,0,0,250,3.9,1,0,0,0,0,0,0,0,0,0,0,0,0
2016,1,18,22,0,,-11,-20.8,44,100700,0,0,197,0,0,0,0,0,0,0,250,4.5,1,0,0,0,0,0,0,0,0,0,0,0,0
2016,1,18,23,0,,-11.5,-21,45,100720,0,0,194,0,0,0,0,0,0,0,250,3.6,0,0,0,0,0,0,0,0,0,0,0,0,0
2016,1,18,24,0,,-11.9,-20.9,47,100730,0,0,191,0,0,0,0,0,0,0,250,3.5,0,0,0,0,0,0,0,0,0,0,0,0,0
2016,1,19,1,0,,-12.3,-22.8,41,100740,0,0,190,0,0,0,0,0,0,0,230,3.8,0,0,0,0,0,0,0,0,0,0,0,0,0
2016,1,19,2,0,,-12.6,-23.4,40,100750,0,0,189,0,0,0,0,0,0,0,230,3.9,0,0,0,0,0,0,0,0,0,0,0,0,0
2016,1,19,3,0,,-13.1,-22.8,44,100790,0,0,187,0,0,0,0,0,0,0,250,4.3,0,0,0,0,0,0,0,0,0,0,0,0,0
2016,1,19,4,0,,-13.6,-23.2,44,100780,0,0,185,0,0,0,0,0,0,0,230,4,0,0,0,0,0,0,0,0,0,0,0,0,0
2016,1,19,5,0,,-14.2,-23,47,100790,0,0,183,0,0,0,0,0,0,0,230,2.9,0,0,0,0,0,0,0,0,0,0,0,0,0
2016,1,19,6,0,,-14.5,-23.6,46,100810,0,0,182,0,0,0,0,0,0,0,230,3.2,0,0,0,0,0,0,0,0,0,0,0,0,0
2016,1,19,7,0,,-14.7,-23.7,46,100840,0,0,182,0,0,0,0,0,0,0,230,3.1,0,0,0,0,0,0,0,0,0,0,0,0,0
2016,1,19,8,0,,-15,-24,46,100910,0,0,181,0,0,0,0,0,0,0,230,2.5,0,0,0,0,0,0,0,0,0,0,0,0,0
2016,1,19,9,0,,-14.5,-24.1,44,100920,0,0,183,105,79,27,7552,7635,4397,0,200,3.9,0,0,0,0,0,0,0,0,0,0,0,0,0
2016,1,19,10,0,,-13.4,-23.8,41,100980,0,0,187,252,691,54,41602,67572,8118,0,230,3.3,0,0,0,0,0,0,0,0,0,0,0,0,0
2016,1,19,11,0,,-12.1,-23.5,38,100980,0,0,191,376,727,76,49464,72361,11137,0,230,3.1,0,0,0,0,0,0,0,0,0,0,0,0,0
2016,1,19,12,0,,-11.3,-23.4,36,100920,0,0,194,471,783,84,51889,77370,12174,0,230,4.9,0,0,0,0,0,0,0,0,0,0,0,0,0
2016,1,19,13,0,,-10,-22.6,35,100820,0,0,198,505,782,92,46981,75158,13340,0,230,4.7,0,0,0,0,0,0,0,0,0,0,0,0,0
2016,1,19,14,0,,-8.9,-22.6,32,100780,0,0,202,494,798,85,36654,72323,12282,0,230,4.4,0,0,0,0,0,0,0,0,0,0,0,0,0
2016,1,19,15,0,,-8.1,-21.9,32,100820,0,0,205,424,781,74,20861,56116,10253,0,230,4,0,0,0,0,0,0,0,0,0,0,0,0,0
2016,1,19,16,0,,-7.9,-21,34,100930,0,0,205,309,749,57,5874,215,5871,0,250,3.6,0,0,0,0,0,0,0,0,0,0,0,0,0
2016,1,19,17,0,,-8.9,-20.9,37,101040,0,0,202,161,660,37,0,0,0,0,250,3.9,0,0,0,0,0,0,0,0,0,0,0,0,0
2016,1,19,18,0,,-10.2,-21.2,40,101210,0,0,197,36,20,16,0,0,0,0,270,2.8,0,0,0,0,0,0,0,0,0,0,0,0,0
2016,1,19,19,0,,-11,-21.1,43,101350,0,0,194,0,0,0,0,0,0,0,270,1.7,0,0,0,0,0,0,0,0,0,0,0,0,0
2016,1,19,20,0,,-11.8,-21.3,45,101480,0,0,191,0,0,0,0,0,0,0,270,1.3,0,0,0,0,0,0,0,0,0,0,0,0,0
2016,1,19,21,0,,-12.6,-20,54,101590,0,0,188,0,0,0,0,0,0,0,20,0.5,0,0,0,0,0,0,0,0,0,0,0,0,0
2016,1,19,22,0,,-13.1,-20.4,54,101680,0,0,186,0,0,0,0,0,0,0,110,0.8,0,0,0,0,0,0,0,0,0,0,0,0,0
2016,1,19,23,0,,-13.7,-20.8,55,101750,0,0,184,0,0,0,0,0,0,0,140,1.4,0,0,0,0,0,0,0,0,0,0,0,0,0
2016,1,19,24,0,,-14.2,-20.6,58,101800,0,0,182,0,0,0,0,0,0,0,0,0.4,0,0,0,0,0,0,0,0,0,0,0,0,0
2016,1,20,1,0,,-15.3,-19.7,69,101860,0,0,179,0,0,0,0,0,0,0,360,0.7,0,0,0,0,0,0,0,0,0,0,0,0,0
2016,1,20,2,0,,-16.2,-19.9,73,101930,0,0,176,0,0,0,0,0,0,0,340,0.7,0,0,0,0,0,0,0,0,0,0,0,0,0
2016,1,20,3,0,,-16.6,-20.4,72,101980,0,0,175,0,0,0,0,0,0,0,20,0.8,0,0,0,0,0,0,0,0,0,0,0,0,0
2016,1,20,4,0,,-17.2,-20.2,77,102010,0,0,173,0,0,0,0,0,0,0,0,0.3,0,0,0,0,0,0,0,0,0,0,0,0,0
2016,1,20,5,0,,-17.2,-20.5,75,102090,0,0,173,0,0,0,0,0,0,0,110,0.7,0,0,0,0,0,0,0,0,0,0,0,0,0
2016,1,20,6,0,,-17.5,-19.9,81,102120,0,0,173,0,0,0,0,0,0,0,0,0.4,0,0,0,0,0,0,0,0,0,0,0,0,0
2016,1,20,7,0,,-17.5,-20.5,77,102160,0,0,172,0,0,0,0,0,0,0,0,0.2,0,0,0,0,0,0,0,0,0,0,0,0,0
2016,1,20,8,0,,-17.4,-20.6,76,102210,0,0,172,0,0,0,0,0,0,0,90,0.5,0,0,0,0,0,0,0,0,0,0,0,0,0
2016,1,20,9,0,,-16.4,-19.4,77,102270,0,0,180,93,57,36,7254,5726,4873,0,360,0.6,1,0,0,0,0,0,0,0,0,0,0,0,0
2016,1,20,10,0,,-13.7,-18.5,67,102300,0,0,193,237,592,66,39093,58695,9843,0,70,1.1,3,0,0,0,0,0,0,0,0,0,0,0,0
2016,1,20,11,0,,-12.1,-18.9,57,102300,0,0,196,368,688,83,48461,68300,12073,0,340,1,2,0,0,0,0,0,0,0,0,0,0,0,0
2016,1,20,12,0,,-9.9,-19.8,44,102250,0,0,204,477,795,82,52559,78642,11928,0,270,1.7,2,0,0,0,0,0,0,0,0,0,0,0,0
2016,1,20,13,0,,-8.1,-19,41,102180,0,0,213,489,717,107,46558,69329,15284,0,230,1.3,3,0,0,0,0,0,0,0,0,0,0,0,0
2016,1,20,14,0,,-6.8,-19.4,36,102110,0,0,224,411,501,152,33975,45306,18546,0,160,0.9,6,0,0,0,0,0,0,0,0,0,0,0,0
2016,1,20,15,0,,-6.1,-18.7,36,102050,0,0,229,318,356,158,22004,25061,17178,0,180,1.5,7,0,0,0,0,0,0,0,0,0,0,0,0
2016,1,20,16,0,,-5.3,-19,33,102010,0,0,222,304,705,64,6480,111,6478,0,180,1.1,2,0,0,0,0,0,0,0,0,0,0,0,0
2016,1,20,17,0,,-5.4,-18.1,36,101990,0,0,214,163,649,38,0,0,0,0,250,0.6,0,0,0,0,0,0,0,0,0,0,0,0,0
2016,1,20,18,0,,-7,-17.7,42,101990,0,0,208,37,20,16,0,0,0,0,270,0.9,0,0,0,0,0,0,0,0,0,0,0,0,0
2016,1,20,19,0,,-8.5,-16.6,52,102050,0,0,203,0,0,0,0,0,0,0,50,0.5,0,0,0,0,0,0,0,0,0,0,0,0,0
2016,1,20,20,0,,-9.9,-16.4,59,102080,0,0,198,0,0,0,0,0,0,0,0,0.1,0,0,0,0,0,0,0,0,0,0,0,0,0
2016,1,20,21,0,,-11.1,-16.5,64,102100,0,0,194,0,0,0,0,0,0,0,50,0.8,0,0,0,0,0,0,0,0,0,0,0,0,0
2016,1,20,22,0,,-11.6,-16.8,65,102150,0,0,196,0,0,0,0,0,0,0,90,0.5,1,0,0,0,0,0,0,0,0,0,0,0,0
2016,1,20,23,0,,-12.5,-16.6,71,102150,0,0,196,0,0,0,0,0,0,0,90,0.6,2,0,0,0,0,0,0,0,0,0,0,0,0
2016,1,20,24,0,,-13.2,-16.7,75,102110,0,0,196,0,0,0,0,0,0,0,0,0.2,3,0,0,0,0,0,0,0,0,0,0,0,0
2016,1,21,1,0,,-13.3,-16.7,75,102060,0,0,198,0,0,0,0,0,0,0,90,0.6,5,0,0,0,0,0,0,0,0,0,0,0,0
2016,1,21,2,0,,-13.2,-16.3,77,102080,0,0,202,0,0,0,0,0,0,0,0,0.2,6,0,0,0,0,0,0,0,0,0,0,0,0
2016,1,21,3,0,,-12.9,-16.2,76,102110,0,0,208,0,0,0,0,0,0,0,90,0.8,8,0,0,0,0,0,0,0,0,0,0,0,0
2016,1,21,4,0,,-12.8,-16.1,76,102150,0,0,209,0,0,0,0,0,0,0,0,0.3,8,0,0,0,0,0,0,0,0,0,0,0,0
2016,1,21,5,0,,-12.6,-15.6,78,102070,0,0,210,0,0,0,0,0,0,0,0,0.4,8,0,0,0,0,0,0,0,0,0,0,0,0
2016,1,21,6,0,,-12.7,-15.8,77,102020,0,0,209,0,0,0,0,0,0,0,0,0.2,8,0,0,0,0,0,0,0,0,0,0,0,0
2016,1,21,7,0,,-12.4,-15.7,76,101990,0,0,210,0,0,0,0,0,0,0,0,0.2,8,0,0,0,0,0,0,0,0,0,0,0,0
2016,1,21,8,0,,-12,-15.3,76,102030,0,0,212,1,0,1,198,0,198,0,0,0.3,8,0,0,0,0,0,0,0,0,0,0,0,0
2016,1,21,9,0,,-11.1,-15.1,72,102030,0,0,215,60,18,42,5649,1691,4942,0,20,1.1,8,0,0,0,0,0,0,0,0,0,0,0,0
2016,1,21,10,0,,-10.3,-15,68,102050,0,0,223,122,89,96,16123,9160,11532,0,290,0.9,9,0,0,0,0,0,0,0,0,0,0,0,0
2016,1,21,11,0,,-9.3,-15.2,62,102040,0,0,221,226,162,158,27355,16737,18384,0,0,0.4,8,0,0,0,0,0,0,0,0,0,0,0,0
2016,1,21,12,0,,-7.5,-15.4,53,101920,0,0,222,363,378,174,41270,37713,21657,0,90,0.5,6,0,0,0,0,0,0,0,0,0,0,0,0
2016,1,21,13,0,,-5.6,-17,40,101760,0,0,226,448,570,143,43510,55635,18216,0,250,1.1,5,0,0,0,0,0,0,0,0,0,0,0,0
2016,1,21,14,0,,-4.2,-16.7,37,101720,0,0,237,372,344,193,32612,31806,21666,0,270,0.9,7,0,0,0,0,0,0,0,0,0,0,0,0
2016,1,21,15,0,,-2.7,-16.7,33,101720,0,0,234,415,722,87,21867,51986,11673,0,110,1.3,3,0,0,0,0,0,0,0,0,0,0,0,0
2016,1,21,16,0,,-1.4,-17.1,29,101690,0,0,239,310,721,62,6544,3008,6482,0,250,1.2,3,0,0,0,0,0,0,0,0,0,0,0,0
2016,1,21,17,0,,-2,-17.7,29,101700,0,0,231,173,705,35,0,0,0,0,200,0.8,1,0,0,0,0,0,0,0,0,0,0,0,0
2016,1,21,18,0,,-3.2,-17.5,32,101680,0,0,223,40,25,16,0,0,0,0,230,1,0,0,0,0,0,0,0,0,0,0,0,0,0
2016,1,21,19,0,,-5.3,-14.6,48,101730,0,0,216,0,0,0,0,0,0,0,50,0.5,0,0,0,0,0,0,0,0,0,0,0,0,0
2016,1,21,20,0,,-7.2,-14.5,56,101770,0,0,209,0,0,0,0,0,0,0,140,0.6,0,0,0,0,0,0,0,0,0,0,0,0,0
2016,1,21,21,0,,-8.5,-14.6,61,101860,0,0,204,0,0,0,0,0,0,0,0,0.2,0,0,0,0,0,0,0,0,0,0,0,0,0
2016,1,21,22,0,,-10,-14.7,68,101920,0,0,200,0,0,0,0,0,0,0,0,0.2,0,0,0,0,0,0,0,0,0,0,0,0,0
2016,1,21,23,0,,-10.9,-14.7,73,101990,0,0,197,0,0,0,0,0,0,0,0,0.2,0,0,0,0,0,0,0,0,0,0,0,0,0
2016,1,21,24,0,,-11.6,-15.3,74,102020,0,0,194,0,0,0,0,0,0,0,0,0.2,0,0,0,0,0,0,0,0,0,0,0,0,0
2016,1,22,1,0,,-12.3,-15.6,76,102050,0,0,192,0,0,0,0,0,0,0,90,0.5,0,0,0,0,0,0,0,0,0,0,0,0,0
2016,1,22,2,0,,-13,-15.1,84,102070,0,0,191,0,0,0,0,0,0,0,0,0.3,0,0,0,0,0,0,0,0,0,0,0,0,0
2016,1,22,3,0,,-13.7,-15.8,84,102090,0,0,188,0,0,0,0,0,0,0,0,0.3,0,0,0,0,0,0,0,0,0,0,0,0,0
2016,1,22,4,0,,-13.8,-15.7,85,102080,0,0,188,0,0,0,0,0,0,0,0,0.2,0,0,0,0,0,0,0,0,0,0,0,0,0
2016,1,22,5,0,,-14.3,-15.9,87,102080,0,0,186,0,0,0,0,0,0,0,0,0.3,0,0,0,0,0,0,0,0,0,0,0,0,0
2016,1,22,6,0,,-15,-16.5,88,102130,0,0,184,0,0,0,0,0,0,0,70,0.5,0,0,0,0,0,0,0,0,0,0,0,0,0
2016,1,22,7,0,,-15.2,-16.7,88,102160,0,0,183,0,0,0,0,0,0,0,0,0.1,0,0,0,0,0,0,0,0,0,0,0,0,0
2016,1,22,8,0,,-15.5,-16.9,89,102270,0,0,182,7,1,6,741,104,710,0,0,0.4,0,0,0,0,0,0,0,0,0,0,0,0,0
2016,1,22,9,0,,-14,-15.9,85,102350,0,0,197,88,46,42,7274,4562,5354,0,0,0.4,4,0,0,0,0,0,0,0,0,0,0,0,0
2016,1,22,10,0,,-11.7,-15.4,74,102340,0,0,202,229,522,76,37987,52273,11629,0,0,0.2,3,0,0,0,0,0,0,0,0,0,0,0,0
2016,1,22,11,0,,-9,-15.9,57,102370,0,0,208,387,742,75,50967,74139,10989,0,0,0.4,2,0,0,0,0,0,0,0,0,0,0,0,0
2016,1,22,12,0,,-6.7,-16.6,45,102220,0,0,227,373,407,169,42407,40600,21151,0,270,1.1,7,0,0,0,0,0,0,0,0,0,0,0,0
2016,1,22,13,0,,-5.3,-17.7,37,102160,0,0,236,357,260,217,36416,26068,24470,0,250,1,8,0,0,0,0,0,0,0,0,0,0,0,0
2016,1,22,14,0,,-4.1,-17.6,34,102060,0,0,241,341,251,210,31439,23257,23350,0,160,1,8,0,0,0,0,0,0,0,0,0,0,0,0
2016,1,22,15,0,,-2.9,-17.3,32,102070,0,0,239,357,486,134,22576,35044,15578,0,180,1.8,6,0,0,0,0,0,0,0,0,0,0,0,0
2016,1,22,16,0,,-2.5,-17.3,31,102090,0,0,241,264,476,99,9028,5612,8893,0,160,1.2,6,0,0,0,0,0,0,0,0,0,0,0,0
2016,1,22,17,0,,-2.8,-18.8,28,102130,0,0,239,141,415,59,0,0,0,0,250,1.4,6,0,0,0,0,0,0,0,0,0,0,0,0
2016,1,22,18,0,,-3.6,-19.5,28,102120,0,0,232,39,21,18,0,0,0,0,230,1.4,4,0,0,0,0,0,0,0,0,0,0,0,0
2016,1,22,19,0,,-4.3,-19.7,29,102130,0,0,231,0,0,0,0,0,0,0,200,1.5,5,0,0,0,0,0,0,0,0,0,0,0,0
2016,1,22,20,0,,-4.8,-19.3,31,102170,0,0,230,0,0,0,0,0,0,0,180,0.9,5,0,0,0,0,0,0,0,0,0,0,0,0
2016,1,22,21,0,,-5.5,-16.7,41,102190,0,0,229,0,0,0,0,0,0,0,270,0.8,6,0,0,0,0,0,0,0,0,0,0,0,0
2016,1,22,22,0,,-6,-20,32,102230,0,0,228,0,0,0,0,0,0,0,230,1.5,7,0,0,0,0,0,0,0,0,0,0,0,0
2016,1,22,23,0,,-5.9,-19.9,32,102270,0,0,231,0,0,0,0,0,0,0,230,2.2,7,0,0,0,0,0,0,0,0,0,0,0,0
2016,1,22,24,0,,-6.2,-18.5,37,102250,0,0,232,0,0,0,0,0,0,0,250,1.2,8,0,0,0,0,0,0,0,0,0,0,0,0
2016,1,23,1,0,,-6.5,-18.5,38,102220,0,0,230,0,0,0,0,0,0,0,270,1.7,8,0,0,0,0,0,0,0,0,0,0,0,0
2016,1,23,2,0,,-7,-18.6,39,102260,0,0,226,0,0,0,0,0,0,0,320,1.7,7,0,0,0,0,0,0,0,0,0,0,0,0
2016,1,23,3,0,,-7.3,-19.8,36,102220,0,0,224,0,0,0,0,0,0,0,230,2.5,7,0,0,0,0,0,0,0,0,0,0,0,0
2016,1,23,4,0,,-7.5,-19.7,37,102110,0,0,223,0,0,0,0,0,0,0,230,0.6,7,0,0,0,0,0,0,0,0,0,0,0,0
2016,1,23,5,0,,-8,-18.6,42,102120,0,0,221,0,0,0,0,0,0,0,250,1.5,7,0,0,0,0,0,0,0,0,0,0,0,0
2016,1,23,6,0,,-8.2,-20,38,102070,0,0,221,0,0,0,0,0,0,0,250,4.5,7,0,0,0,0,0,0,0,0,0,0,0,0
2016,1,23,7,0,,-8.7,-20.1,39,102050,0,0,214,0,0,0,0,0,0,0,230,2.7,5,0,0,0,0,0,0,0,0,0,0,0,0
2016,1,23,8,0,,-9.6,-20.7,40,102040,0,0,209,9,2,7,878,199,819,0,230,2.6,4,0,0,0,0,0,0,0,0,0,0,0,0
2016,1,23,9,0,,-9.5,-21.5,37,102070,0,0,200,109,79,30,8109,7691,4851,0,230,2.5,0,0,0,0,0,0,0,0,0,0,0,0,0
2016,1,23,10,0,,-8.8,-20.8,37,102070,0,0,202,252,648,61,41905,64579,9144,0,200,2.7,0,0,0,0,0,0,0,0,0,0,0,0,0
2016,1,23,11,0,,-8,-22.5,30,102070,0,0,206,387,733,77,50998,73237,11261,0,230,3.3,0,0,0,0,0,0,0,0,0,0,0,0,0
2016,1,23,12,0,,-7.3,-23.1,27,101970,0,0,208,471,744,95,52282,73494,13542,0,230,3.1,0,0,0,0,0,0,0,0,0,0,0,0,0
2016,1,23,13,0,,-7,-25.1,22,101840,0,0,214,508,748,103,48414,72799,14785,0,230,3.7,1,0,0,0,0,0,0,0,0,0,0,0,0
2016,1,23,14,0,,-7,-23.7,25,101780,0,0,214,488,731,102,37729,66425,14381,0,270,4.5,1,0,0,0,0,0,0,0,0,0,0,0,0
2016,1,23,15,0,,-7.6,-23.4,27,101770,0,0,216,395,620,109,22416,45530,13159,0,250,3.9,3,0,0,0,0,0,0,0,0,0,0,0,0
2016,1,23,16,0,,-8,-22.5,30,101800,0,0,214,294,611,80,7943,9794,7674,0,250,3.3,3,0,0,0,0,0,0,0,0,0,0,0,0
2016,1,23,17,0,,-9.5,-23.1,32,101810,0,0,209,159,545,49,0,0,0,0,250,3.5,3,0,0,0,0,0,0,0,0,0,0,0,0
2016,1,23,18,0,,-10.8,-22.6,37,101790,0,0,204,39,20,19,0,0,0,0,290,1.9,3,0,0,0,0,0,0,0,0,0,0,0,0
2016,1,23,19,0,,-11.3,-23.4,36,101840,0,0,202,0,0,0,0,0,0,0,270,3.9,3,0,0,0,0,0,0,0,0,0,0,0,0
2016,1,23,20,0,,-12.3,-25.6,32,101860,0,0,200,0,0,0,0,0,0,0,250,3.9,3,0,0,0,0,0,0,0,0,0,0,0,0
2016,1,23,21,0,,-13.2,-25.4,35,101780,0,0,197,0,0,0,0,0,0,0,0,0.4,3,0,0,0,0,0,0,0,0,0,0,0,0
2016,1,23,22,0,,-13.8,-25.6,36,101730,0,0,193,0,0,0,0,0,0,0,270,1.9,2,0,0,0,0,0,0,0,0,0,0,0,0
2016,1,23,23,0,,-14.8,-25.4,40,101670,0,0,186,0,0,0,0,0,0,0,0,0.3,1,0,0,0,0,0,0,0,0,0,0,0,0
2016,1,23,24,0,,-14.9,-26.3,37,101610,0,0,183,0,0,0,0,0,0,0,230,2.4,0,0,0,0,0,0,0,0,0,0,0,0,0
2016,1,24,1,0,,-15,-27.3,34,101570,0,0,184,0,0,0,0,0,0,0,250,2.5,0,0,0,0,0,0,0,0,0,0,0,0,0
2016,1,24,2,0,,-16.3,-26.2,42,101510,0,0,178,0,0,0,0,0,0,0,110,0.8,0,0,0,0,0,0,0,0,0,0,0,0,0
2016,1,24,3,0,,-17.3,-25.4,49,101490,0,0,173,0,0,0,0,0,0,0,270,1,0,0,0,0,0,0,0,0,0,0,0,0,0
2016,1,24,4,0,,-17.5,-24.8,53,101420,0,0,172,0,0,0,0,0,0,0,270,1.2,0,0,0,0,0,0,0,0,0,0,0,0,0
2016,1,24,5,0,,-17.4,-24.7,53,101390,0,0,172,0,0,0,0,0,0,0,230,1.2,0,0,0,0,0,0,0,0,0,0,0,0,0
2016,1,24,6,0,,-17.9,-23,64,101360,0,0,169,0,0,0,0,0,0,0,320,0.5,0,0,0,0,0,0,0,0,0,0,0,0,0
2016,1,24,7,0,,-19.2,-23.7,67,101380,0,0,165,0,0,0,0,0,0,0,360,0.6,0,0,0,0,0,0,0,0,0,0,0,0,0
2016,1,24,8,0,,-19.9,-23.9,70,101420,0,0,163,9,2,7,897,183,842,0,0,0.1,0,0,0,0,0,0,0,0,0,0,0,0,0
2016,1,24,9,0,,-18.9,-23.5,67,101460,0,0,166,97,58,39,7767,5847,5273,0,360,0.8,0,0,0,0,0,0,0,0,0,0,0,0,0
2016,1,24,10,0,,-16.9,-23,59,101500,0,0,173,250,622,65,41251,61946,9628,0,250,0.6,0,0,0,0,0,0,0,0,0,0,0,0,0
2016,1,24,11,0,,-15.4,-23.2,51,101530,0,0,179,380,695,85,49975,69170,12207,0,290,1.2,0,0,0,0,0,0,0,0,0,0,0,0,0
2016,1,24,12,0,,-13.4,-23,44,101470,0,0,186,480,763,91,53141,75434,13105,0,200,1.5,0,0,0,0,0,0,0,0,0,0,0,0,0
2016,1,24,13,0,,-11.5,-23,38,101380,0,0,193,519,772,98,49374,75561,14188,0,160,2.2,0,0,0,0,0,0,0,0,0,0,0,0,0
2016,1,24,14,0,,-10.2,-22.4,36,101330,0,0,198,514,807,86,38923,74288,12533,0,200,2.3,0,0,0,0,0,0,0,0,0,0,0,0,0
2016,1,24,15,0,,-9.2,-22.5,33,101330,0,0,201,440,777,79,22913,58173,10872,0,230,2.8,0,0,0,0,0,0,0,0,0,0,0,0,0
2016,1,24,16,0,,-9.1,-22.8,32,101370,0,0,202,329,763,59,6820,11220,6472,0,200,3.3,0,0,0,0,0,0,0,0,0,0,0,0,0
2016,1,24,17,0,,-9.8,-23,33,101440,0,0,199,177,664,40,0,0,0,0,230,3.6,0,0,0,0,0,0,0,0,0,0,0,0,0
2016,1,24,18,0,,-10.6,-23.4,34,101500,0,0,197,45,28,17,0,0,0,0,250,2.9,0,0,0,0,0,0,0,0,0,0,0,0,0
2016,1,24,19,0,,-11.3,-23.4,36,101590,0,0,194,0,0,0,0,0,0,0,250,2,0,0,0,0,0,0,0,0,0,0,0,0,0
2016,1,24,20,0,,-12.5,-22.7,42,101680,0,0,189,0,0,0,0,0,0,0,360,0.8,0,0,0,0,0,0,0,0,0,0,0,0,0
2016,1,24,21,0,,-13.8,-21.3,53,101770,0,0,184,0,0,0,0,0,0,0,360,1.7,0,0,0,0,0,0,0,0,0,0,0,0,0
2016,1,24,22,0,,-15.2,-21.4,59,101820,0,0,179,0,0,0,0,0,0,0,340,0.6,0,0,0,0,0,0,0,0,0,0,0,0,0
2016,1,24,23,0,,-16.1,-21.5,63,101840,0,0,176,0,0,0,0,0,0,0,20,0.8,0,0,0,0,0,0,0,0,0,0,0,0,0
2016,1,24,24,0,,-16.7,-21.3,67,101850,0,0,174,0,0,0,0,0,0,0,20,0.6,0,0,0,0,0,0,0,0,0,0,0,0,0
2016,1,25,1,0,,-17.2,-21.8,67,101800,0,0,172,0,0,0,0,0,0,0,0,0.3,0,0,0,0,0,0,0,0,0,0,0,0,0
2016,1,25,2,0,,-17.5,-21.8,69,101820,0,0,171,0,0,0,0,0,0,0,360,0.9,0,0,0,0,0,0,0,0,0,0,0,0,0
2016,1,25,3,0,,-17.6,-21.7,70,101830,0,0,171,0,0,0,0,0,0,0,50,0.6,0,0,0,0,0,0,0,0,0,0,0,0,0
2016,1,25,4,0,,-17.8,-21.3,74,101850,0,0,171,0,0,0,0,0,0,0,0,0.1,0,0,0,0,0,0,0,0,0,0,0,0,0
2016,1,25,5,0,,-18.1,-21,78,101850,0,0,170,0,0,0,0,0,0,0,0,0.3,0,0,0,0,0,0,0,0,0,0,0,0,0
2016,1,25,6,0,,-18.5,-21.3,78,101880,0,0,169,0,0,0,0,0,0,0,0,0.1,0,0,0,0,0,0,0,0,0,0,0,0,0
2016,1,25,7,0,,-18.5,-21.1,80,101940,0,0,169,0,0,0,0,0,0,0,20,0.9,0,0,0,0,0,0,0,0,0,0,0,0,0
2016,1,25,8,0,,-18.6,-21,81,102000,0,0,169,10,3,7,977,245,903,0,90,0.5,0,0,0,0,0,0,0,0,0,0,0,0,0
2016,1,25,9,0,,-17.2,-21,72,102040,0,0,172,103,67,37,7863,6695,4988,0,0,0.3,0,0,0,0,0,0,0,0,0,0,0,0,0
2016,1,25,10,0,,-13.9,-21.2,54,102060,0,0,183,263,681,58,42957,66744,8668,0,0,0.2,0,0,0,0,0,0,0,0,0,0,0,0,0
2016,1,25,11,0,,-11,-20.3,46,102060,0,0,194,414,817,64,53720,80595,9430,0,180,0.8,0,0,0,0,0,0,0,0,0,0,0,0,0
2016,1,25,12,0,,-8.5,-20.6,37,101990,0,0,203,525,903,63,56773,88895,9265,0,160,1.8,0,0,0,0,0,0,0,0,0,0,0,0,0
2016,1,25,13,0,,-6.8,-20,34,101880,0,0,209,551,862,78,51003,84235,11459,0,160,1.6,0,0,0,0,0,0,0,0,0,0,0,0,0
2016,1,25,14,0,,-5.3,-20.2,30,101810,0,0,215,522,822,84,39532,75907,12280,0,160,1.7,0,0,0,0,0,0,0,0,0,0,0,0,0
2016,1,25,15,0,,-4.1,-19.9,28,101770,0,0,219,452,805,74,23271,61082,10402,0,140,1.3,0,0,0,0,0,0,0,0,0,0,0,0,0
2016,1,25,16,0,,-3.3,-19.6,27,101740,0,0,222,333,765,59,7056,13128,6603,0,230,1.6,0,0,0,0,0,0,0,0,0,0,0,0,0
2016,1,25,17,0,,-4,-19.4,29,101770,0,0,220,186,710,37,0,0,0,0,230,2.2,0,0,0,0,0,0,0,0,0,0,0,0,0
2016,1,25,18,0,,-5,-19.5,31,101810,0,0,216,46,29,17,0,0,0,0,180,1.7,0,0,0,0,0,0,0,0,0,0,0,0,0
2016,1,25,19,0,,-5.8,-18.1,37,101870,0,0,213,0,0,0,0,0,0,0,250,1,0,0,0,0,0,0,0,0,0,0,0,0,0
2016,1,25,20,0,,-8.4,-16.9,50,101910,0,0,203,0,0,0,0,0,0,0,360,0.7,0,0,0,0,0,0,0,0,0,0,0,0,0
2016,1,25,21,0,,-9.8,-17.6,53,101960,0,0,198,0,0,0,0,0,0,0,360,0.8,0,0,0,0,0,0,0,0,0,0,0,0,0
2016,1,25,22,0,,-11,-17.2,60,101940,0,0,194,0,0,0,0,0,0,0,20,0.5,0,0,0,0,0,0,0,0,0,0,0,0,0
2016,1,25,23,0,,-12.1,-17.5,64,101980,0,0,191,0,0,0,0,0,0,0,0,0.3,0,0,0,0,0,0,0,0,0,0,0,0,0
2016,1,25,24,0,,-13,-17.6,68,101980,0,0,188,0,0,0,0,0,0,0,20,0.9,0,0,0,0,0,0,0,0,0,0,0,0,0
2016,1,26,1,0,,-13.4,-17.8,69,101970,0,0,186,0,0,0,0,0,0,0,360,0.7,0,0,0,0,0,0,0,0,0,0,0,0,0
2016,1,26,2,0,,-14,-17.9,72,101990,0,0,184,0,0,0,0,0,0,0,0,0.3,0,0,0,0,0,0,0,0,0,0,0,0,0
2016,1,26,3,0,,-14.4,-18.3,72,101970,0,0,183,0,0,0,0,0,0,0,0,0.4,0,0,0,0,0,0,0,0,0,0,0,0,0
2016,1,26,4,0,,-14.7,-17.9,76,101930,0,0,183,0,0,0,0,0,0,0,20,0.7,0,0,0,0,0,0,0,0,0,0,0,0,0
2016,1,26,5,0,,-14.9,-18,77,101910,0,0,200,0,0,0,0,0,0,0,110,0.7,8,0,0,0,0,0,0,0,0,0,0,0,0
2016,1,26,6,0,,-13.9,-17.5,74,101890,0,0,203,0,0,0,0,0,0,0,20,0.5,8,0,0,0,0,0,0,0,0,0,0,0,0
2016,1,26,7,0,,-13.3,-16.9,74,101910,0,0,206,0,0,0,0,0,0,0,0,0.3,8,0,0,0,0,0,0,0,0,0,0,0,0
2016,1,26,8,0,,-12.6,-16.2,74,101890,0,0,214,3,0,3,382,3,381,0,20,0.8,9,0,0,0,0,0,0,0,0,0,0,0,0
2016,1,26,9,0,,-11.7,-16.2,69,101920,0,0,212,67,22,46,6256,2050,5369,0,0,0.4,8,0,0,0,0,0,0,0,0,0,0,0,0
2016,1,26,10,0,,-9.7,-15.4,63,101910,0,0,210,241,546,76,39974,54802,11637,0,270,0.8,4,0,0,0,0,0,0,0,0,0,0,0,0
2016,1,26,11,0,,-7.5,-14.1,59,101930,0,0,222,320,427,136,41664,43100,17825,0,290,0.7,6,0,0,0,0,0,0,0,0,0,0,0,0
2016,1,26,12,0,,-5.5,-12.6,57,101870,0,0,243,277,143,204,31191,14621,23323,0,110,0.6,9,0,0,0,0,0,0,0,0,0,0,0,0
2016,1,26,13,0,,-2.8,-9.4,60,101770,0,0,251,348,217,228,35933,21581,25719,0,250,1.1,8,0,0,0,0,0,0,0,0,0,0,0,0
2016,1,26,14,0,,-1,-7.5,61,101640,0,0,256,376,310,210,34004,28699,23590,0,180,2.2,7,0,0,0,0,0,0,0,0,0,0,0,0
2016,1,26,15,0,,0,-6.6,61,101590,0,0,264,296,236,185,24044,17692,20251,0,180,3.3,8,0,0,0,0,0,0,0,0,0,0,0,0
2016,1,26,16,0,,-0.3,-6.2,64,101610,0,0,260,226,269,129,13247,4617,13071,0,200,3.1,7,0,0,0,0,0,0,0,0,0,0,0,0
2016,1,26,17,0,,-0.3,-6.7,62,101600,0,0,256,139,308,73,0,0,0,0,180,3.1,6,0,0,0,0,0,0,0,0,0,0,0,0
2016,1,26,18,0,,-0.7,-6.2,66,101590,0,0,258,30,10,20,0,0,0,0,160,1.9,7,0,0,0,0,0,0,0,0,0,0,0,0
2016,1,26,19,0,,-1.1,-6.4,67,101600,0,0,251,0,0,0,0,0,0,0,160,2.7,5,0,0,0,0,0,0,0,0,0,0,0,0
2016,1,26,20,0,,-2.9,-6.3,77,101630,0,0,240,0,0,0,0,0,0,0,20,1.2,2,0,0,0,0,0,0,0,0,0,0,0,0
2016,1,26,21,0,,-4.6,-7,83,101670,0,0,225,0,0,0,0,0,0,0,250,1.1,0,0,0,0,0,0,0,0,0,0,0,0,0
2016,1,26,22,0,,-6.2,-8,87,101710,0,0,224,0,0,0,0,0,0,0,20,0.5,1,0,0,0,0,0,0,0,0,0,0,0,0
2016,1,26,23,0,,-7,-8.3,90,101750,0,0,225,0,0,0,0,0,0,0,0,0.4,3,0,0,0,0,0,0,0,0,0,0,0,0
2016,1,26,24,0,,-8,-8.9,93,101760,0,0,223,0,0,0,0,0,0,0,320,0.5,4,0,0,0,0,0,0,0,0,0,0,0,0
2016,1,27,1,0,,-8,-9,92,101770,0,0,224,0,0,0,0,0,0,0,0,0.3,4,0,0,0,0,0,0,0,0,0,0,0,0
2016,1,27,2,0,,-8.3,-9.2,93,101750,0,0,223,0,0,0,0,0,0,0,20,0.8,5,0,0,0,0,0,0,0,0,0,0,0,0
2016,1,27,3,0,,-8.3,-9.3,92,101810,0,0,224,0,0,0,0,0,0,0,360,0.5,5,0,0,0,0,0,0,0,0,0,0,0,0
2016,1,27,4,0,,-8.1,-9.3,91,101790,0,0,229,0,0,0,0,0,0,0,270,0.5,7,0,0,0,0,0,0,0,0,0,0,0,0
2016,1,27,5,0,,-7.8,-10,84,101840,0,0,221,0,0,0,0,0,0,0,360,1.7,3,0,0,0,0,0,0,0,0,0,0,0,0
2016,1,27,6,0,,-7.9,-9.9,85,101890,0,0,221,0,0,0,0,0,0,0,0,0.3,3,0,0,0,0,0,0,0,0,0,0,0,0
2016,1,27,7,0,,-8.2,-10.4,84,101920,0,0,210,0,0,0,0,0,0,0,20,0.6,0,0,0,0,0,0,0,0,0,0,0,0,0
2016,1,27,8,0,,-9.1,-10.1,92,101950,0,0,212,11,3,8,1052,243,978,0,20,0.6,1,0,0,0,0,0,0,0,0,0,0,0,0
2016,1,27,9,0,,-8.1,-10.4,83,101980,0,0,217,98,55,44,8272,5446,5899,0,0,0.4,2,0,0,0,0,0,0,0,0,0,0,0,0
2016,1,27,10,0,,-4.9,-9.3,71,102000,0,0,231,242,541,77,40090,54223,11866,0,0,0.4,3,0,0,0,0,0,0,0,0,0,0,0,0
2016,1,27,11,0,,-1.6,-12,45,102030,0,0,243,393,712,84,51757,71254,12084,0,270,0.9,4,0,0,0,0,0,0,0,0,0,0,0,0
2016,1,27,12,0,,0.9,-12.8,35,102040,0,0,252,486,752,96,54088,74476,13722,0,200,2.1,5,0,0,0,0,0,0,0,0,0,0,0,0
2016,1,27,13,0,,2.2,-14.9,27,101950,0,0,258,479,611,140,47078,58950,18948,0,180,2.5,6,0,0,0,0,0,0,0,0,0,0,0,0
2016,1,27,14,0,,3,-16.1,23,101930,0,0,255,513,767,98,39880,70739,13937,0,200,3.2,3,0,0,0,0,0,0,0,0,0,0,0,0
2016,1,27,15,0,,3.7,-15.5,23,101920,0,0,258,439,732,90,24318,55420,12226,0,200,3.5,3,0,0,0,0,0,0,0,0,0,0,0,0
2016,1,27,16,0,,4,-12.4,29,101930,0,0,250,331,722,67,8031,14027,7447,0,200,2.5,0,0,0,0,0,0,0,0,0,0,0,0,0
2016,1,27,17,0,,3.5,-11.3,33,101960,0,0,249,187,665,42,0,0,0,0,200,2.1,0,0,0,0,0,0,0,0,0,0,0,0,0
2016,1,27,18,0,,2.2,-10.3,39,102000,0,0,245,49,30,18,0,0,0,0,200,2.5,0,0,0,0,0,0,0,0,0,0,0,0,0
2016,1,27,19,0,,1.4,-10.7,40,102080,0,0,242,0,0,0,0,0,0,0,180,1.7,0,0,0,0,0,0,0,0,0,0,0,0,0
2016,1,27,20,0,,0.1,-9.6,48,102090,0,0,238,0,0,0,0,0,0,0,140,0.7,0,0,0,0,0,0,0,0,0,0,0,0,0
2016,1,27,21,0,,-2.3,-9,60,102110,0,0,231,0,0,0,0,0,0,0,0,0.4,0,0,0,0,0,0,0,0,0,0,0,0,0
2016,1,27,22,0,,-4.5,-9.7,67,102100,0,0,222,0,0,0,0,0,0,0,50,1,0,0,0,0,0,0,0,0,0,0,0,0,0
2016,1,27,23,0,,-5.7,-10.3,70,102150,0,0,218,0,0,0,0,0,0,0,0,0.3,0,0,0,0,0,0,0,0,0,0,0,0,0
2016,1,27,24,0,,-6.8,-10.6,74,102150,0,0,214,0,0,0,0,0,0,0,360,1,0,0,0,0,0,0,0,0,0,0,0,0,0
2016,1,28,1,0,,-7.3,-10.9,75,102110,0,0,212,0,0,0,0,0,0,0,360,0.8,0,0,0,0,0,0,0,0,0,0,0,0,0
2016,1,28,2,0,,-8.3,-11.1,80,102110,0,0,209,0,0,0,0,0,0,0,0,0.2,0,0,0,0,0,0,0,0,0,0,0,0,0
2016,1,28,3,0,,-9.1,-10.8,87,102140,0,0,207,0,0,0,0,0,0,0,0,0.3,0,0,0,0,0,0,0,0,0,0,0,0,0
2016,1,28,4,0,,-9.3,-11.5,84,102180,0,0,205,0,0,0,0,0,0,0,0,0.4,0,0,0,0,0,0,0,0,0,0,0,0,0
2016,1,28,5,0,,-10.2,-11.8,88,102170,0,0,203,0,0,0,0,0,0,0,0,0.2,0,0,0,0,0,0,0,0,0,0,0,0,0
2016,1,28,6,0,,-10.6,-12.2,88,102150,0,0,201,0,0,0,0,0,0,0,0,0.2,0,0,0,0,0,0,0,0,0,0,0,0,0
2016,1,28,7,0,,-11,-12.3,90,102190,0,0,200,0,0,0,0,0,0,0,0,0.3,0,0,0,0,0,0,0,0,0,0,0,0,0
2016,1,28,8,0,,-11,-12.1,91,102290,0,0,214,7,1,6,867,21,861,0,0,0.2,6,0,0,0,0,0,0,0,0,0,0,0,0
2016,1,28,9,0,,-9.7,-11.7,85,102300,0,0,224,62,16,46,6066,1463,5424,0,250,0.7,8,0,0,0,0,0,0,0,0,0,0,0,0
2016,1,28,10,0,,-7.4,-10.7,77,102220,0,0,229,187,262,106,28240,26171,14526,0,320,0.9,7,0,0,0,0,0,0,0,0,0,0,0,0
2016,1,28,11,0,,-4.1,-9.9,64,102230,0,0,239,339,486,127,44982,48450,17825,0,70,1.3,6,0,0,0,0,0,0,0,0,0,0,0,0
2016,1,28,12,0,,-0.9,-9.5,52,102060,0,0,258,351,277,207,39376,28447,23847,0,230,1.1,8,0,0,0,0,0,0,0,0,0,0,0,0
2016,1,28,13,0,,0,-9.2,50,101970,0,0,267,325,170,230,34128,16923,25986,0,160,1.4,9,0,0,0,0,0,0,0,0,0,0,0,0
2016,1,28,14,0,,1.3,-9.3,45,101920,0,0,272,294,140,218,29242,13069,24398,0,160,0.9,9,0,0,0,0,0,0,0,0,0,0,0,0
2016,1,28,15,0,,2.1,-9.8,41,101890,0,0,275,247,130,184,22770,11258,20271,0,50,0.5,9,0,0,0,0,0,0,0,0,0,0,0,0
2016,1,28,16,0,,2.5,-10,39,101880,0,0,277,185,136,135,14658,9042,14248,0,0,0.3,9,0,0,0,0,0,0,0,0,0,0,0,0
2016,1,28,17,0,,2.4,-10.1,39,101860,0,0,276,99,116,73,0,0,0,0,0,0.2,9,0,0,0,0,0,0,0,0,0,0,0,0
2016,1,28,18,0,,1.4,-9.2,45,101810,0,0,267,28,8,21,0,0,0,0,0,0.3,8,0,0,0,0,0,0,0,0,0,0,0,0
2016,1,28,19,0,,-0.2,-8.6,53,101840,0,0,262,0,0,0,0,0,0,0,20,0.5,8,0,0,0,0,0,0,0,0,0,0,0,0
2016,1,28,20,0,,-0.6,-8.5,55,101910,0,0,261,0,0,0,0,0,0,0,90,0.6,8,0,0,0,0,0,0,0,0,0,0,0,0
2016,1,28,21,0,,-0.8,-8.4,56,101870,0,0,260,0,0,0,0,0,0,0,360,0.5,8,0,0,0,0,0,0,0,0,0,0,0,0
2016,1,28,22,0,,-1.1,-9,55,101840,0,0,260,0,0,0,0,0,0,0,360,1,8,0,0,0,0,0,0,0,0,0,0,0,0
2016,1,28,23,0,,-1.6,-8.8,58,101850,0,0,260,0,0,0,0,0,0,0,360,0.6,9,0,0,0,0,0,0,0,0,0,0,0,0
2016,1,28,24,0,,-1.8,-8.3,61,101810,0,0,261,0,0,0,0,0,0,0,0,0.2,9,0,0,0,0,0,0,0,0,0,0,0,0
2016,1,29,1,0,,-1.9,-9.5,56,101820,0,0,258,0,0,0,0,0,0,0,0,0.3,9,0,0,0,0,0,0,0,0,0,0,0,0
2016,1,29,2,0,,-2.5,-9.8,57,101800,0,0,253,0,0,0,0,0,0,0,360,0.7,8,0,0,0,0,0,0,0,0,0,0,0,0
2016,1,29,3,0,,-3.3,-9.9,60,101800,0,0,248,0,0,0,0,0,0,0,360,0.7,8,0,0,0,0,0,0,0,0,0,0,0,0
2016,1,29,4,0,,-3.8,-10,62,101820,0,0,246,0,0,0,0,0,0,0,0,0.3,8,0,0,0,0,0,0,0,0,0,0,0,0
2016,1,29,5,0,,-3.5,-10.3,59,101760,0,0,247,0,0,0,0,0,0,0,360,2,8,0,0,0,0,0,0,0,0,0,0,0,0
2016,1,29,6,0,,-3.2,-10,59,101760,0,0,249,0,0,0,0,0,0,0,340,2.6,8,0,0,0,0,0,0,0,0,0,0,0,0
2016,1,29,7,0,,-3.1,-10.2,58,101840,0,0,249,0,0,0,0,0,0,0,360,2.5,8,0,0,0,0,0,0,0,0,0,0,0,0
2016,1,29,8,0,,-3.2,-9.6,61,101810,0,0,255,4,0,4,573,6,571,0,360,2.4,9,0,0,0,0,0,0,0,0,0,0,0,0
2016,1,29,9,0,,-2.2,-10.7,52,101860,0,0,258,65,17,47,6301,1613,5587,0,360,2.9,9,0,0,0,0,0,0,0,0,0,0,0,0
2016,1,29,10,0,,-0.1,-11.2,43,101760,0,0,261,190,265,107,28644,26515,14655,0,340,2.7,8,0,0,0,0,0,0,0,0,0,0,0,0
2016,1,29,11,0,,2.4,-9.5,41,101790,0,0,277,255,194,170,31408,20045,20097,0,320,3.4,9,0,0,0,0,0,0,0,0,0,0,0,0
2016,1,29,12,0,,3.6,-7.8,43,101670,0,0,284,305,176,213,34245,17910,24398,0,320,3.7,9,0,0,0,0,0,0,0,0,0,0,0,0
2016,1,29,13,0,,4.6,-6.9,43,101620,0,0,289,312,147,229,33034,14588,25957,0,340,3.2,9,0,0,0,0,0,0,0,0,0,0,0,0
2016,1,29,14,0,,5.6,-3.7,51,101580,0,0,297,278,116,214,28066,10983,23952,0,50,2.3,9,0,0,0,0,0,0,0,0,0,0,0,0
2016,1,29,15,0,,5.4,-3.6,52,101560,0,0,296,235,110,182,22195,9469,20057,0,70,2.6,9,0,0,0,0,0,0,0,0,0,0,0,0
2016,1,29,16,0,,4.9,-3.8,53,101520,0,0,302,137,56,116,12542,3511,12370,0,70,3.5,10,0,0,0,0,0,0,0,0,0,0,0,0
2016,1,29,17,0,,4.5,-4.2,53,101570,0,0,300,67,36,59,0,0,0,0,50,1.8,10,0,0,0,0,0,0,0,0,0,0,0,0
2016,1,29,18,0,,3.8,-4.6,54,101600,0,0,296,14,1,13,0,0,0,0,20,1.7,10,0,0,0,0,0,0,0,0,0,0,0,0
2016,1,29,19,0,,3.3,-4.8,55,101660,0,0,280,0,0,0,0,0,0,0,20,2.4,8,0,0,0,0,0,0,0,0,0,0,0,0
2016,1,29,20,0,,2.6,-4.6,59,101670,0,0,269,0,0,0,0,0,0,0,20,0.9,6,0,0,0,0,0,0,0,0,0,0,0,0
2016,1,29,21,0,,1.7,-4.3,64,101650,0,0,262,0,0,0,0,0,0,0,340,1.8,4,0,0,0,0,0,0,0,0,0,0,0,0
2016,1,29,22,0,,0.3,-5.1,67,101690,0,0,256,0,0,0,0,0,0,0,340,2,4,0,0,0,0,0,0,0,0,0,0,0,0
2016,1,29,23,0,,-1,-5.2,73,101690,0,0,251,0,0,0,0,0,0,0,340,0.9,4,0,0,0,0,0,0,0,0,0,0,0,0
2016,1,29,24,0,,-1.9,-5.5,76,101690,0,0,248,0,0,0,0,0,0,0,360,1.6,4,0,0,0,0,0,0,0,0,0,0,0,0
2016,1,30,1,0,,-1.3,-5.3,74,101660,0,0,252,0,0,0,0,0,0,0,50,1.2,5,0,0,0,0,0,0,0,0,0,0,0,0
2016,1,30,2,0,,-1,-5.2,73,101650,0,0,255,0,0,0,0,0,0,0,360,1.8,6,0,0,0,0,0,0,0,0,0,0,0,0
2016,1,30,3,0,,-0.9,-5.1,73,101680,0,0,259,0,0,0,0,0,0,0,360,1.3,7,0,0,0,0,0,0,0,0,0,0,0,0
2016,1,30,4,0,,-1.6,-4.6,80,101690,0,0,257,0,0,0,0,0,0,0,340,1.2,7,0,0,0,0,0,0,0,0,0,0,0,0
2016,1,30,5,0,,-2.1,-4.9,81,101690,0,0,255,0,0,0,0,0,0,0,340,1.8,7,0,0,0,0,0,0,0,0,0,0,0,0
2016,1,30,6,0,,-2.2,-4.8,82,101650,0,0,247,0,0,0,0,0,0,0,360,1.2,4,0,0,0,0,0,0,0,0,0,0,0,0
2016,1,30,7,0,,-3.3,-5.1,87,101670,0,0,250,0,0,0,0,0,0,0,0,0.4,7,0,0,0,0,0,0,0,0,0,0,0,0
2016,1,30,8,0,,-3.7,-5.1,90,101710,0,0,242,11,2,9,1127,199,1064,0,0,0.2,4,0,0,0,0,0,0,0,0,0,0,0,0
2016,1,30,9,0,,-3.4,-6,82,101760,0,0,230,105,395,45,24436,38996,7060,0,0,0.2,0,0,0,0,0,0,0,0,0,0,0,0,0
2016,1,30,10,0,,-0.6,-5.5,69,101750,0,0,248,257,579,74,41715,57917,10945,0,140,1.1,2,0,0,0,0,0,0,0,0,0,0,0,0
2016,1,30,11,0,,1.7,-5.2,60,101720,0,0,259,382,632,101,51048,63552,14940,0,0,0.4,3,0,0,0,0,0,0,0,0,0,0,0,0
2016,1,30,12,0,,4,-5.2,51,101630,0,0,272,446,581,138,50958,57409,19165,0,160,0.8,5,0,0,0,0,0,0,0,0,0,0,0,0
2016,1,30,13,0,,5.8,-4.6,47,101500,0,0,282,438,443,187,44219,43006,23183,0,50,0.6,6,0,0,0,0,0,0,0,0,0,0,0,0
2016,1,30,14,0,,6.4,-5.2,43,101450,0,0,292,345,211,228,33003,19622,25574,0,250,0.6,8,0,0,0,0,0,0,0,0,0,0,0,0
2016,1,30,15,0,,6.6,-5.4,42,101450,0,0,288,332,299,185,25789,23123,20479,0,230,2.6,7,0,0,0,0,0,0,0,0,0,0,0,0
2016,1,30,16,0,,6.6,-5.1,43,101470,0,0,281,301,532,100,10831,14176,10087,0,250,2.2,4,0,0,0,0,0,0,0,0,0,0,0,0
2016,1,30,17,0,,5.7,-5.3,45,101510,0,0,295,96,96,74,0,0,0,0,230,2.6,9,0,0,0,0,0,0,0,0,0,0,0,0
2016,1,30,18,0,,5,-5.1,48,101530,0,0,286,29,7,22,0,0,0,0,200,1.4,8,0,0,0,0,0,0,0,0,0,0,0,0
2016,1,30,19,0,,4.5,-5.5,48,101540,0,0,281,0,0,0,0,0,0,0,230,2.3,7,0,0,0,0,0,0,0,0,0,0,0,0
2016,1,30,20,0,,3.1,-5.5,53,101570,0,0,272,0,0,0,0,0,0,0,180,0.5,7,0,0,0,0,0,0,0,0,0,0,0,0
2016,1,30,21,0,,1,-5.6,61,101630,0,0,262,0,0,0,0,0,0,0,110,0.7,6,0,0,0,0,0,0,0,0,0,0,0,0
2016,1,30,22,0,,-0.3,-5.3,69,101690,0,0,258,0,0,0,0,0,0,0,0,0.2,6,0,0,0,0,0,0,0,0,0,0,0,0
2016,1,30,23,0,,-1.6,-5.6,74,101720,0,0,253,0,0,0,0,0,0,0,0,0.3,6,0,0,0,0,0,0,0,0,0,0,0,0
2016,1,30,24,0,,-2.3,-5.7,77,101760,0,0,250,0,0,0,0,0,0,0,360,1.1,6,0,0,0,0,0,0,0,0,0,0,0,0
2016,1,31,1,0,,-2.1,-6.1,74,101790,0,0,249,0,0,0,0,0,0,0,0,0.4,6,0,0,0,0,0,0,0,0,0,0,0,0
2016,1,31,2,0,,-2.6,-5.5,80,101800,0,0,248,0,0,0,0,0,0,0,0,0.3,5,0,0,0,0,0,0,0,0,0,0,0,0
2016,1,31,3,0,,-2.9,-6.2,78,101820,0,0,245,0,0,0,0,0,0,0,0,0.3,5,0,0,0,0,0,0,0,0,0,0,0,0
2016,1,31,4,0,,-1.4,-9.7,53,101780,0,0,247,0,0,0,0,0,0,0,180,1.7,5,0,0,0,0,0,0,0,0,0,0,0,0
2016,1,31,5,0,,-1.5,-10.8,49,101780,0,0,244,0,0,0,0,0,0,0,200,1.7,4,0,0,0,0,0,0,0,0,0,0,0,0
2016,1,31,6,0,,-2.2,-10,55,101810,0,0,240,0,0,0,0,0,0,0,180,1.2,3,0,0,0,0,0,0,0,0,0,0,0,0
2016,1,31,7,0,,-2.9,-10,58,101770,0,0,237,0,0,0,0,0,0,0,250,1.1,3,0,0,0,0,0,0,0,0,0,0,0,0
2016,1,31,8,0,,-5.2,-7.6,83,101820,0,0,227,14,4,10,1306,384,1183,0,360,0.9,1,0,0,0,0,0,0,0,0,0,0,0,0
2016,1,31,9,0,,-5.1,-8.3,78,101870,0,0,222,105,373,47,24469,36884,7905,0,20,1,0,0,0,0,0,0,0,0,0,0,0,0,0
2016,1,31,10,0,,-3,-11.7,51,101870,0,0,226,261,586,74,42229,58593,10882,0,250,1.4,0,0,0,0,0,0,0,0,0,0,0,0,0
2016,1,31,11,0,,-0.6,-13.5,37,101930,0,0,238,420,767,77,55294,77193,11132,0,250,1.4,1,0,0,0,0,0,0,0,0,0,0,0,0
2016,1,31,12,0,,0.7,-16.6,26,101880,0,0,249,474,662,120,53946,66200,17017,0,230,3,5,0,0,0,0,0,0,0,0,0,0,0,0
2016,1,31,13,0,,1.2,-16.7,25,101820,0,0,251,488,593,149,47984,58671,19047,0,230,2.8,5,0,0,0,0,0,0,0,0,0,0,0,0
2016,1,31,14,0,,1.6,-20.2,18,101750,0,0,253,440,479,173,37975,44643,20896,0,230,3.2,6,0,0,0,0,0,0,0,0,0,0,0,0
2016,1,31,15,0,,2.4,-21.6,15,101680,0,0,249,448,710,99,26096,55142,13220,0,230,2.5,3,0,0,0,0,0,0,0,0,0,0,0,0
2016,1,31,16,0,,2.4,-21.6,15,101720,0,0,247,352,747,67,8944,21534,7734,0,230,3.1,2,0,0,0,0,0,0,0,0,0,0,0,0
2016,1,31,17,0,,1.4,-21,17,101720,0,0,246,200,662,46,0,0,0,0,230,2.9,3,0,0,0,0,0,0,0,0,0,0,0,0
2016,1,31,18,0,,0.1,-22.8,16,101790,0,0,242,55,35,20,0,0,0,0,230,1.9,3,0,0,0,0,0,0,0,0,0,0,0,0
2016,1,31,19,0,,-1,-21.7,19,101840,0,0,241,0,0,0,0,0,0,0,230,1.9,3,0,0,0,0,0,0,0,0,0,0,0,0
2016,1,31,20,0,,-1.9,-17.6,29,101930,0,0,239,0,0,0,0,0,0,0,290,1.4,4,0,0,0,0,0,0,0,0,0,0,0,0
2016,1,31,21,0,,-2.4,-19.3,26,101970,0,0,237,0,0,0,0,0,0,0,230,1.7,4,0,0,0,0,0,0,0,0,0,0,0,0
2016,1,31,22,0,,-3.1,-18.2,30,101970,0,0,236,0,0,0,0,0,0,0,200,1.6,5,0,0,0,0,0,0,0,0,0,0,0,0
2016,1,31,23,0,,-3.6,-15.8,38,102000,0,0,237,0,0,0,0,0,0,0,0,0.3,6,0,0,0,0,0,0,0,0,0,0,0,0
2016,1,31,24,0,,-5.2,-13,54,102020,0,0,235,0,0,0,0,0,0,0,360,0.6,7,0,0,0,0,0,0,0,0,0,0,0,0
2002,2,1,1,0,,-7.8,-12.9,76,101980,0,0,208,0,0,0,0,0,0,0,0,0.1,0,0,0,0,0,0,0,0,0,0,0,0,0
2002,2,1,2,0,,-8.7,-13.1,76,101960,0,0,205,0,0,0,0,0,0,0,340,0.9,0,0,0,0,0,0,0,0,0,0,0,0,0
2002,2,1,3,0,,-9.1,-13.3,78,101950,0,0,204,0,0,0,0,0,0,0,0,0.1,0,0,0,0,0,0,0,0,0,0,0,0,0
2002,2,1,4,0,,-9.6,-13.5,78,101950,0,0,207,0,0,0,0,0,0,0,20,0.6,1,0,0,0,0,0,0,0,0,0,0,0,0
2002,2,1,5,0,,-9.8,-13.7,84,101940,0,0,209,0,0,0,0,0,0,0,110,0.5,3,0,0,0,0,0,0,0,0,0,0,0,0
2002,2,1,6,0,,-10,-13.9,82,101940,0,0,211,0,0,0,0,0,0,0,110,0.3,4,0,0,0,0,0,0,0,0,0,0,0,0
2002,2,1,7,0,,-9.6,-13.3,82,101940,0,0,214,0,0,0,0,0,0,0,360,0.6,5,0,0,0,0,0,0,0,0,0,0,0,0
2002,2,1,8,0,,-8.9,-12.8,80,101950,0,0,218,15,5,10,1364,415,1229,0,50,0.3,5,0,0,0,0,0,0,0,0,0,0,0,0
2002,2,1,9,0,,-8,-12.2,79,101950,0,0,223,98,355,42,22549,35217,6560,0,320,0.7,6,0,0,0,0,0,0,0,0,0,0,0,0
2002,2,1,10,0,,-6.6,-11,75,101920,0,0,233,192,248,112,28732,24942,15256,0,360,0.3,7,0,0,0,0,0,0,0,0,0,0,0,0
2002,2,1,11,0,,-5,-9.8,68,101900,0,0,245,209,101,164,25179,10432,19153,0,340,0.5,9,0,0,0,0,0,0,0,0,0,0,0,0
2002,2,1,12,0,,-2.9,-8.6,67,101870,0,0,264,219,64,185,24570,6315,21011,0,340,1.2,10,0,0,0,0,0,0,0,0,0,0,0,0
2002,2,1,13,0,,-1.3,-7.6,62,101780,0,0,257,351,193,240,36713,19220,27123,0,320,1.1,8,0,0,0,0,0,0,0,0,0,0,0,0
2002,2,1,14,0,,0.4,-6.7,57,101690,0,0,257,452,508,167,38877,47158,20567,0,340,0.8,5,0,0,0,0,0,0,0,0,0,0,0,0
2002,2,1,15,0,,1.9,-5.7,54,101600,0,0,259,423,606,122,26293,47276,14993,0,50,0.9,3,0,0,0,0,0,0,0,0,0,0,0,0
2002,2,1,16,0,,2.2,-5.1,52,101580,0,0,263,303,514,105,11700,15735,10734,0,0,0,4,0,0,0,0,0,0,0,0,0,0,0,0
2002,2,1,17,0,,1.8,-4.4,57,101570,0,0,264,161,356,76,0,0,0,0,0,0,5,0,0,0,0,0,0,0,0,0,0,0,0
2002,2,1,18,0,,1.5,-3.8,65,101550,0,0,266,40,17,23,0,0,0,0,0,0,6,0,0,0,0,0,0,0,0,0,0,0,0
2002,2,1,19,0,,0.1,-3.7,71,101550,0,0,264,0,0,0,0,0,0,0,0,0,7,0,0,0,0,0,0,0,0,0,0,0,0
2002,2,1,20,0,,0.4,-3.7,71,101560,0,0,269,0,0,0,0,0,0,0,270,1.1,8,0,0,0,0,0,0,0,0,0,0,0,0
2002,2,1,21,0,,0,-3.6,77,101560,0,0,273,0,0,0,0,0,0,0,320,0.5,9,0,0,0,0,0,0,0,0,0,0,0,0
2002,2,1,22,0,,0.1,-3.6,79,101550,0,0,274,0,0,0,0,0,0,0,0,0.1,9,0,0,0,0,0,0,0,0,0,0,0,0
2002,2,1,23,0,,0.2,-3.6,79,101550,0,0,274,0,0,0,0,0,0,0,0,0,9,0,0,0,0,0,0,0,0,0,0,0,0
2002,2,1,24,0,,0.4,-3.6,73,101540,0,0,275,0,0,0,0,0,0,0,230,0.8,9,0,0,0,0,0,0,0,0,0,0,0,0
2002,2,2,1,0,,0.5,-3.3,77,101540,0,0,276,0,0,0,0,0,0,0,230,0.3,9,0,0,0,0,0,0,0,0,0,0,0,0
2002,2,2,2,0,,2.4,-3,67,101550,0,0,284,0,0,0,0,0,0,0,160,1.3,9,0,0,0,0,0,0,0,0,0,0,0,0
2002,2,2,3,0,,2.3,-2.7,69,101550,0,0,284,0,0,0,0,0,0,0,180,0.6,9,0,0,0,0,0,0,0,0,0,0,0,0
2002,2,2,4,0,,-0.8,-3.4,85,101550,0,0,258,0,0,0,0,0,0,0,360,0.9,6,0,0,0,0,0,0,0,0,0,0,0,0
2002,2,2,5,0,,-2.2,-4,87,101550,0,0,246,0,0,0,0,0,0,0,360,1.5,3,0,0,0,0,0,0,0,0,0,0,0,0
2002,2,2,6,0,,-2.6,-4.7,89,101550,0,0,234,0,0,0,0,0,0,0,0,0.1,0,0,0,0,0,0,0,0,0,0,0,0,0
2002,2,2,7,0,,-3.3,-4.6,90,101600,0,0,232,0,0,0,0,0,0,0,0,0.2,0,0,0,0,0,0,0,0,0,0,0,0,0
2002,2,2,8,0,,-3.3,-4.5,90,101650,0,0,232,16,6,10,1444,498,1281,0,0,0.1,0,0,0,0,0,0,0,0,0,0,0,0,0
2002,2,2,9,0,,-2.4,-4.4,89,101700,0,0,235,115,437,45,26914,43429,7038,0,20,0.3,0,0,0,0,0,0,0,0,0,0,0,0,0
2002,2,2,10,0,,-0.7,-3.9,84,101690,0,0,245,263,569,78,42469,57013,11442,0,290,0.9,1,0,0,0,0,0,0,0,0,0,0,0,0
2002,2,2,11,0,,1.5,-3.5,71,101680,0,0,255,395,647,101,52893,65153,14991,0,320,0.6,1,0,0,0,0,0,0,0,0,0,0,0,0
2002,2,2,12,0,,4.5,-3,58,101670,0,0,269,495,709,111,56426,70884,16183,0,20,0.8,2,0,0,0,0,0,0,0,0,0,0,0,0
2002,2,2,13,0,,6.2,-3.8,45,101610,0,0,275,547,754,110,53150,74025,15907,0,70,1.5,2,0,0,0,0,0,0,0,0,0,0,0,0
2002,2,2,14,0,,7.1,-4.6,41,101550,0,0,278,529,741,110,42540,68838,15531,0,20,1.6,2,0,0,0,0,0,0,0,0,0,0,0,0
2002,2,2,15,0,,8.2,-5.4,37,101490,0,0,282,455,707,101,27182,55406,13722,0,70,1,2,0,0,0,0,0,0,0,0,0,0,0,0
2002,2,2,16,0,,8.2,-6,34,101530,0,0,279,345,684,78,10382,20736,9033,0,290,0.4,1,0,0,0,0,0,0,0,0,0,0,0,0
2002,2,2,17,0,,8,-6.5,27,101560,0,0,275,205,647,49,0,0,0,0,200,1.7,1,0,0,0,0,0,0,0,0,0,0,0,0
2002,2,2,18,0,,5.8,-7.1,39,101600,0,0,262,56,34,22,0,0,0,0,230,2,0,0,0,0,0,0,0,0,0,0,0,0,0
2002,2,2,19,0,,2.3,-6.4,57,101660,0,0,249,0,0,0,0,0,0,0,0,0,0,0,0,0,0,0,0,0,0,0,0,0,0
2002,2,2,20,0,,0.2,-5.7,64,101730,0,0,242,0,0,0,0,0,0,0,0,0.2,0,0,0,0,0,0,0,0,0,0,0,0,0
2002,2,2,21,0,,-1.2,-5,77,101790,0,0,238,0,0,0,0,0,0,0,0,0.2,0,0,0,0,0,0,0,0,0,0,0,0,0
2002,2,2,22,0,,-2,-5.2,81,101810,0,0,235,0,0,0,0,0,0,0,360,0.6,0,0,0,0,0,0,0,0,0,0,0,0,0
2002,2,2,23,0,,-2.7,-5.5,82,101830,0,0,233,0,0,0,0,0,0,0,0,0,0,0,0,0,0,0,0,0,0,0,0,0,0
2002,2,2,24,0,,-2.7,-5.7,82,101850,0,0,233,0,0,0,0,0,0,0,290,0.7,0,0,0,0,0,0,0,0,0,0,0,0,0
2002,2,3,1,0,,-3.7,-6,86,101870,0,0,229,0,0,0,0,0,0,0,0,0,0,0,0,0,0,0,0,0,0,0,0,0,0
2002,2,3,2,0,,-4.3,-6.4,88,101900,0,0,227,0,0,0,0,0,0,0,0,0,0,0,0,0,0,0,0,0,0,0,0,0,0
2002,2,3,3,0,,-4.8,-6.7,89,101920,0,0,225,0,0,0,0,0,0,0,20,0.5,0,0,0,0,0,0,0,0,0,0,0,0,0
2002,2,3,4,0,,-4.8,-7.2,87,101930,0,0,224,0,0,0,0,0,0,0,50,0.3,0,0,0,0,0,0,0,0,0,0,0,0,0
2002,2,3,5,0,,-5.5,-7.7,88,101940,0,0,221,0,0,0,0,0,0,0,50,0.4,0,0,0,0,0,0,0,0,0,0,0,0,0
2002,2,3,6,0,,-5.7,-8.2,87,101950,0,0,220,0,0,0,0,0,0,0,340,0.6,0,0,0,0,0,0,0,0,0,0,0,0,0
2002,2,3,7,0,,-5.7,-7.9,87,102000,0,0,220,0,0,0,0,0,0,0,0,0.2,0,0,0,0,0,0,0,0,0,0,0,0,0
2002,2,3,8,0,,-6.5,-7.7,88,102050,0,0,218,18,7,11,1526,599,1327,0,20,0.4,0,0,0,0,0,0,0,0,0,0,0,0,0
2002,2,3,9,0,,-4.7,-7.4,84,102100,0,0,224,122,486,43,28976,48317,6681,0,20,0.8,0,0,0,0,0,0,0,0,0,0,0,0,0
2002,2,3,10,0,,-2.5,-7.2,75,102070,0,0,232,273,606,74,44187,60754,10883,0,0,0,0,0,0,0,0,0,0,0,0,0,0,0,0
2002,2,3,11,0,,-0.3,-6.9,63,102050,0,0,240,416,714,89,54758,71714,12743,0,360,0.4,0,0,0,0,0,0,0,0,0,0,0,0,0
2002,2,3,12,0,,2.4,-6.7,48,102020,0,0,249,514,757,101,57457,75427,14318,0,270,0.3,0,0,0,0,0,0,0,0,0,0,0,0,0
2002,2,3,13,0,,5,-7.6,42,101940,0,0,258,568,806,98,54224,79101,14094,0,0,0.1,0,0,0,0,0,0,0,0,0,0,0,0,0
2002,2,3,14,0,,7.2,-8.5,36,101850,0,0,266,570,856,83,44335,80714,12336,0,50,0.5,0,0,0,0,0,0,0,0,0,0,0,0,0
2002,2,3,15,0,,9.8,-9.4,25,101770,0,0,275,515,895,63,28126,74639,9700,0,160,0.8,0,0,0,0,0,0,0,0,0,0,0,0,0
2002,2,3,16,0,,10.1,-7.5,23,101770,0,0,278,377,802,60,9489,29354,7470,0,110,0.9,0,0,0,0,0,0,0,0,0,0,0,0,0
2002,2,3,17,0,,9.1,-5.7,25,101780,0,0,276,212,671,47,0,0,0,0,90,0.9,0,0,0,0,0,0,0,0,0,0,0,0,0
2002,2,3,18,0,,5.7,-3.8,50,101780,0,0,265,52,26,26,0,0,0,0,250,1,0,0,0,0,0,0,0,0,0,0,0,0,0
2002,2,3,19,0,,2.1,-4.3,61,101810,0,0,250,0,0,0,0,0,0,0,0,0,0,0,0,0,0,0,0,0,0,0,0,0,0
2002,2,3,20,0,,0.3,-4.9,69,101850,0,0,243,0,0,0,0,0,0,0,320,0.7,0,0,0,0,0,0,0,0,0,0,0,0,0
2002,2,3,21,0,,-0.8,-5.4,73,101880,0,0,239,0,0,0,0,0,0,0,290,0.5,0,0,0,0,0,0,0,0,0,0,0,0,0
2002,2,3,22,0,,-1.9,-5.6,77,101900,0,0,235,0,0,0,0,0,0,0,110,0.4,0,0,0,0,0,0,0,0,0,0,0,0,0
2002,2,3,23,0,,-2.3,-5.8,80,101910,0,0,234,0,0,0,0,0,0,0,340,1,0,0,0,0,0,0,0,0,0,0,0,0,0
2002,2,3,24,0,,-3,-6,82,101930,0,0,231,0,0,0,0,0,0,0,110,0.3,0,0,0,0,0,0,0,0,0,0,0,0,0
2002,2,4,1,0,,-3.5,-6.4,82,101910,0,0,229,0,0,0,0,0,0,0,360,0.7,0,0,0,0,0,0,0,0,0,0,0,0,0
2002,2,4,2,0,,-4,-6.7,85,101900,0,0,227,0,0,0,0,0,0,0,0,0.2,0,0,0,0,0,0,0,0,0,0,0,0,0
2002,2,4,3,0,,-4.4,-7.1,87,101880,0,0,225,0,0,0,0,0,0,0,360,0.5,0,0,0,0,0,0,0,0,0,0,0,0,0
2002,2,4,4,0,,-4.9,-7.5,87,101880,0,0,225,0,0,0,0,0,0,0,70,0.5,0,0,0,0,0,0,0,0,0,0,0,0,0
2002,2,4,5,0,,-5.4,-7.8,88,101870,0,0,224,0,0,0,0,0,0,0,20,0.4,1,0,0,0,0,0,0,0,0,0,0,0,0
2002,2,4,6,0,,-5.5,-8.2,86,101870,0,0,225,0,0,0,0,0,0,0,360,0.8,1,0,0,0,0,0,0,0,0,0,0,0,0
2002,2,4,7,0,,-5.7,-8.1,87,101880,0,0,230,0,0,0,0,0,0,0,90,0.4,3,0,0,0,0,0,0,0,0,0,0,0,0
2002,2,4,8,0,,-5.9,-7.9,87,101880,0,0,234,13,3,11,1372,238,1292,0,20,0.6,6,0,0,0,0,0,0,0,0,0,0,0,0
2002,2,4,9,0,,-4.5,-7.8,82,101890,0,0,246,75,126,54,13953,12379,8193,0,50,0.3,8,0,0,0,0,0,0,0,0,0,0,0,0
2002,2,4,10,0,,-3,-6.9,81,101840,0,0,251,170,155,119,23487,15895,14709,0,20,0.6,8,0,0,0,0,0,0,0,0,0,0,0,0
2002,2,4,11,0,,-1.5,-5.9,76,101800,0,0,257,291,243,178,35964,25132,21135,0,0,0.2,7,0,0,0,0,0,0,0,0,0,0,0,0
2002,2,4,12,0,,0.1,-5,65,101750,0,0,262,350,226,225,39350,23187,25991,0,340,0.5,7,0,0,0,0,0,0,0,0,0,0,0,0
2002,2,4,13,0,,1.1,-5.9,59,101660,0,0,262,421,313,237,43048,31559,26905,0,270,0.5,6,0,0,0,0,0,0,0,0,0,0,0,0
2002,2,4,14,0,,2.3,-6.9,53,101570,0,0,263,446,452,187,38797,43258,21469,0,0,0.2,5,0,0,0,0,0,0,0,0,0,0,0,0
2002,2,4,15,0,,5,-7.8,40,101480,0,0,272,444,638,119,27534,51007,14741,0,270,0.3,4,0,0,0,0,0,0,0,0,0,0,0,0
2002,2,4,16,0,,5.5,-6.9,48,101450,0,0,277,324,558,101,12158,19998,10709,0,320,1.1,5,0,0,0,0,0,0,0,0,0,0,0,0
2002,2,4,17,0,,4.9,-5.9,51,101430,0,0,277,174,391,77,0,0,0,0,0,0,6,0,0,0,0,0,0,0,0,0,0,0,0
2002,2,4,18,0,,3.6,-5,54,101400,0,0,276,38,12,26,0,0,0,0,0,0.2,7,0,0,0,0,0,0,0,0,0,0,0,0
2002,2,4,19,0,,2.2,-4.7,68,101390,0,0,267,0,0,0,0,0,0,0,0,0,6,0,0,0,0,0,0,0,0,0,0,0,0
2002,2,4,20,0,,-0.1,-4.4,82,101380,0,0,256,0,0,0,0,0,0,0,0,0,4,0,0,0,0,0,0,0,0,0,0,0,0
2002,2,4,21,0,,-0.7,-4.1,78,101370,0,0,252,0,0,0,0,0,0,0,0,0,3,0,0,0,0,0,0,0,0,0,0,0,0
2002,2,4,22,0,,-1.6,-4.1,83,101340,0,0,248,0,0,0,0,0,0,0,360,0.6,3,0,0,0,0,0,0,0,0,0,0,0,0
2002,2,4,23,0,,-1.4,-4.1,78,101320,0,0,247,0,0,0,0,0,0,0,0,0.1,2,0,0,0,0,0,0,0,0,0,0,0,0
2002,2,4,24,0,,-1.6,-4.1,83,101290,0,0,246,0,0,0,0,0,0,0,0,0,2,0,0,0,0,0,0,0,0,0,0,0,0
2002,2,5,1,0,,-1.8,-4.1,82,101270,0,0,249,0,0,0,0,0,0,0,360,0.5,4,0,0,0,0,0,0,0,0,0,0,0,0
2002,2,5,2,0,,-1.5,-4.1,79,101240,0,0,253,0,0,0,0,0,0,0,360,1,5,0,0,0,0,0,0,0,0,0,0,0,0
2002,2,5,3,0,,-1.6,-4.1,83,101220,0,0,257,0,0,0,0,0,0,0,0,0,7,0,0,0,0,0,0,0,0,0,0,0,0
2002,2,5,4,0,,-2,-4.6,82,101190,0,0,252,0,0,0,0,0,0,0,90,0.7,6,0,0,0,0,0,0,0,0,0,0,0,0
2002,2,5,5,0,,-2.4,-5.2,87,101160,0,0,247,0,0,0,0,0,0,0,340,1,4,0,0,0,0,0,0,0,0,0,0,0,0
2002,2,5,6,0,,-3.3,-5.7,88,101130,0,0,241,0,0,0,0,0,0,0,0,0,3,0,0,0,0,0,0,0,0,0,0,0,0
2002,2,5,7,0,,-3.9,-5.9,88,101140,0,0,236,0,0,0,0,0,0,0,20,1.4,2,0,0,0,0,0,0,0,0,0,0,0,0
2002,2,5,8,0,,-4.2,-6.2,89,101150,0,0,232,19,7,12,1666,644,1448,0,290,0.5,1,0,0,0,0,0,0,0,0,0,0,0,0
2002,2,5,9,0,,-3.3,-6.4,84,101160,0,0,230,125,467,46,28944,46524,7116,0,340,0.9,0,0,0,0,0,0,0,0,0,0,0,0,0
2002,2,5,10,0,,-1.4,-5.9,76,101120,0,0,237,268,551,84,43713,55574,12796,0,0,0,0,0,0,0,0,0,0,0,0,0,0,0,0
2002,2,5,11,0,,0.7,-5.5,63,101080,0,0,244,408,656,103,54505,66269,15124,0,0,0.2,0,0,0,0,0,0,0,0,0,0,0,0,0
2002,2,5,12,0,,2.9,-5,55,101040,0,0,253,510,721,112,58229,72432,16186,0,340,0.8,0,0,0,0,0,0,0,0,0,0,0,0,0
2002,2,5,13,0,,5.5,-6.3,42,100940,0,0,262,574,799,102,55058,78541,14547,0,340,1.2,0,0,0,0,0,0,0,0,0,0,0,0,0
2002,2,5,14,0,,8.6,-7.7,30,100850,0,0,273,582,864,83,45447,81967,12275,0,160,0.9,0,0,0,0,0,0,0,0,0,0,0,0,0
2002,2,5,15,0,,10.2,-9,25,100750,0,0,278,515,866,70,29177,72513,10703,0,140,0.6,0,0,0,0,0,0,0,0,0,0,0,0,0
2002,2,5,16,0,,10.1,-8.9,25,100750,0,0,283,391,828,58,9897,33658,7331,0,200,2.9,1,0,0,0,0,0,0,0,0,0,0,0,0
2002,2,5,17,0,,8.7,-8.7,27,100750,0,0,281,220,678,48,0,0,0,0,200,3.2,2,0,0,0,0,0,0,0,0,0,0,0,0
2002,2,5,18,0,,7.5,-8.6,30,100750,0,0,279,61,37,24,0,0,0,0,200,2.8,3,0,0,0,0,0,0,0,0,0,0,0,0
2002,2,5,19,0,,4.3,-7.1,46,100810,0,0,265,0,0,0,0,0,0,0,50,0.9,2,0,0,0,0,0,0,0,0,0,0,0,0
2002,2,5,20,0,,3.1,-5.6,55,100870,0,0,258,0,0,0,0,0,0,0,50,1.9,1,0,0,0,0,0,0,0,0,0,0,0,0
2002,2,5,21,0,,0.8,-4.1,68,100930,0,0,246,0,0,0,0,0,0,0,230,0.5,0,0,0,0,0,0,0,0,0,0,0,0,0
2002,2,5,22,0,,-0.6,-4.5,78,100950,0,0,241,0,0,0,0,0,0,0,360,0.4,0,0,0,0,0,0,0,0,0,0,0,0,0
2002,2,5,23,0,,-1.4,-5,77,100980,0,0,238,0,0,0,0,0,0,0,0,0,0,0,0,0,0,0,0,0,0,0,0,0,0
2002,2,5,24,0,,-1.8,-5.4,76,101000,0,0,236,0,0,0,0,0,0,0,320,0.4,0,0,0,0,0,0,0,0,0,0,0,0,0
2002,2,6,1,0,,-2.6,-5.8,79,101020,0,0,233,0,0,0,0,0,0,0,0,0.2,0,0,0,0,0,0,0,0,0,0,0,0,0
2002,2,6,2,0,,-3.2,-6.3,82,101040,0,0,230,0,0,0,0,0,0,0,0,0,0,0,0,0,0,0,0,0,0,0,0,0,0
2002,2,6,3,0,,-3.7,-6.7,81,101060,0,0,228,0,0,0,0,0,0,0,20,0.9,0,0,0,0,0,0,0,0,0,0,0,0,0
2002,2,6,4,0,,-3.9,-6.5,84,101040,0,0,233,0,0,0,0,0,0,0,360,0.7,1,0,0,0,0,0,0,0,0,0,0,0,0
2002,2,6,5,0,,-3.3,-6.2,83,101020,0,0,239,0,0,0,0,0,0,0,360,0.6,3,0,0,0,0,0,0,0,0,0,0,0,0
2002,2,6,6,0,,-3.2,-6,84,101000,0,0,242,0,0,0,0,0,0,0,340,1.3,4,0,0,0,0,0,0,0,0,0,0,0,0
2002,2,6,7,0,,-3.4,-5.8,84,101010,0,0,243,0,0,0,0,0,0,0,360,1,5,0,0,0,0,0,0,0,0,0,0,0,0
2002,2,6,8,0,,-3.3,-5.6,83,101020,0,0,245,18,6,12,1674,486,1508,0,20,0.6,5,0,0,0,0,0,0,0,0,0,0,0,0
2002,2,6,9,0,,-2.4,-5.4,82,101030,0,0,250,103,299,51,22568,29756,8489,0,320,1.5,6,0,0,0,0,0,0,0,0,0,0,0,0
2002,2,6,10,0,,-1.7,-5.3,77,101000,0,0,256,189,198,123,26528,20296,15153,0,0,0.1,7,0,0,0,0,0,0,0,0,0,0,0,0
2002,2,6,11,0,,-0.5,-5.1,71,100960,0,0,264,244,136,180,29404,13980,21036,0,0,0.1,8,0,0,0,0,0,0,0,0,0,0,0,0
2002,2,6,12,0,,0.7,-5,62,100930,0,0,275,248,80,203,27726,7889,23113,0,0,0,9,0,0,0,0,0,0,0,0,0,0,0,0
2002,2,6,13,0,,2.5,-4.2,59,100820,0,0,275,346,164,249,36692,16313,28208,0,320,0.6,8,0,0,0,0,0,0,0,0,0,0,0,0
2002,2,6,14,0,,4.8,-3.3,55,100710,0,0,281,436,397,205,38968,37747,23534,0,320,0.5,6,0,0,0,0,0,0,0,0,0,0,0,0
2002,2,6,15,0,,6.8,-2.5,52,100600,0,0,286,424,542,143,28595,43231,17410,0,290,1,5,0,0,0,0,0,0,0,0,0,0,0,0
2002,2,6,16,0,,7.9,-2.1,48,100580,0,0,296,280,352,137,15169,11419,14256,0,160,1.4,7,0,0,0,0,0,0,0,0,0,0,0,0
2002,2,6,17,0,,7.4,-1.6,51,100560,0,0,302,139,198,88,0,0,0,0,160,1.5,8,0,0,0,0,0,0,0,0,0,0,0,0
2002,2,6,18,0,,7.1,-1.2,55,100540,0,0,315,24,3,21,0,0,0,0,160,3,10,0,0,0,0,0,0,0,0,0,0,0,0
2002,2,6,19,0,,6.7,0.2,59,100540,0,0,314,0,0,0,0,0,0,0,160,2.9,10,0,0,0,0,0,0,0,0,0,0,0,0
2002,2,6,20,0,,6.8,1.5,61,100540,0,0,316,0,0,0,0,0,0,0,140,3.7,10,0,0,0,0,0,0,0,0,0,0,0,0
2002,2,6,21,0,,5.2,2.9,86,100540,0,0,311,0,0,0,0,0,0,0,200,2.4,10,0,0,0,0,0,0,0,0,0,0,0,0
2002,2,6,22,0,,4.3,2,90,100550,0,0,306,0,0,0,0,0,0,0,70,1.2,10,0,0,0,0,0,0,0,0,0,0,0,0
2002,2,6,23,0,,3.4,1.1,89,100570,0,0,301,0,0,0,0,0,0,0,270,1.1,10,0,0,0,0,0,0,0,0,0,0,0,0
2002,2,6,24,0,,4.8,0.2,73,100580,0,0,306,0,0,0,0,0,0,0,200,3,10,0,0,0,0,0,0,0,0,0,0,0,0
2002,2,7,1,0,,4.1,-1.3,66,100680,0,0,281,0,0,0,0,0,0,0,230,3.2,7,0,0,0,0,0,0,0,0,0,0,0,0
2002,2,7,2,0,,2.9,-2.9,61,100770,0,0,267,0,0,0,0,0,0,0,230,1.4,3,0,0,0,0,0,0,0,0,0,0,0,0
2002,2,7,3,0,,1.6,-4.4,62,100870,0,0,249,0,0,0,0,0,0,0,200,1,0,0,0,0,0,0,0,0,0,0,0,0,0
2002,2,7,4,0,,1.2,-5.1,59,100900,0,0,246,0,0,0,0,0,0,0,140,1.3,0,0,0,0,0,0,0,0,0,0,0,0,0
2002,2,7,5,0,,-0.8,-5.7,65,100930,0,0,239,0,0,0,0,0,0,0,110,1.7,0,0,0,0,0,0,0,0,0,0,0,0,0
2002,2,7,6,0,,-1.6,-6.4,71,100960,0,0,236,0,0,0,0,0,0,0,70,0.6,0,0,0,0,0,0,0,0,0,0,0,0,0
2002,2,7,7,0,,-2.5,-6.4,76,101070,0,0,232,0,0,0,0,0,0,0,0,0,0,0,0,0,0,0,0,0,0,0,0,0,0
2002,2,7,8,0,,-2.9,-6.4,82,101190,0,0,231,23,11,12,2000,1023,1646,0,0,0,0,0,0,0,0,0,0,0,0,0,0,0,0
2002,2,7,9,0,,-1.9,-6.4,72,101300,0,0,235,132,486,46,30338,48535,7177,0,0,0,0,0,0,0,0,0,0,0,0,0,0,0,0
2002,2,7,10,0,,1.1,-8.2,52,101300,0,0,243,299,674,68,48477,68030,10060,0,270,0.4,0,0,0,0,0,0,0,0,0,0,0,0,0
2002,2,7,11,0,,4.1,-9.9,37,101310,0,0,253,461,823,71,59822,82073,10341,0,200,1.1,0,0,0,0,0,0,0,0,0,0,0,0,0
2002,2,7,12,0,,5.8,-11.7,28,101310,0,0,258,569,876,77,62407,87070,11112,0,200,2,0,0,0,0,0,0,0,0,0,0,0,0,0
2002,2,7,13,0,,6.9,-12.6,25,101240,0,0,265,597,838,94,56855,82758,13459,0,140,2.1,1,0,0,0,0,0,0,0,0,0,0,0,0
2002,2,7,14,0,,8.4,-13.6,20,101160,0,0,273,575,815,97,45999,77535,13973,0,140,2.1,1,0,0,0,0,0,0,0,0,0,0,0,0
2002,2,7,15,0,,9,-14.5,18,101090,0,0,276,488,746,98,29439,61031,13405,0,20,0.7,2,0,0,0,0,0,0,0,0,0,0,0,0
2002,2,7,16,0,,9.6,-13.4,17,101090,0,0,277,392,799,64,10870,34159,8012,0,200,3.3,1,0,0,0,0,0,0,0,0,0,0,0,0
2002,2,7,17,0,,8,-12.3,21,101080,0,0,269,228,682,50,0,0,0,0,200,2.9,1,0,0,0,0,0,0,0,0,0,0,0,0
2002,2,7,18,0,,6.7,-11.2,27,101080,0,0,262,68,46,22,0,0,0,0,200,2.4,0,0,0,0,0,0,0,0,0,0,0,0,0
2002,2,7,19,0,,5.8,-10.9,22,101090,0,0,259,0,0,0,0,0,0,0,180,1.9,0,0,0,0,0,0,0,0,0,0,0,0,0
2002,2,7,20,0,,4.8,-10.6,25,101110,0,0,255,0,0,0,0,0,0,0,200,1.4,0,0,0,0,0,0,0,0,0,0,0,0,0
2002,2,7,21,0,,3.6,-10.3,30,101120,0,0,251,0,0,0,0,0,0,0,200,1.9,0,0,0,0,0,0,0,0,0,0,0,0,0
2002,2,7,22,0,,-0.2,-8.5,64,101140,0,0,239,0,0,0,0,0,0,0,90,0.8,0,0,0,0,0,0,0,0,0,0,0,0,0
2002,2,7,23,0,,-1,-6.8,71,101160,0,0,237,0,0,0,0,0,0,0,50,0.4,0,0,0,0,0,0,0,0,0,0,0,0,0
2002,2,7,24,0,,-2,-5,81,101180,0,0,236,0,0,0,0,0,0,0,0,0,0,0,0,0,0,0,0,0,0,0,0,0,0
2002,2,8,1,0,,-2.5,-5.3,76,101130,0,0,234,0,0,0,0,0,0,0,0,0,0,0,0,0,0,0,0,0,0,0,0,0,0
2002,2,8,2,0,,-2.5,-5.7,78,101090,0,0,233,0,0,0,0,0,0,0,0,0,0,0,0,0,0,0,0,0,0,0,0,0,0
2002,2,8,3,0,,-2.7,-6,79,101040,0,0,232,0,0,0,0,0,0,0,0,0,0,0,0,0,0,0,0,0,0,0,0,0,0
2002,2,8,4,0,,-2.9,-6,82,100980,0,0,240,0,0,0,0,0,0,0,90,0.3,2,0,0,0,0,0,0,0,0,0,0,0,0
2002,2,8,5,0,,-2.5,-6,80,100930,0,0,246,0,0,0,0,0,0,0,360,1.2,5,0,0,0,0,0,0,0,0,0,0,0,0
2002,2,8,6,0,,-2.9,-6,82,100870,0,0,250,0,0,0,0,0,0,0,0,0.2,7,0,0,0,0,0,0,0,0,0,0,0,0
2002,2,8,7,0,,-3.2,-5.4,83,100850,0,0,254,0,0,0,0,0,0,0,50,0.7,8,0,0,0,0,0,0,0,0,0,0,0,0
2002,2,8,8,0,,-2.1,-4.7,79,100840,0,0,264,8,1,8,1045,18,1039,0,70,0.5,9,0,0,0,0,0,0,0,0,0,0,0,0
2002,2,8,9,0,,-0.8,-4.1,78,100820,0,0,278,53,37,46,7725,3762,5914,0,360,1.1,10,0,0,0,0,0,0,0,0,0,0,0,0
2002,2,8,10,0,,0,-3.7,75,100770,0,0,281,116,45,100,14847,4622,12218,0,0,0.1,10,0,0,0,0,0,0,0,0,0,0,0,0
2002,2,8,11,0,,1.8,-3.4,67,100720,0,0,289,180,55,154,20984,5367,17725,0,160,2.1,10,0,0,0,0,0,0,0,0,0,0,0,0
2002,2,8,12,0,,2.1,-3,68,100670,0,0,291,204,45,179,23082,4362,20493,0,160,2.1,10,0,0,0,0,0,0,0,0,0,0,0,0
2002,2,8,13,0,,2.9,-2.2,64,100600,0,0,287,272,79,224,29430,7704,25356,0,140,1.3,9,0,0,0,0,0,0,0,0,0,0,0,0
2002,2,8,14,0,,3.2,-1.3,66,100540,0,0,283,302,114,234,30779,10858,26249,0,160,1.8,8,0,0,0,0,0,0,0,0,0,0,0,0
2002,2,8,15,0,,3.9,-0.5,73,100470,0,0,282,307,178,213,27494,14431,23645,0,200,1.8,7,0,0,0,0,0,0,0,0,0,0,0,0
2002,2,8,16,0,,4.3,-2.3,68,100470,0,0,276,301,400,135,15454,14346,14200,0,180,2.2,5,0,0,0,0,0,0,0,0,0,0,0,0
2002,2,8,17,0,,4.7,-4.2,58,100480,0,0,272,215,578,62,0,0,0,0,200,3.2,3,0,0,0,0,0,0,0,0,0,0,0,0
2002,2,8,18,0,,3.7,-6,48,100480,0,0,260,70,49,22,0,0,0,0,200,3.4,1,0,0,0,0,0,0,0,0,0,0,0,0
2002,2,8,19,0,,2.7,-8.4,33,100560,0,0,254,0,0,0,0,0,0,0,230,3.2,1,0,0,0,0,0,0,0,0,0,0,0,0
2002,2,8,20,0,,1.4,-10.9,31,100630,0,0,246,0,0,0,0,0,0,0,250,3.1,1,0,0,0,0,0,0,0,0,0,0,0,0
2002,2,8,21,0,,-0.2,-13.3,37,100710,0,0,240,0,0,0,0,0,0,0,250,1.5,1,0,0,0,0,0,0,0,0,0,0,0,0
2002,2,8,22,0,,-1.5,-13.7,41,100810,0,0,234,0,0,0,0,0,0,0,270,1.8,1,0,0,0,0,0,0,0,0,0,0,0,0
2002,2,8,23,0,,-2.6,-14.1,34,100900,0,0,228,0,0,0,0,0,0,0,230,1,0,0,0,0,0,0,0,0,0,0,0,0,0
2002,2,8,24,0,,-3.2,-14.5,41,101000,0,0,224,0,0,0,0,0,0,0,320,2.2,0,0,0,0,0,0,0,0,0,0,0,0,0
2002,2,9,1,0,,-4.3,-15.4,37,101090,0,0,219,0,0,0,0,0,0,0,0,0.2,0,0,0,0,0,0,0,0,0,0,0,0,0
2002,2,9,2,0,,-5.6,-16.2,58,101180,0,0,214,0,0,0,0,0,0,0,270,1,0,0,0,0,0,0,0,0,0,0,0,0,0
2002,2,9,3,0,,-5.8,-17.1,42,101270,0,0,213,0,0,0,0,0,0,0,110,1.3,0,0,0,0,0,0,0,0,0,0,0,0,0
2002,2,9,4,0,,-6.8,-16.4,53,101290,0,0,209,0,0,0,0,0,0,0,110,1.4,0,0,0,0,0,0,0,0,0,0,0,0,0
2002,2,9,5,0,,-7.8,-15.8,54,101300,0,0,206,0,0,0,0,0,0,0,0,0.2,0,0,0,0,0,0,0,0,0,0,0,0,0
2002,2,9,6,0,,-8.4,-15.1,64,101320,0,0,204,0,0,0,0,0,0,0,70,0.5,0,0,0,0,0,0,0,0,0,0,0,0,0
2002,2,9,7,0,,-8.8,-15.3,68,101370,0,0,203,0,0,0,0,0,0,0,0,0.1,0,0,0,0,0,0,0,0,0,0,0,0,0
2002,2,9,8,0,,-8.7,-15.5,63,101420,0,0,203,28,12,16,2547,1140,2143,0,340,0.7,0,0,0,0,0,0,0,0,0,0,0,0,0
2002,2,9,9,0,,-7,-15.7,51,101470,0,0,209,147,573,42,33581,55996,6395,0,0,0,0,0,0,0,0,0,0,0,0,0,0,0,0
2002,2,9,10,0,,-3.6,-16.4,30,101450,0,0,227,331,792,54,53009,78647,7920,0,140,0.6,1,0,0,0,0,0,0,0,0,0,0,0,0
2002,2,9,11,0,,-2.2,-17.2,27,101430,0,0,236,461,793,79,59623,78938,11339,0,320,1,3,0,0,0,0,0,0,0,0,0,0,0,0
2002,2,9,12,0,,0.2,-17.9,19,101410,0,0,245,540,761,106,60260,75986,14826,0,90,1.1,4,0,0,0,0,0,0,0,0,0,0,0,0
2002,2,9,13,0,,0.4,-17.4,24,101310,0,0,247,556,691,135,54947,68214,18586,0,290,3.5,4,0,0,0,0,0,0,0,0,0,0,0,0
2002,2,9,14,0,,0.6,-16.9,25,101200,0,0,248,511,595,157,43517,56956,19514,0,290,5.2,5,0,0,0,0,0,0,0,0,0,0,0,0
2002,2,9,15,0,,1.5,-16.4,19,101100,0,0,253,427,512,155,29754,42443,18264,0,200,1.5,5,0,0,0,0,0,0,0,0,0,0,0,0
2002,2,9,16,0,,1.9,-16.2,22,101070,0,0,255,338,541,111,13917,23644,11761,0,230,3.3,5,0,0,0,0,0,0,0,0,0,0,0,0
2002,2,9,17,0,,0.9,-15.9,24,101050,0,0,252,198,449,77,0,0,0,0,230,3.6,6,0,0,0,0,0,0,0,0,0,0,0,0
2002,2,9,18,0,,0,-15.7,29,101020,0,0,249,57,33,23,0,0,0,0,250,2,6,0,0,0,0,0,0,0,0,0,0,0,0
2002,2,9,19,0,,-0.3,-15.3,29,101050,0,0,248,0,0,0,0,0,0,0,250,2.6,5,0,0,0,0,0,0,0,0,0,0,0,0
2002,2,9,20,0,,-0.6,-14.9,32,101090,0,0,245,0,0,0,0,0,0,0,230,3.8,4,0,0,0,0,0,0,0,0,0,0,0,0
2002,2,9,21,0,,-0.9,-14.5,34,101120,0,0,242,0,0,0,0,0,0,0,230,3.2,3,0,0,0,0,0,0,0,0,0,0,0,0
2002,2,9,22,0,,-1.3,-13.7,33,101120,0,0,241,0,0,0,0,0,0,0,230,2.7,3,0,0,0,0,0,0,0,0,0,0,0,0
2002,2,9,23,0,,-1.6,-13,41,101130,0,0,240,0,0,0,0,0,0,0,230,1.7,3,0,0,0,0,0,0,0,0,0,0,0,0
2002,2,9,24,0,,-1.6,-12.2,46,101130,0,0,241,0,0,0,0,0,0,0,230,2.7,3,0,0,0,0,0,0,0,0,0,0,0,0
2002,2,10,1,0,,-1.9,-11.6,47,101120,0,0,240,0,0,0,0,0,0,0,200,2.6,3,0,0,0,0,0,0,0,0,0,0,0,0
2002,2,10,2,0,,-2,-10.9,53,101110,0,0,240,0,0,0,0,0,0,0,200,2.8,3,0,0,0,0,0,0,0,0,0,0,0,0
2002,2,10,3,0,,-2.3,-10.3,56,101100,0,0,239,0,0,0,0,0,0,0,200,1.8,3,0,0,0,0,0,0,0,0,0,0,0,0
2002,2,10,4,0,,-2.6,-10,61,101050,0,0,241,0,0,0,0,0,0,0,180,2.4,4,0,0,0,0,0,0,0,0,0,0,0,0
2002,2,10,5,0,,-2.6,-9.7,60,101010,0,0,244,0,0,0,0,0,0,0,140,1.4,6,0,0,0,0,0,0,0,0,0,0,0,0
2002,2,10,6,0,,-2.9,-9.4,62,100960,0,0,247,0,0,0,0,0,0,0,90,1.4,7,0,0,0,0,0,0,0,0,0,0,0,0
2002,2,10,7,0,,-2.6,-9.1,59,100960,0,0,246,0,0,0,0,0,0,0,160,1.3,6,0,0,0,0,0,0,0,0,0,0,0,0
2002,2,10,8,0,,-3,-8.9,67,100970,0,0,243,22,7,15,2006,664,1768,0,0,0.1,6,0,0,0,0,0,0,0,0,0,0,0,0
2002,2,10,9,0,,-1.5,-8.6,58,100970,0,0,248,129,379,58,27875,37862,9333,0,200,1.2,5,0,0,0,0,0,0,0,0,0,0,0,0
2002,2,10,10,0,,-0.6,-8.1,55,100940,0,0,252,265,457,103,41769,46028,15179,0,230,2.1,5,0,0,0,0,0,0,0,0,0,0,0,0
2002,2,10,11,0,,-0.4,-7.6,58,100910,0,0,253,367,436,155,47396,44087,20233,0,200,2.4,5,0,0,0,0,0,0,0,0,0,0,0,0
2002,2,10,12,0,,0.3,-7.1,55,100880,0,0,255,439,427,194,50079,43010,24172,0,200,3.1,5,0,0,0,0,0,0,0,0,0,0,0,0
2002,2,10,13,0,,1.6,-8,50,100790,0,0,258,507,533,181,51056,52926,22614,0,180,3.4,4,0,0,0,0,0,0,0,0,0,0,0,0
2002,2,10,14,0,,2.5,-8.9,46,100700,0,0,260,521,613,154,44212,58400,19354,0,200,3.9,4,0,0,0,0,0,0,0,0,0,0,0,0
2002,2,10,15,0,,2.7,-9.8,34,100610,0,0,258,479,674,118,30241,56236,14792,0,230,4.7,3,0,0,0,0,0,0,0,0,0,0,0,0
2002,2,10,16,0,,2.8,-9.8,38,100600,0,0,257,371,663,90,12994,30117,10136,0,230,3.2,2,0,0,0,0,0,0,0,0,0,0,0,0
2002,2,10,17,0,,2.3,-9.8,30,100580,0,0,253,230,632,58,0,0,0,0,230,4.2,2,0,0,0,0,0,0,0,0,0,0,0,0
2002,2,10,18,0,,1,-9.8,40,100570,0,0,246,71,47,24,0,0,0,0,200,1.9,1,0,0,0,0,0,0,0,0,0,0,0,0
2002,2,10,19,0,,0.3,-13.4,44,100620,0,0,239,0,0,0,0,0,0,0,200,2.4,1,0,0,0,0,0,0,0,0,0,0,0,0
2002,2,10,20,0,,0,-16.9,27,100680,0,0,235,0,0,0,0,0,0,0,250,2.8,0,0,0,0,0,0,0,0,0,0,0,0,0
2002,2,10,21,0,,-0.4,-20.5,21,100730,0,0,233,0,0,0,0,0,0,0,250,3.6,0,0,0,0,0,0,0,0,0,0,0,0,0
2002,2,10,22,0,,-3,-19.1,41,100800,0,0,223,0,0,0,0,0,0,0,0,0.2,0,0,0,0,0,0,0,0,0,0,0,0,0
2002,2,10,23,0,,-3.5,-17.8,43,100870,0,0,222,0,0,0,0,0,0,0,270,0.8,0,0,0,0,0,0,0,0,0,0,0,0,0
2002,2,10,24,0,,-3.6,-16.4,37,100940,0,0,221,0,0,0,0,0,0,0,290,1,0,0,0,0,0,0,0,0,0,0,0,0,0
2002,2,11,1,0,,-5.2,-16.2,48,100950,0,0,216,0,0,0,0,0,0,0,110,1,0,0,0,0,0,0,0,0,0,0,0,0,0
2002,2,11,2,0,,-5.7,-15.9,39,100960,0,0,214,0,0,0,0,0,0,0,140,1.4,0,0,0,0,0,0,0,0,0,0,0,0,0
2002,2,11,3,0,,-6.8,-15.7,56,100970,0,0,210,0,0,0,0,0,0,0,110,0.9,0,0,0,0,0,0,0,0,0,0,0,0,0
2002,2,11,4,0,,-7.4,-15.1,59,100970,0,0,208,0,0,0,0,0,0,0,140,0.4,0,0,0,0,0,0,0,0,0,0,0,0,0
2002,2,11,5,0,,-8.3,-14.5,71,100980,0,0,205,0,0,0,0,0,0,0,50,0.9,0,0,0,0,0,0,0,0,0,0,0,0,0
2002,2,11,6,0,,-8.9,-13.9,71,100980,0,0,204,0,0,0,0,0,0,0,90,0.6,0,0,0,0,0,0,0,0,0,0,0,0,0
2002,2,11,7,0,,-9.3,-14.3,77,100980,0,0,207,0,0,0,0,0,0,0,0,0,1,0,0,0,0,0,0,0,0,0,0,0,0
2002,2,11,8,0,,-9.6,-14.7,74,100970,0,0,209,28,15,13,2323,1428,1806,0,0,0.1,3,0,0,0,0,0,0,0,0,0,0,0,0
2002,2,11,9,0,,-6.9,-15.1,58,100970,0,0,221,147,517,48,32924,51720,7373,0,110,0.7,4,0,0,0,0,0,0,0,0,0,0,0,0
2002,2,11,10,0,,-4.4,-13.5,50,100870,0,0,233,284,535,93,45438,54242,13862,0,0,0.1,5,0,0,0,0,0,0,0,0,0,0,0,0
2002,2,11,11,0,,0.2,-11.9,34,100760,0,0,253,427,643,112,56718,65327,16176,0,200,2.8,6,0,0,0,0,0,0,0,0,0,0,0,0
2002,2,11,12,0,,1.4,-10.3,36,100660,0,0,262,455,467,185,51886,47244,23217,0,230,2.2,7,0,0,0,0,0,0,0,0,0,0,0,0
2002,2,11,13,0,,1.6,-10.8,32,100600,0,0,262,471,411,217,47717,42193,24857,0,250,3.8,7,0,0,0,0,0,0,0,0,0,0,0,0
2002,2,11,14,0,,1.4,-11.2,30,100530,0,0,261,423,285,251,39867,27605,28001,0,270,5.6,7,0,0,0,0,0,0,0,0,0,0,0,0
2002,2,11,15,0,,1.4,-11.7,31,100470,0,0,261,361,267,217,30125,22574,23833,0,290,4.9,7,0,0,0,0,0,0,0,0,0,0,0,0
2002,2,11,16,0,,1.9,-13,21,100580,0,0,256,337,508,120,14985,23274,12689,0,250,4.9,5,0,0,0,0,0,0,0,0,0,0,0,0
2002,2,11,17,0,,1,-14.4,22,100690,0,0,247,237,655,56,0,0,0,0,270,3.7,2,0,0,0,0,0,0,0,0,0,0,0,0
2002,2,11,18,0,,-0.1,-15.7,29,100800,0,0,235,76,54,23,0,0,0,0,290,3,0,0,0,0,0,0,0,0,0,0,0,0,0
2002,2,11,19,0,,-1.3,-14.9,32,100910,0,0,231,0,0,0,0,0,0,0,230,1.1,0,0,0,0,0,0,0,0,0,0,0,0,0
2002,2,11,20,0,,-2,-14.1,42,101010,0,0,228,0,0,0,0,0,0,0,250,0.9,0,0,0,0,0,0,0,0,0,0,0,0,0
2002,2,11,21,0,,-3.4,-13.3,47,101120,0,0,223,0,0,0,0,0,0,0,0,0.2,0,0,0,0,0,0,0,0,0,0,0,0,0
2002,2,11,22,0,,-4.2,-14.1,47,101170,0,0,220,0,0,0,0,0,0,0,140,1,0,0,0,0,0,0,0,0,0,0,0,0,0
2002,2,11,23,0,,-5.2,-14.9,53,101230,0,0,216,0,0,0,0,0,0,0,0,0.2,0,0,0,0,0,0,0,0,0,0,0,0,0
2002,2,11,24,0,,-5.2,-15.7,49,101280,0,0,216,0,0,0,0,0,0,0,140,1.3,0,0,0,0,0,0,0,0,0,0,0,0,0
2002,2,12,1,0,,-7.1,-15.1,67,101300,0,0,209,0,0,0,0,0,0,0,0,0.2,0,0,0,0,0,0,0,0,0,0,0,0,0
2002,2,12,2,0,,-8.1,-14.5,70,101330,0,0,206,0,0,0,0,0,0,0,0,0.1,0,0,0,0,0,0,0,0,0,0,0,0,0
2002,2,12,3,0,,-8.6,-13.9,68,101350,0,0,205,0,0,0,0,0,0,0,340,0.8,0,0,0,0,0,0,0,0,0,0,0,0,0
2002,2,12,4,0,,-9.3,-14.1,70,101340,0,0,202,0,0,0,0,0,0,0,0,0.1,0,0,0,0,0,0,0,0,0,0,0,0,0
2002,2,12,5,0,,-9.8,-14.3,75,101320,0,0,201,0,0,0,0,0,0,0,0,0.1,0,0,0,0,0,0,0,0,0,0,0,0,0
2002,2,12,6,0,,-10.2,-14.5,76,101310,0,0,199,0,0,0,0,0,0,0,50,0.3,0,0,0,0,0,0,0,0,0,0,0,0,0
2002,2,12,7,0,,-10.5,-14.7,76,101340,0,0,205,0,0,0,0,0,0,0,360,0.8,2,0,0,0,0,0,0,0,0,0,0,0,0
2002,2,12,8,0,,-10.4,-14.9,78,101370,0,0,209,26,11,15,2452,1072,2059,0,360,0.5,5,0,0,0,0,0,0,0,0,0,0,0,0
2002,2,12,9,0,,-8.2,-15.1,64,101400,0,0,222,114,271,61,23277,27168,9737,0,340,0.5,7,0,0,0,0,0,0,0,0,0,0,0,0
2002,2,12,10,0,,-5.8,-14.9,59,101350,0,0,226,292,556,91,46771,56524,13614,0,340,0.7,5,0,0,0,0,0,0,0,0,0,0,0,0
2002,2,12,11,0,,-1.6,-14.7,33,101290,0,0,238,497,874,65,63993,87243,9455,0,160,0.8,2,0,0,0,0,0,0,0,0,0,0,0,0
2002,2,12,12,0,,0.2,-14.5,27,101240,0,0,235,596,889,78,65280,88499,11177,0,70,1.5,0,0,0,0,0,0,0,0,0,0,0,0,0
2002,2,12,13,0,,2.1,-15.4,17,101170,0,0,247,647,914,79,60678,90113,11461,0,180,3.1,1,0,0,0,0,0,0,0,0,0,0,0,0
2002,2,12,14,0,,3.2,-16.2,17,101110,0,0,255,586,781,111,48061,74736,15619,0,180,3.1,3,0,0,0,0,0,0,0,0,0,0,0,0
2002,2,12,15,0,,3.8,-17.1,15,101040,0,0,259,500,717,110,31767,59900,14833,0,180,3.4,4,0,0,0,0,0,0,0,0,0,0,0,0
2002,2,12,16,0,,3.3,-16.2,16,101080,0,0,258,372,634,98,13990,30566,10860,0,200,3.4,4,0,0,0,0,0,0,0,0,0,0,0,0
2002,2,12,17,0,,2.6,-15.4,19,101130,0,0,256,224,550,69,0,0,0,0,230,2.3,4,0,0,0,0,0,0,0,0,0,0,0,0
2002,2,12,18,0,,1.5,-14.5,24,101170,0,0,252,71,42,29,0,0,0,0,250,2.1,4,0,0,0,0,0,0,0,0,0,0,0,0
2002,2,12,19,0,,0.5,-14.9,22,101200,0,0,250,0,0,0,0,0,0,0,230,1.7,5,0,0,0,0,0,0,0,0,0,0,0,0
2002,2,12,20,0,,0,-15.3,26,101230,0,0,251,0,0,0,0,0,0,0,230,1.4,7,0,0,0,0,0,0,0,0,0,0,0,0
2002,2,12,21,0,,-0.1,-15.7,30,101260,0,0,258,0,0,0,0,0,0,0,200,1.1,8,0,0,0,0,0,0,0,0,0,0,0,0
2002,2,12,22,0,,-0.1,-14.9,30,101260,0,0,250,0,0,0,0,0,0,0,200,1.7,5,0,0,0,0,0,0,0,0,0,0,0,0
2002,2,12,23,0,,-0.3,-14.1,31,101270,0,0,244,0,0,0,0,0,0,0,200,1.9,3,0,0,0,0,0,0,0,0,0,0,0,0
2002,2,12,24,0,,-2,-13.3,41,101270,0,0,229,0,0,0,0,0,0,0,140,0.8,0,0,0,0,0,0,0,0,0,0,0,0,0
2002,2,13,1,0,,-3.4,-12.3,62,101310,0,0,224,0,0,0,0,0,0,0,360,0.5,0,0,0,0,0,0,0,0,0,0,0,0,0
2002,2,13,2,0,,-3,-11.3,45,101340,0,0,226,0,0,0,0,0,0,0,140,1.4,0,0,0,0,0,0,0,0,0,0,0,0,0
2002,2,13,3,0,,-5,-10.3,68,101380,0,0,220,0,0,0,0,0,0,0,290,1,0,0,0,0,0,0,0,0,0,0,0,0,0
2002,2,13,4,0,,-5.6,-10.6,69,101400,0,0,218,0,0,0,0,0,0,0,90,0.9,0,0,0,0,0,0,0,0,0,0,0,0,0
2002,2,13,5,0,,-6.8,-10.9,72,101430,0,0,214,0,0,0,0,0,0,0,0,0,0,0,0,0,0,0,0,0,0,0,0,0,0
2002,2,13,6,0,,-7.1,-11.2,76,101450,0,0,212,0,0,0,0,0,0,0,70,0.6,0,0,0,0,0,0,0,0,0,0,0,0,0
2002,2,13,7,0,,-7.9,-11.4,80,101500,0,0,210,0,0,0,0,0,0,0,320,0.4,0,0,0,0,0,0,0,0,0,0,0,0,0
2002,2,13,8,0,,-8.2,-11.5,76,101550,0,0,208,31,18,14,2484,1713,1849,0,20,0.4,0,0,0,0,0,0,0,0,0,0,0,0,0
2002,2,13,9,0,,-5.5,-11.7,66,101600,0,0,217,160,578,45,35398,56778,6850,0,70,0.9,0,0,0,0,0,0,0,0,0,0,0,0,0
2002,2,13,10,0,,-2.9,-11.7,51,101580,0,0,226,330,718,67,52017,71390,9817,0,0,0.2,0,0,0,0,0,0,0,0,0,0,0,0,0
2002,2,13,11,0,,-0.8,-11.7,38,101550,0,0,234,492,840,73,63302,83884,10482,0,290,0.8,0,0,0,0,0,0,0,0,0,0,0,0,0
2002,2,13,12,0,,1.9,-11.7,31,101530,0,0,243,580,828,94,64572,83419,13198,0,110,1,0,0,0,0,0,0,0,0,0,0,0,0,0
2002,2,13,13,0,,3.7,-12.6,21,101480,0,0,249,624,835,100,59794,82746,14237,0,140,1.1,0,0,0,0,0,0,0,0,0,0,0,0,0
2002,2,13,14,0,,5,-13.6,17,101420,0,0,253,604,820,101,49188,78901,14605,0,180,1.6,0,0,0,0,0,0,0,0,0,0,0,0,0
2002,2,13,15,0,,5.8,-14.5,15,101370,0,0,256,534,811,89,32434,69222,12587,0,180,3.2,0,0,0,0,0,0,0,0,0,0,0,0,0
2002,2,13,16,0,,6.1,-13.9,15,101430,0,0,261,409,765,75,13438,37839,9422,0,200,2.7,1,0,0,0,0,0,0,0,0,0,0,0,0
2002,2,13,17,0,,4.3,-13.3,20,101490,0,0,257,246,664,57,0,0,0,0,270,2.7,1,0,0,0,0,0,0,0,0,0,0,0,0
2002,2,13,18,0,,3.3,-12.7,24,101550,0,0,256,80,54,26,0,0,0,0,230,1.9,2,0,0,0,0,0,0,0,0,0,0,0,0
2002,2,13,19,0,,1.8,-12,30,101630,0,0,248,0,0,0,0,0,0,0,270,1,1,0,0,0,0,0,0,0,0,0,0,0,0
2002,2,13,20,0,,-0.9,-11.4,44,101720,0,0,237,0,0,0,0,0,0,0,110,1.2,1,0,0,0,0,0,0,0,0,0,0,0,0
2002,2,13,21,0,,-2.4,-10.7,54,101800,0,0,229,0,0,0,0,0,0,0,110,1.2,0,0,0,0,0,0,0,0,0,0,0,0,0
2002,2,13,22,0,,-3,-11.2,52,101840,0,0,226,0,0,0,0,0,0,0,140,0.5,0,0,0,0,0,0,0,0,0,0,0,0,0
2002,2,13,23,0,,-3.9,-11.7,61,101890,0,0,223,0,0,0,0,0,0,0,50,0.7,0,0,0,0,0,0,0,0,0,0,0,0,0
2002,2,13,24,0,,-4.8,-12.2,59,101930,0,0,219,0,0,0,0,0,0,0,110,1.1,0,0,0,0,0,0,0,0,0,0,0,0,0
2002,2,14,1,0,,-5.5,-12.4,63,101990,0,0,216,0,0,0,0,0,0,0,0,0,0,0,0,0,0,0,0,0,0,0,0,0,0
2002,2,14,2,0,,-6.1,-12.5,70,102040,0,0,214,0,0,0,0,0,0,0,140,0.6,0,0,0,0,0,0,0,0,0,0,0,0,0
2002,2,14,3,0,,-6.8,-12.7,68,102100,0,0,212,0,0,0,0,0,0,0,0,0,0,0,0,0,0,0,0,0,0,0,0,0,0
2002,2,14,4,0,,-7.2,-12.9,68,102110,0,0,210,0,0,0,0,0,0,0,0,0.1,0,0,0,0,0,0,0,0,0,0,0,0,0
2002,2,14,5,0,,-8.1,-13.1,73,102110,0,0,207,0,0,0,0,0,0,0,0,0,0,0,0,0,0,0,0,0,0,0,0,0,0
2002,2,14,6,0,,-8.6,-13.3,78,102120,0,0,205,0,0,0,0,0,0,0,50,0.3,0,0,0,0,0,0,0,0,0,0,0,0,0
2002,2,14,7,0,,-9,-13.1,80,102180,0,0,204,0,0,0,0,0,0,0,0,0,0,0,0,0,0,0,0,0,0,0,0,0,0
2002,2,14,8,0,,-9,-12.9,73,102240,0,0,204,35,16,19,3067,1573,2477,0,360,0.7,0,0,0,0,0,0,0,0,0,0,0,0,0
2002,2,14,9,0,,-6.8,-12.7,67,102300,0,0,212,165,589,45,36215,57904,6844,0,340,1.2,0,0,0,0,0,0,0,0,0,0,0,0,0
2002,2,14,10,0,,-4.2,-13.1,55,102260,0,0,220,332,708,70,52070,70374,10150,0,340,0.5,0,0,0,0,0,0,0,0,0,0,0,0,0
2002,2,14,11,0,,-1.5,-13.5,39,102230,0,0,230,493,828,76,63350,82647,10931,0,250,1.2,0,0,0,0,0,0,0,0,0,0,0,0,0
2002,2,14,12,0,,0.9,-13.9,27,102190,0,0,237,598,868,85,65689,86381,12101,0,340,0.8,0,0,0,0,0,0,0,0,0,0,0,0,0
2002,2,14,13,0,,4,-14.3,20,102100,0,0,249,654,905,83,61568,89334,11990,0,70,1.5,0,0,0,0,0,0,0,0,0,0,0,0,0
2002,2,14,14,0,,5.6,-14.7,15,102000,0,0,255,633,888,84,50290,85602,12408,0,160,2.3,0,0,0,0,0,0,0,0,0,0,0,0,0
2002,2,14,15,0,,6.2,-15.1,14,101910,0,0,257,542,820,88,32948,70404,12480,0,50,1.1,0,0,0,0,0,0,0,0,0,0,0,0,0
2002,2,14,16,0,,6.8,-14.7,13,101940,0,0,259,411,757,77,13893,38205,9696,0,180,1.2,0,0,0,0,0,0,0,0,0,0,0,0,0
2002,2,14,17,0,,5.7,-14.3,18,101970,0,0,255,257,703,53,0,0,0,0,200,3.1,0,0,0,0,0,0,0,0,0,0,0,0,0
2002,2,14,18,0,,4.1,-13.9,21,102000,0,0,250,86,61,25,0,0,0,0,250,3,0,0,0,0,0,0,0,0,0,0,0,0,0
2002,2,14,19,0,,1.9,-13,30,102010,0,0,242,0,0,0,0,0,0,0,320,0.8,0,0,0,0,0,0,0,0,0,0,0,0,0
2002,2,14,20,0,,-1.1,-12.1,43,102010,0,0,233,0,0,0,0,0,0,0,70,0.8,0,0,0,0,0,0,0,0,0,0,0,0,0
2002,2,14,21,0,,-2.8,-11.2,55,102020,0,0,227,0,0,0,0,0,0,0,290,0.3,0,0,0,0,0,0,0,0,0,0,0,0,0
2002,2,14,22,0,,-3.4,-11.5,59,102060,0,0,224,0,0,0,0,0,0,0,0,0.2,0,0,0,0,0,0,0,0,0,0,0,0,0
2002,2,14,23,0,,-4.4,-11.9,61,102090,0,0,221,0,0,0,0,0,0,0,0,0,0,0,0,0,0,0,0,0,0,0,0,0,0
2002,2,14,24,0,,-5.3,-12.2,63,102130,0,0,217,0,0,0,0,0,0,0,20,0.8,0,0,0,0,0,0,0,0,0,0,0,0,0
2002,2,15,1,0,,-5.9,-12,68,102140,0,0,215,0,0,0,0,0,0,0,20,0.8,0,0,0,0,0,0,0,0,0,0,0,0,0
2002,2,15,2,0,,-6.5,-11.9,67,102140,0,0,213,0,0,0,0,0,0,0,20,0.7,0,0,0,0,0,0,0,0,0,0,0,0,0
2002,2,15,3,0,,-7,-11.7,74,102150,0,0,212,0,0,0,0,0,0,0,90,0.4,0,0,0,0,0,0,0,0,0,0,0,0,0
2002,2,15,4,0,,-7.5,-11.9,70,102150,0,0,210,0,0,0,0,0,0,0,360,0.8,0,0,0,0,0,0,0,0,0,0,0,0,0
2002,2,15,5,0,,-8,-12,77,102140,0,0,208,0,0,0,0,0,0,0,0,0.1,0,0,0,0,0,0,0,0,0,0,0,0,0
2002,2,15,6,0,,-8.4,-12.2,79,102140,0,0,207,0,0,0,0,0,0,0,70,0.4,0,0,0,0,0,0,0,0,0,0,0,0,0
2002,2,15,7,0,,-8.9,-12.2,77,102150,0,0,206,0,0,0,0,0,0,0,50,0.6,0,0,0,0,0,0,0,0,0,0,0,0,0
2002,2,15,8,0,,-8.9,-12.2,77,102170,0,0,206,35,16,20,3192,1517,2616,0,20,0.8,0,0,0,0,0,0,0,0,0,0,0,0,0
2002,2,15,9,0,,-6.9,-12.2,71,102180,0,0,212,165,566,48,35740,55665,7252,0,320,0.4,0,0,0,0,0,0,0,0,0,0,0,0,0
2002,2,15,10,0,,-4.1,-11.7,61,102130,0,0,222,336,709,71,52596,70569,10236,0,340,0.7,0,0,0,0,0,0,0,0,0,0,0,0,0
2002,2,15,11,0,,-1.1,-11.2,44,102090,0,0,233,498,829,77,63922,82814,11015,0,360,0.8,0,0,0,0,0,0,0,0,0,0,0,0,0
2002,2,15,12,0,,2.7,-10.7,33,102040,0,0,247,611,889,80,66930,88747,11470,0,140,0.7,0,0,0,0,0,0,0,0,0,0,0,0,0
2002,2,15,13,0,,4.7,-12.2,26,101940,0,0,253,655,894,86,61914,88359,12486,0,90,1.5,0,0,0,0,0,0,0,0,0,0,0,0,0
2002,2,15,14,0,,6.2,-13.6,21,101830,0,0,258,629,862,92,50450,82849,13436,0,290,0.6,0,0,0,0,0,0,0,0,0,0,0,0,0
2002,2,15,15,0,,8,-15.1,17,101730,0,0,263,559,860,80,33555,74707,11538,0,200,3.1,0,0,0,0,0,0,0,0,0,0,0,0,0
2002,2,15,16,0,,7.9,-14,18,101720,0,0,264,432,821,66,13668,43856,8687,0,200,3.7,0,0,0,0,0,0,0,0,0,0,0,0,0
2002,2,15,17,0,,7.4,-12.8,22,101720,0,0,263,267,740,50,0,0,0,0,200,3,0,0,0,0,0,0,0,0,0,0,0,0,0
2002,2,15,18,0,,5.7,-11.7,27,101710,0,0,258,88,62,26,0,0,0,0,230,2.5,0,0,0,0,0,0,0,0,0,0,0,0,0
2002,2,15,19,0,,4.6,-10.3,28,101770,0,0,255,0,0,0,0,0,0,0,200,1.1,0,0,0,0,0,0,0,0,0,0,0,0,0
2002,2,15,20,0,,3.6,-8.8,36,101820,0,0,252,0,0,0,0,0,0,0,180,2.2,0,0,0,0,0,0,0,0,0,0,0,0,0
2002,2,15,21,0,,-1.2,-7.4,63,101880,0,0,236,0,0,0,0,0,0,0,340,0.3,0,0,0,0,0,0,0,0,0,0,0,0,0
2002,2,15,22,0,,-2.4,-7.5,67,101880,0,0,232,0,0,0,0,0,0,0,340,0.3,0,0,0,0,0,0,0,0,0,0,0,0,0
2002,2,15,23,0,,-3.2,-7.7,68,101880,0,0,229,0,0,0,0,0,0,0,0,0.2,0,0,0,0,0,0,0,0,0,0,0,0,0
2002,2,15,24,0,,-3.5,-7.8,74,101880,0,0,228,0,0,0,0,0,0,0,290,1,0,0,0,0,0,0,0,0,0,0,0,0,0
2002,2,16,1,0,,-4.3,-8.3,79,101860,0,0,224,0,0,0,0,0,0,0,0,0,0,0,0,0,0,0,0,0,0,0,0,0,0
2002,2,16,2,0,,-4.8,-8.9,76,101840,0,0,222,0,0,0,0,0,0,0,0,0.2,0,0,0,0,0,0,0,0,0,0,0,0,0
2002,2,16,3,0,,-5.6,-9.4,79,101820,0,0,219,0,0,0,0,0,0,0,20,0.6,0,0,0,0,0,0,0,0,0,0,0,0,0
2002,2,16,4,0,,-5.9,-9.8,80,101800,0,0,220,0,0,0,0,0,0,0,0,0.2,1,0,0,0,0,0,0,0,0,0,0,0,0
2002,2,16,5,0,,-6.5,-10.3,79,101770,0,0,220,0,0,0,0,0,0,0,20,0.7,1,0,0,0,0,0,0,0,0,0,0,0,0
2002,2,16,6,0,,-6.8,-10.7,81,101750,0,0,221,0,0,0,0,0,0,0,20,0.4,2,0,0,0,0,0,0,0,0,0,0,0,0
2002,2,16,7,0,,-6.2,-9.9,81,101770,0,0,228,0,0,0,0,0,0,0,90,0.6,4,0,0,0,0,0,0,0,0,0,0,0,0
2002,2,16,8,0,,-5.8,-9,81,101800,0,0,236,25,7,18,2445,646,2197,0,20,0.4,7,0,0,0,0,0,0,0,0,0,0,0,0
2002,2,16,9,0,,-4.4,-8.2,77,101820,0,0,252,85,88,67,13364,8993,8721,0,360,0.5,9,0,0,0,0,0,0,0,0,0,0,0,0
2002,2,16,10,0,,-2.9,-7.4,70,101780,0,0,260,168,96,132,21805,10009,15751,0,0,0.1,9,0,0,0,0,0,0,0,0,0,0,0,0
2002,2,16,11,0,,-1.5,-6.5,66,101730,0,0,269,189,50,164,21956,4911,18796,0,0,0,10,0,0,0,0,0,0,0,0,0,0,0,0
2002,2,16,12,0,,0.2,-5.7,62,101690,0,0,279,232,52,201,26137,5118,22915,0,70,0.6,10,0,0,0,0,0,0,0,0,0,0,0,0
2002,2,16,13,0,,2,-5.6,56,101580,0,0,287,266,61,227,29051,6019,25657,0,360,0.7,10,0,0,0,0,0,0,0,0,0,0,0,0
2002,2,16,14,0,,3.1,-5.5,52,101470,0,0,292,262,63,223,27748,6113,24992,0,0,0.2,10,0,0,0,0,0,0,0,0,0,0,0,0
2002,2,16,15,0,,4.1,-5.4,51,101360,0,0,297,225,59,191,22896,5405,21282,0,0,0,10,0,0,0,0,0,0,0,0,0,0,0,0
2002,2,16,16,0,,4.6,-4.6,50,101320,0,0,300,168,55,143,16016,4001,15547,0,230,0.8,10,0,0,0,0,0,0,0,0,0,0,0,0
2002,2,16,17,0,,4.4,-3.8,57,101280,0,0,300,102,51,87,0,0,0,0,160,1.8,10,0,0,0,0,0,0,0,0,0,0,0,0
2002,2,16,18,0,,4,-3,61,101240,0,0,299,30,3,27,0,0,0,0,200,1.3,10,0,0,0,0,0,0,0,0,0,0,0,0
2002,2,16,19,0,,2.8,-2.8,68,101230,0,0,294,0,0,0,0,0,0,0,250,1.1,10,0,0,0,0,0,0,0,0,0,0,0,0
2002,2,16,20,0,,2.3,-2.7,68,101230,0,0,292,0,0,0,0,0,0,0,110,0.8,10,0,0,0,0,0,0,0,0,0,0,0,0
2002,2,16,21,0,,2,-2.5,71,101220,0,0,291,0,0,0,0,0,0,0,250,0.8,10,0,0,0,0,0,0,0,0,0,0,0,0
2002,2,16,22,0,,0.6,-2.5,80,101190,0,0,282,0,0,0,0,0,0,0,320,1.4,10,0,0,0,0,0,0,0,0,0,0,0,0
2002,2,16,23,0,,0,-2.5,83,101160,0,0,277,0,0,0,0,0,0,0,0,0.1,9,0,0,0,0,0,0,0,0,0,0,0,0
2002,2,16,24,0,,-0.3,-2.5,85,101130,0,0,274,0,0,0,0,0,0,0,290,1,9,0,0,0,0,0,0,0,0,0,0,0,0
2002,2,17,1,0,,-0.6,-2.8,84,101070,0,0,273,0,0,0,0,0,0,0,0,0,9,0,0,0,0,0,0,0,0,0,0,0,0
2002,2,17,2,0,,-0.5,-3,83,101010,0,0,273,0,0,0,0,0,0,0,0,0,9,0,0,0,0,0,0,0,0,0,0,0,0
2002,2,17,3,0,,-1,-3.3,86,100950,0,0,270,0,0,0,0,0,0,0,20,0.4,9,0,0,0,0,0,0,0,0,0,0,0,0
2002,2,17,4,0,,-1,-3.4,86,100880,0,0,270,0,0,0,0,0,0,0,0,0,9,0,0,0,0,0,0,0,0,0,0,0,0
2002,2,17,5,0,,-1.4,-3.5,87,100820,0,0,269,0,0,0,0,0,0,0,0,0,9,0,0,0,0,0,0,0,0,0,0,0,0
2002,2,17,6,0,,-1.5,-3.6,86,100750,0,0,268,0,0,0,0,0,0,0,0,0.2,9,0,0,0,0,0,0,0,0,0,0,0,0
2002,2,17,7,0,,-2.5,-3.5,89,100760,0,0,267,0,0,0,0,0,0,0,0,0.1,9,0,0,0,0,0,0,0,0,0,0,0,0
2002,2,17,8,0,,-2.7,-3.4,89,100770,0,0,269,5,0,5,759,4,757,0,0,0,10,0,0,0,0,0,0,0,0,0,0,0,0
2002,2,17,9,0,,-1.3,-3.3,87,100780,0,0,277,53,22,49,6848,2062,5774,0,340,0.3,10,0,0,0,0,0,0,0,0,0,0,0,0
2002,2,17,10,0,,0.1,-2.5,81,100700,0,0,283,112,29,100,13439,2816,11722,0,0,0,10,0,0,0,0,0,0,0,0,0,0,0,0
2002,2,17,11,0,,1.1,-1.7,79,100610,0,0,288,175,39,155,20394,3835,17909,0,250,0.5,10,0,0,0,0,0,0,0,0,0,0,0,0
2002,2,17,12,0,,0.7,-0.9,88,100530,0,0,288,169,21,156,19325,2028,18039,0,0,0,10,0,0,0,0,0,0,0,0,0,0,0,0
2002,2,17,13,0,,0.9,-0.5,88,100460,0,0,289,179,20,167,20415,1453,19590,0,70,0.6,10,0,0,0,0,0,0,0,0,0,0,0,0
2002,2,17,14,0,,0.8,-0.2,89,100400,0,0,289,141,11,134,15957,736,15622,0,0,0.1,10,0,0,0,0,0,0,0,0,0,0,0,0
2002,2,17,15,0,,2.1,0.2,87,100330,0,0,295,174,28,158,17859,1940,17272,0,140,1.9,10,0,0,0,0,0,0,0,0,0,0,0,0
2002,2,17,16,0,,2.9,0,86,100360,0,0,287,183,68,152,17209,5014,16602,0,140,2.3,9,0,0,0,0,0,0,0,0,0,0,0,0
2002,2,17,17,0,,3.8,-0.3,85,100400,0,0,284,182,261,103,0,0,0,0,230,1.3,7,0,0,0,0,0,0,0,0,0,0,0,0
2002,2,17,18,0,,4.2,-0.5,72,100430,0,0,280,74,32,42,0,0,0,0,180,2.8,6,0,0,0,0,0,0,0,0,0,0,0,0
2002,2,17,19,0,,3.1,-2.5,56,100580,0,0,270,0,0,0,0,0,0,0,230,3.5,4,0,0,0,0,0,0,0,0,0,0,0,0
2002,2,17,20,0,,1.6,-4.4,55,100730,0,0,258,0,0,0,0,0,0,0,270,2.4,3,0,0,0,0,0,0,0,0,0,0,0,0
2002,2,17,21,0,,0.3,-6.4,58,100880,0,0,246,0,0,0,0,0,0,0,230,2.2,1,0,0,0,0,0,0,0,0,0,0,0,0
2002,2,17,22,0,,-0.1,-7.7,56,100950,0,0,243,0,0,0,0,0,0,0,230,1.5,1,0,0,0,0,0,0,0,0,0,0,0,0
2002,2,17,23,0,,-0.5,-9,53,101020,0,0,239,0,0,0,0,0,0,0,230,2.9,0,0,0,0,0,0,0,0,0,0,0,0,0
2002,2,17,24,0,,-1.2,-10.3,51,101090,0,0,234,0,0,0,0,0,0,0,200,2.4,0,0,0,0,0,0,0,0,0,0,0,0,0
2002,2,18,1,0,,-1.8,-9.7,53,101140,0,0,232,0,0,0,0,0,0,0,230,1.9,0,0,0,0,0,0,0,0,0,0,0,0,0
2002,2,18,2,0,,-3.1,-9.2,70,101180,0,0,228,0,0,0,0,0,0,0,320,0.8,0,0,0,0,0,0,0,0,0,0,0,0,0
2002,2,18,3,0,,-4.7,-8.6,77,101230,0,0,223,0,0,0,0,0,0,0,90,0.6,0,0,0,0,0,0,0,0,0,0,0,0,0
2002,2,18,4,0,,-5.7,-9.5,77,101280,0,0,219,0,0,0,0,0,0,0,50,1,0,0,0,0,0,0,0,0,0,0,0,0,0
2002,2,18,5,0,,-6.6,-10.3,76,101340,0,0,215,0,0,0,0,0,0,0,140,1.2,0,0,0,0,0,0,0,0,0,0,0,0,0
2002,2,18,6,0,,-7.1,-11.2,79,101390,0,0,212,0,0,0,0,0,0,0,0,0.1,0,0,0,0,0,0,0,0,0,0,0,0,0
2002,2,18,7,0,,-7.9,-12.3,82,101450,0,0,209,0,0,0,0,0,0,0,360,1,0,0,0,0,0,0,0,0,0,0,0,0,0
2002,2,18,8,0,,-7.8,-13.4,79,101510,0,0,208,41,21,20,3521,2076,2706,0,270,0.4,0,0,0,0,0,0,0,0,0,0,0,0,0
2002,2,18,9,0,,-4.1,-14.5,45,101570,0,0,220,195,715,38,42922,70577,5828,0,180,2.3,0,0,0,0,0,0,0,0,0,0,0,0,0
2002,2,18,10,0,,-2.4,-14.5,39,101590,0,0,227,369,796,60,57530,79437,8736,0,160,1.4,0,0,0,0,0,0,0,0,0,0,0,0,0
2002,2,18,11,0,,-1.3,-14.5,34,101620,0,0,231,515,840,77,65844,84003,11005,0,180,2.1,0,0,0,0,0,0,0,0,0,0,0,0,0
2002,2,18,12,0,,0.2,-14.5,28,101640,0,0,235,583,766,115,64839,76765,15814,0,180,2.9,0,0,0,0,0,0,0,0,0,0,0,0,0
2002,2,18,13,0,,1.2,-14.3,29,101580,0,0,240,608,724,138,60304,72152,18985,0,160,1.3,0,0,0,0,0,0,0,0,0,0,0,0,0
2002,2,18,14,0,,2.7,-14.1,27,101530,0,0,248,608,762,123,50812,73417,17081,0,70,1.9,1,0,0,0,0,0,0,0,0,0,0,0,0
2002,2,18,15,0,,2.6,-13.9,24,101470,0,0,249,550,790,99,34854,68623,13810,0,230,5.1,1,0,0,0,0,0,0,0,0,0,0,0,0
2002,2,18,16,0,,2.3,-14.1,22,101500,0,0,246,421,731,86,15697,39589,10758,0,250,4.3,1,0,0,0,0,0,0,0,0,0,0,0,0
2002,2,18,17,0,,2.1,-14.3,22,101530,0,0,244,269,689,58,0,0,0,0,250,4.2,0,0,0,0,0,0,0,0,0,0,0,0,0
2002,2,18,18,0,,0.7,-14.5,26,101560,0,0,236,97,69,29,0,0,0,0,230,3.1,0,0,0,0,0,0,0,0,0,0,0,0,0
2002,2,18,19,0,,-0.2,-14.1,29,101630,0,0,235,0,0,0,0,0,0,0,230,3.2,0,0,0,0,0,0,0,0,0,0,0,0,0
2002,2,18,20,0,,-1,-13.7,33,101700,0,0,232,0,0,0,0,0,0,0,230,3.1,0,0,0,0,0,0,0,0,0,0,0,0,0
2002,2,18,21,0,,-2.1,-13.3,43,101770,0,0,228,0,0,0,0,0,0,0,290,1.9,0,0,0,0,0,0,0,0,0,0,0,0,0
2002,2,18,22,0,,-3.2,-13.3,43,101790,0,0,224,0,0,0,0,0,0,0,290,1.3,0,0,0,0,0,0,0,0,0,0,0,0,0
2002,2,18,23,0,,-3.9,-13.3,50,101820,0,0,222,0,0,0,0,0,0,0,270,0.7,0,0,0,0,0,0,0,0,0,0,0,0,0
2002,2,18,24,0,,-3.6,-13.3,50,101840,0,0,223,0,0,0,0,0,0,0,270,1.3,0,0,0,0,0,0,0,0,0,0,0,0,0
2002,2,19,1,0,,-5,-13.1,53,101840,0,0,218,0,0,0,0,0,0,0,50,1,0,0,0,0,0,0,0,0,0,0,0,0,0
2002,2,19,2,0,,-6.3,-12.9,64,101850,0,0,213,0,0,0,0,0,0,0,90,0.5,0,0,0,0,0,0,0,0,0,0,0,0,0
2002,2,19,3,0,,-6.8,-12.7,67,101850,0,0,212,0,0,0,0,0,0,0,20,0.7,0,0,0,0,0,0,0,0,0,0,0,0,0
2002,2,19,4,0,,-7.9,-12.9,70,101880,0,0,208,0,0,0,0,0,0,0,20,0.4,0,0,0,0,0,0,0,0,0,0,0,0,0
2002,2,19,5,0,,-8.1,-13.1,71,101920,0,0,207,0,0,0,0,0,0,0,70,0.7,0,0,0,0,0,0,0,0,0,0,0,0,0
2002,2,19,6,0,,-8.8,-13.3,74,101950,0,0,205,0,0,0,0,0,0,0,110,0.4,0,0,0,0,0,0,0,0,0,0,0,0,0
2002,2,19,7,0,,-9.2,-13.5,79,102040,0,0,203,0,0,0,0,0,0,0,320,0.4,0,0,0,0,0,0,0,0,0,0,0,0,0
2002,2,19,8,0,,-9.3,-13.7,77,102120,0,0,203,42,21,22,3654,2042,2843,0,0,0.2,0,0,0,0,0,0,0,0,0,0,0,0,0
2002,2,19,9,0,,-7,-13.9,60,102210,0,0,210,181,580,51,37986,57208,7651,0,0,0.2,0,0,0,0,0,0,0,0,0,0,0,0,0
2002,2,19,10,0,,-3.8,-14.3,46,102220,0,0,221,368,773,64,57061,77089,9344,0,200,1.1,0,0,0,0,0,0,0,0,0,0,0,0,0
2002,2,19,11,0,,-1.6,-14.7,33,102220,0,0,229,525,855,75,66923,85535,10684,0,110,1,0,0,0,0,0,0,0,0,0,0,0,0,0
2002,2,19,12,0,,0.4,-15.1,26,102230,0,0,235,624,870,89,68367,86741,12573,0,160,0.8,0,0,0,0,0,0,0,0,0,0,0,0,0
2002,2,19,13,0,,1.7,-14.3,23,102170,0,0,240,636,787,120,62688,79062,17062,0,230,0.8,0,0,0,0,0,0,0,0,0,0,0,0,0
2002,2,19,14,0,,3.3,-13.5,23,102120,0,0,247,618,776,120,51565,75001,16790,0,140,0.9,0,0,0,0,0,0,0,0,0,0,0,0,0
2002,2,19,15,0,,4.8,-12.7,22,102060,0,0,253,553,783,102,35322,68149,14152,0,180,0.8,0,0,0,0,0,0,0,0,0,0,0,0,0
2002,2,19,16,0,,5.4,-12.7,19,102060,0,0,256,442,796,74,15507,45266,9692,0,180,1.9,0,0,0,0,0,0,0,0,0,0,0,0,0
2002,2,19,17,0,,5.6,-12.7,20,102060,0,0,256,283,749,52,0,0,0,0,200,2.1,0,0,0,0,0,0,0,0,0,0,0,0,0
2002,2,19,18,0,,4.1,-12.7,22,102060,0,0,251,102,74,28,0,0,0,0,200,1.6,0,0,0,0,0,0,0,0,0,0,0,0,0
2002,2,19,19,0,,2.9,-11.2,25,102100,0,0,247,0,0,0,0,0,0,0,180,1.4,0,0,0,0,0,0,0,0,0,0,0,0,0
2002,2,19,20,0,,0.1,-9.7,41,102150,0,0,238,0,0,0,0,0,0,0,110,1.4,0,0,0,0,0,0,0,0,0,0,0,0,0
2002,2,19,21,0,,-2.4,-8.2,66,102190,0,0,231,0,0,0,0,0,0,0,320,1,0,0,0,0,0,0,0,0,0,0,0,0,0
2002,2,19,22,0,,-3.6,-9,71,102220,0,0,226,0,0,0,0,0,0,0,320,0.9,0,0,0,0,0,0,0,0,0,0,0,0,0
2002,2,19,23,0,,-4.1,-9.9,70,102240,0,0,223,0,0,0,0,0,0,0,20,0.5,0,0,0,0,0,0,0,0,0,0,0,0,0
2002,2,19,24,0,,-4.9,-10.7,68,102270,0,0,220,0,0,0,0,0,0,0,0,0.1,0,0,0,0,0,0,0,0,0,0,0,0,0
2002,2,20,1,0,,-5.4,-11,67,102260,0,0,218,0,0,0,0,0,0,0,90,0.3,0,0,0,0,0,0,0,0,0,0,0,0,0
2002,2,20,2,0,,-6,-11.4,74,102260,0,0,216,0,0,0,0,0,0,0,340,0.8,0,0,0,0,0,0,0,0,0,0,0,0,0
2002,2,20,3,0,,-6.4,-11.7,71,102250,0,0,214,0,0,0,0,0,0,0,340,0.7,0,0,0,0,0,0,0,0,0,0,0,0,0
2002,2,20,4,0,,-6.7,-11.9,74,102240,0,0,213,0,0,0,0,0,0,0,230,0.3,0,0,0,0,0,0,0,0,0,0,0,0,0
2002,2,20,5,0,,-7.4,-12,78,102230,0,0,210,0,0,0,0,0,0,0,290,0.4,0,0,0,0,0,0,0,0,0,0,0,0,0
2002,2,20,6,0,,-7.8,-12.2,78,102220,0,0,209,0,0,0,0,0,0,0,360,0.5,0,0,0,0,0,0,0,0,0,0,0,0,0
2002,2,20,7,0,,-7.9,-11.7,78,102240,0,0,209,0,0,0,0,0,0,0,50,0.6,0,0,0,0,0,0,0,0,0,0,0,0,0
2002,2,20,8,0,,-7.9,-11.2,78,102250,0,0,210,44,22,22,3783,2139,2923,0,0,0.1,0,0,0,0,0,0,0,0,0,0,0,0,0
2002,2,20,9,0,,-5.8,-10.7,73,102270,0,0,217,184,575,53,38283,56845,7872,0,340,0.7,0,0,0,0,0,0,0,0,0,0,0,0,0
2002,2,20,10,0,,-3.1,-10,57,102250,0,0,227,347,663,83,53778,67194,11867,0,0,0.2,0,0,0,0,0,0,0,0,0,0,0,0,0
2002,2,20,11,0,,0.4,-9.3,46,102230,0,0,239,520,823,83,66319,82449,11720,0,250,0.3,0,0,0,0,0,0,0,0,0,0,0,0,0
2002,2,20,12,0,,3.3,-8.6,37,102210,0,0,251,623,853,94,68515,85277,13272,0,50,0.7,0,0,0,0,0,0,0,0,0,0,0,0,0
2002,2,20,13,0,,6.1,-8,37,102090,0,0,269,680,894,91,64673,88787,13041,0,160,1.2,1,0,0,0,0,0,0,0,0,0,0,0,0
2002,2,20,14,0,,7.7,-7.3,34,101980,0,0,280,627,790,117,52312,76418,16559,0,180,2,3,0,0,0,0,0,0,0,0,0,0,0,0
2002,2,20,15,0,,8.4,-6.7,34,101860,0,0,287,529,697,125,35541,59786,16733,0,180,3.5,4,0,0,0,0,0,0,0,0,0,0,0,0
2002,2,20,16,0,,8.8,-6.3,33,101830,0,0,290,381,550,124,17920,30508,13889,0,180,3,5,0,0,0,0,0,0,0,0,0,0,0,0
2002,2,20,17,0,,8.6,-5.8,35,101800,0,0,291,238,480,87,0,0,0,0,180,2.6,5,0,0,0,0,0,0,0,0,0,0,0,0
2002,2,20,18,0,,7.6,-5.4,40,101770,0,0,289,83,40,44,0,0,0,0,180,2.4,6,0,0,0,0,0,0,0,0,0,0,0,0
2002,2,20,19,0,,6.3,-4.6,46,101790,0,0,285,0,0,0,0,0,0,0,180,1.8,6,0,0,0,0,0,0,0,0,0,0,0,0
2002,2,20,20,0,,4.3,-3.8,59,101820,0,0,277,0,0,0,0,0,0,0,160,0.6,6,0,0,0,0,0,0,0,0,0,0,0,0
2002,2,20,21,0,,0.9,-3,73,101840,0,0,265,0,0,0,0,0,0,0,50,0.6,6,0,0,0,0,0,0,0,0,0,0,0,0
2002,2,20,22,0,,0,-3.1,80,101800,0,0,261,0,0,0,0,0,0,0,320,0.4,6,0,0,0,0,0,0,0,0,0,0,0,0
2002,2,20,23,0,,-0.2,-3.2,81,101750,0,0,261,0,0,0,0,0,0,0,0,0,6,0,0,0,0,0,0,0,0,0,0,0,0
2002,2,20,24,0,,-0.5,-3.3,82,101710,0,0,259,0,0,0,0,0,0,0,200,0.4,6,0,0,0,0,0,0,0,0,0,0,0,0
2002,2,21,1,0,,-0.7,-3.6,84,101720,0,0,254,0,0,0,0,0,0,0,0,0.2,4,0,0,0,0,0,0,0,0,0,0,0,0
2002,2,21,2,0,,-1.6,-3.8,87,101720,0,0,246,0,0,0,0,0,0,0,0,0,2,0,0,0,0,0,0,0,0,0,0,0,0
2002,2,21,3,0,,-2.5,-4.1,89,101730,0,0,235,0,0,0,0,0,0,0,0,0,0,0,0,0,0,0,0,0,0,0,0,0,0
2002,2,21,4,0,,-2.9,-4.6,88,101710,0,0,241,0,0,0,0,0,0,0,90,0.4,2,0,0,0,0,0,0,0,0,0,0,0,0
2002,2,21,5,0,,-3.5,-5.2,90,101690,0,0,242,0,0,0,0,0,0,0,340,0.5,4,0,0,0,0,0,0,0,0,0,0,0,0
2002,2,21,6,0,,-3.8,-5.7,91,101670,0,0,245,0,0,0,0,0,0,0,0,0,6,0,0,0,0,0,0,0,0,0,0,0,0
2002,2,21,7,0,,-3.9,-5.2,90,101700,0,0,246,0,0,0,0,0,0,0,0,0,6,0,0,0,0,0,0,0,0,0,0,0,0
2002,2,21,8,0,,-3.5,-4.6,90,101730,0,0,249,28,7,21,2802,630,2546,0,140,0.4,7,0,0,0,0,0,0,0,0,0,0,0,0
2002,2,21,9,0,,-2.1,-4.1,89,101760,0,0,256,122,183,79,21399,18232,11559,0,340,0.7,7,0,0,0,0,0,0,0,0,0,0,0,0
2002,2,21,10,0,,-0.3,-3.9,79,101710,0,0,267,208,146,150,27758,15147,18238,0,320,0.5,8,0,0,0,0,0,0,0,0,0,0,0,0
2002,2,21,11,0,,1.7,-3.8,69,101670,0,0,280,260,104,204,30942,10787,23748,0,0,0,9,0,0,0,0,0,0,0,0,0,0,0,0
2002,2,21,12,0,,3.2,-3.6,61,101620,0,0,295,261,63,222,29289,6204,25241,0,340,0.3,10,0,0,0,0,0,0,0,0,0,0,0,0
2002,2,21,13,0,,4.4,-3.5,56,101540,0,0,294,347,113,272,37190,11158,30652,0,90,1.7,9,0,0,0,0,0,0,0,0,0,0,0,0
2002,2,21,14,0,,6.2,-3.4,44,101460,0,0,297,337,112,264,34735,10931,29575,0,140,1,9,0,0,0,0,0,0,0,0,0,0,0,0
2002,2,21,15,0,,6.5,-3.3,50,101380,0,0,295,338,164,243,31697,15258,26837,0,250,0.6,8,0,0,0,0,0,0,0,0,0,0,0,0
2002,2,21,16,0,,6.4,-2.9,50,101380,0,0,299,222,103,173,19907,7931,18830,0,250,1,9,0,0,0,0,0,0,0,0,0,0,0,0
2002,2,21,17,0,,5.9,-2.6,53,101370,0,0,302,133,86,105,0,0,0,0,230,0.8,9,0,0,0,0,0,0,0,0,0,0,0,0
2002,2,21,18,0,,5.5,-2.2,58,101370,0,0,306,35,4,31,0,0,0,0,230,1.6,10,0,0,0,0,0,0,0,0,0,0,0,0
2002,2,21,19,0,,4.9,-1.9,62,101390,0,0,285,0,0,0,0,0,0,0,200,1,7,0,0,0,0,0,0,0,0,0,0,0,0
2002,2,21,20,0,,4.1,-1.5,65,101420,0,0,274,0,0,0,0,0,0,0,110,0.8,4,0,0,0,0,0,0,0,0,0,0,0,0
2002,2,21,21,0,,1.8,-1.2,79,101440,0,0,258,0,0,0,0,0,0,0,340,0.5,1,0,0,0,0,0,0,0,0,0,0,0,0
2002,2,21,22,0,,1,-1.4,80,101450,0,0,263,0,0,0,0,0,0,0,0,0,4,0,0,0,0,0,0,0,0,0,0,0,0
2002,2,21,23,0,,0.9,-1.7,80,101460,0,0,269,0,0,0,0,0,0,0,140,0.7,7,0,0,0,0,0,0,0,0,0,0,0,0
2002,2,21,24,0,,0.8,-1.9,81,101470,0,0,287,0,0,0,0,0,0,0,0,0,10,0,0,0,0,0,0,0,0,0,0,0,0
2002,2,22,1,0,,1.1,-1.8,81,101470,0,0,288,0,0,0,0,0,0,0,0,0,10,0,0,0,0,0,0,0,0,0,0,0,0
2002,2,22,2,0,,1.1,-1.8,82,101480,0,0,288,0,0,0,0,0,0,0,360,0.3,10,0,0,0,0,0,0,0,0,0,0,0,0
2002,2,22,3,0,,1.2,-1.7,80,101480,0,0,289,0,0,0,0,0,0,0,0,0,10,0,0,0,0,0,0,0,0,0,0,0,0
2002,2,22,4,0,,1.4,-1.5,81,101470,0,0,290,0,0,0,0,0,0,0,110,0.9,10,0,0,0,0,0,0,0,0,0,0,0,0
2002,2,22,5,0,,1.4,-1.4,83,101470,0,0,290,0,0,0,0,0,0,0,0,0.1,10,0,0,0,0,0,0,0,0,0,0,0,0
2002,2,22,6,0,,1.2,-1.2,84,101460,0,0,289,0,0,0,0,0,0,0,0,0,10,0,0,0,0,0,0,0,0,0,0,0,0
2002,2,22,7,0,,1.1,-1.2,83,101530,0,0,289,0,0,0,0,0,0,0,0,0,10,0,0,0,0,0,0,0,0,0,0,0,0
2002,2,22,8,0,,2,-1.2,79,101610,0,0,293,13,1,13,1714,33,1700,0,110,0.6,10,0,0,0,0,0,0,0,0,0,0,0,0
2002,2,22,9,0,,2.1,-1.2,79,101680,0,0,293,66,29,59,9046,2965,7431,0,50,0.6,10,0,0,0,0,0,0,0,0,0,0,0,0
2002,2,22,10,0,,4.4,-0.9,74,101650,0,0,303,144,50,124,18236,5106,15002,0,50,0.7,10,0,0,0,0,0,0,0,0,0,0,0,0
2002,2,22,11,0,,6.5,-0.5,64,101620,0,0,313,215,60,183,24902,5820,20993,0,180,1,10,0,0,0,0,0,0,0,0,0,0,0,0
2002,2,22,12,0,,7.4,-0.2,58,101590,0,0,317,274,70,230,30741,6900,26208,0,230,3.4,10,0,0,0,0,0,0,0,0,0,0,0,0
2002,2,22,13,0,,9.2,-2.1,47,101520,0,0,303,488,300,288,50474,30452,32497,0,200,3.6,7,0,0,0,0,0,0,0,0,0,0,0,0
2002,2,22,14,0,,9.5,-4.1,42,101440,0,0,294,567,594,178,49638,57388,22307,0,200,3.9,4,0,0,0,0,0,0,0,0,0,0,0,0
2002,2,22,15,0,,10.8,-6,31,101370,0,0,288,564,776,107,36786,67983,14863,0,230,4,1,0,0,0,0,0,0,0,0,0,0,0,0
2002,2,22,16,0,,10.9,-6.6,29,101390,0,0,292,431,708,95,17545,40511,11893,0,230,3.2,2,0,0,0,0,0,0,0,0,0,0,0,0
2002,2,22,17,0,,9.9,-7.2,29,101420,0,0,290,275,645,68,0,0,0,0,230,3.1,3,0,0,0,0,0,0,0,0,0,0,0,0
2002,2,22,18,0,,8.3,-7.8,31,101440,0,0,285,101,62,38,0,0,0,0,250,2.6,4,0,0,0,0,0,0,0,0,0,0,0,0
2002,2,22,19,0,,5.9,-6.9,42,101490,0,0,273,0,0,0,0,0,0,0,90,1,3,0,0,0,0,0,0,0,0,0,0,0,0
2002,2,22,20,0,,2.8,-5.9,55,101530,0,0,258,0,0,0,0,0,0,0,90,0.4,1,0,0,0,0,0,0,0,0,0,0,0,0
2002,2,22,21,0,,1,-5,62,101580,0,0,246,0,0,0,0,0,0,0,90,0.9,0,0,0,0,0,0,0,0,0,0,0,0,0
2002,2,22,22,0,,0.2,-5.2,69,101600,0,0,243,0,0,0,0,0,0,0,70,0.5,0,0,0,0,0,0,0,0,0,0,0,0,0
2002,2,22,23,0,,-0.7,-5.5,70,101620,0,0,240,0,0,0,0,0,0,0,270,0.7,0,0,0,0,0,0,0,0,0,0,0,0,0
2002,2,22,24,0,,-1.9,-5.7,78,101640,0,0,235,0,0,0,0,0,0,0,270,0.5,0,0,0,0,0,0,0,0,0,0,0,0,0
2002,2,23,1,0,,-2.5,-5.9,80,101640,0,0,233,0,0,0,0,0,0,0,110,0.4,0,0,0,0,0,0,0,0,0,0,0,0,0
2002,2,23,2,0,,-3.1,-6.2,84,101650,0,0,231,0,0,0,0,0,0,0,270,0.7,0,0,0,0,0,0,0,0,0,0,0,0,0
2002,2,23,3,0,,-3.3,-6.4,82,101650,0,0,230,0,0,0,0,0,0,0,0,0.1,0,0,0,0,0,0,0,0,0,0,0,0,0
2002,2,23,4,0,,-3.9,-6.6,85,101650,0,0,228,0,0,0,0,0,0,0,0,0.1,0,0,0,0,0,0,0,0,0,0,0,0,0
2002,2,23,5,0,,-4.1,-6.9,88,101640,0,0,227,0,0,0,0,0,0,0,0,0,0,0,0,0,0,0,0,0,0,0,0,0,0
2002,2,23,6,0,,-4.5,-7.1,86,101640,0,0,225,0,0,0,0,0,0,0,360,0.5,0,0,0,0,0,0,0,0,0,0,0,0,0
2002,2,23,7,0,,-4.7,-6.7,85,101620,0,0,231,0,0,0,0,0,0,0,340,0.6,2,0,0,0,0,0,0,0,0,0,0,0,0
2002,2,23,8,0,,-4.5,-6.4,87,101610,0,0,236,45,27,18,3795,2620,2705,0,0,0.1,3,0,0,0,0,0,0,0,0,0,0,0,0
2002,2,23,9,0,,-2.9,-6,81,101590,0,0,245,165,361,78,32007,36399,12011,0,340,1.3,5,0,0,0,0,0,0,0,0,0,0,0,0
2002,2,23,10,0,,-0.9,-6.6,70,101520,0,0,250,324,513,113,49664,52081,16431,0,340,1,4,0,0,0,0,0,0,0,0,0,0,0,0
2002,2,23,11,0,,1.7,-7.2,63,101450,0,0,257,490,680,119,62572,68519,16227,0,270,0.6,3,0,0,0,0,0,0,0,0,0,0,0,0
2002,2,23,12,0,,4.5,-7.8,36,101380,0,0,265,615,788,115,68300,79454,15733,0,290,0.8,2,0,0,0,0,0,0,0,0,0,0,0,0
2002,2,23,13,0,,7.1,-8.6,27,101290,0,0,273,678,846,108,65325,84525,15053,0,340,0.9,2,0,0,0,0,0,0,0,0,0,0,0,0
2002,2,23,14,0,,9.6,-9.5,24,101190,0,0,281,677,885,93,54955,86206,13539,0,110,1.7,1,0,0,0,0,0,0,0,0,0,0,0,0
2002,2,23,15,0,,10.6,-10.3,22,101100,0,0,283,594,853,89,37589,76102,12749,0,90,1.6,1,0,0,0,0,0,0,0,0,0,0,0,0
2002,2,23,16,0,,11.4,-10.8,19,101090,0,0,284,469,832,71,16829,51102,9512,0,230,2.6,1,0,0,0,0,0,0,0,0,0,0,0,0
2002,2,23,17,0,,10.6,-11.2,20,101090,0,0,279,295,732,57,0,0,0,0,200,2.7,0,0,0,0,0,0,0,0,0,0,0,0,0
2002,2,23,18,0,,8.9,-11.7,22,101080,0,0,270,115,84,31,0,0,0,0,200,1.7,0,0,0,0,0,0,0,0,0,0,0,0,0
2002,2,23,19,0,,5.7,-9.4,34,101160,0,0,260,8,2,6,0,0,0,0,0,0.2,0,0,0,0,0,0,0,0,0,0,0,0,0
2002,2,23,20,0,,2.8,-7,50,101230,0,0,250,0,0,0,0,0,0,0,320,0.4,0,0,0,0,0,0,0,0,0,0,0,0,0
2002,2,23,21,0,,1.2,-4.7,62,101310,0,0,247,0,0,0,0,0,0,0,290,0.6,0,0,0,0,0,0,0,0,0,0,0,0,0
2002,2,23,22,0,,-0.4,-5.4,67,101360,0,0,241,0,0,0,0,0,0,0,50,0.4,0,0,0,0,0,0,0,0,0,0,0,0,0
2002,2,23,23,0,,-1.1,-6,64,101420,0,0,238,0,0,0,0,0,0,0,320,0.3,0,0,0,0,0,0,0,0,0,0,0,0,0
2002,2,23,24,0,,-1.5,-6.7,68,101470,0,0,236,0,0,0,0,0,0,0,320,1,0,0,0,0,0,0,0,0,0,0,0,0,0
2002,2,24,1,0,,-2.5,-6.9,75,101520,0,0,232,0,0,0,0,0,0,0,360,0.3,0,0,0,0,0,0,0,0,0,0,0,0,0
2002,2,24,2,0,,-2.4,-7.2,69,101570,0,0,232,0,0,0,0,0,0,0,290,1.7,0,0,0,0,0,0,0,0,0,0,0,0,0
2002,2,24,3,0,,-3,-7.4,73,101620,0,0,230,0,0,0,0,0,0,0,250,0.4,0,0,0,0,0,0,0,0,0,0,0,0,0
2002,2,24,4,0,,-3.4,-7.4,77,101660,0,0,228,0,0,0,0,0,0,0,70,0.3,0,0,0,0,0,0,0,0,0,0,0,0,0
2002,2,24,5,0,,-3.7,-7.4,77,101690,0,0,227,0,0,0,0,0,0,0,90,0.4,0,0,0,0,0,0,0,0,0,0,0,0,0
2002,2,24,6,0,,-3.8,-7.4,78,101730,0,0,227,0,0,0,0,0,0,0,290,1,0,0,0,0,0,0,0,0,0,0,0,0,0
2002,2,24,7,0,,-4.2,-7.7,72,101790,0,0,225,0,0,0,0,0,0,0,50,0.7,0,0,0,0,0,0,0,0,0,0,0,0,0
2002,2,24,8,0,,-3.8,-7.9,75,101840,0,0,226,53,30,23,4559,2914,3332,0,320,1.1,0,0,0,0,0,0,0,0,0,0,0,0,0
2002,2,24,9,0,,-1.9,-8.2,63,101900,0,0,233,203,600,55,41127,59526,8138,0,0,0,0,0,0,0,0,0,0,0,0,0,0,0,0
2002,2,24,10,0,,0.7,-7.4,57,101840,0,0,242,374,703,81,57561,71570,11547,0,340,0.5,0,0,0,0,0,0,0,0,0,0,0,0,0
2002,2,24,11,0,,4,-6.5,44,101790,0,0,255,537,815,89,68198,81840,12455,0,290,0.8,0,0,0,0,0,0,0,0,0,0,0,0,0
2002,2,24,12,0,,7.3,-5.7,39,101730,0,0,269,646,858,97,70920,86078,13576,0,270,0.8,0,0,0,0,0,0,0,0,0,0,0,0,0
2002,2,24,13,0,,9.4,-6.9,31,101640,0,0,276,703,899,93,66946,89533,13302,0,250,1.8,0,0,0,0,0,0,0,0,0,0,0,0,0
2002,2,24,14,0,,11.6,-8.2,24,101560,0,0,284,681,883,95,55464,86118,13733,0,180,1.1,0,0,0,0,0,0,0,0,0,0,0,0,0
2002,2,24,15,0,,12.4,-9.4,21,101470,0,0,285,583,807,101,37879,71716,14191,0,140,1,0,0,0,0,0,0,0,0,0,0,0,0,0
2002,2,24,16,0,,12.5,-9,19,101430,0,0,286,457,773,83,17760,46991,10859,0,160,1.4,0,0,0,0,0,0,0,0,0,0,0,0,0
2002,2,24,17,0,,12.3,-8.6,23,101390,0,0,286,289,683,64,0,0,0,0,140,1.1,0,0,0,0,0,0,0,0,0,0,0,0,0
2002,2,24,18,0,,11,-8.2,25,101350,0,0,281,119,87,31,0,0,0,0,160,1.6,0,0,0,0,0,0,0,0,0,0,0,0,0
2002,2,24,19,0,,6.4,-6.6,47,101410,0,0,265,9,2,7,0,0,0,0,340,1.6,0,0,0,0,0,0,0,0,0,0,0,0,0
2002,2,24,20,0,,4,-4.9,54,101460,0,0,257,0,0,0,0,0,0,0,110,1.4,0,0,0,0,0,0,0,0,0,0,0,0,0
2002,2,24,21,0,,2.2,-3.3,64,101520,0,0,252,0,0,0,0,0,0,0,290,0.6,0,0,0,0,0,0,0,0,0,0,0,0,0
2002,2,24,22,0,,1.1,-3.7,68,101530,0,0,247,0,0,0,0,0,0,0,360,0.4,0,0,0,0,0,0,0,0,0,0,0,0,0
2002,2,24,23,0,,0.3,-4,74,101540,0,0,244,0,0,0,0,0,0,0,0,0,0,0,0,0,0,0,0,0,0,0,0,0,0
2002,2,24,24,0,,-0.3,-4.4,74,101550,0,0,242,0,0,0,0,0,0,0,20,0.7,0,0,0,0,0,0,0,0,0,0,0,0,0
2002,2,25,1,0,,-0.9,-4.1,79,101550,0,0,247,0,0,0,0,0,0,0,340,0.5,2,0,0,0,0,0,0,0,0,0,0,0,0
2002,2,25,2,0,,-0.5,-3.9,77,101560,0,0,253,0,0,0,0,0,0,0,20,1.3,3,0,0,0,0,0,0,0,0,0,0,0,0
2002,2,25,3,0,,-0.3,-3.6,77,101560,0,0,258,0,0,0,0,0,0,0,270,0.7,5,0,0,0,0,0,0,0,0,0,0,0,0
2002,2,25,4,0,,-0.3,-3.6,78,101550,0,0,258,0,0,0,0,0,0,0,320,1.5,5,0,0,0,0,0,0,0,0,0,0,0,0
2002,2,25,5,0,,-0.7,-3.6,80,101530,0,0,256,0,0,0,0,0,0,0,0,0,5,0,0,0,0,0,0,0,0,0,0,0,0
2002,2,25,6,0,,-1.1,-3.6,83,101520,0,0,255,0,0,0,0,0,0,0,0,0.2,5,0,0,0,0,0,0,0,0,0,0,0,0
2002,2,25,7,0,,-1.6,-3.5,84,101550,0,0,255,0,0,0,0,0,0,0,0,0.2,6,0,0,0,0,0,0,0,0,0,0,0,0
2002,2,25,8,0,,-1.4,-3.4,85,101580,0,0,259,32,8,24,3197,716,2892,0,0,0,7,0,0,0,0,0,0,0,0,0,0,0,0
2002,2,25,9,0,,-0.1,-3.3,79,101610,0,0,268,118,131,86,18522,13365,11050,0,320,0.8,8,0,0,0,0,0,0,0,0,0,0,0,0
2002,2,25,10,0,,2.1,-4.7,66,101550,0,0,275,236,180,160,31504,18747,19360,0,320,0.7,8,0,0,0,0,0,0,0,0,0,0,0,0
2002,2,25,11,0,,5.5,-6,51,101480,0,0,288,367,253,227,44442,26418,26324,0,0,0.2,8,0,0,0,0,0,0,0,0,0,0,0,0
2002,2,25,12,0,,8.8,-7.4,32,101420,0,0,300,475,320,269,52900,33402,30495,0,200,2,8,0,0,0,0,0,0,0,0,0,0,0,0
2002,2,25,13,0,,8.6,-8.5,27,101340,0,0,300,478,257,302,49688,26187,33883,0,180,2.9,8,0,0,0,0,0,0,0,0,0,0,0,0
2002,2,25,14,0,,9,-9.6,26,101270,0,0,303,380,142,285,38673,14080,31791,0,200,3.1,9,0,0,0,0,0,0,0,0,0,0,0,0
2002,2,25,15,0,,9.3,-10.7,24,101190,0,0,306,316,121,243,30658,11464,26827,0,180,3.3,9,0,0,0,0,0,0,0,0,0,0,0,0
2002,2,25,16,0,,9.5,-9.6,25,101180,0,0,303,298,214,193,22543,12989,20588,0,180,3.3,8,0,0,0,0,0,0,0,0,0,0,0,0
2002,2,25,17,0,,9.1,-8.5,30,101170,0,0,299,188,204,120,0,0,0,0,200,2.1,8,0,0,0,0,0,0,0,0,0,0,0,0
2002,2,25,18,0,,8.5,-7.4,32,101160,0,0,295,87,43,44,0,0,0,0,200,2.2,7,0,0,0,0,0,0,0,0,0,0,0,0
2002,2,25,19,0,,8,-7.3,36,101200,0,0,295,5,0,5,0,0,0,0,160,1.8,8,0,0,0,0,0,0,0,0,0,0,0,0
2002,2,25,20,0,,7.3,-7.2,34,101240,0,0,296,0,0,0,0,0,0,0,180,1.9,8,0,0,0,0,0,0,0,0,0,0,0,0
2002,2,25,21,0,,6.6,-7.1,38,101280,0,0,298,0,0,0,0,0,0,0,180,1.2,9,0,0,0,0,0,0,0,0,0,0,0,0
2002,2,25,22,0,,5.9,-5.8,41,101280,0,0,298,0,0,0,0,0,0,0,140,0.6,9,0,0,0,0,0,0,0,0,0,0,0,0
2002,2,25,23,0,,3.3,-4.6,65,101280,0,0,291,0,0,0,0,0,0,0,340,0.9,10,0,0,0,0,0,0,0,0,0,0,0,0
2002,2,25,24,0,,2.3,-3.3,67,101280,0,0,291,0,0,0,0,0,0,0,320,0.7,10,0,0,0,0,0,0,0,0,0,0,0,0
2002,2,26,1,0,,1.8,-3.4,70,101290,0,0,279,0,0,0,0,0,0,0,0,0,9,0,0,0,0,0,0,0,0,0,0,0,0
2002,2,26,2,0,,0.6,-3.5,74,101290,0,0,267,0,0,0,0,0,0,0,0,0.1,7,0,0,0,0,0,0,0,0,0,0,0,0
2002,2,26,3,0,,0,-3.6,77,101300,0,0,261,0,0,0,0,0,0,0,0,0.1,6,0,0,0,0,0,0,0,0,0,0,0,0
2002,2,26,4,0,,-0.6,-3.9,79,101290,0,0,260,0,0,0,0,0,0,0,0,0,7,0,0,0,0,0,0,0,0,0,0,0,0
2002,2,26,5,0,,-1.3,-4.1,81,101270,0,0,260,0,0,0,0,0,0,0,0,0.2,7,0,0,0,0,0,0,0,0,0,0,0,0
2002,2,26,6,0,,-1.3,-4.4,80,101260,0,0,262,0,0,0,0,0,0,0,340,0.4,8,0,0,0,0,0,0,0,0,0,0,0,0
2002,2,26,7,0,,-1.4,-4,82,101310,0,0,264,0,0,0,0,0,0,0,0,0,8,0,0,0,0,0,0,0,0,0,0,0,0
2002,2,26,8,0,,-1.1,-3.7,78,101360,0,0,267,23,3,20,2668,127,2613,0,0,0,9,0,0,0,0,0,0,0,0,0,0,0,0
2002,2,26,9,0,,0.3,-3.3,74,101410,0,0,275,100,76,81,14379,7816,9971,0,340,0.7,9,0,0,0,0,0,0,0,0,0,0,0,0
2002,2,26,10,0,,2,-4,63,101360,0,0,268,299,356,147,43092,36053,19564,0,340,1.1,6,0,0,0,0,0,0,0,0,0,0,0,0
2002,2,26,11,0,,4.9,-4.7,48,101310,0,0,272,503,678,124,63994,68385,16768,0,340,0.4,3,0,0,0,0,0,0,0,0,0,0,0,0
2002,2,26,12,0,,8.7,-5.4,37,101260,0,0,275,655,855,100,71905,85845,13930,0,140,0.9,0,0,0,0,0,0,0,0,0,0,0,0,0
2002,2,26,13,0,,10.1,-5.3,31,101150,0,0,289,687,832,115,66512,83114,15988,0,180,1.4,2,0,0,0,0,0,0,0,0,0,0,0,0
2002,2,26,14,0,,11.5,-5.1,29,101050,0,0,300,646,762,133,54835,73906,18410,0,180,1.4,3,0,0,0,0,0,0,0,0,0,0,0,0
2002,2,26,15,0,,12.3,-5,29,100940,0,0,307,506,549,174,37363,48539,20953,0,200,2.5,5,0,0,0,0,0,0,0,0,0,0,0,0
2002,2,26,16,0,,12.4,-4.9,28,100910,0,0,310,372,435,158,21061,25544,17125,0,200,2.6,6,0,0,0,0,0,0,0,0,0,0,0,0
2002,2,26,17,0,,11.3,-4.8,32,100890,0,0,307,235,371,110,0,0,0,0,200,2.9,6,0,0,0,0,0,0,0,0,0,0,0,0
2002,2,26,18,0,,10.6,-4.7,34,100860,0,0,306,87,265,47,0,0,0,0,200,2.4,7,0,0,0,0,0,0,0,0,0,0,0,0
2002,2,26,19,0,,9.7,-4,39,100930,0,0,303,7,1,6,0,0,0,0,230,2.2,7,0,0,0,0,0,0,0,0,0,0,0,0
2002,2,26,20,0,,9.3,-3.2,38,101010,0,0,302,0,0,0,0,0,0,0,250,2.3,7,0,0,0,0,0,0,0,0,0,0,0,0
2002,2,26,21,0,,7.8,-2.5,48,101080,0,0,296,0,0,0,0,0,0,0,50,0.8,7,0,0,0,0,0,0,0,0,0,0,0,0
2002,2,26,22,0,,6,-2.5,57,101060,0,0,285,0,0,0,0,0,0,0,0,0,6,0,0,0,0,0,0,0,0,0,0,0,0
2002,2,26,23,0,,3.8,-2.5,69,101040,0,0,273,0,0,0,0,0,0,0,320,1,4,0,0,0,0,0,0,0,0,0,0,0,0
2002,2,26,24,0,,2.3,-2.5,71,101020,0,0,264,0,0,0,0,0,0,0,0,0.1,3,0,0,0,0,0,0,0,0,0,0,0,0
2002,2,27,1,0,,1.2,-2.3,78,101020,0,0,264,0,0,0,0,0,0,0,0,0,5,0,0,0,0,0,0,0,0,0,0,0,0
2002,2,27,2,0,,0.5,-2.1,79,101020,0,0,265,0,0,0,0,0,0,0,50,0.3,6,0,0,0,0,0,0,0,0,0,0,0,0
2002,2,27,3,0,,0.9,-1.9,79,101020,0,0,273,0,0,0,0,0,0,0,0,0,8,0,0,0,0,0,0,0,0,0,0,0,0
2002,2,27,4,0,,0.3,-2,81,101040,0,0,273,0,0,0,0,0,0,0,0,0,8,0,0,0,0,0,0,0,0,0,0,0,0
2002,2,27,5,0,,0.1,-2.1,83,101070,0,0,274,0,0,0,0,0,0,0,0,0,9,0,0,0,0,0,0,0,0,0,0,0,0
2002,2,27,6,0,,0.5,-2.2,80,101090,0,0,277,0,0,0,0,0,0,0,0,0,9,0,0,0,0,0,0,0,0,0,0,0,0
2002,2,27,7,0,,0.6,-2.1,81,101100,0,0,280,0,0,0,0,0,0,0,360,0.8,9,0,0,0,0,0,0,0,0,0,0,0,0
2002,2,27,8,0,,0.8,-2,82,101120,0,0,284,16,1,15,2085,44,2066,0,360,0.7,10,0,0,0,0,0,0,0,0,0,0,0,0
2002,2,27,9,0,,1.6,-1.9,76,101130,0,0,290,73,29,65,9248,2757,7680,0,290,0.4,10,0,0,0,0,0,0,0,0,0,0,0,0
2002,2,27,10,0,,3.7,-1.7,65,101080,0,0,286,229,153,164,30225,15776,19852,0,0,0,8,0,0,0,0,0,0,0,0,0,0,0,0
2002,2,27,11,0,,6.3,-1.6,53,101020,0,0,290,390,285,229,47279,29526,26748,0,340,1.3,7,0,0,0,0,0,0,0,0,0,0,0,0
2002,2,27,12,0,,8.7,-1.4,49,100970,0,0,295,555,562,188,62880,56140,24710,0,320,0.5,5,0,0,0,0,0,0,0,0,0,0,0,0
2002,2,27,13,0,,10.9,-1.6,41,100870,0,0,304,603,592,193,60611,59015,24480,0,90,1,5,0,0,0,0,0,0,0,0,0,0,0,0
2002,2,27,14,0,,12,-1.7,41,100770,0,0,308,604,636,174,52664,61614,22044,0,200,0.7,4,0,0,0,0,0,0,0,0,0,0,0,0
2002,2,27,15,0,,12.8,-1.9,36,100670,0,0,311,520,579,167,37942,51125,20461,0,180,0.6,4,0,0,0,0,0,0,0,0,0,0,0,0
2002,2,27,16,0,,12.4,-1.8,36,100670,0,0,314,351,341,182,23001,20941,19698,0,200,1.5,6,0,0,0,0,0,0,0,0,0,0,0,0
2002,2,27,17,0,,11.4,-1.8,38,100660,0,0,318,183,172,124,0,0,0,0,200,2.7,8,0,0,0,0,0,0,0,0,0,0,0,0
2002,2,27,18,0,,10.5,-1.7,43,100660,0,0,330,44,34,39,0,0,0,0,200,2.2,10,0,0,0,0,0,0,0,0,0,0,0,0
2002,2,27,19,0,,10.1,-1.1,43,100690,0,0,329,1,0,1,0,0,0,0,200,1.9,10,0,0,0,0,0,0,0,0,0,0,0,0
2002,2,27,20,0,,9.7,-0.4,47,100720,0,0,327,0,0,0,0,0,0,0,180,1.6,10,0,0,0,0,0,0,0,0,0,0,0,0
2002,2,27,21,0,,8.6,0.2,55,100750,0,0,323,0,0,0,0,0,0,0,250,1.4,10,0,0,0,0,0,0,0,0,0,0,0,0
2002,2,27,22,0,,6.7,-0.1,68,100780,0,0,314,0,0,0,0,0,0,0,340,0.6,10,0,0,0,0,0,0,0,0,0,0,0,0
2002,2,27,23,0,,5.5,-0.4,68,100810,0,0,308,0,0,0,0,0,0,0,0,0,10,0,0,0,0,0,0,0,0,0,0,0,0
2002,2,27,24,0,,4.7,-0.7,69,100840,0,0,304,0,0,0,0,0,0,0,0,0,10,0,0,0,0,0,0,0,0,0,0,0,0
2002,2,28,1,0,,4.4,-0.5,73,100850,0,0,303,0,0,0,0,0,0,0,110,0.3,10,0,0,0,0,0,0,0,0,0,0,0,0
2002,2,28,2,0,,4.1,-0.4,73,100850,0,0,302,0,0,0,0,0,0,0,0,0,10,0,0,0,0,0,0,0,0,0,0,0,0
2002,2,28,3,0,,3.7,-0.2,75,100860,0,0,301,0,0,0,0,0,0,0,320,0.8,10,0,0,0,0,0,0,0,0,0,0,0,0
2002,2,28,4,0,,3.2,-0.4,77,100870,0,0,293,0,0,0,0,0,0,0,320,0.6,9,0,0,0,0,0,0,0,0,0,0,0,0
2002,2,28,5,0,,3,-0.7,77,100890,0,0,287,0,0,0,0,0,0,0,0,0,9,0,0,0,0,0,0,0,0,0,0,0,0
2002,2,28,6,0,,2.3,-0.9,80,100900,0,0,280,0,0,0,0,0,0,0,0,0,8,0,0,0,0,0,0,0,0,0,0,0,0
2002,2,28,7,0,,1.2,-0.8,86,100950,0,0,267,0,0,0,0,0,0,0,0,0,5,0,0,0,0,0,0,0,0,0,0,0,0
2002,2,28,8,0,,0.8,-0.8,86,101000,0,0,260,50,26,24,4337,2514,3229,0,320,0.4,3,0,0,0,0,0,0,0,0,0,0,0,0
2002,2,28,9,0,,2.5,-0.7,80,101050,0,0,256,201,485,72,38728,49052,10582,0,320,1,0,0,0,0,0,0,0,0,0,0,0,0,0
2002,2,28,10,0,,5.3,-1,66,101030,0,0,269,378,646,96,57004,65740,13462,0,250,0.6,1,0,0,0,0,0,0,0,0,0,0,0,0
2002,2,28,11,0,,9.1,-1.4,54,101020,0,0,287,559,820,92,70722,82715,12815,0,200,0.8,1,0,0,0,0,0,0,0,0,0,0,0,0
2002,2,28,12,0,,11.7,-1.7,39,101000,0,0,300,662,846,104,73274,85995,14413,0,200,1.3,2,0,0,0,0,0,0,0,0,0,0,0,0
2002,2,28,13,0,,13.3,-3.6,33,100940,0,0,304,698,834,117,67636,83483,16162,0,140,1.5,2,0,0,0,0,0,0,0,0,0,0,0,0
2002,2,28,14,0,,14.6,-5.5,27,100890,0,0,306,673,808,121,56709,78998,17126,0,140,1.4,1,0,0,0,0,0,0,0,0,0,0,0,0
2002,2,28,15,0,,14.9,-7.4,21,100830,0,0,304,585,758,118,39572,67628,16188,0,320,1.8,1,0,0,0,0,0,0,0,0,0,0,0,0
2002,2,28,16,0,,15.2,-7.7,18,100880,0,0,312,448,682,106,19655,43520,12634,0,250,2.7,3,0,0,0,0,0,0,0,0,0,0,0,0
2002,2,28,17,0,,14.2,-7.9,19,100920,0,0,312,272,529,90,0,0,0,0,250,3.5,5,0,0,0,0,0,0,0,0,0,0,0,0
2002,2,28,18,0,,12.7,-8.2,22,100970,0,0,312,94,288,48,0,0,0,0,230,2.5,7,0,0,0,0,0,0,0,0,0,0,0,0
2002,2,28,19,0,,10,-6.7,31,101050,0,0,297,10,2,8,0,0,0,0,290,1,6,0,0,0,0,0,0,0,0,0,0,0,0
2002,2,28,20,0,,7.2,-5.1,37,101130,0,0,284,0,0,0,0,0,0,0,140,1.5,4,0,0,0,0,0,0,0,0,0,0,0,0
2002,2,28,21,0,,4.6,-3.6,54,101210,0,0,272,0,0,0,0,0,0,0,70,0.6,3,0,0,0,0,0,0,0,0,0,0,0,0
2002,2,28,22,0,,2.7,-3.2,62,101250,0,0,262,0,0,0,0,0,0,0,0,0,2,0,0,0,0,0,0,0,0,0,0,0,0
2002,2,28,23,0,,1.7,-2.9,71,101290,0,0,255,0,0,0,0,0,0,0,340,1.6,1,0,0,0,0,0,0,0,0,0,0,0,0
2002,2,28,24,0,,1.2,-2.5,74,101330,0,0,249,0,0,0,0,0,0,0,320,0.6,0,0,0,0,0,0,0,0,0,0,0,0,0
2000,3,1,1,0,,-4.8,-7.9,78,102050,0,0,223,0,0,0,0,0,0,0,0,0,0,0,0,0,0,0,0,0,0,0,0,0,0
2000,3,1,2,0,,-5.1,-7.8,82,102070,0,0,222,0,0,0,0,0,0,0,290,0.3,0,0,0,0,0,0,0,0,0,0,0,0,0
2000,3,1,3,0,,-5.5,-7.8,83,102100,0,0,221,0,0,0,0,0,0,0,340,0.5,0,0,0,0,0,0,0,0,0,0,0,0,0
2000,3,1,4,0,,-5.8,-7.8,84,102100,0,0,220,0,0,0,0,0,0,0,340,1.1,0,0,0,0,0,0,0,0,0,0,0,0,0
2000,3,1,5,0,,-6.2,-7.9,85,102100,0,0,219,0,0,0,0,0,0,0,360,0.8,0,0,0,0,0,0,0,0,0,0,0,0,0
2000,3,1,6,0,,-6.3,-7.9,88,102100,0,0,219,0,0,0,0,0,0,0,50,0.4,0,0,0,0,0,0,0,0,0,0,0,0,0
2000,3,1,7,0,,-6.9,-7.2,92,102130,0,0,225,0,0,0,0,0,0,0,360,0.9,2,0,0,0,0,0,0,0,0,0,0,0,0
2000,3,1,8,0,,-6.8,-6.6,89,102150,0,0,230,50,24,26,4484,2373,3421,0,0,0,4,0,0,0,0,0,0,0,0,0,0,0,0
2000,3,1,9,0,,-3.9,-5.9,81,102180,0,0,244,166,286,88,29377,28769,12659,0,0,0.1,6,0,0,0,0,0,0,0,0,0,0,0,0
2000,3,1,10,0,,-1.2,-5.7,70,102130,0,0,250,358,550,116,54237,56012,16734,0,70,0.5,4,0,0,0,0,0,0,0,0,0,0,0,0
2000,3,1,11,0,,1.9,-5.5,56,102090,0,0,257,547,769,105,69697,78227,14384,0,110,0.9,2,0,0,0,0,0,0,0,0,0,0,0,0
2000,3,1,12,0,,4.1,-5.3,50,102040,0,0,257,648,794,121,71743,80176,16325,0,110,1.4,0,0,0,0,0,0,0,0,0,0,0,0,0
2000,3,1,13,0,,6.2,-5.6,43,101930,0,0,265,690,800,129,67192,79668,17559,0,90,1.4,0,0,0,0,0,0,0,0,0,0,0,0,0
2000,3,1,14,0,,7.8,-6,37,101820,0,0,271,666,777,132,56721,75806,18279,0,200,1.1,0,0,0,0,0,0,0,0,0,0,0,0,0
2000,3,1,15,0,,8.5,-6.3,34,101710,0,0,273,595,775,115,40259,69564,15812,0,180,2.9,0,0,0,0,0,0,0,0,0,0,0,0,0
2000,3,1,16,0,,8.4,-5.7,35,101680,0,0,273,458,706,102,19956,45742,12333,0,180,3.1,0,0,0,0,0,0,0,0,0,0,0,0,0
2000,3,1,17,0,,8.3,-5.2,37,101660,0,0,274,301,655,73,0,0,0,0,200,2.8,0,0,0,0,0,0,0,0,0,0,0,0,0
2000,3,1,18,0,,7.1,-4.6,44,101630,0,0,269,130,564,38,0,0,0,0,200,2.7,0,0,0,0,0,0,0,0,0,0,0,0,0
2000,3,1,19,0,,6,-4.2,51,101660,0,0,265,18,9,9,0,0,0,0,200,2.1,0,0,0,0,0,0,0,0,0,0,0,0,0
2000,3,1,20,0,,3,-3.8,71,101700,0,0,254,0,0,0,0,0,0,0,290,0.5,0,0,0,0,0,0,0,0,0,0,0,0,0
2000,3,1,21,0,,0.6,-3.4,81,101730,0,0,246,0,0,0,0,0,0,0,340,0.4,0,0,0,0,0,0,0,0,0,0,0,0,0
2000,3,1,22,0,,-0.2,-3.4,84,101750,0,0,244,0,0,0,0,0,0,0,0,0.2,0,0,0,0,0,0,0,0,0,0,0,0,0
2000,3,1,23,0,,-1.4,-3.5,87,101780,0,0,239,0,0,0,0,0,0,0,360,1,0,0,0,0,0,0,0,0,0,0,0,0,0
2000,3,1,24,0,,-2,-3.5,89,101800,0,0,237,0,0,0,0,0,0,0,340,0.7,0,0,0,0,0,0,0,0,0,0,0,0,0
2000,3,2,1,0,,-2.6,-3.5,91,101820,0,0,242,0,0,0,0,0,0,0,340,0.4,2,0,0,0,0,0,0,0,0,0,0,0,0
2000,3,2,2,0,,-2.9,-3.6,93,101830,0,0,245,0,0,0,0,0,0,0,340,0.7,3,0,0,0,0,0,0,0,0,0,0,0,0
2000,3,2,3,0,,-2.8,-3.6,92,101850,0,0,249,0,0,0,0,0,0,0,270,0.3,5,0,0,0,0,0,0,0,0,0,0,0,0
2000,3,2,4,0,,-2.8,-3.1,92,101860,0,0,251,0,0,0,0,0,0,0,0,0.1,6,0,0,0,0,0,0,0,0,0,0,0,0
2000,3,2,5,0,,-2.5,-2.7,94,101880,0,0,256,0,0,0,0,0,0,0,0,0,7,0,0,0,0,0,0,0,0,0,0,0,0
2000,3,2,6,0,,-1.6,-2.2,92,101890,0,0,264,0,0,0,0,0,0,0,0,0.1,8,0,0,0,0,0,0,0,0,0,0,0,0
2000,3,2,7,0,,-1.4,-2.1,90,101920,0,0,265,0,0,0,0,0,0,0,360,1,8,0,0,0,0,0,0,0,0,0,0,0,0
2000,3,2,8,0,,-0.5,-2.1,88,101950,0,0,268,36,8,27,3652,758,3308,0,0,0,8,0,0,0,0,0,0,0,0,0,0,0,0
2000,3,2,9,0,,0.2,-2,83,101980,0,0,271,126,116,94,19030,11918,12045,0,0,0.1,8,0,0,0,0,0,0,0,0,0,0,0,0
2000,3,2,10,0,,1.3,-1.6,78,101930,0,0,268,281,251,170,38007,25936,20515,0,0,0,6,0,0,0,0,0,0,0,0,0,0,0,0
2000,3,2,11,0,,3.5,-1.3,68,101890,0,0,272,454,460,187,57154,46487,24064,0,290,1.1,4,0,0,0,0,0,0,0,0,0,0,0,0
2000,3,2,12,0,,5.2,-0.9,60,101840,0,0,274,583,602,181,65934,60318,23969,0,360,0.7,2,0,0,0,0,0,0,0,0,0,0,0,0
2000,3,2,13,0,,7.6,-1.5,53,101740,0,0,282,656,697,163,65554,69387,22029,0,50,0.7,2,0,0,0,0,0,0,0,0,0,0,0,0
2000,3,2,14,0,,9.9,-2.1,45,101640,0,0,290,665,761,138,56899,74057,19045,0,140,0.7,1,0,0,0,0,0,0,0,0,0,0,0,0
2000,3,2,15,0,,11.9,-2.7,36,101540,0,0,296,607,797,110,40875,71825,15360,0,140,0.9,1,0,0,0,0,0,0,0,0,0,0,0,0
2000,3,2,16,0,,12.7,-2.7,34,101530,0,0,298,483,778,88,20327,51104,11629,0,200,1.6,1,0,0,0,0,0,0,0,0,0,0,0,0
2000,3,2,17,0,,12,-2.8,34,101530,0,0,293,315,707,66,0,0,0,0,200,2.2,0,0,0,0,0,0,0,0,0,0,0,0,0
2000,3,2,18,0,,10.5,-2.8,39,101520,0,0,285,134,568,38,0,0,0,0,180,1.9,0,0,0,0,0,0,0,0,0,0,0,0,0
2000,3,2,19,0,,10,-2.5,43,101560,0,0,283,19,10,9,0,0,0,0,140,2.2,0,0,0,0,0,0,0,0,0,0,0,0,0
2000,3,2,20,0,,6.2,-2.1,59,101610,0,0,268,0,0,0,0,0,0,0,0,0.2,0,0,0,0,0,0,0,0,0,0,0,0,0
2000,3,2,21,0,,3,-1.8,75,101650,0,0,256,0,0,0,0,0,0,0,0,0,0,0,0,0,0,0,0,0,0,0,0,0,0
2000,3,2,22,0,,1.3,-2,82,101660,0,0,250,0,0,0,0,0,0,0,0,0,0,0,0,0,0,0,0,0,0,0,0,0,0
2000,3,2,23,0,,0.5,-2.1,84,101670,0,0,247,0,0,0,0,0,0,0,0,0,0,0,0,0,0,0,0,0,0,0,0,0,0
2000,3,2,24,0,,-0.3,-2.3,89,101680,0,0,244,0,0,0,0,0,0,0,0,0,0,0,0,0,0,0,0,0,0,0,0,0,0
2000,3,3,1,0,,-1,-2.5,92,101670,0,0,249,0,0,0,0,0,0,0,0,0.1,2,0,0,0,0,0,0,0,0,0,0,0,0
2000,3,3,2,0,,-1.8,-2.7,93,101670,0,0,250,0,0,0,0,0,0,0,0,0,3,0,0,0,0,0,0,0,0,0,0,0,0
2000,3,3,3,0,,-2.1,-2.9,94,101660,0,0,252,0,0,0,0,0,0,0,90,0.5,5,0,0,0,0,0,0,0,0,0,0,0,0
2000,3,3,4,0,,-2.3,-3,93,101670,0,0,250,0,0,0,0,0,0,0,0,0.2,4,0,0,0,0,0,0,0,0,0,0,0,0
2000,3,3,5,0,,-2.3,-3.2,94,101690,0,0,248,0,0,0,0,0,0,0,0,0,4,0,0,0,0,0,0,0,0,0,0,0,0
2000,3,3,6,0,,-2.8,-3.3,95,101700,0,0,245,0,0,0,0,0,0,0,70,0.4,3,0,0,0,0,0,0,0,0,0,0,0,0
2000,3,3,7,0,,-3.2,-3,95,101680,0,0,242,0,0,0,0,0,0,0,0,0.2,2,0,0,0,0,0,0,0,0,0,0,0,0
2000,3,3,8,0,,-3.2,-2.6,95,101660,0,0,239,58,25,33,5433,2527,4276,0,0,0.1,1,0,0,0,0,0,0,0,0,0,0,0,0
2000,3,3,9,0,,-1.5,-2.3,89,101640,0,0,240,204,432,83,38621,43775,12747,0,0,0.1,0,0,0,0,0,0,0,0,0,0,0,0,0
2000,3,3,10,0,,1.1,-2.2,76,101550,0,0,254,376,588,112,57023,59917,16323,0,0,0,1,0,0,0,0,0,0,0,0,0,0,0,0
2000,3,3,11,0,,3.8,-2.2,62,101450,0,0,268,533,693,127,67292,70120,17050,0,70,0.3,2,0,0,0,0,0,0,0,0,0,0,0,0
2000,3,3,12,0,,7.7,-2.1,47,101360,0,0,286,648,768,131,71799,77449,17567,0,70,0.4,3,0,0,0,0,0,0,0,0,0,0,0,0
2000,3,3,13,0,,11,-4.6,37,101220,0,0,297,718,844,117,69555,84620,16113,0,50,0.6,3,0,0,0,0,0,0,0,0,0,0,0,0
2000,3,3,14,0,,14.5,-7,26,101070,0,0,310,727,910,93,59640,89652,13455,0,250,0.6,3,0,0,0,0,0,0,0,0,0,0,0,0
2000,3,3,15,0,,16.3,-9.5,16,100930,0,0,314,648,897,84,42083,82480,12472,0,230,2.5,3,0,0,0,0,0,0,0,0,0,0,0,0
2000,3,3,16,0,,16.4,-10.5,14,100880,0,0,314,490,788,87,20606,52855,11423,0,200,3.4,4,0,0,0,0,0,0,0,0,0,0,0,0
2000,3,3,17,0,,15.6,-11.4,15,100830,0,0,311,307,651,75,0,0,0,0,200,3.2,4,0,0,0,0,0,0,0,0,0,0,0,0
2000,3,3,18,0,,14.5,-12.4,14,100780,0,0,307,125,455,47,0,0,0,0,200,2,5,0,0,0,0,0,0,0,0,0,0,0,0
2000,3,3,19,0,,9.8,-9.4,33,100800,0,0,297,11,2,9,0,0,0,0,50,0.8,7,0,0,0,0,0,0,0,0,0,0,0,0
2000,3,3,20,0,,7.5,-6.4,37,100820,0,0,298,0,0,0,0,0,0,0,0,0.2,8,0,0,0,0,0,0,0,0,0,0,0,0
2000,3,3,21,0,,5.8,-3.4,52,100840,0,0,306,0,0,0,0,0,0,0,0,0.2,10,0,0,0,0,0,0,0,0,0,0,0,0
2000,3,3,22,0,,4.6,-3.1,58,100840,0,0,301,0,0,0,0,0,0,0,320,0.6,10,0,0,0,0,0,0,0,0,0,0,0,0
2000,3,3,23,0,,3.7,-2.9,64,100830,0,0,298,0,0,0,0,0,0,0,0,0.1,10,0,0,0,0,0,0,0,0,0,0,0,0
2000,3,3,24,0,,3.4,-2.6,64,100830,0,0,297,0,0,0,0,0,0,0,340,0.7,10,0,0,0,0,0,0,0,0,0,0,0,0
2000,3,4,1,0,,3.5,-2.7,61,100790,0,0,285,0,0,0,0,0,0,0,0,0,8,0,0,0,0,0,0,0,0,0,0,0,0
2000,3,4,2,0,,3,-2.8,67,100760,0,0,275,0,0,0,0,0,0,0,360,1.1,7,0,0,0,0,0,0,0,0,0,0,0,0
2000,3,4,3,0,,3.2,-2.9,64,100720,0,0,271,0,0,0,0,0,0,0,290,0.5,5,0,0,0,0,0,0,0,0,0,0,0,0
2000,3,4,4,0,,2.1,-2.9,71,100720,0,0,265,0,0,0,0,0,0,0,20,0.4,4,0,0,0,0,0,0,0,0,0,0,0,0
2000,3,4,5,0,,0.8,-2.8,76,100730,0,0,258,0,0,0,0,0,0,0,340,0.6,3,0,0,0,0,0,0,0,0,0,0,0,0
2000,3,4,6,0,,0,-2.8,81,100730,0,0,253,0,0,0,0,0,0,0,340,1,2,0,0,0,0,0,0,0,0,0,0,0,0
2000,3,4,7,0,,-0.7,-2.6,81,100740,0,0,251,0,0,0,0,0,0,0,0,0.1,2,0,0,0,0,0,0,0,0,0,0,0,0
2000,3,4,8,0,,0,-2.5,79,100760,0,0,253,63,32,31,5569,3169,4102,0,70,0.6,2,0,0,0,0,0,0,0,0,0,0,0,0
2000,3,4,9,0,,2.1,-2.3,68,100770,0,0,261,226,541,71,43145,54934,10403,0,290,1.1,2,0,0,0,0,0,0,0,0,0,0,0,0
2000,3,4,10,0,,5.6,-3,54,100690,0,0,272,415,719,88,61828,72381,12310,0,0,0.1,1,0,0,0,0,0,0,0,0,0,0,0,0
2000,3,4,11,0,,8.7,-3.6,44,100620,0,0,280,588,845,90,73971,85270,12474,0,320,0.3,1,0,0,0,0,0,0,0,0,0,0,0,0
2000,3,4,12,0,,11.8,-4.3,32,100540,0,0,289,707,909,90,77141,91619,12577,0,70,1.4,0,0,0,0,0,0,0,0,0,0,0,0,0
2000,3,4,13,0,,13.5,-5.2,25,100470,0,0,302,725,849,117,70189,85180,16033,0,110,0.7,1,0,0,0,0,0,0,0,0,0,0,0,0
2000,3,4,14,0,,14.8,-6,19,100410,0,0,311,685,791,131,58476,77542,18220,0,200,2.4,3,0,0,0,0,0,0,0,0,0,0,0,0
2000,3,4,15,0,,15,-6.9,22,100340,0,0,315,559,633,159,40430,57568,19547,0,360,1.4,4,0,0,0,0,0,0,0,0,0,0,0,0
2000,3,4,16,0,,14,-6.5,26,100360,0,0,307,453,648,119,21668,43268,13998,0,290,3.7,3,0,0,0,0,0,0,0,0,0,0,0,0
2000,3,4,17,0,,14,-6,26,100370,0,0,303,313,663,74,0,0,0,0,250,3.5,1,0,0,0,0,0,0,0,0,0,0,0,0
2000,3,4,18,0,,12.1,-5.6,30,100390,0,0,289,137,548,42,0,0,0,0,250,1.8,0,0,0,0,0,0,0,0,0,0,0,0,0
2000,3,4,19,0,,9.9,-4.7,36,100460,0,0,281,21,12,10,0,0,0,0,270,1.4,0,0,0,0,0,0,0,0,0,0,0,0,0
2000,3,4,20,0,,5.6,-3.9,56,100520,0,0,264,0,0,0,0,0,0,0,360,1.6,0,0,0,0,0,0,0,0,0,0,0,0,0
2000,3,4,21,0,,3.3,-3,65,100590,0,0,256,0,0,0,0,0,0,0,50,1,0,0,0,0,0,0,0,0,0,0,0,0,0
2000,3,4,22,0,,3,-3,63,100660,0,0,255,0,0,0,0,0,0,0,90,1,0,0,0,0,0,0,0,0,0,0,0,0,0
2000,3,4,23,0,,3.1,-2.9,66,100720,0,0,256,0,0,0,0,0,0,0,160,1.1,0,0,0,0,0,0,0,0,0,0,0,0,0
2000,3,4,24,0,,2.2,-2.9,68,100790,0,0,252,0,0,0,0,0,0,0,230,1.9,0,0,0,0,0,0,0,0,0,0,0,0,0
2000,3,5,1,0,,1,-2.7,82,100780,0,0,248,0,0,0,0,0,0,0,200,0.8,0,0,0,0,0,0,0,0,0,0,0,0,0
2000,3,5,2,0,,0.3,-2.6,81,100780,0,0,246,0,0,0,0,0,0,0,360,0.5,0,0,0,0,0,0,0,0,0,0,0,0,0
2000,3,5,3,0,,-0.4,-2.4,85,100770,0,0,244,0,0,0,0,0,0,0,90,0.5,0,0,0,0,0,0,0,0,0,0,0,0,0
2000,3,5,4,0,,-1.1,-2.8,85,100790,0,0,241,0,0,0,0,0,0,0,250,0.9,0,0,0,0,0,0,0,0,0,0,0,0,0
2000,3,5,5,0,,-1.9,-3.1,89,100810,0,0,238,0,0,0,0,0,0,0,0,0.2,0,0,0,0,0,0,0,0,0,0,0,0,0
2000,3,5,6,0,,-2.4,-3.5,90,100830,0,0,236,0,0,0,0,0,0,0,0,0,0,0,0,0,0,0,0,0,0,0,0,0,0
2000,3,5,7,0,,-2.4,-3.1,90,100840,0,0,248,0,0,0,0,0,0,0,20,0.7,3,0,0,0,0,0,0,0,0,0,0,0,0
2000,3,5,8,0,,-1.8,-2.7,89,100850,0,0,257,43,12,31,4262,1134,3731,0,360,0.3,7,0,0,0,0,0,0,0,0,0,0,0,0
2000,3,5,9,0,,-0.5,-2.3,84,100860,0,0,281,82,29,74,10369,2818,8675,0,320,1.1,10,0,0,0,0,0,0,0,0,0,0,0,0
2000,3,5,10,0,,1.1,-2.5,74,100820,0,0,277,195,78,160,24534,8038,18996,0,0,0,9,0,0,0,0,0,0,0,0,0,0,0,0
2000,3,5,11,0,,3.2,-2.6,66,100770,0,0,278,390,234,251,46613,24338,28947,0,70,0.4,7,0,0,0,0,0,0,0,0,0,0,0,0
2000,3,5,12,0,,5.8,-2.8,52,100730,0,0,284,516,329,291,57211,34195,32961,0,0,0.1,6,0,0,0,0,0,0,0,0,0,0,0,0
2000,3,5,13,0,,8.2,-4.2,34,100630,0,0,292,594,496,237,60597,49771,28744,0,270,1.4,6,0,0,0,0,0,0,0,0,0,0,0,0
2000,3,5,14,0,,11.2,-5.5,28,100530,0,0,303,636,649,179,55857,63826,22469,0,140,0.8,5,0,0,0,0,0,0,0,0,0,0,0,0
2000,3,5,15,0,,11.2,-6.9,27,100430,0,0,301,551,596,171,40686,54266,20799,0,50,1.1,5,0,0,0,0,0,0,0,0,0,0,0,0
2000,3,5,16,0,,11.8,-7.9,20,100400,0,0,299,457,649,119,22024,44001,14069,0,230,2.2,4,0,0,0,0,0,0,0,0,0,0,0,0
2000,3,5,17,0,,11,-9,25,100380,0,0,291,318,669,74,0,0,0,0,200,2.5,2,0,0,0,0,0,0,0,0,0,0,0,0
2000,3,5,18,0,,10.2,-10,24,100350,0,0,282,148,622,37,0,0,0,0,200,1.8,1,0,0,0,0,0,0,0,0,0,0,0,0
2000,3,5,19,0,,7.9,-8.2,35,100390,0,0,273,23,13,10,0,0,0,0,230,1.2,1,0,0,0,0,0,0,0,0,0,0,0,0
2000,3,5,20,0,,4.8,-6.4,50,100440,0,0,261,0,0,0,0,0,0,0,90,0.5,0,0,0,0,0,0,0,0,0,0,0,0,0
2000,3,5,21,0,,1.8,-4.6,65,100480,0,0,249,0,0,0,0,0,0,0,0,0,0,0,0,0,0,0,0,0,0,0,0,0,0
2000,3,5,22,0,,0.5,-4.8,69,100520,0,0,244,0,0,0,0,0,0,0,0,0,0,0,0,0,0,0,0,0,0,0,0,0,0
2000,3,5,23,0,,-0.3,-5.1,69,100570,0,0,242,0,0,0,0,0,0,0,70,0.3,0,0,0,0,0,0,0,0,0,0,0,0,0
2000,3,5,24,0,,-0.8,-5.3,74,100610,0,0,240,0,0,0,0,0,0,0,290,1.1,0,0,0,0,0,0,0,0,0,0,0,0,0
2000,3,6,1,0,,-1.7,-5.1,75,100590,0,0,237,0,0,0,0,0,0,0,0,0,0,0,0,0,0,0,0,0,0,0,0,0,0
2000,3,6,2,0,,-1.9,-5,78,100570,0,0,236,0,0,0,0,0,0,0,50,0.8,0,0,0,0,0,0,0,0,0,0,0,0,0
2000,3,6,3,0,,-2.4,-4.8,84,100550,0,0,235,0,0,0,0,0,0,0,0,0,0,0,0,0,0,0,0,0,0,0,0,0,0
2000,3,6,4,0,,-3.1,-5.1,84,100550,0,0,232,0,0,0,0,0,0,0,20,0.3,0,0,0,0,0,0,0,0,0,0,0,0,0
2000,3,6,5,0,,-3.7,-5.4,87,100540,0,0,230,0,0,0,0,0,0,0,0,0,0,0,0,0,0,0,0,0,0,0,0,0,0
2000,3,6,6,0,,-4.3,-5.7,88,100540,0,0,227,0,0,0,0,0,0,0,90,0.4,0,0,0,0,0,0,0,0,0,0,0,0,0
2000,3,6,7,0,,-4.8,-5.3,92,100550,0,0,226,0,0,0,0,0,0,0,0,0,0,0,0,0,0,0,0,0,0,0,0,0,0
2000,3,6,8,0,,-3.8,-4.9,89,100550,0,0,230,67,35,32,5891,3509,4231,0,0,0.2,0,0,0,0,0,0,0,0,0,0,0,0,0
2000,3,6,9,0,,-0.9,-4.5,74,100560,0,0,240,242,585,69,46120,59562,10027,0,110,0.9,0,0,0,0,0,0,0,0,0,0,0,0,0
2000,3,6,10,0,,1.8,-6.5,58,100470,0,0,247,436,761,82,64593,76511,11508,0,340,1.1,0,0,0,0,0,0,0,0,0,0,0,0,0
2000,3,6,11,0,,6.2,-8.5,31,100390,0,0,263,630,935,69,78655,94299,9767,0,180,2.1,0,0,0,0,0,0,0,0,0,0,0,0,0
2000,3,6,12,0,,8,-10.5,25,100300,0,0,268,727,933,85,78810,93802,11872,0,200,2.6,0,0,0,0,0,0,0,0,0,0,0,0,0
2000,3,6,13,0,,8.2,-6.2,33,100280,0,0,285,715,798,136,70805,80525,18931,0,230,4.6,3,0,0,0,0,0,0,0,0,0,0,0,0
2000,3,6,14,0,,7,-1.9,55,100250,0,0,292,475,218,320,47008,21496,35678,0,230,6.9,7,0,0,0,0,0,0,0,0,0,0,0,0
2000,3,6,15,0,,4.9,2.4,86,100230,0,0,309,157,14,148,16958,945,16608,0,200,3.5,10,0,0,0,0,0,0,0,0,0,0,0,0
2000,3,6,16,0,,5.5,-0.7,77,100270,0,0,289,285,146,209,24997,12149,22758,0,200,3.9,7,0,0,0,0,0,0,0,0,0,0,0,0
2000,3,6,17,0,,5.8,-3.9,59,100300,0,0,279,273,441,111,0,0,0,0,230,3.8,4,0,0,0,0,0,0,0,0,0,0,0,0
2000,3,6,18,0,,5.1,-7,42,100340,0,0,265,151,622,38,0,0,0,0,270,2.9,1,0,0,0,0,0,0,0,0,0,0,0,0
2000,3,6,19,0,,3.7,-10.3,26,100430,0,0,255,27,14,13,0,0,0,0,250,3.6,1,0,0,0,0,0,0,0,0,0,0,0,0
2000,3,6,20,0,,2.4,-13.6,19,100530,0,0,245,0,0,0,0,0,0,0,250,4.8,0,0,0,0,0,0,0,0,0,0,0,0,0
2000,3,6,21,0,,0.9,-16.9,25,100620,0,0,236,0,0,0,0,0,0,0,250,4.1,0,0,0,0,0,0,0,0,0,0,0,0,0
2000,3,6,22,0,,-0.5,-17.1,30,100720,0,0,233,0,0,0,0,0,0,0,250,6.1,0,0,0,0,0,0,0,0,0,0,0,0,0
2000,3,6,23,0,,-1,-17.2,29,100810,0,0,231,0,0,0,0,0,0,0,250,3.9,0,0,0,0,0,0,0,0,0,0,0,0,0
2000,3,6,24,0,,-1.7,-17.4,29,100910,0,0,228,0,0,0,0,0,0,0,250,3.5,0,0,0,0,0,0,0,0,0,0,0,0,0
2000,3,7,1,0,,-2.2,-18,25,100950,0,0,226,0,0,0,0,0,0,0,250,4.8,0,0,0,0,0,0,0,0,0,0,0,0,0
2000,3,7,2,0,,-2.4,-18.6,26,100980,0,0,226,0,0,0,0,0,0,0,230,4,0,0,0,0,0,0,0,0,0,0,0,0,0
2000,3,7,3,0,,-2.7,-19.2,27,101020,0,0,224,0,0,0,0,0,0,0,200,3.3,0,0,0,0,0,0,0,0,0,0,0,0,0
2000,3,7,4,0,,-3.1,-19.4,25,101040,0,0,223,0,0,0,0,0,0,0,230,2.9,0,0,0,0,0,0,0,0,0,0,0,0,0
2000,3,7,5,0,,-3.4,-19.5,26,101070,0,0,222,0,0,0,0,0,0,0,230,2.1,0,0,0,0,0,0,0,0,0,0,0,0,0
2000,3,7,6,0,,-3.3,-19.7,27,101090,0,0,222,0,0,0,0,0,0,0,250,4.6,0,0,0,0,0,0,0,0,0,0,0,0,0
2000,3,7,7,0,,-3.5,-19.6,29,101120,0,0,221,0,0,0,0,0,0,0,250,3.2,0,0,0,0,0,0,0,0,0,0,0,0,0
2000,3,7,8,0,,-3.1,-19.4,28,101140,0,0,223,87,65,23,6952,6418,3884,0,230,2,0,0,0,0,0,0,0,0,0,0,0,0,0
2000,3,7,9,0,,-2,-19.3,25,101170,0,0,227,269,713,54,51414,71100,7975,0,230,2.3,0,0,0,0,0,0,0,0,0,0,0,0,0
2000,3,7,10,0,,-0.8,-19.2,24,101110,0,0,231,441,760,83,64902,76186,11674,0,250,1.8,0,0,0,0,0,0,0,0,0,0,0,0,0
2000,3,7,11,0,,-0.1,-19.2,21,101050,0,0,234,581,780,110,73089,79312,14781,0,200,2.6,0,0,0,0,0,0,0,0,0,0,0,0,0
2000,3,7,12,0,,1.1,-19.1,20,100990,0,0,236,677,791,129,74402,79754,17138,0,200,3.5,0,0,0,0,0,0,0,0,0,0,0,0,0
2000,3,7,13,0,,2.3,-19,19,100920,0,0,240,708,769,146,70353,77729,19957,0,230,3.5,0,0,0,0,0,0,0,0,0,0,0,0,0
2000,3,7,14,0,,2.4,-18.9,17,100840,0,0,241,696,783,137,59722,77112,18778,0,250,5.1,0,0,0,0,0,0,0,0,0,0,0,0,0
2000,3,7,15,0,,3,-18.8,18,100770,0,0,243,622,776,121,43008,70938,16488,0,230,5,0,0,0,0,0,0,0,0,0,0,0,0,0
2000,3,7,16,0,,2.8,-18.7,19,100770,0,0,242,494,747,99,22494,51565,12814,0,200,4.4,0,0,0,0,0,0,0,0,0,0,0,0,0
2000,3,7,17,0,,2.4,-18.7,19,100770,0,0,241,341,744,65,0,0,0,0,230,4.6,0,0,0,0,0,0,0,0,0,0,0,0,0
2000,3,7,18,0,,1.1,-18.6,22,100770,0,0,236,157,647,37,0,0,0,0,200,3.2,0,0,0,0,0,0,0,0,0,0,0,0,0
2000,3,7,19,0,,-0.1,-18,19,100840,0,0,234,28,15,13,0,0,0,0,200,3.2,0,0,0,0,0,0,0,0,0,0,0,0,0
2000,3,7,20,0,,-0.9,-17.4,24,100900,0,0,231,0,0,0,0,0,0,0,230,3.7,0,0,0,0,0,0,0,0,0,0,0,0,0
2000,3,7,21,0,,-2.1,-16.8,32,100970,0,0,227,0,0,0,0,0,0,0,270,3.9,0,0,0,0,0,0,0,0,0,0,0,0,0
2000,3,7,22,0,,-3.2,-16.9,33,101020,0,0,223,0,0,0,0,0,0,0,250,3.6,0,0,0,0,0,0,0,0,0,0,0,0,0
2000,3,7,23,0,,-4,-17,37,101080,0,0,220,0,0,0,0,0,0,0,250,2.2,0,0,0,0,0,0,0,0,0,0,0,0,0
2000,3,7,24,0,,-4.7,-17.1,37,101130,0,0,217,0,0,0,0,0,0,0,250,1.7,0,0,0,0,0,0,0,0,0,0,0,0,0
2000,3,8,1,0,,-4.5,-17.3,36,101140,0,0,218,0,0,0,0,0,0,0,250,4,0,0,0,0,0,0,0,0,0,0,0,0,0
2000,3,8,2,0,,-4.7,-17.6,36,101150,0,0,217,0,0,0,0,0,0,0,200,2.1,0,0,0,0,0,0,0,0,0,0,0,0,0
2000,3,8,3,0,,-5,-17.8,36,101160,0,0,216,0,0,0,0,0,0,0,160,1.4,0,0,0,0,0,0,0,0,0,0,0,0,0
2000,3,8,4,0,,-5.5,-16,39,101160,0,0,214,0,0,0,0,0,0,0,160,0.7,0,0,0,0,0,0,0,0,0,0,0,0,0
2000,3,8,5,0,,-5.9,-14.2,45,101160,0,0,214,0,0,0,0,0,0,0,110,1,0,0,0,0,0,0,0,0,0,0,0,0,0
2000,3,8,6,0,,-6.9,-12.4,68,101160,0,0,212,0,0,0,0,0,0,0,340,1,0,0,0,0,0,0,0,0,0,0,0,0,0
2000,3,8,7,0,,-7.9,-12.6,74,101160,0,0,216,0,0,0,0,0,0,0,0,0.1,2,0,0,0,0,0,0,0,0,0,0,0,0
2000,3,8,8,0,,-7.1,-12.7,62,101160,0,0,223,68,40,29,6004,4092,4027,0,320,1.1,5,0,0,0,0,0,0,0,0,0,0,0,0
2000,3,8,9,0,,-4.8,-12.9,48,101160,0,0,236,185,261,105,30950,26654,14533,0,0,0.1,7,0,0,0,0,0,0,0,0,0,0,0,0
2000,3,8,10,0,,-2,-12.5,31,101090,0,0,248,344,379,163,48532,38994,21101,0,180,1.6,7,0,0,0,0,0,0,0,0,0,0,0,0
2000,3,8,11,0,,-0.3,-12.2,30,101010,0,0,255,459,396,218,56861,40673,26771,0,160,1.8,7,0,0,0,0,0,0,0,0,0,0,0,0
2000,3,8,12,0,,1.2,-11.8,37,100940,0,0,260,521,312,304,57529,32990,33697,0,230,1.7,7,0,0,0,0,0,0,0,0,0,0,0,0
2000,3,8,13,0,,-0.2,-9.4,75,100910,0,0,260,448,162,329,47548,16659,36678,0,270,4.6,8,0,0,0,0,0,0,0,0,0,0,0,0
2000,3,8,14,0,,1.8,-7.1,58,100880,0,0,273,423,149,316,43133,14882,35174,0,250,3.5,8,0,0,0,0,0,0,0,0,0,0,0,0
2000,3,8,15,0,,1.1,-4.7,65,100850,0,0,277,291,75,243,29664,7161,26961,0,250,5,9,0,0,0,0,0,0,0,0,0,0,0,0
2000,3,8,16,0,,1.9,-7.8,50,100820,0,0,263,377,325,204,26326,22704,21985,0,290,2.7,6,0,0,0,0,0,0,0,0,0,0,0,0
2000,3,8,17,0,,2.6,-10.9,31,100800,0,0,257,325,656,79,0,0,0,0,250,3.9,3,0,0,0,0,0,0,0,0,0,0,0,0
2000,3,8,18,0,,2.2,-14,29,100770,0,0,243,168,723,32,0,0,0,0,250,4,0,0,0,0,0,0,0,0,0,0,0,0,0
2000,3,8,19,0,,0.9,-13.8,28,100860,0,0,238,32,19,12,0,0,0,0,250,4.6,0,0,0,0,0,0,0,0,0,0,0,0,0
2000,3,8,20,0,,-0.2,-13.7,33,100960,0,0,235,0,0,0,0,0,0,0,250,4.5,0,0,0,0,0,0,0,0,0,0,0,0,0
2000,3,8,21,0,,-1.1,-13.5,39,101050,0,0,232,0,0,0,0,0,0,0,250,2.9,0,0,0,0,0,0,0,0,0,0,0,0,0
2000,3,8,22,0,,-1.6,-14,36,101140,0,0,230,0,0,0,0,0,0,0,250,2.9,0,0,0,0,0,0,0,0,0,0,0,0,0
2000,3,8,23,0,,-1.7,-14.6,36,101240,0,0,229,0,0,0,0,0,0,0,250,3.6,0,0,0,0,0,0,0,0,0,0,0,0,0
2000,3,8,24,0,,-2,-15.1,37,101330,0,0,228,0,0,0,0,0,0,0,250,2.6,0,0,0,0,0,0,0,0,0,0,0,0,0
2000,3,9,1,0,,-2.2,-13.8,37,101400,0,0,228,0,0,0,0,0,0,0,250,1.5,0,0,0,0,0,0,0,0,0,0,0,0,0
2000,3,9,2,0,,-4.2,-12.6,61,101460,0,0,221,0,0,0,0,0,0,0,70,0.6,0,0,0,0,0,0,0,0,0,0,0,0,0
2000,3,9,3,0,,-5.3,-11.3,64,101530,0,0,218,0,0,0,0,0,0,0,90,0.9,0,0,0,0,0,0,0,0,0,0,0,0,0
2000,3,9,4,0,,-6,-11.3,68,101540,0,0,216,0,0,0,0,0,0,0,110,0.5,0,0,0,0,0,0,0,0,0,0,0,0,0
2000,3,9,5,0,,-7.1,-11.2,75,101560,0,0,212,0,0,0,0,0,0,0,0,0.1,0,0,0,0,0,0,0,0,0,0,0,0,0
2000,3,9,6,0,,-7.7,-11.2,76,101570,0,0,210,0,0,0,0,0,0,0,110,0.3,0,0,0,0,0,0,0,0,0,0,0,0,0
2000,3,9,7,0,,-7.9,-11.8,79,101620,0,0,209,0,0,0,0,0,0,0,20,0.7,0,0,0,0,0,0,0,0,0,0,0,0,0
2000,3,9,8,0,,-6.3,-12.4,70,101660,0,0,214,89,60,29,7103,6136,4108,0,340,0.6,0,0,0,0,0,0,0,0,0,0,0,0,0
2000,3,9,9,0,,-2.6,-13,43,101710,0,0,227,287,757,51,54468,75668,7487,0,320,0.9,0,0,0,0,0,0,0,0,0,0,0,0,0
2000,3,9,10,0,,1,-14.1,35,101660,0,0,238,494,911,56,72920,91636,8016,0,360,0.9,0,0,0,0,0,0,0,0,0,0,0,0,0
2000,3,9,11,0,,3,-15.2,26,101620,0,0,245,666,986,59,82345,99336,8401,0,250,5,0,0,0,0,0,0,0,0,0,0,0,0,0
2000,3,9,12,0,,3.9,-16.3,20,101570,0,0,247,734,910,95,79429,91287,13086,0,250,4.6,0,0,0,0,0,0,0,0,0,0,0,0,0
2000,3,9,13,0,,4.9,-16.6,23,101510,0,0,251,743,833,127,71903,83295,17212,0,250,5.1,0,0,0,0,0,0,0,0,0,0,0,0,0
2000,3,9,14,0,,5.9,-16.9,20,101440,0,0,254,718,814,129,61367,80604,17945,0,250,4.8,0,0,0,0,0,0,0,0,0,0,0,0,0
2000,3,9,15,0,,6.4,-17.2,17,101380,0,0,256,640,804,115,44148,74145,15889,0,230,3.9,0,0,0,0,0,0,0,0,0,0,0,0,0
2000,3,9,16,0,,6.4,-17.3,17,101400,0,0,255,514,789,92,23045,56123,12122,0,250,4.6,0,0,0,0,0,0,0,0,0,0,0,0,0
2000,3,9,17,0,,5.8,-17.5,17,101420,0,0,253,343,721,70,0,0,0,0,250,4,0,0,0,0,0,0,0,0,0,0,0,0,0
2000,3,9,18,0,,4.8,-17.6,18,101440,0,0,250,166,674,36,0,0,0,0,250,4.1,0,0,0,0,0,0,0,0,0,0,0,0,0
2000,3,9,19,0,,3.5,-16.7,25,101520,0,0,246,31,16,14,0,0,0,0,230,2.6,0,0,0,0,0,0,0,0,0,0,0,0,0
2000,3,9,20,0,,2.7,-15.8,24,101600,0,0,243,0,0,0,0,0,0,0,200,2.2,0,0,0,0,0,0,0,0,0,0,0,0,0
2000,3,9,21,0,,1.9,-14.9,28,101680,0,0,241,0,0,0,0,0,0,0,230,1.9,0,0,0,0,0,0,0,0,0,0,0,0,0
2000,3,9,22,0,,0.3,-12.9,32,101740,0,0,236,0,0,0,0,0,0,0,250,1,0,0,0,0,0,0,0,0,0,0,0,0,0
2000,3,9,23,0,,-2.4,-11,51,101790,0,0,229,0,0,0,0,0,0,0,140,1.2,0,0,0,0,0,0,0,0,0,0,0,0,0
2000,3,9,24,0,,-3.2,-9,66,101850,0,0,227,0,0,0,0,0,0,0,180,0.6,0,0,0,0,0,0,0,0,0,0,0,0,0
2000,3,10,1,0,,-4.3,-9.1,66,101870,0,0,223,0,0,0,0,0,0,0,0,0.1,0,0,0,0,0,0,0,0,0,0,0,0,0
2000,3,10,2,0,,-4.7,-9.3,71,101900,0,0,222,0,0,0,0,0,0,0,90,0.8,0,0,0,0,0,0,0,0,0,0,0,0,0
2000,3,10,3,0,,-5.2,-9.4,72,101920,0,0,220,0,0,0,0,0,0,0,0,0,0,0,0,0,0,0,0,0,0,0,0,0,0
2000,3,10,4,0,,-5.7,-9.8,73,101920,0,0,218,0,0,0,0,0,0,0,20,0.3,0,0,0,0,0,0,0,0,0,0,0,0,0
2000,3,10,5,0,,-6.3,-10.3,76,101920,0,0,216,0,0,0,0,0,0,0,0,0,0,0,0,0,0,0,0,0,0,0,0,0,0
2000,3,10,6,0,,-7.1,-10.7,75,101920,0,0,213,0,0,0,0,0,0,0,0,0.1,0,0,0,0,0,0,0,0,0,0,0,0,0
2000,3,10,7,0,,-7.3,-10.2,82,101950,0,0,213,0,0,0,0,0,0,0,360,1,0,0,0,0,0,0,0,0,0,0,0,0,0
2000,3,10,8,0,,-5.4,-9.8,73,101990,0,0,219,90,57,33,7438,5823,4566,0,20,0.6,0,0,0,0,0,0,0,0,0,0,0,0,0
2000,3,10,9,0,,-3.5,-9.3,60,102020,0,0,226,271,648,66,50062,64762,9531,0,70,0.7,0,0,0,0,0,0,0,0,0,0,0,0,0
2000,3,10,10,0,,0.4,-10.3,45,101930,0,0,238,476,830,73,69720,83446,10219,0,50,0.5,0,0,0,0,0,0,0,0,0,0,0,0,0
2000,3,10,11,0,,3.6,-11.3,35,101840,0,0,250,636,892,84,78828,89748,11611,0,230,0.9,0,0,0,0,0,0,0,0,0,0,0,0,0
2000,3,10,12,0,,5.8,-12.3,25,101750,0,0,258,737,903,98,79772,90698,13464,0,230,1.1,0,0,0,0,0,0,0,0,0,0,0,0,0
2000,3,10,13,0,,7.4,-10.9,22,101610,0,0,265,755,850,123,73003,85274,16665,0,180,2.3,0,0,0,0,0,0,0,0,0,0,0,0,0
2000,3,10,14,0,,9.3,-9.6,22,101470,0,0,273,728,828,126,62156,82063,17634,0,200,2.2,0,0,0,0,0,0,0,0,0,0,0,0,0
2000,3,10,15,0,,9.6,-8.2,28,101330,0,0,276,638,784,122,44448,72076,16718,0,230,3.8,0,0,0,0,0,0,0,0,0,0,0,0,0
2000,3,10,16,0,,9.4,-7.3,29,101300,0,0,287,491,699,113,23565,49866,13690,0,200,4.6,3,0,0,0,0,0,0,0,0,0,0,0,0
2000,3,10,17,0,,9.2,-6.3,31,101260,0,0,293,291,473,110,0,0,0,0,200,3.1,5,0,0,0,0,0,0,0,0,0,0,0,0
2000,3,10,18,0,,8,-5.4,39,101230,0,0,299,99,171,65,0,0,0,0,230,3.3,8,0,0,0,0,0,0,0,0,0,0,0,0
2000,3,10,19,0,,6.6,-4.2,47,101270,0,0,294,16,3,13,0,0,0,0,200,2.5,8,0,0,0,0,0,0,0,0,0,0,0,0
2000,3,10,20,0,,5.6,-3.1,53,101320,0,0,291,0,0,0,0,0,0,0,230,2.5,8,0,0,0,0,0,0,0,0,0,0,0,0
2000,3,10,21,0,,5.4,-1.9,60,101360,0,0,291,0,0,0,0,0,0,0,200,1.8,8,0,0,0,0,0,0,0,0,0,0,0,0
2000,3,10,22,0,,4.2,-1.8,68,101370,0,0,287,0,0,0,0,0,0,0,200,1,8,0,0,0,0,0,0,0,0,0,0,0,0
2000,3,10,23,0,,1.6,-1.8,79,101390,0,0,276,0,0,0,0,0,0,0,340,0.4,8,0,0,0,0,0,0,0,0,0,0,0,0
2000,3,10,24,0,,2.2,-1.7,82,101400,0,0,279,0,0,0,0,0,0,0,360,1,8,0,0,0,0,0,0,0,0,0,0,0,0
2000,3,11,1,0,,0.9,-1.8,84,101380,0,0,270,0,0,0,0,0,0,0,320,0.4,7,0,0,0,0,0,0,0,0,0,0,0,0
2000,3,11,2,0,,0.2,-1.9,86,101360,0,0,265,0,0,0,0,0,0,0,360,1,7,0,0,0,0,0,0,0,0,0,0,0,0
2000,3,11,3,0,,-0.2,-2,87,101340,0,0,262,0,0,0,0,0,0,0,340,0.7,6,0,0,0,0,0,0,0,0,0,0,0,0
2000,3,11,4,0,,-1.2,-1.9,92,101290,0,0,260,0,0,0,0,0,0,0,0,0.1,7,0,0,0,0,0,0,0,0,0,0,0,0
2000,3,11,5,0,,-0.5,-1.9,91,101240,0,0,265,0,0,0,0,0,0,0,0,0.1,7,0,0,0,0,0,0,0,0,0,0,0,0
2000,3,11,6,0,,-0.5,-1.8,91,101190,0,0,268,0,0,0,0,0,0,0,360,0.7,8,0,0,0,0,0,0,0,0,0,0,0,0
2000,3,11,7,0,,-0.6,-1.5,91,101170,0,0,272,0,0,0,0,0,0,0,20,0.9,9,0,0,0,0,0,0,0,0,0,0,0,0
2000,3,11,8,0,,0.2,-1.2,88,101150,0,0,280,38,5,33,4194,486,3952,0,0,0,9,0,0,0,0,0,0,0,0,0,0,0,0
2000,3,11,9,0,,1.3,-0.9,85,101130,0,0,290,91,29,82,11353,2746,9621,0,340,0.6,10,0,0,0,0,0,0,0,0,0,0,0,0
2000,3,11,10,0,,2.7,-0.6,78,101070,0,0,296,163,38,144,19398,3678,16758,0,270,0.4,10,0,0,0,0,0,0,0,0,0,0,0,0
2000,3,11,11,0,,2.9,-0.2,80,101010,0,0,297,195,28,177,22590,2755,20513,0,0,0,10,0,0,0,0,0,0,0,0,0,0,0,0
2000,3,11,12,0,,3.5,0.1,78,100950,0,0,300,226,27,206,25655,2655,23703,0,360,0.6,10,0,0,0,0,0,0,0,0,0,0,0,0
2000,3,11,13,0,,4.3,0.6,75,100860,0,0,304,233,25,214,26118,2445,24493,0,0,0.2,10,0,0,0,0,0,0,0,0,0,0,0,0
2000,3,11,14,0,,4.7,1.2,75,100770,0,0,307,213,21,198,23697,1644,22798,0,0,0.2,10,0,0,0,0,0,0,0,0,0,0,0,0
2000,3,11,15,0,,5.2,1.7,78,100680,0,0,310,202,26,185,21300,1953,20542,0,160,1.6,10,0,0,0,0,0,0,0,0,0,0,0,0
2000,3,11,16,0,,5.5,1.7,78,100640,0,0,311,170,31,153,16470,1975,16072,0,160,2,10,0,0,0,0,0,0,0,0,0,0,0,0
2000,3,11,17,0,,5.4,1.8,78,100590,0,0,310,118,34,105,0,0,0,0,180,2.1,10,0,0,0,0,0,0,0,0,0,0,0,0
2000,3,11,18,0,,4.7,1.8,81,100550,0,0,308,45,18,42,0,0,0,0,180,1,10,0,0,0,0,0,0,0,0,0,0,0,0
2000,3,11,19,0,,4.6,1.6,83,100570,0,0,307,4,0,4,0,0,0,0,200,1.3,10,0,0,0,0,0,0,0,0,0,0,0,0
2000,3,11,20,0,,4.3,1.5,84,100580,0,0,305,0,0,0,0,0,0,0,70,0.7,10,0,0,0,0,0,0,0,0,0,0,0,0
2000,3,11,21,0,,3.1,1.3,88,100600,0,0,300,0,0,0,0,0,0,0,320,0.8,10,0,0,0,0,0,0,0,0,0,0,0,0
2000,3,11,22,0,,0.9,0.9,94,100600,0,0,291,0,0,0,0,0,0,0,20,0.9,10,0,0,0,0,0,0,0,0,0,0,0,0
2000,3,11,23,0,,0.7,0.4,95,100590,0,0,290,0,0,0,0,0,0,0,20,1.1,10,0,0,0,0,0,0,0,0,0,0,0,0
2000,3,11,24,0,,0.7,0,95,100590,0,0,289,0,0,0,0,0,0,0,270,0.9,10,0,0,0,0,0,0,0,0,0,0,0,0
2000,3,12,1,0,,0.5,0.1,96,100580,0,0,288,0,0,0,0,0,0,0,50,0.4,10,0,0,0,0,0,0,0,0,0,0,0,0
2000,3,12,2,0,,0.9,0.2,96,100570,0,0,290,0,0,0,0,0,0,0,320,0.9,10,0,0,0,0,0,0,0,0,0,0,0,0
2000,3,12,3,0,,1.1,0.3,94,100560,0,0,291,0,0,0,0,0,0,0,360,1.1,10,0,0,0,0,0,0,0,0,0,0,0,0
2000,3,12,4,0,,1.2,0.2,94,100580,0,0,291,0,0,0,0,0,0,0,20,0.8,10,0,0,0,0,0,0,0,0,0,0,0,0
2000,3,12,5,0,,1,0.2,94,100600,0,0,290,0,0,0,0,0,0,0,340,1.8,10,0,0,0,0,0,0,0,0,0,0,0,0
2000,3,12,6,0,,1.1,0.1,93,100620,0,0,291,0,0,0,0,0,0,0,340,2.2,10,0,0,0,0,0,0,0,0,0,0,0,0
2000,3,12,7,0,,1,0,92,100650,0,0,290,0,0,0,0,0,0,0,320,1.1,10,0,0,0,0,0,0,0,0,0,0,0,0
2000,3,12,8,0,,1.1,-0.1,92,100670,0,0,290,27,2,25,3399,94,3351,0,340,1.4,10,0,0,0,0,0,0,0,0,0,0,0,0
2000,3,12,9,0,,1.6,-0.2,88,100700,0,0,292,82,20,75,10133,1945,8897,0,340,0.4,10,0,0,0,0,0,0,0,0,0,0,0,0
2000,3,12,10,0,,1.9,-0.1,84,100660,0,0,275,254,127,191,32019,13076,22571,0,0,0,7,0,0,0,0,0,0,0,0,0,0,0,0
2000,3,12,11,0,,2.6,-0.1,80,100610,0,0,270,448,290,265,53411,29945,30712,0,0,0.1,4,0,0,0,0,0,0,0,0,0,0,0,0
2000,3,12,12,0,,5.4,0,71,100570,0,0,272,614,557,214,68572,55608,27442,0,340,0.6,1,0,0,0,0,0,0,0,0,0,0,0,0
2000,3,12,13,0,,9,-2,55,100480,0,0,283,729,760,156,72409,76421,21304,0,90,0.8,1,0,0,0,0,0,0,0,0,0,0,0,0
2000,3,12,14,0,,11.1,-4.1,29,100390,0,0,288,758,879,111,63437,86885,15642,0,200,2.8,0,0,0,0,0,0,0,0,0,0,0,0,0
2000,3,12,15,0,,11.1,-6.1,29,100300,0,0,284,671,851,104,45902,79257,14844,0,180,4.4,0,0,0,0,0,0,0,0,0,0,0,0,0
2000,3,12,16,0,,10.8,-6.3,34,100320,0,0,283,506,726,109,24684,51673,14101,0,230,4.3,0,0,0,0,0,0,0,0,0,0,0,0,0
2000,3,12,17,0,,10.6,-6.5,31,100350,0,0,282,340,666,81,7021,0,7021,0,200,3.4,0,0,0,0,0,0,0,0,0,0,0,0,0
2000,3,12,18,0,,9.4,-6.7,32,100370,0,0,277,166,606,44,0,0,0,0,200,3.3,0,0,0,0,0,0,0,0,0,0,0,0,0
2000,3,12,19,0,,7.8,-6.3,37,100450,0,0,271,34,18,16,0,0,0,0,230,2.5,0,0,0,0,0,0,0,0,0,0,0,0,0
2000,3,12,20,0,,6.6,-5.9,38,100530,0,0,266,0,0,0,0,0,0,0,200,2.3,0,0,0,0,0,0,0,0,0,0,0,0,0
2000,3,12,21,0,,5.7,-5.5,45,100610,0,0,263,0,0,0,0,0,0,0,200,2.4,0,0,0,0,0,0,0,0,0,0,0,0,0
2000,3,12,22,0,,4.5,-5.7,50,100670,0,0,258,0,0,0,0,0,0,0,250,3.7,0,0,0,0,0,0,0,0,0,0,0,0,0
2000,3,12,23,0,,3.6,-5.8,55,100740,0,0,255,0,0,0,0,0,0,0,230,2.1,0,0,0,0,0,0,0,0,0,0,0,0,0
2000,3,12,24,0,,2.1,-6,57,100800,0,0,249,0,0,0,0,0,0,0,110,0.9,0,0,0,0,0,0,0,0,0,0,0,0,0
2000,3,13,1,0,,1.5,-5.4,61,100870,0,0,247,0,0,0,0,0,0,0,110,1.1,0,0,0,0,0,0,0,0,0,0,0,0,0
2000,3,13,2,0,,1,-4.9,70,100930,0,0,246,0,0,0,0,0,0,0,160,1.5,0,0,0,0,0,0,0,0,0,0,0,0,0
2000,3,13,3,0,,-1.5,-4.3,80,101000,0,0,238,0,0,0,0,0,0,0,50,0.8,0,0,0,0,0,0,0,0,0,0,0,0,0
2000,3,13,4,0,,-2.5,-4.7,85,101040,0,0,234,0,0,0,0,0,0,0,0,0,0,0,0,0,0,0,0,0,0,0,0,0,0
2000,3,13,5,0,,-3.3,-5,86,101090,0,0,231,0,0,0,0,0,0,0,0,0,0,0,0,0,0,0,0,0,0,0,0,0,0
2000,3,13,6,0,,-4,-5.4,91,101130,0,0,229,0,0,0,0,0,0,0,0,0.1,0,0,0,0,0,0,0,0,0,0,0,0,0
2000,3,13,7,0,,-4.4,-4.7,93,101180,0,0,228,0,0,0,0,0,0,0,0,0,0,0,0,0,0,0,0,0,0,0,0,0,0
2000,3,13,8,0,,-3,-4.1,87,101240,0,0,233,96,55,41,8463,5521,5656,0,0,0,0,0,0,0,0,0,0,0,0,0,0,0,0
2000,3,13,9,0,,-0.5,-3.4,77,101290,0,0,243,266,550,83,47685,55975,11827,0,0,0.2,0,0,0,0,0,0,0,0,0,0,0,0,0
2000,3,13,10,0,,2.2,-4.2,66,101270,0,0,251,466,741,94,67344,74665,13042,0,340,1.3,0,0,0,0,0,0,0,0,0,0,0,0,0
2000,3,13,11,0,,5.5,-4.9,52,101240,0,0,263,628,825,105,77744,83233,14279,0,200,1.6,0,0,0,0,0,0,0,0,0,0,0,0,0
2000,3,13,12,0,,7.2,-5.7,39,101220,0,0,269,715,810,130,78302,82069,17253,0,200,1,0,0,0,0,0,0,0,0,0,0,0,0,0
2000,3,13,13,0,,9.4,-8.2,30,101140,0,0,275,763,833,132,73901,83491,17737,0,180,0.8,0,0,0,0,0,0,0,0,0,0,0,0,0
2000,3,13,14,0,,10.9,-10.7,22,101070,0,0,278,738,819,132,63342,81260,18337,0,200,1.7,0,0,0,0,0,0,0,0,0,0,0,0,0
2000,3,13,15,0,,11.8,-13.2,16,100990,0,0,279,654,796,122,45869,73875,16660,0,230,1.2,0,0,0,0,0,0,0,0,0,0,0,0,0
2000,3,13,16,0,,11.1,-12.2,21,101010,0,0,277,525,773,99,24763,56370,13028,0,290,4.3,0,0,0,0,0,0,0,0,0,0,0,0,0
2000,3,13,17,0,,10.9,-11.1,20,101020,0,0,278,357,726,72,6630,0,6630,0,230,4.1,0,0,0,0,0,0,0,0,0,0,0,0,0
2000,3,13,18,0,,9.8,-10.1,24,101040,0,0,275,171,623,43,0,0,0,0,230,2,0,0,0,0,0,0,0,0,0,0,0,0,0
2000,3,13,19,0,,8.3,-9.6,25,101100,0,0,270,36,20,16,0,0,0,0,250,2.2,0,0,0,0,0,0,0,0,0,0,0,0,0
2000,3,13,20,0,,7.1,-9.2,33,101170,0,0,265,0,0,0,0,0,0,0,250,3,0,0,0,0,0,0,0,0,0,0,0,0,0
2000,3,13,21,0,,6.2,-8.7,34,101230,0,0,262,0,0,0,0,0,0,0,230,2.8,0,0,0,0,0,0,0,0,0,0,0,0,0
2000,3,13,22,0,,4,-7.8,46,101270,0,0,254,0,0,0,0,0,0,0,70,0.8,0,0,0,0,0,0,0,0,0,0,0,0,0
2000,3,13,23,0,,2.2,-6.8,49,101300,0,0,248,0,0,0,0,0,0,0,140,1.2,0,0,0,0,0,0,0,0,0,0,0,0,0
2000,3,13,24,0,,-0.1,-5.9,70,101340,0,0,241,0,0,0,0,0,0,0,0,0.2,0,0,0,0,0,0,0,0,0,0,0,0,0
2000,3,14,1,0,,-1.2,-5.9,76,101350,0,0,238,0,0,0,0,0,0,0,0,0,0,0,0,0,0,0,0,0,0,0,0,0,0
2000,3,14,2,0,,-1.9,-5.8,76,101360,0,0,235,0,0,0,0,0,0,0,0,0,0,0,0,0,0,0,0,0,0,0,0,0,0
2000,3,14,3,0,,-2.2,-5.8,77,101370,0,0,234,0,0,0,0,0,0,0,0,0,0,0,0,0,0,0,0,0,0,0,0,0,0
2000,3,14,4,0,,-3,-6,81,101400,0,0,231,0,0,0,0,0,0,0,0,0,0,0,0,0,0,0,0,0,0,0,0,0,0
2000,3,14,5,0,,-3.6,-6.2,83,101440,0,0,229,0,0,0,0,0,0,0,0,0.2,0,0,0,0,0,0,0,0,0,0,0,0,0
2000,3,14,6,0,,-3.6,-6.4,82,101470,0,0,229,0,0,0,0,0,0,0,110,0.9,0,0,0,0,0,0,0,0,0,0,0,0,0
2000,3,14,7,0,,-4.5,-5.9,88,101500,0,0,227,6,1,5,720,31,709,0,0,0,0,0,0,0,0,0,0,0,0,0,0,0,0
2000,3,14,8,0,,-3.2,-5.5,75,101530,0,0,231,100,58,42,8803,5943,5752,0,320,0.4,0,0,0,0,0,0,0,0,0,0,0,0,0
2000,3,14,9,0,,-0.8,-5,66,101560,0,0,240,276,580,80,49581,59083,11442,0,320,0.3,0,0,0,0,0,0,0,0,0,0,0,0,0
2000,3,14,10,0,,3,-7.7,45,101500,0,0,251,490,807,81,70850,81327,11321,0,20,0.8,0,0,0,0,0,0,0,0,0,0,0,0,0
2000,3,14,11,0,,6.4,-10.3,30,101450,0,0,262,673,932,77,82732,93955,10674,0,340,0.7,0,0,0,0,0,0,0,0,0,0,0,0,0
2000,3,14,12,0,,9.6,-13,19,101390,0,0,271,778,952,86,83571,95791,11913,0,50,0.7,0,0,0,0,0,0,0,0,0,0,0,0,0
2000,3,14,13,0,,11.6,-14,16,101300,0,0,277,812,937,98,77002,93657,13630,0,320,0.8,0,0,0,0,0,0,0,0,0,0,0,0,0
2000,3,14,14,0,,12.2,-15,13,101220,0,0,277,760,862,119,63783,84818,16494,0,230,2.4,0,0,0,0,0,0,0,0,0,0,0,0,0
2000,3,14,15,0,,12.9,-16,12,101130,0,0,278,668,821,115,46528,76721,15926,0,230,3.8,0,0,0,0,0,0,0,0,0,0,0,0,0
2000,3,14,16,0,,12.6,-15.3,12,101140,0,0,278,521,750,105,25266,54902,13653,0,270,2.9,0,0,0,0,0,0,0,0,0,0,0,0,0
2000,3,14,17,0,,11.9,-14.7,13,101140,0,0,277,356,706,76,6968,0,6968,0,250,3.1,0,0,0,0,0,0,0,0,0,0,0,0,0
2000,3,14,18,0,,10.4,-14,17,101150,0,0,273,175,629,43,0,0,0,0,250,2.3,0,0,0,0,0,0,0,0,0,0,0,0,0
2000,3,14,19,0,,8.3,-11.6,21,101190,0,0,268,36,19,17,0,0,0,0,250,1.4,0,0,0,0,0,0,0,0,0,0,0,0,0
2000,3,14,20,0,,5.3,-9.3,44,101220,0,0,258,0,0,0,0,0,0,0,90,1.1,0,0,0,0,0,0,0,0,0,0,0,0,0
2000,3,14,21,0,,2.5,-6.9,53,101260,0,0,249,0,0,0,0,0,0,0,50,0.7,0,0,0,0,0,0,0,0,0,0,0,0,0
2000,3,14,22,0,,0.6,-6.8,55,101280,0,0,242,0,0,0,0,0,0,0,360,1,0,0,0,0,0,0,0,0,0,0,0,0,0
2000,3,14,23,0,,-0.4,-6.7,60,101310,0,0,240,0,0,0,0,0,0,0,320,0.8,0,0,0,0,0,0,0,0,0,0,0,0,0
2000,3,14,24,0,,-1.1,-6.6,66,101330,0,0,237,0,0,0,0,0,0,0,290,1,0,0,0,0,0,0,0,0,0,0,0,0,0
2000,3,15,1,0,,-1.8,-6.6,71,101330,0,0,235,0,0,0,0,0,0,0,250,0.5,0,0,0,0,0,0,0,0,0,0,0,0,0
2000,3,15,2,0,,-2.2,-6.6,77,101340,0,0,233,0,0,0,0,0,0,0,360,0.5,0,0,0,0,0,0,0,0,0,0,0,0,0
2000,3,15,3,0,,-2.2,-6.6,73,101340,0,0,233,0,0,0,0,0,0,0,340,0.4,0,0,0,0,0,0,0,0,0,0,0,0,0
2000,3,15,4,0,,-2.8,-6.4,81,101310,0,0,236,0,0,0,0,0,0,0,0,0,1,0,0,0,0,0,0,0,0,0,0,0,0
2000,3,15,5,0,,-3.1,-6.2,82,101280,0,0,238,0,0,0,0,0,0,0,0,0,2,0,0,0,0,0,0,0,0,0,0,0,0
2000,3,15,6,0,,-3.1,-6,78,101250,0,0,241,0,0,0,0,0,0,0,0,0.1,3,0,0,0,0,0,0,0,0,0,0,0,0
2000,3,15,7,0,,-3.5,-5.7,83,101240,0,0,243,6,1,5,758,24,750,0,290,0.9,5,0,0,0,0,0,0,0,0,0,0,0,0
2000,3,15,8,0,,-2.4,-5.5,77,101240,0,0,251,85,41,44,7864,4208,5682,0,20,0.5,6,0,0,0,0,0,0,0,0,0,0,0,0
2000,3,15,9,0,,-0.5,-5.2,67,101230,0,0,264,175,151,124,25603,15761,15353,0,0,0.1,8,0,0,0,0,0,0,0,0,0,0,0,0
2000,3,15,10,0,,1.3,-6.4,57,101120,0,0,265,341,273,201,45828,27927,25256,0,320,0.7,7,0,0,0,0,0,0,0,0,0,0,0,0
2000,3,15,11,0,,4,-7.6,43,101000,0,0,272,510,457,216,62884,46830,26761,0,320,1,6,0,0,0,0,0,0,0,0,0,0,0,0
2000,3,15,12,0,,7.2,-8.8,29,100890,0,0,282,660,641,191,73560,64843,24783,0,230,1.1,5,0,0,0,0,0,0,0,0,0,0,0,0
2000,3,15,13,0,,9.5,-9.8,26,100710,0,0,293,670,577,227,67652,58755,27667,0,20,0.8,6,0,0,0,0,0,0,0,0,0,0,0,0
2000,3,15,14,0,,10.8,-10.8,23,100520,0,0,301,588,411,280,54784,42188,31107,0,20,0.9,7,0,0,0,0,0,0,0,0,0,0,0,0
2000,3,15,15,0,,12.6,-11.8,17,100340,0,0,312,467,247,299,42137,23340,32746,0,270,0.3,8,0,0,0,0,0,0,0,0,0,0,0,0
2000,3,15,16,0,,12.5,-11.8,17,100310,0,0,315,312,153,227,27616,13391,24739,0,200,0.6,9,0,0,0,0,0,0,0,0,0,0,0,0
2000,3,15,17,0,,12.3,-11.9,18,100280,0,0,320,213,158,150,15549,11868,15413,0,230,1.7,9,0,0,0,0,0,0,0,0,0,0,0,0
2000,3,15,18,0,,11.8,-11.9,18,100250,0,0,324,76,63,63,0,0,0,0,200,1.1,10,0,0,0,0,0,0,0,0,0,0,0,0
2000,3,15,19,0,,11,-10.2,19,100200,0,0,323,13,1,12,0,0,0,0,160,1,10,0,0,0,0,0,0,0,0,0,0,0,0
2000,3,15,20,0,,9.3,-8.5,33,100150,0,0,317,0,0,0,0,0,0,0,230,2,10,0,0,0,0,0,0,0,0,0,0,0,0
2000,3,15,21,0,,9.9,-6.8,31,100100,0,0,322,0,0,0,0,0,0,0,250,3.4,10,0,0,0,0,0,0,0,0,0,0,0,0
2000,3,15,22,0,,9.2,-5.1,33,100050,0,0,320,0,0,0,0,0,0,0,250,1.6,10,0,0,0,0,0,0,0,0,0,0,0,0
2000,3,15,23,0,,7.4,-3.3,45,100000,0,0,314,0,0,0,0,0,0,0,340,2.7,10,0,0,0,0,0,0,0,0,0,0,0,0
2000,3,15,24,0,,6,-1.6,59,99950,0,0,309,0,0,0,0,0,0,0,340,2.9,10,0,0,0,0,0,0,0,0,0,0,0,0
2000,3,16,1,0,,5.3,-0.7,67,99900,0,0,307,0,0,0,0,0,0,0,340,1.2,10,0,0,0,0,0,0,0,0,0,0,0,0
2000,3,16,2,0,,4.8,0.1,74,99860,0,0,306,0,0,0,0,0,0,0,340,1.9,10,0,0,0,0,0,0,0,0,0,0,0,0
2000,3,16,3,0,,3.8,1,84,99810,0,0,303,0,0,0,0,0,0,0,20,1,10,0,0,0,0,0,0,0,0,0,0,0,0
2000,3,16,4,0,,3.4,1.1,86,99760,0,0,301,0,0,0,0,0,0,0,0,0,10,0,0,0,0,0,0,0,0,0,0,0,0
2000,3,16,5,0,,3.1,1.1,90,99710,0,0,300,0,0,0,0,0,0,0,0,0.1,10,0,0,0,0,0,0,0,0,0,0,0,0
2000,3,16,6,0,,2.5,1.2,94,99660,0,0,298,0,0,0,0,0,0,0,340,1.1,10,0,0,0,0,0,0,0,0,0,0,0,0
2000,3,16,7,0,,2.6,1.5,94,99680,0,0,298,0,0,0,0,0,0,0,90,0.6,10,0,0,0,0,0,0,0,0,0,0,0,0
2000,3,16,8,0,,3.1,1.7,92,99690,0,0,301,35,19,32,5270,1902,4274,0,340,1.2,10,0,0,0,0,0,0,0,0,0,0,0,0
2000,3,16,9,0,,3.7,2,88,99710,0,0,304,96,26,87,11839,2467,10223,0,320,0.3,10,0,0,0,0,0,0,0,0,0,0,0,0
2000,3,16,10,0,,4.8,1.5,79,99720,0,0,297,212,67,178,26241,6876,21144,0,0,0.2,9,0,0,0,0,0,0,0,0,0,0,0,0
2000,3,16,11,0,,6.7,0.9,64,99740,0,0,297,406,190,282,47717,19642,32480,0,200,0.5,7,0,0,0,0,0,0,0,0,0,0,0,0
2000,3,16,12,0,,8.2,0.4,58,99750,0,0,298,531,266,335,58410,27384,37697,0,200,0.7,6,0,0,0,0,0,0,0,0,0,0,0,0
2000,3,16,13,0,,8.4,-0.1,55,99760,0,0,300,508,195,357,53621,19752,40103,0,200,2.3,7,0,0,0,0,0,0,0,0,0,0,0,0
2000,3,16,14,0,,8,-0.5,52,99780,0,0,301,467,168,341,47417,16621,38030,0,200,2.7,7,0,0,0,0,0,0,0,0,0,0,0,0
2000,3,16,15,0,,9.1,-1,48,99790,0,0,309,384,137,291,37599,13194,32245,0,230,4,8,0,0,0,0,0,0,0,0,0,0,0,0
2000,3,16,16,0,,8.3,-2,48,99860,0,0,299,358,222,233,28782,16246,25239,0,230,4.6,7,0,0,0,0,0,0,0,0,0,0,0,0
2000,3,16,17,0,,8.3,-3,42,99920,0,0,295,285,371,135,12476,0,12476,0,250,4,6,0,0,0,0,0,0,0,0,0,0,0,0
2000,3,16,18,0,,8,-4,44,99990,0,0,290,147,366,68,0,0,0,0,230,1.1,5,0,0,0,0,0,0,0,0,0,0,0,0
2000,3,16,19,0,,7.1,-3.5,51,100070,0,0,286,32,16,16,0,0,0,0,0,0,5,0,0,0,0,0,0,0,0,0,0,0,0
2000,3,16,20,0,,4.4,-2.9,67,100160,0,0,275,0,0,0,0,0,0,0,0,0.1,4,0,0,0,0,0,0,0,0,0,0,0,0
2000,3,16,21,0,,1.9,-2.4,81,100240,0,0,265,0,0,0,0,0,0,0,320,1,4,0,0,0,0,0,0,0,0,0,0,0,0
2000,3,16,22,0,,0.6,-2.5,85,100300,0,0,257,0,0,0,0,0,0,0,50,0.4,3,0,0,0,0,0,0,0,0,0,0,0,0
2000,3,16,23,0,,-0.2,-2.6,86,100360,0,0,250,0,0,0,0,0,0,0,0,0,1,0,0,0,0,0,0,0,0,0,0,0,0
2000,3,16,24,0,,-0.9,-2.7,89,100420,0,0,242,0,0,0,0,0,0,0,0,0.2,0,0,0,0,0,0,0,0,0,0,0,0,0
2000,3,17,1,0,,-1.9,-3,91,100480,0,0,238,0,0,0,0,0,0,0,360,0.6,0,0,0,0,0,0,0,0,0,0,0,0,0
2000,3,17,2,0,,-2.7,-3.4,92,100550,0,0,235,0,0,0,0,0,0,0,0,0.1,0,0,0,0,0,0,0,0,0,0,0,0,0
2000,3,17,3,0,,-2.8,-3.7,93,100610,0,0,235,0,0,0,0,0,0,0,0,0.1,0,0,0,0,0,0,0,0,0,0,0,0,0
2000,3,17,4,0,,-2.8,-3.9,92,100670,0,0,234,0,0,0,0,0,0,0,0,0.2,0,0,0,0,0,0,0,0,0,0,0,0,0
2000,3,17,5,0,,-3.2,-4.2,93,100730,0,0,233,0,0,0,0,0,0,0,360,0.7,0,0,0,0,0,0,0,0,0,0,0,0,0
2000,3,17,6,0,,-3.5,-4.4,94,100790,0,0,232,0,0,0,0,0,0,0,0,0,0,0,0,0,0,0,0,0,0,0,0,0,0
2000,3,17,7,0,,-4,-3.7,93,100860,0,0,231,11,3,8,1129,266,1033,0,50,0.3,0,0,0,0,0,0,0,0,0,0,0,0,0
2000,3,17,8,0,,-2.8,-3,90,100920,0,0,235,109,385,48,27948,38921,7378,0,340,0.3,0,0,0,0,0,0,0,0,0,0,0,0,0
2000,3,17,9,0,,-0.6,-2.3,80,100990,0,0,243,276,515,94,48940,52575,14238,0,0,0.2,0,0,0,0,0,0,0,0,0,0,0,0,0
2000,3,17,10,0,,2.5,-3.5,63,100950,0,0,253,477,711,106,68509,72646,14325,0,320,1,0,0,0,0,0,0,0,0,0,0,0,0,0
2000,3,17,11,0,,6,-4.7,46,100920,0,0,265,652,834,107,80167,84232,14458,0,360,0.9,0,0,0,0,0,0,0,0,0,0,0,0,0
2000,3,17,12,0,,10,-5.9,32,100880,0,0,280,788,939,93,84828,94799,12739,0,110,1.4,0,0,0,0,0,0,0,0,0,0,0,0,0
2000,3,17,13,0,,11.6,-6.5,27,100810,0,0,288,821,924,104,78353,92770,14505,0,200,3.2,0,0,0,0,0,0,0,0,0,0,0,0,0
2000,3,17,14,0,,12.8,-7.1,21,100730,0,0,294,781,880,116,65617,87044,16138,0,180,4,1,0,0,0,0,0,0,0,0,0,0,0,0
2000,3,17,15,0,,13.5,-7.7,22,100660,0,0,298,664,777,131,47440,72314,17849,0,200,3.4,1,0,0,0,0,0,0,0,0,0,0,0,0
2000,3,17,16,0,,13.9,-7.8,22,100660,0,0,299,541,779,101,26335,58431,13399,0,230,4.6,1,0,0,0,0,0,0,0,0,0,0,0,0
2000,3,17,17,0,,14.2,-8,23,100650,0,0,300,375,746,72,7100,0,7100,0,200,2.8,1,0,0,0,0,0,0,0,0,0,0,0,0
2000,3,17,18,0,,12,-8.1,24,100650,0,0,291,185,647,44,0,0,0,0,200,2.4,1,0,0,0,0,0,0,0,0,0,0,0,0
2000,3,17,19,0,,12.4,-6.7,30,100710,0,0,293,42,26,16,0,0,0,0,180,1.5,1,0,0,0,0,0,0,0,0,0,0,0,0
2000,3,17,20,0,,11.5,-5.2,35,100780,0,0,289,0,0,0,0,0,0,0,200,2.6,0,0,0,0,0,0,0,0,0,0,0,0,0
2000,3,17,21,0,,7.2,-3.8,50,100840,0,0,271,0,0,0,0,0,0,0,0,0.2,0,0,0,0,0,0,0,0,0,0,0,0,0
2000,3,17,22,0,,6.5,-3.6,52,100870,0,0,268,0,0,0,0,0,0,0,110,1.5,0,0,0,0,0,0,0,0,0,0,0,0,0
2000,3,17,23,0,,4.9,-3.3,57,100900,0,0,262,0,0,0,0,0,0,0,110,0.9,0,0,0,0,0,0,0,0,0,0,0,0,0
2000,3,17,24,0,,4.8,-3.1,56,100930,0,0,262,0,0,0,0,0,0,0,110,1.3,0,0,0,0,0,0,0,0,0,0,0,0,0
2000,3,18,1,0,,4.9,-2.7,58,100950,0,0,272,0,0,0,0,0,0,0,140,1,2,0,0,0,0,0,0,0,0,0,0,0,0
2000,3,18,2,0,,2.3,-2.3,74,100970,0,0,268,0,0,0,0,0,0,0,70,0.5,5,0,0,0,0,0,0,0,0,0,0,0,0
2000,3,18,3,0,,2.2,-1.9,76,100990,0,0,274,0,0,0,0,0,0,0,0,0.2,7,0,0,0,0,0,0,0,0,0,0,0,0
2000,3,18,4,0,,2,-1.5,77,100990,0,0,275,0,0,0,0,0,0,0,90,0.3,7,0,0,0,0,0,0,0,0,0,0,0,0
2000,3,18,5,0,,2.3,-1.2,77,100980,0,0,278,0,0,0,0,0,0,0,0,0,8,0,0,0,0,0,0,0,0,0,0,0,0
2000,3,18,6,0,,2.5,-0.8,79,100980,0,0,281,0,0,0,0,0,0,0,0,0,8,0,0,0,0,0,0,0,0,0,0,0,0
2000,3,18,7,0,,2.2,-0.6,84,100990,0,0,274,8,1,7,1002,36,989,0,320,1.1,7,0,0,0,0,0,0,0,0,0,0,0,0
2000,3,18,8,0,,2.7,-0.3,80,101010,0,0,273,101,341,45,25426,34611,6961,0,0,0,5,0,0,0,0,0,0,0,0,0,0,0,0
2000,3,18,9,0,,5.4,-0.1,65,101020,0,0,281,273,479,101,47588,48833,15121,0,340,1.1,4,0,0,0,0,0,0,0,0,0,0,0,0
2000,3,18,10,0,,9.9,-2.2,43,100950,0,0,297,481,708,108,68889,72402,14556,0,360,0.5,4,0,0,0,0,0,0,0,0,0,0,0,0
2000,3,18,11,0,,11.8,-4.3,29,100870,0,0,302,662,846,104,81196,85457,14163,0,180,2.3,3,0,0,0,0,0,0,0,0,0,0,0,0
2000,3,18,12,0,,13.3,-6.4,25,100800,0,0,305,746,823,132,81188,83496,17357,0,200,2.3,3,0,0,0,0,0,0,0,0,0,0,0,0
2000,3,18,13,0,,14.7,-6.6,22,100710,0,0,313,717,661,201,71533,66022,25844,0,180,3.1,4,0,0,0,0,0,0,0,0,0,0,0,0
2000,3,18,14,0,,14.3,-6.9,21,100630,0,0,314,656,556,233,59568,55285,27945,0,200,4.8,5,0,0,0,0,0,0,0,0,0,0,0,0
2000,3,18,15,0,,14.4,-7.1,22,100540,0,0,317,539,425,246,44199,40693,27410,0,230,5.2,6,0,0,0,0,0,0,0,0,0,0,0,0
2000,3,18,16,0,,15.7,-7.1,21,100510,0,0,325,397,293,230,29815,22066,24857,0,200,3.2,7,0,0,0,0,0,0,0,0,0,0,0,0
2000,3,18,17,0,,14.9,-7.2,19,100480,0,0,324,277,329,142,13983,715,13968,0,200,2.6,7,0,0,0,0,0,0,0,0,0,0,0,0
2000,3,18,18,0,,13.2,-7.2,23,100450,0,0,320,122,217,74,0,0,0,0,230,2.9,8,0,0,0,0,0,0,0,0,0,0,0,0
2000,3,18,19,0,,12.7,-6.5,26,100450,0,0,311,33,15,18,0,0,0,0,200,2.3,6,0,0,0,0,0,0,0,0,0,0,0,0
2000,3,18,20,0,,11.5,-5.8,34,100440,0,0,302,0,0,0,0,0,0,0,230,2,5,0,0,0,0,0,0,0,0,0,0,0,0
2000,3,18,21,0,,11,-5.1,33,100440,0,0,297,0,0,0,0,0,0,0,160,1.2,3,0,0,0,0,0,0,0,0,0,0,0,0
2000,3,18,22,0,,10.8,-2.9,36,100450,0,0,302,0,0,0,0,0,0,0,200,2.6,5,0,0,0,0,0,0,0,0,0,0,0,0
2000,3,18,23,0,,10.5,-0.8,48,100460,0,0,308,0,0,0,0,0,0,0,180,2.1,6,0,0,0,0,0,0,0,0,0,0,0,0
2000,3,18,24,0,,10.4,1.4,54,100470,0,0,317,0,0,0,0,0,0,0,180,3,8,0,0,0,0,0,0,0,0,0,0,0,0
2000,3,19,1,0,,10.5,2,53,100410,0,0,322,0,0,0,0,0,0,0,200,3.6,9,0,0,0,0,0,0,0,0,0,0,0,0
2000,3,19,2,0,,10.1,2.7,58,100340,0,0,327,0,0,0,0,0,0,0,200,2.2,9,0,0,0,0,0,0,0,0,0,0,0,0
2000,3,19,3,0,,9.6,3.3,66,100280,0,0,331,0,0,0,0,0,0,0,180,2.7,10,0,0,0,0,0,0,0,0,0,0,0,0
2000,3,19,4,0,,8.8,3.3,71,100240,0,0,328,0,0,0,0,0,0,0,180,4.7,10,0,0,0,0,0,0,0,0,0,0,0,0
2000,3,19,5,0,,8.5,3.3,70,100210,0,0,326,0,0,0,0,0,0,0,180,2.1,10,0,0,0,0,0,0,0,0,0,0,0,0
2000,3,19,6,0,,7.8,3.3,74,100170,0,0,323,0,0,0,0,0,0,0,180,3.5,10,0,0,0,0,0,0,0,0,0,0,0,0
2000,3,19,7,0,,7.1,2.5,74,100210,0,0,319,1,0,1,97,0,97,0,180,0.9,10,0,0,0,0,0,0,0,0,0,0,0,0
2000,3,19,8,0,,6.4,1.8,73,100260,0,0,315,42,23,38,6205,2306,4963,0,230,3.3,10,0,0,0,0,0,0,0,0,0,0,0,0
2000,3,19,9,0,,6.6,1,67,100300,0,0,315,105,29,94,12978,2808,11098,0,200,2.2,10,0,0,0,0,0,0,0,0,0,0,0,0
2000,3,19,10,0,,6.5,1.3,68,100360,0,0,315,161,28,146,19065,2737,16999,0,200,2.9,10,0,0,0,0,0,0,0,0,0,0,0,0
2000,3,19,11,0,,6.4,1.7,69,100430,0,0,315,207,27,189,23922,2633,21846,0,200,2.8,10,0,0,0,0,0,0,0,0,0,0,0,0
2000,3,19,12,0,,5.4,2,83,100490,0,0,311,200,16,188,23682,1171,22783,0,360,1.2,10,0,0,0,0,0,0,0,0,0,0,0,0
2000,3,19,13,0,,7,1.3,73,100480,0,0,317,264,30,240,29523,2982,27448,0,140,2.6,10,0,0,0,0,0,0,0,0,0,0,0,0
2000,3,19,14,0,,9.1,0.7,54,100470,0,0,326,282,40,252,30746,3886,28509,0,200,1.9,10,0,0,0,0,0,0,0,0,0,0,0,0
2000,3,19,15,0,,9.6,0,52,100460,0,0,327,286,58,246,29839,5502,27551,0,230,1.5,10,0,0,0,0,0,0,0,0,0,0,0,0
2000,3,19,16,0,,8.2,0.3,67,100530,0,0,308,323,154,235,28823,13483,25750,0,50,4.1,8,0,0,0,0,0,0,0,0,0,0,0,0
2000,3,19,17,0,,6.7,0.5,69,100610,0,0,294,225,166,156,16596,11801,16310,0,70,3.5,7,0,0,0,0,0,0,0,0,0,0,0,0
2000,3,19,18,0,,6.2,0.8,70,100680,0,0,287,138,307,69,0,0,0,0,50,3.4,5,0,0,0,0,0,0,0,0,0,0,0,0
2000,3,19,19,0,,5.4,0.4,75,100770,0,0,280,36,20,16,0,0,0,0,50,2.1,3,0,0,0,0,0,0,0,0,0,0,0,0
2000,3,19,20,0,,3.7,0.1,85,100860,0,0,268,0,0,0,0,0,0,0,360,1,2,0,0,0,0,0,0,0,0,0,0,0,0
2000,3,19,21,0,,2.3,-0.3,89,100950,0,0,256,0,0,0,0,0,0,0,20,0.7,0,0,0,0,0,0,0,0,0,0,0,0,0
2000,3,19,22,0,,1,-0.7,94,101000,0,0,251,0,0,0,0,0,0,0,0,0.2,0,0,0,0,0,0,0,0,0,0,0,0,0
2000,3,19,23,0,,0.2,-1.1,94,101040,0,0,247,0,0,0,0,0,0,0,250,0.8,0,0,0,0,0,0,0,0,0,0,0,0,0
2000,3,19,24,0,,-0.6,-1.5,96,101090,0,0,244,0,0,0,0,0,0,0,290,1.1,0,0,0,0,0,0,0,0,0,0,0,0,0
2000,3,20,1,0,,-1.2,-1.3,95,101120,0,0,252,0,0,0,0,0,0,0,320,0.9,3,0,0,0,0,0,0,0,0,0,0,0,0
2000,3,20,2,0,,-1,-1.2,96,101160,0,0,259,0,0,0,0,0,0,0,340,1.1,5,0,0,0,0,0,0,0,0,0,0,0,0
2000,3,20,3,0,,-0.5,-1,95,101190,0,0,269,0,0,0,0,0,0,0,90,1.1,8,0,0,0,0,0,0,0,0,0,0,0,0
2000,3,20,4,0,,0,-0.8,95,101240,0,0,275,0,0,0,0,0,0,0,340,1.1,9,0,0,0,0,0,0,0,0,0,0,0,0
2000,3,20,5,0,,0.2,-0.5,96,101280,0,0,281,0,0,0,0,0,0,0,340,1.4,9,0,0,0,0,0,0,0,0,0,0,0,0
2000,3,20,6,0,,0.4,-0.3,95,101330,0,0,287,0,0,0,0,0,0,0,70,1,10,0,0,0,0,0,0,0,0,0,0,0,0
2000,3,20,7,0,,0.5,-0.3,95,101370,0,0,288,1,0,1,187,0,187,0,90,1,10,0,0,0,0,0,0,0,0,0,0,0,0
2000,3,20,8,0,,0.8,-0.2,93,101410,0,0,289,38,16,35,5005,1459,4212,0,140,0.9,10,0,0,0,0,0,0,0,0,0,0,0,0
2000,3,20,9,0,,1.2,-0.2,91,101450,0,0,291,93,20,86,11379,1904,10095,0,110,1,10,0,0,0,0,0,0,0,0,0,0,0,0
2000,3,20,10,0,,1.9,0.1,87,101400,0,0,277,284,133,212,35329,13683,24937,0,360,0.6,7,0,0,0,0,0,0,0,0,0,0,0,0
2000,3,20,11,0,,4.2,0.4,74,101360,0,0,278,495,315,285,58558,32563,32739,0,290,1.4,5,0,0,0,0,0,0,0,0,0,0,0,0
2000,3,20,12,0,,7.1,0.7,63,101310,0,0,283,678,630,203,75248,63283,26364,0,160,0.9,2,0,0,0,0,0,0,0,0,0,0,0,0
2000,3,20,13,0,,9.7,-0.7,55,101190,0,0,292,761,748,171,75556,75156,22985,0,160,1.3,2,0,0,0,0,0,0,0,0,0,0,0,0
2000,3,20,14,0,,11.6,-2,40,101070,0,0,297,758,791,150,65751,78196,20473,0,90,1.2,1,0,0,0,0,0,0,0,0,0,0,0,0
2000,3,20,15,0,,12.5,-3.4,33,100950,0,0,298,677,781,133,48734,72891,18174,0,200,2.3,1,0,0,0,0,0,0,0,0,0,0,0,0
2000,3,20,16,0,,13.1,-4.2,30,100930,0,0,298,541,745,112,27701,56233,14705,0,180,0.9,1,0,0,0,0,0,0,0,0,0,0,0,0
2000,3,20,17,0,,13.1,-5.1,30,100900,0,0,295,377,714,79,8058,1559,8015,0,180,2.2,0,0,0,0,0,0,0,0,0,0,0,0,0
2000,3,20,18,0,,12.4,-5.9,28,100880,0,0,290,194,653,46,0,0,0,0,180,2.4,0,0,0,0,0,0,0,0,0,0,0,0,0
2000,3,20,19,0,,10.6,-5.6,36,100920,0,0,291,44,25,19,0,0,0,0,230,2.7,2,0,0,0,0,0,0,0,0,0,0,0,0
2000,3,20,20,0,,8.7,-5.3,44,100950,0,0,288,0,0,0,0,0,0,0,230,1.3,3,0,0,0,0,0,0,0,0,0,0,0,0
2000,3,20,21,0,,8.9,-5,37,100990,0,0,293,0,0,0,0,0,0,0,180,1.7,5,0,0,0,0,0,0,0,0,0,0,0,0
2000,3,20,22,0,,8.5,-4.2,45,100990,0,0,294,0,0,0,0,0,0,0,180,2,6,0,0,0,0,0,0,0,0,0,0,0,0
2000,3,20,23,0,,7.9,-3.4,48,100980,0,0,296,0,0,0,0,0,0,0,160,1,7,0,0,0,0,0,0,0,0,0,0,0,0
2000,3,20,24,0,,5.8,-2.6,59,100980,0,0,292,0,0,0,0,0,0,0,110,0.4,8,0,0,0,0,0,0,0,0,0,0,0,0
2000,3,21,1,0,,4.1,-2.2,73,100990,0,0,281,0,0,0,0,0,0,0,0,0.1,7,0,0,0,0,0,0,0,0,0,0,0,0
2000,3,21,2,0,,3.1,-1.9,76,101010,0,0,274,0,0,0,0,0,0,0,50,1.1,6,0,0,0,0,0,0,0,0,0,0,0,0
2000,3,21,3,0,,2.2,-1.5,81,101020,0,0,269,0,0,0,0,0,0,0,360,1.4,5,0,0,0,0,0,0,0,0,0,0,0,0
2000,3,21,4,0,,1.5,-1.4,82,101020,0,0,271,0,0,0,0,0,0,0,360,0.9,7,0,0,0,0,0,0,0,0,0,0,0,0
2000,3,21,5,0,,1.5,-1.4,83,101030,0,0,278,0,0,0,0,0,0,0,0,0,8,0,0,0,0,0,0,0,0,0,0,0,0
2000,3,21,6,0,,1.2,-1.3,85,101030,0,0,289,0,0,0,0,0,0,0,340,0.7,10,0,0,0,0,0,0,0,0,0,0,0,0
2000,3,21,7,0,,1,-1.3,85,101040,0,0,278,6,0,5,771,7,769,0,340,1.3,9,0,0,0,0,0,0,0,0,0,0,0,0
2000,3,21,8,0,,1.7,-1.3,81,101040,0,0,274,88,161,59,17833,15948,9088,0,320,0.6,7,0,0,0,0,0,0,0,0,0,0,0,0
2000,3,21,9,0,,4.2,-1.3,63,101050,0,0,279,253,349,122,40876,35275,16922,0,360,1.1,6,0,0,0,0,0,0,0,0,0,0,0,0
2000,3,21,10,0,,7.1,-2.7,48,101020,0,0,291,420,458,172,58520,46430,23051,0,290,0.9,6,0,0,0,0,0,0,0,0,0,0,0,0
2000,3,21,11,0,,7.9,-4.2,45,101000,0,0,294,488,292,292,57452,30586,33072,0,290,0.7,7,0,0,0,0,0,0,0,0,0,0,0,0
2000,3,21,12,0,,8.6,-5.6,37,100970,0,0,297,527,232,352,58063,23979,39447,0,50,0.6,7,0,0,0,0,0,0,0,0,0,0,0,0
2000,3,21,13,0,,10.2,-6.3,31,100890,0,0,302,543,215,373,56986,22046,41483,0,230,0.5,7,0,0,0,0,0,0,0,0,0,0,0,0
2000,3,21,14,0,,11.7,-6.9,23,100810,0,0,306,609,410,293,57071,41984,32616,0,90,1.3,6,0,0,0,0,0,0,0,0,0,0,0,0
2000,3,21,15,0,,12.2,-7.6,24,100730,0,0,307,549,425,251,45266,41001,27941,0,290,0.6,6,0,0,0,0,0,0,0,0,0,0,0,0
2000,3,21,16,0,,13.3,-7.8,21,100750,0,0,306,507,630,142,28224,48498,16860,0,110,1.1,4,0,0,0,0,0,0,0,0,0,0,0,0
2000,3,21,17,0,,13.5,-7.9,22,100760,0,0,301,373,687,85,8577,11155,8236,0,200,0.6,2,0,0,0,0,0,0,0,0,0,0,0,0
2000,3,21,18,0,,12.6,-8.1,24,100780,0,0,288,202,685,43,0,0,0,0,200,1.5,0,0,0,0,0,0,0,0,0,0,0,0,0
2000,3,21,19,0,,9.1,-7,41,100850,0,0,275,43,23,21,0,0,0,0,270,1.2,0,0,0,0,0,0,0,0,0,0,0,0,0
2000,3,21,20,0,,6.2,-5.8,51,100930,0,0,265,0,0,0,0,0,0,0,0,0,0,0,0,0,0,0,0,0,0,0,0,0,0
2000,3,21,21,0,,4,-4.7,53,101000,0,0,257,0,0,0,0,0,0,0,0,0.1,0,0,0,0,0,0,0,0,0,0,0,0,0
2000,3,21,22,0,,1.9,-4.4,64,101090,0,0,250,0,0,0,0,0,0,0,70,0.6,0,0,0,0,0,0,0,0,0,0,0,0,0
2000,3,21,23,0,,1.2,-4.2,69,101190,0,0,247,0,0,0,0,0,0,0,340,0.5,0,0,0,0,0,0,0,0,0,0,0,0,0
2000,3,21,24,0,,0.7,-3.9,71,101280,0,0,246,0,0,0,0,0,0,0,360,0.4,0,0,0,0,0,0,0,0,0,0,0,0,0
2000,3,22,1,0,,0.3,-3.7,75,101360,0,0,245,0,0,0,0,0,0,0,360,1.2,0,0,0,0,0,0,0,0,0,0,0,0,0
2000,3,22,2,0,,0.4,-3.5,75,101440,0,0,245,0,0,0,0,0,0,0,290,1.1,0,0,0,0,0,0,0,0,0,0,0,0,0
2000,3,22,3,0,,0.2,-3.3,78,101520,0,0,245,0,0,0,0,0,0,0,340,2.2,0,0,0,0,0,0,0,0,0,0,0,0,0
2000,3,22,4,0,,0.1,-3.3,78,101540,0,0,244,0,0,0,0,0,0,0,340,3.2,0,0,0,0,0,0,0,0,0,0,0,0,0
2000,3,22,5,0,,-0.1,-3.3,82,101570,0,0,244,0,0,0,0,0,0,0,340,2.8,0,0,0,0,0,0,0,0,0,0,0,0,0
2000,3,22,6,0,,-0.7,-3.3,85,101590,0,0,242,0,0,0,0,0,0,0,340,1.8,0,0,0,0,0,0,0,0,0,0,0,0,0
2000,3,22,7,0,,-0.5,-2.6,84,101630,0,0,243,23,12,11,1995,1138,1556,0,320,2,0,0,0,0,0,0,0,0,0,0,0,0,0
2000,3,22,8,0,,1.5,-1.8,78,101670,0,0,251,142,515,47,35386,51367,6967,0,290,1.3,0,0,0,0,0,0,0,0,0,0,0,0,0
2000,3,22,9,0,,4.5,-1.1,64,101710,0,0,263,330,665,78,56943,67062,11090,0,320,1,0,0,0,0,0,0,0,0,0,0,0,0,0
2000,3,22,10,0,,7.6,-1.2,52,101660,0,0,275,529,800,91,74824,81066,12538,0,250,0.9,0,0,0,0,0,0,0,0,0,0,0,0,0
2000,3,22,11,0,,10.4,-1.3,44,101610,0,0,286,683,847,108,83352,85821,14588,0,230,1.5,0,0,0,0,0,0,0,0,0,0,0,0,0
2000,3,22,12,0,,11.3,-1.4,40,101560,0,0,289,747,779,152,81129,78719,19708,0,270,1.9,0,0,0,0,0,0,0,0,0,0,0,0,0
2000,3,22,13,0,,13.2,-1.7,33,101450,0,0,297,773,755,171,76650,75953,22966,0,200,2.1,0,0,0,0,0,0,0,0,0,0,0,0,0
2000,3,22,14,0,,13.9,-2,30,101350,0,0,300,725,690,189,64115,67416,24615,0,250,2.2,0,0,0,0,0,0,0,0,0,0,0,0,0
2000,3,22,15,0,,15.7,-2.3,28,101240,0,0,307,675,755,143,49294,70382,19323,0,290,2.2,0,0,0,0,0,0,0,0,0,0,0,0,0
2000,3,22,16,0,,16.9,-2.5,25,101160,0,0,322,536,707,123,28143,54439,15215,0,230,0.9,2,0,0,0,0,0,0,0,0,0,0,0,0
2000,3,22,17,0,,16.7,-2.8,23,101080,0,0,327,364,639,94,9497,10448,9144,0,230,2,4,0,0,0,0,0,0,0,0,0,0,0,0
2000,3,22,18,0,,15.2,-3,29,101000,0,0,325,160,362,75,0,0,0,0,200,2.2,6,0,0,0,0,0,0,0,0,0,0,0,0
2000,3,22,19,0,,14.4,-2.2,28,101000,0,0,321,42,19,23,0,0,0,0,160,3.5,5,0,0,0,0,0,0,0,0,0,0,0,0
2000,3,22,20,0,,13.6,-1.5,32,101010,0,0,316,0,0,0,0,0,0,0,160,0.9,5,0,0,0,0,0,0,0,0,0,0,0,0
2000,3,22,21,0,,9.9,-0.7,53,101010,0,0,299,0,0,0,0,0,0,0,320,0.8,4,0,0,0,0,0,0,0,0,0,0,0,0
2000,3,22,22,0,,8.4,-1,54,101040,0,0,296,0,0,0,0,0,0,0,230,0.9,6,0,0,0,0,0,0,0,0,0,0,0,0
2000,3,22,23,0,,9,-1.2,62,101070,0,0,304,0,0,0,0,0,0,0,180,2.2,7,0,0,0,0,0,0,0,0,0,0,0,0
2000,3,22,24,0,,10.3,-1.5,44,101100,0,0,320,0,0,0,0,0,0,0,180,2.6,9,0,0,0,0,0,0,0,0,0,0,0,0
2000,3,23,1,0,,9.6,-1.3,48,101030,0,0,320,0,0,0,0,0,0,0,160,2.4,9,0,0,0,0,0,0,0,0,0,0,0,0
2000,3,23,2,0,,9.2,-1,50,100950,0,0,321,0,0,0,0,0,0,0,180,2.5,10,0,0,0,0,0,0,0,0,0,0,0,0
2000,3,23,3,0,,8.8,-0.8,51,100880,0,0,323,0,0,0,0,0,0,0,140,2.5,10,0,0,0,0,0,0,0,0,0,0,0,0
2000,3,23,4,0,,8.5,-0.2,55,100790,0,0,322,0,0,0,0,0,0,0,160,2.4,10,0,0,0,0,0,0,0,0,0,0,0,0
2000,3,23,5,0,,8.1,0.4,56,100700,0,0,321,0,0,0,0,0,0,0,140,2.6,10,0,0,0,0,0,0,0,0,0,0,0,0
2000,3,23,6,0,,8,1,62,100610,0,0,321,0,0,0,0,0,0,0,160,2,10,0,0,0,0,0,0,0,0,0,0,0,0
2000,3,23,7,0,,7.9,1.8,71,100570,0,0,322,6,0,5,760,8,757,0,160,2.5,10,0,0,0,0,0,0,0,0,0,0,0,0
2000,3,23,8,0,,7.9,2.6,76,100540,0,0,323,50,26,45,7257,2643,5782,0,180,2.2,10,0,0,0,0,0,0,0,0,0,0,0,0
2000,3,23,9,0,,7.9,3.4,74,100500,0,0,324,117,33,104,14458,3198,12256,0,160,3.2,10,0,0,0,0,0,0,0,0,0,0,0,0
2000,3,23,10,0,,8.1,3.3,62,100430,0,0,325,185,37,165,21877,3552,19133,0,180,3.1,10,0,0,0,0,0,0,0,0,0,0,0,0
2000,3,23,11,0,,7,3.2,73,100370,0,0,319,207,25,190,23918,2379,22002,0,200,2.7,10,0,0,0,0,0,0,0,0,0,0,0,0
2000,3,23,12,0,,7.9,3.1,71,100300,0,0,323,237,24,219,27039,2359,25190,0,140,2.4,10,0,0,0,0,0,0,0,0,0,0,0,0
2000,3,23,13,0,,10.4,1.4,52,100170,0,0,333,311,44,276,34459,4365,31358,0,160,2.3,10,0,0,0,0,0,0,0,0,0,0,0,0
2000,3,23,14,0,,11.7,-0.3,41,100040,0,0,337,365,75,306,38782,7381,34433,0,180,4.2,10,0,0,0,0,0,0,0,0,0,0,0,0
2000,3,23,15,0,,11.6,-2,39,99910,0,0,335,324,75,271,33267,7259,30153,0,200,3.3,10,0,0,0,0,0,0,0,0,0,0,0,0
2000,3,23,16,0,,11.3,-2,33,99900,0,0,330,236,59,201,23426,5134,22190,0,200,4,10,0,0,0,0,0,0,0,0,0,0,0,0
2000,3,23,17,0,,10.3,-2,35,99890,0,0,322,197,103,154,16405,7087,16144,0,250,4.8,9,0,0,0,0,0,0,0,0,0,0,0,0
2000,3,23,18,0,,9.5,-2,45,99880,0,0,316,94,80,75,0,0,0,0,200,2.3,9,0,0,0,0,0,0,0,0,0,0,0,0
2000,3,23,19,0,,7,-1.5,74,99950,0,0,299,23,4,19,0,0,0,0,180,2.2,8,0,0,0,0,0,0,0,0,0,0,0,0
2000,3,23,20,0,,7.1,-1.1,70,100030,0,0,295,0,0,0,0,0,0,0,160,2.1,7,0,0,0,0,0,0,0,0,0,0,0,0
2000,3,23,21,0,,7.1,-0.6,60,100100,0,0,292,0,0,0,0,0,0,0,230,1.3,6,0,0,0,0,0,0,0,0,0,0,0,0
2000,3,23,22,0,,7,-3,37,100110,0,0,289,0,0,0,0,0,0,0,230,2.9,6,0,0,0,0,0,0,0,0,0,0,0,0
2000,3,23,23,0,,6.3,-5.5,36,100130,0,0,284,0,0,0,0,0,0,0,230,2.2,6,0,0,0,0,0,0,0,0,0,0,0,0
2000,3,23,24,0,,5.9,-7.9,37,100140,0,0,280,0,0,0,0,0,0,0,250,3.3,6,0,0,0,0,0,0,0,0,0,0,0,0
2000,3,24,1,0,,5.3,-8.4,39,100140,0,0,273,0,0,0,0,0,0,0,180,2.6,4,0,0,0,0,0,0,0,0,0,0,0,0
2000,3,24,2,0,,5,-8.8,39,100130,0,0,266,0,0,0,0,0,0,0,250,2.9,2,0,0,0,0,0,0,0,0,0,0,0,0
2000,3,24,3,0,,4.9,-9.3,36,100130,0,0,257,0,0,0,0,0,0,0,250,3.2,0,0,0,0,0,0,0,0,0,0,0,0,0
2000,3,24,4,0,,4.5,-10.4,33,100140,0,0,254,0,0,0,0,0,0,0,250,3.7,0,0,0,0,0,0,0,0,0,0,0,0,0
2000,3,24,5,0,,4.3,-11.4,31,100140,0,0,253,0,0,0,0,0,0,0,230,3.4,0,0,0,0,0,0,0,0,0,0,0,0,0
2000,3,24,6,0,,3.9,-12.5,30,100150,0,0,250,0,0,0,0,0,0,0,230,3.8,0,0,0,0,0,0,0,0,0,0,0,0,0
2000,3,24,7,0,,3.4,-12.3,29,100210,0,0,249,33,19,13,2746,1872,2005,0,250,3.4,0,0,0,0,0,0,0,0,0,0,0,0,0
2000,3,24,8,0,,3.8,-12.1,29,100280,0,0,250,165,643,39,41864,63868,5910,0,250,2.7,0,0,0,0,0,0,0,0,0,0,0,0,0
2000,3,24,9,0,,4.7,-11.9,29,100340,0,0,254,355,732,70,60910,73541,9947,0,230,5.4,0,0,0,0,0,0,0,0,0,0,0,0,0
2000,3,24,10,0,,5.5,-11.5,29,100330,0,0,262,525,756,104,73240,76038,14155,0,230,4,1,0,0,0,0,0,0,0,0,0,0,0,0
2000,3,24,11,0,,6.3,-11.1,27,100310,0,0,269,639,705,155,77365,71262,19685,0,200,3.7,2,0,0,0,0,0,0,0,0,0,0,0,0
2000,3,24,12,0,,7.5,-10.7,26,100300,0,0,277,725,702,183,80244,71395,23994,0,230,4.1,3,0,0,0,0,0,0,0,0,0,0,0,0
2000,3,24,13,0,,7.9,-10.7,24,100290,0,0,280,739,652,214,73585,65211,27029,0,250,7,4,0,0,0,0,0,0,0,0,0,0,0,0
2000,3,24,14,0,,8,-10.8,24,100280,0,0,282,702,614,220,63245,61701,26678,0,230,6.1,4,0,0,0,0,0,0,0,0,0,0,0,0
2000,3,24,15,0,,8.5,-10.8,24,100270,0,0,285,586,498,232,46982,48697,25931,0,230,5.3,5,0,0,0,0,0,0,0,0,0,0,0,0
2000,3,24,16,0,,8.1,-11.6,21,100330,0,0,281,518,631,145,29267,49771,17134,0,230,6.3,4,0,0,0,0,0,0,0,0,0,0,0,0
2000,3,24,17,0,,7.5,-12.3,23,100380,0,0,276,380,678,89,9345,14696,8757,0,250,5.2,3,0,0,0,0,0,0,0,0,0,0,0,0
2000,3,24,18,0,,6,-13.1,25,100440,0,0,266,204,645,49,0,0,0,0,250,5.4,2,0,0,0,0,0,0,0,0,0,0,0,0
2000,3,24,19,0,,5.1,-13,26,100550,0,0,261,52,34,18,0,0,0,0,250,5.1,1,0,0,0,0,0,0,0,0,0,0,0,0
2000,3,24,20,0,,4.7,-12.8,28,100650,0,0,256,0,0,0,0,0,0,0,250,4.7,1,0,0,0,0,0,0,0,0,0,0,0,0
2000,3,24,21,0,,3.1,-12.7,31,100760,0,0,247,0,0,0,0,0,0,0,250,4.1,0,0,0,0,0,0,0,0,0,0,0,0,0
2000,3,24,22,0,,2.5,-12.1,33,100810,0,0,247,0,0,0,0,0,0,0,230,2.9,0,0,0,0,0,0,0,0,0,0,0,0,0
2000,3,24,23,0,,1.9,-11.5,40,100860,0,0,246,0,0,0,0,0,0,0,250,1.7,1,0,0,0,0,0,0,0,0,0,0,0,0
2000,3,24,24,0,,2,-10.9,38,100910,0,0,249,0,0,0,0,0,0,0,230,3.4,1,0,0,0,0,0,0,0,0,0,0,0,0
2000,3,25,1,0,,1.8,-10.7,42,100940,0,0,247,0,0,0,0,0,0,0,200,1.9,1,0,0,0,0,0,0,0,0,0,0,0,0
2000,3,25,2,0,,1.7,-10.5,42,100980,0,0,245,0,0,0,0,0,0,0,200,3.2,0,0,0,0,0,0,0,0,0,0,0,0,0
2000,3,25,3,0,,1.3,-10.3,42,101010,0,0,242,0,0,0,0,0,0,0,200,2.6,0,0,0,0,0,0,0,0,0,0,0,0,0
2000,3,25,4,0,,1.3,-9.5,41,101030,0,0,242,0,0,0,0,0,0,0,200,3.1,0,0,0,0,0,0,0,0,0,0,0,0,0
2000,3,25,5,0,,-2.3,-8.7,69,101050,0,0,231,0,0,0,0,0,0,0,20,0.6,0,0,0,0,0,0,0,0,0,0,0,0,0
2000,3,25,6,0,,-3.3,-7.9,70,101070,0,0,228,0,0,0,0,0,0,0,70,0.7,0,0,0,0,0,0,0,0,0,0,0,0,0
2000,3,25,7,0,,-3.8,-9.3,71,101050,0,0,225,26,12,14,2409,1185,1934,0,0,0,0,0,0,0,0,0,0,0,0,0,0,0,0
2000,3,25,8,0,,-1.1,-10.8,54,101030,0,0,234,163,596,44,40252,59295,6587,0,0,0,0,0,0,0,0,0,0,0,0,0,0,0,0
2000,3,25,9,0,,3.6,-12.2,30,101010,0,0,249,393,873,49,68371,87801,7126,0,160,2.5,0,0,0,0,0,0,0,0,0,0,0,0,0
2000,3,25,10,0,,5.8,-11.3,25,100950,0,0,266,595,954,59,83623,96386,8314,0,200,4.2,2,0,0,0,0,0,0,0,0,0,0,0,0
2000,3,25,11,0,,8,-10.4,28,100890,0,0,280,716,894,97,86485,90160,13147,0,230,3.6,3,0,0,0,0,0,0,0,0,0,0,0,0
2000,3,25,12,0,,8.7,-9.5,26,100830,0,0,287,724,689,189,80028,69934,24667,0,230,7.4,5,0,0,0,0,0,0,0,0,0,0,0,0
2000,3,25,13,0,,10.1,-9,23,100720,0,0,297,669,471,287,67907,47929,33521,0,230,3.5,6,0,0,0,0,0,0,0,0,0,0,0,0
2000,3,25,14,0,,10.7,-8.5,23,100610,0,0,306,535,210,370,53351,21181,40728,0,230,6.2,8,0,0,0,0,0,0,0,0,0,0,0,0
2000,3,25,15,0,,9.8,-8,28,100500,0,0,311,410,139,310,40316,13721,34341,0,250,7.6,9,0,0,0,0,0,0,0,0,0,0,0,0
2000,3,25,16,0,,9,-6.3,39,100480,0,0,303,346,166,248,30757,14909,27076,0,200,6.2,8,0,0,0,0,0,0,0,0,0,0,0,0
2000,3,25,17,0,,7.4,-4.5,51,100470,0,0,293,258,214,166,16731,3352,16586,0,200,6.1,7,0,0,0,0,0,0,0,0,0,0,0,0
2000,3,25,18,0,,7.8,-2.8,48,100450,0,0,293,155,336,73,0,0,0,0,200,4.1,6,0,0,0,0,0,0,0,0,0,0,0,0
2000,3,25,19,0,,8.6,-6.1,25,100540,0,0,288,51,31,20,0,0,0,0,250,5.2,4,0,0,0,0,0,0,0,0,0,0,0,0
2000,3,25,20,0,,8.2,-9.3,22,100620,0,0,278,0,0,0,0,0,0,0,250,6.5,2,0,0,0,0,0,0,0,0,0,0,0,0
2000,3,25,21,0,,7,-12.6,24,100710,0,0,262,0,0,0,0,0,0,0,290,4,0,0,0,0,0,0,0,0,0,0,0,0,0
2000,3,25,22,0,,6.7,-11.9,24,100730,0,0,262,0,0,0,0,0,0,0,290,4.2,0,0,0,0,0,0,0,0,0,0,0,0,0
2000,3,25,23,0,,4.9,-11.2,35,100760,0,0,255,0,0,0,0,0,0,0,270,1,0,0,0,0,0,0,0,0,0,0,0,0,0
2000,3,25,24,0,,2.8,-10.5,39,100780,0,0,247,0,0,0,0,0,0,0,110,1.4,0,0,0,0,0,0,0,0,0,0,0,0,0
2000,3,26,1,0,,1.5,-9.3,40,100800,0,0,248,0,0,0,0,0,0,0,110,1.6,1,0,0,0,0,0,0,0,0,0,0,0,0
2000,3,26,2,0,,1.5,-8.1,46,100830,0,0,253,0,0,0,0,0,0,0,50,1.1,2,0,0,0,0,0,0,0,0,0,0,0,0
2000,3,26,3,0,,0,-6.9,63,100850,0,0,250,0,0,0,0,0,0,0,360,1.1,3,0,0,0,0,0,0,0,0,0,0,0,0
2000,3,26,4,0,,-1.3,-7,70,100860,0,0,248,0,0,0,0,0,0,0,50,0.4,4,0,0,0,0,0,0,0,0,0,0,0,0
2000,3,26,5,0,,-1.5,-7.1,66,100880,0,0,249,0,0,0,0,0,0,0,0,0,5,0,0,0,0,0,0,0,0,0,0,0,0
2000,3,26,6,0,,-1.2,-7.2,60,100890,0,0,252,0,0,0,0,0,0,0,0,0,6,0,0,0,0,0,0,0,0,0,0,0,0
2000,3,26,7,0,,-0.8,-8.1,67,100900,0,0,250,29,15,14,2521,1501,1912,0,360,0.8,5,0,0,0,0,0,0,0,0,0,0,0,0
2000,3,26,8,0,,1,-8.9,58,100920,0,0,253,168,599,45,40848,59582,6737,0,360,0.6,3,0,0,0,0,0,0,0,0,0,0,0,0
2000,3,26,9,0,,4.6,-9.8,32,100930,0,0,264,376,783,64,64423,78788,9109,0,20,0.9,2,0,0,0,0,0,0,0,0,0,0,0,0
2000,3,26,10,0,,7.1,-9.8,26,100860,0,0,274,565,848,84,78799,85596,11557,0,250,0.7,2,0,0,0,0,0,0,0,0,0,0,0,0
2000,3,26,11,0,,9,-9.9,24,100790,0,0,281,700,841,114,84588,84791,15282,0,160,0.7,2,0,0,0,0,0,0,0,0,0,0,0,0
2000,3,26,12,0,,10.8,-9.9,23,100720,0,0,288,775,801,149,83553,80944,19177,0,160,1.6,2,0,0,0,0,0,0,0,0,0,0,0,0
2000,3,26,13,0,,12.2,-9.7,22,100620,0,0,292,818,821,151,79033,82265,19728,0,200,3.4,1,0,0,0,0,0,0,0,0,0,0,0,0
2000,3,26,14,0,,13.6,-9.5,20,100520,0,0,294,783,792,156,68219,78798,21001,0,200,2.5,1,0,0,0,0,0,0,0,0,0,0,0,0
2000,3,26,15,0,,14.5,-9.3,18,100420,0,0,294,711,809,130,51424,76765,17755,0,180,3.5,0,0,0,0,0,0,0,0,0,0,0,0,0
2000,3,26,16,0,,15.2,-9.3,19,100390,0,0,297,574,783,107,29763,61907,14287,0,200,3,0,0,0,0,0,0,0,0,0,0,0,0,0
2000,3,26,17,0,,15.3,-9.2,18,100350,0,0,297,408,766,74,8875,15046,8179,0,200,2,0,0,0,0,0,0,0,0,0,0,0,0,0
2000,3,26,18,0,,14.2,-9.2,20,100320,0,0,293,218,702,45,0,0,0,0,200,2.8,0,0,0,0,0,0,0,0,0,0,0,0,0
2000,3,26,19,0,,12.5,-8.8,27,100360,0,0,287,54,34,19,0,0,0,0,200,1.2,0,0,0,0,0,0,0,0,0,0,0,0,0
2000,3,26,20,0,,10.5,-8.5,42,100410,0,0,279,0,0,0,0,0,0,0,0,0,0,0,0,0,0,0,0,0,0,0,0,0,0
2000,3,26,21,0,,10.1,-8.1,27,100450,0,0,278,0,0,0,0,0,0,0,180,1.4,0,0,0,0,0,0,0,0,0,0,0,0,0
2000,3,26,22,0,,5.6,-6.4,57,100450,0,0,262,0,0,0,0,0,0,0,50,0.7,0,0,0,0,0,0,0,0,0,0,0,0,0
2000,3,26,23,0,,4.2,-4.8,59,100440,0,0,258,0,0,0,0,0,0,0,70,0.8,0,0,0,0,0,0,0,0,0,0,0,0,0
2000,3,26,24,0,,2.4,-3.1,71,100440,0,0,253,0,0,0,0,0,0,0,360,0.4,0,0,0,0,0,0,0,0,0,0,0,0,0
2000,3,27,1,0,,1.3,-3.2,76,100450,0,0,249,0,0,0,0,0,0,0,0,0.1,0,0,0,0,0,0,0,0,0,0,0,0,0
2000,3,27,2,0,,1,-3.2,76,100460,0,0,248,0,0,0,0,0,0,0,320,0.6,0,0,0,0,0,0,0,0,0,0,0,0,0
2000,3,27,3,0,,0.2,-3.3,78,100470,0,0,245,0,0,0,0,0,0,0,0,0.1,0,0,0,0,0,0,0,0,0,0,0,0,0
2000,3,27,4,0,,-0.2,-3.4,81,100460,0,0,244,0,0,0,0,0,0,0,20,0.4,0,0,0,0,0,0,0,0,0,0,0,0,0
2000,3,27,5,0,,-0.8,-3.4,82,100440,0,0,242,0,0,0,0,0,0,0,20,0.4,0,0,0,0,0,0,0,0,0,0,0,0,0
2000,3,27,6,0,,-1.2,-3.5,86,100430,0,0,240,0,0,0,0,0,0,0,320,0.4,0,0,0,0,0,0,0,0,0,0,0,0,0
2000,3,27,7,0,,-1.4,-2.9,85,100430,0,0,240,30,15,15,2663,1458,2064,0,0,0.2,0,0,0,0,0,0,0,0,0,0,0,0,0
2000,3,27,8,0,,0.3,-2.4,80,100440,0,0,246,157,475,57,36442,48404,8501,0,50,0.3,0,0,0,0,0,0,0,0,0,0,0,0,0
2000,3,27,9,0,,2,-1.8,72,100440,0,0,253,330,565,102,54703,57654,13969,0,0,0,0,0,0,0,0,0,0,0,0,0,0,0,0
2000,3,27,10,0,,5.8,-2.5,60,100340,0,0,276,527,717,117,73453,73308,15557,0,290,0.5,2,0,0,0,0,0,0,0,0,0,0,0,0
2000,3,27,11,0,,10.7,-3.1,37,100230,0,0,302,647,689,164,79982,70358,22198,0,360,0.6,5,0,0,0,0,0,0,0,0,0,0,0,0
2000,3,27,12,0,,14.4,-3.8,27,100130,0,0,325,680,557,243,75045,56689,29752,0,230,0.3,7,0,0,0,0,0,0,0,0,0,0,0,0
2000,3,27,13,0,,17.3,-3.4,26,100000,0,0,342,649,331,379,66378,34280,41548,0,70,1.1,8,0,0,0,0,0,0,0,0,0,0,0,0
2000,3,27,14,0,,19,-3.1,24,99880,0,0,355,606,296,371,58927,29588,41101,0,200,3.7,8,0,0,0,0,0,0,0,0,0,0,0,0
2000,3,27,15,0,,18.8,-2.7,23,99750,0,0,360,444,169,322,43025,16572,35705,0,200,5.3,9,0,0,0,0,0,0,0,0,0,0,0,0
2000,3,27,16,0,,19.1,-2.8,22,99720,0,0,353,391,229,254,32127,17933,27589,0,200,5.6,8,0,0,0,0,0,0,0,0,0,0,0,0
2000,3,27,17,0,,19,-3,22,99690,0,0,347,301,335,155,16081,6801,15746,0,200,5,7,0,0,0,0,0,0,0,0,0,0,0,0
2000,3,27,18,0,,18.4,-3.1,23,99660,0,0,340,176,403,76,0,0,0,0,180,3.2,6,0,0,0,0,0,0,0,0,0,0,0,0
2000,3,27,19,0,,17.3,-3.4,24,99670,0,0,339,39,16,23,0,0,0,0,160,1.7,7,0,0,0,0,0,0,0,0,0,0,0,0
2000,3,27,20,0,,16.9,-3.6,28,99690,0,0,342,0,0,0,0,0,0,0,160,1.7,8,0,0,0,0,0,0,0,0,0,0,0,0
2000,3,27,21,0,,16.9,-3.9,24,99700,0,0,349,0,0,0,0,0,0,0,200,2.5,9,0,0,0,0,0,0,0,0,0,0,0,0
2000,3,27,22,0,,17.3,-3.2,25,99660,0,0,355,0,0,0,0,0,0,0,160,4.6,9,0,0,0,0,0,0,0,0,0,0,0,0
2000,3,27,23,0,,16.6,-2.5,25,99620,0,0,355,0,0,0,0,0,0,0,180,3.1,10,0,0,0,0,0,0,0,0,0,0,0,0
2000,3,27,24,0,,15.3,-1.8,30,99580,0,0,353,0,0,0,0,0,0,0,180,5.5,10,0,0,0,0,0,0,0,0,0,0,0,0
2000,3,28,1,0,,12.3,0.9,55,99560,0,0,342,0,0,0,0,0,0,0,160,4.6,10,0,0,0,0,0,0,0,0,0,0,0,0
2000,3,28,2,0,,10.1,3.5,75,99550,0,0,334,0,0,0,0,0,0,0,200,1.3,10,0,0,0,0,0,0,0,0,0,0,0,0
2000,3,28,3,0,,9.3,6.2,81,99530,0,0,334,0,0,0,0,0,0,0,180,0.9,10,0,0,0,0,0,0,0,0,0,0,0,0
2000,3,28,4,0,,9,6.4,82,99440,0,0,333,0,0,0,0,0,0,0,160,1.4,10,0,0,0,0,0,0,0,0,0,0,0,0
2000,3,28,5,0,,8,6.5,92,99360,0,0,329,0,0,0,0,0,0,0,250,0.3,10,0,0,0,0,0,0,0,0,0,0,0,0
2000,3,28,6,0,,7.6,6.7,95,99270,0,0,327,0,0,0,0,0,0,0,0,0,10,0,0,0,0,0,0,0,0,0,0,0,0
2000,3,28,7,0,,7.2,6.8,96,99260,0,0,325,4,0,4,570,0,570,0,360,0.8,10,0,0,0,0,0,0,0,0,0,0,0,0
2000,3,28,8,0,,7.7,6.9,96,99260,0,0,328,48,17,45,6297,1530,5406,0,140,0.9,10,0,0,0,0,0,0,0,0,0,0,0,0
2000,3,28,9,0,,8,7,95,99250,0,0,329,101,18,94,12371,1718,11150,0,320,1.3,10,0,0,0,0,0,0,0,0,0,0,0,0
2000,3,28,10,0,,8.5,7.3,92,99210,0,0,332,155,19,144,18320,1844,16856,0,320,1.1,10,0,0,0,0,0,0,0,0,0,0,0,0
2000,3,28,11,0,,9.4,7.6,87,99160,0,0,336,216,25,199,25066,2381,23101,0,320,2.1,10,0,0,0,0,0,0,0,0,0,0,0,0
2000,3,28,12,0,,11.1,7.9,80,99120,0,0,345,269,31,244,30629,3007,28216,0,320,0.8,10,0,0,0,0,0,0,0,0,0,0,0,0
2000,3,28,13,0,,12.1,7.3,70,99050,0,0,345,305,39,273,33977,3722,31269,0,320,0.8,10,0,0,0,0,0,0,0,0,0,0,0,0
2000,3,28,14,0,,13.3,6.8,64,98970,0,0,347,382,78,319,40686,7596,36086,0,270,1,9,0,0,0,0,0,0,0,0,0,0,0,0
2000,3,28,15,0,,14.2,6.2,60,98900,0,0,348,346,83,286,35548,7922,32024,0,360,0.4,9,0,0,0,0,0,0,0,0,0,0,0,0
2000,3,28,16,0,,14.6,6.7,58,98910,0,0,353,268,77,222,26313,6655,24609,0,360,0.7,9,0,0,0,0,0,0,0,0,0,0,0,0
2000,3,28,17,0,,14.1,7.3,64,98920,0,0,355,140,35,125,11940,3172,11774,0,320,2.1,10,0,0,0,0,0,0,0,0,0,0,0,0
2000,3,28,18,0,,13.2,7.8,73,98930,0,0,355,67,26,60,0,0,0,0,250,1.1,10,0,0,0,0,0,0,0,0,0,0,0,0
2000,3,28,19,0,,11.9,7.6,78,99020,0,0,348,10,0,10,0,0,0,0,200,1.7,10,0,0,0,0,0,0,0,0,0,0,0,0
2000,3,28,20,0,,11.1,7.4,84,99100,0,0,344,0,0,0,0,0,0,0,180,1.4,10,0,0,0,0,0,0,0,0,0,0,0,0
2000,3,28,21,0,,9.5,7.2,90,99190,0,0,336,0,0,0,0,0,0,0,140,1.8,10,0,0,0,0,0,0,0,0,0,0,0,0
2000,3,28,22,0,,9,6.5,89,99230,0,0,333,0,0,0,0,0,0,0,160,1.7,10,0,0,0,0,0,0,0,0,0,0,0,0
2000,3,28,23,0,,8.6,5.8,91,99270,0,0,330,0,0,0,0,0,0,0,140,2.1,10,0,0,0,0,0,0,0,0,0,0,0,0
2000,3,28,24,0,,7.2,5.1,88,99310,0,0,323,0,0,0,0,0,0,0,140,3.6,10,0,0,0,0,0,0,0,0,0,0,0,0
2000,3,29,1,0,,6.5,4.8,88,99370,0,0,319,0,0,0,0,0,0,0,140,3.5,10,0,0,0,0,0,0,0,0,0,0,0,0
2000,3,29,2,0,,6,4.4,89,99440,0,0,317,0,0,0,0,0,0,0,140,2.5,10,0,0,0,0,0,0,0,0,0,0,0,0
2000,3,29,3,0,,5.6,4.1,91,99500,0,0,315,0,0,0,0,0,0,0,140,3.3,10,0,0,0,0,0,0,0,0,0,0,0,0
2000,3,29,4,0,,5.7,3.6,90,99570,0,0,314,0,0,0,0,0,0,0,140,2.3,10,0,0,0,0,0,0,0,0,0,0,0,0
2000,3,29,5,0,,5.8,3,84,99630,0,0,314,0,0,0,0,0,0,0,180,1.6,10,0,0,0,0,0,0,0,0,0,0,0,0
2000,3,29,6,0,,5.4,2.5,83,99700,0,0,312,0,0,0,0,0,0,0,160,1.9,10,0,0,0,0,0,0,0,0,0,0,0,0
2000,3,29,7,0,,5.1,2,82,99800,0,0,310,8,0,7,1032,8,1029,0,160,1.2,10,0,0,0,0,0,0,0,0,0,0,0,0
2000,3,29,8,0,,5.1,1.5,78,99900,0,0,309,57,25,52,8139,2532,6653,0,160,2.1,10,0,0,0,0,0,0,0,0,0,0,0,0
2000,3,29,9,0,,5.2,1,75,100000,0,0,309,113,24,103,13726,2267,12105,0,160,1.8,10,0,0,0,0,0,0,0,0,0,0,0,0
2000,3,29,10,0,,5.2,0.6,74,100050,0,0,308,167,23,153,19682,2268,17872,0,160,1.5,10,0,0,0,0,0,0,0,0,0,0,0,0
2000,3,29,11,0,,5.5,0.1,67,100110,0,0,309,230,29,209,26505,2835,24155,0,180,1.9,10,0,0,0,0,0,0,0,0,0,0,0,0
2000,3,29,12,0,,5.8,-0.3,65,100160,0,0,310,264,29,241,29890,2857,27587,0,200,2.2,10,0,0,0,0,0,0,0,0,0,0,0,0
2000,3,29,13,0,,6.2,-0.2,61,100130,0,0,301,358,59,309,39299,5839,35031,0,180,1.6,9,0,0,0,0,0,0,0,0,0,0,0,0
2000,3,29,14,0,,7.2,0,59,100110,0,0,298,490,153,367,50167,15219,40901,0,20,0.9,7,0,0,0,0,0,0,0,0,0,0,0,0
2000,3,29,15,0,,9,0.1,54,100080,0,0,301,521,263,330,47616,24816,36501,0,70,1,6,0,0,0,0,0,0,0,0,0,0,0,0
2000,3,29,16,0,,9.6,0.2,51,100060,0,0,305,435,308,248,33470,24271,27180,0,360,1.1,6,0,0,0,0,0,0,0,0,0,0,0,0
2000,3,29,17,0,,9.8,0.2,55,100050,0,0,307,288,273,167,17392,6055,17056,0,360,1.4,7,0,0,0,0,0,0,0,0,0,0,0,0
2000,3,29,18,0,,9.7,0.3,53,100030,0,0,308,145,226,87,0,0,0,0,0,0.1,7,0,0,0,0,0,0,0,0,0,0,0,0
2000,3,29,19,0,,9.5,0,52,100090,0,0,301,49,22,26,0,0,0,0,180,2.6,5,0,0,0,0,0,0,0,0,0,0,0,0
2000,3,29,20,0,,9.3,-0.2,51,100140,0,0,296,0,0,0,0,0,0,0,180,2.2,4,0,0,0,0,0,0,0,0,0,0,0,0
2000,3,29,21,0,,8.6,-0.5,54,100200,0,0,289,0,0,0,0,0,0,0,180,1.4,2,0,0,0,0,0,0,0,0,0,0,0,0
2000,3,29,22,0,,8.3,-0.7,55,100240,0,0,290,0,0,0,0,0,0,0,200,2.4,3,0,0,0,0,0,0,0,0,0,0,0,0
2000,3,29,23,0,,7.8,-0.8,57,100290,0,0,290,0,0,0,0,0,0,0,160,0.7,4,0,0,0,0,0,0,0,0,0,0,0,0
2000,3,29,24,0,,7.3,-1,56,100330,0,0,290,0,0,0,0,0,0,0,200,1.4,5,0,0,0,0,0,0,0,0,0,0,0,0
2000,3,30,1,0,,7.2,-1.5,52,100340,0,0,287,0,0,0,0,0,0,0,160,1.7,4,0,0,0,0,0,0,0,0,0,0,0,0
2000,3,30,2,0,,6.4,-2.1,57,100340,0,0,282,0,0,0,0,0,0,0,180,0.4,4,0,0,0,0,0,0,0,0,0,0,0,0
2000,3,30,3,0,,6,-2.6,55,100350,0,0,279,0,0,0,0,0,0,0,160,1.3,3,0,0,0,0,0,0,0,0,0,0,0,0
2000,3,30,4,0,,4.2,-2.2,67,100380,0,0,269,0,0,0,0,0,0,0,140,0.4,2,0,0,0,0,0,0,0,0,0,0,0,0
2000,3,30,5,0,,2.6,-1.7,78,100420,0,0,260,0,0,0,0,0,0,0,0,0.1,1,0,0,0,0,0,0,0,0,0,0,0,0
2000,3,30,6,0,,1.2,-1.3,89,100450,0,0,251,0,0,0,0,0,0,0,0,0.1,0,0,0,0,0,0,0,0,0,0,0,0,0
2000,3,30,7,0,,0.3,-1.2,88,100500,0,0,255,32,14,18,3076,1374,2492,0,0,0.1,2,0,0,0,0,0,0,0,0,0,0,0,0
2000,3,30,8,0,,2,-1.2,76,100540,0,0,265,155,374,71,33738,38081,11225,0,0,0,3,0,0,0,0,0,0,0,0,0,0,0,0
2000,3,30,9,0,,5.1,-1.1,60,100590,0,0,281,310,426,131,49868,43394,18639,0,0,0.2,5,0,0,0,0,0,0,0,0,0,0,0,0
2000,3,30,10,0,,8.7,-2,49,100500,0,0,294,516,639,142,70413,64912,18350,0,110,1.3,5,0,0,0,0,0,0,0,0,0,0,0,0
2000,3,30,11,0,,11.1,-2.9,39,100420,0,0,303,680,739,152,81795,75007,19334,0,20,0.8,4,0,0,0,0,0,0,0,0,0,0,0,0
2000,3,30,12,0,,12.7,-3.8,31,100330,0,0,308,749,697,194,82417,70608,25251,0,200,0.6,4,0,0,0,0,0,0,0,0,0,0,0,0
2000,3,30,13,0,,15.3,-4.4,24,100240,0,0,316,813,768,176,80383,77631,23378,0,180,2,3,0,0,0,0,0,0,0,0,0,0,0,0
2000,3,30,14,0,,15.1,-5.1,22,100150,0,0,312,774,734,182,68252,72550,23854,0,200,3.1,2,0,0,0,0,0,0,0,0,0,0,0,0
2000,3,30,15,0,,16.3,-5.7,22,100060,0,0,312,711,773,145,52532,73158,19545,0,200,3.4,1,0,0,0,0,0,0,0,0,0,0,0,0
2000,3,30,16,0,,15.9,-5.9,23,100060,0,0,317,540,643,148,31364,51848,17772,0,200,3.7,3,0,0,0,0,0,0,0,0,0,0,0,0
2000,3,30,17,0,,15.5,-6,27,100060,0,0,320,364,547,119,12590,15495,11682,0,200,4.6,5,0,0,0,0,0,0,0,0,0,0,0,0
2000,3,30,18,0,,13.1,-6.2,26,100060,0,0,316,156,276,84,0,0,0,0,200,3.6,7,0,0,0,0,0,0,0,0,0,0,0,0
2000,3,30,19,0,,12,-6.9,24,100100,0,0,306,45,23,22,0,0,0,0,230,3.9,6,0,0,0,0,0,0,0,0,0,0,0,0
2000,3,30,20,0,,11.5,-7.5,23,100150,0,0,300,0,0,0,0,0,0,0,180,2.2,4,0,0,0,0,0,0,0,0,0,0,0,0
2000,3,30,21,0,,10.5,-8.2,27,100190,0,0,292,0,0,0,0,0,0,0,200,2,3,0,0,0,0,0,0,0,0,0,0,0,0
2000,3,30,22,0,,9.7,-6.1,26,100200,0,0,296,0,0,0,0,0,0,0,200,2.8,5,0,0,0,0,0,0,0,0,0,0,0,0
2000,3,30,23,0,,8.9,-4,27,100210,0,0,303,0,0,0,0,0,0,0,200,2.2,8,0,0,0,0,0,0,0,0,0,0,0,0
2000,3,30,24,0,,6.2,-1.9,58,100220,0,0,310,0,0,0,0,0,0,0,320,0.7,10,0,0,0,0,0,0,0,0,0,0,0,0
2000,3,31,1,0,,6,-1.9,53,100200,0,0,289,0,0,0,0,0,0,0,20,1,7,0,0,0,0,0,0,0,0,0,0,0,0
2000,3,31,2,0,,5.8,-1.9,55,100170,0,0,281,0,0,0,0,0,0,0,320,0.7,4,0,0,0,0,0,0,0,0,0,0,0,0
2000,3,31,3,0,,5.1,-1.9,62,100150,0,0,269,0,0,0,0,0,0,0,270,0.4,1,0,0,0,0,0,0,0,0,0,0,0,0
2000,3,31,4,0,,3.4,-1.9,73,100120,0,0,268,0,0,0,0,0,0,0,360,0.4,3,0,0,0,0,0,0,0,0,0,0,0,0
2000,3,31,5,0,,2.9,-1.8,70,100100,0,0,270,0,0,0,0,0,0,0,0,0,4,0,0,0,0,0,0,0,0,0,0,0,0
2000,3,31,6,0,,2.5,-1.8,75,100070,0,0,272,0,0,0,0,0,0,0,0,0.1,6,0,0,0,0,0,0,0,0,0,0,0,0
2000,3,31,7,0,,2.3,-1.8,74,100080,0,0,272,30,10,20,2810,898,2423,0,0,0,6,0,0,0,0,0,0,0,0,0,0,0,0
2000,3,31,8,0,,3.3,-1.7,71,100080,0,0,277,125,203,78,23679,20416,11516,0,360,0.6,7,0,0,0,0,0,0,0,0,0,0,0,0
2000,3,31,9,0,,5.7,-1.7,57,100090,0,0,288,262,242,159,38869,24548,21097,0,340,0.3,7,0,0,0,0,0,0,0,0,0,0,0,0
2000,3,31,10,0,,7.6,-2.2,44,100030,0,0,289,479,512,177,65574,52088,23588,0,270,0.5,5,0,0,0,0,0,0,0,0,0,0,0,0
2000,3,31,11,0,,10.9,-2.7,35,99970,0,0,297,705,792,136,85036,80777,17470,0,110,0.7,2,0,0,0,0,0,0,0,0,0,0,0,0
2000,3,31,12,0,,14.1,-3.2,29,99910,0,0,300,827,870,129,88685,87944,17179,0,180,1.9,0,0,0,0,0,0,0,0,0,0,0,0,0
2000,3,31,13,0,,15.3,-2.5,32,99850,0,0,311,865,878,134,83287,88919,17704,0,180,3.4,1,0,0,0,0,0,0,0,0,0,0,0,0
2000,3,31,14,0,,15.6,-1.7,32,99800,0,0,318,791,767,170,69482,75936,22779,0,180,5.1,2,0,0,0,0,0,0,0,0,0,0,0,0
2000,3,31,15,0,,16.7,-1,30,99740,0,0,327,669,657,186,51427,62349,23126,0,200,3.4,3,0,0,0,0,0,0,0,0,0,0,0,0
2000,3,31,16,0,,16.5,-4.3,29,99780,0,0,321,568,718,129,31356,58191,15927,0,230,7.4,3,0,0,0,0,0,0,0,0,0,0,0,0
2000,3,31,17,0,,16,-7.6,17,99830,0,0,314,426,776,76,10075,22390,8695,0,250,7,2,0,0,0,0,0,0,0,0,0,0,0,0
2000,3,31,18,0,,15.1,-10.9,16,99870,0,0,304,229,687,49,0,0,0,0,230,5.2,2,0,0,0,0,0,0,0,0,0,0,0,0
2000,3,31,19,0,,13.5,-11,16,100040,0,0,298,60,39,21,0,0,0,0,250,3.2,2,0,0,0,0,0,0,0,0,0,0,0,0
2000,3,31,20,0,,9.9,-11,28,100220,0,0,284,0,0,0,0,0,0,0,290,2.8,2,0,0,0,0,0,0,0,0,0,0,0,0
2000,3,31,21,0,,9,-11.1,25,100390,0,0,280,0,0,0,0,0,0,0,0,0,2,0,0,0,0,0,0,0,0,0,0,0,0
2000,3,31,22,0,,6.5,-10,26,100510,0,0,269,0,0,0,0,0,0,0,20,1.7,1,0,0,0,0,0,0,0,0,0,0,0,0
2000,3,31,23,0,,5.6,-8.9,36,100630,0,0,263,0,0,0,0,0,0,0,0,0.1,1,0,0,0,0,0,0,0,0,0,0,0,0
2000,3,31,24,0,,3.8,-7.8,44,100750,0,0,254,0,0,0,0,0,0,0,0,0,0,0,0,0,0,0,0,0,0,0,0,0,0
2012,4,1,1,0,,-0.1,-6.1,64,100970,0,0,241,0,0,0,0,0,0,0,70,0.6,0,0,0,0,0,0,0,0,0,0,0,0,0
2012,4,1,2,0,,-1.4,-9,56,101000,0,0,234,0,0,0,0,0,0,0,270,1.3,0,0,0,0,0,0,0,0,0,0,0,0,0
2012,4,1,3,0,,-0.4,-13.6,36,101010,0,0,235,0,0,0,0,0,0,0,200,1.4,0,0,0,0,0,0,0,0,0,0,0,0,0
2012,4,1,4,0,,-2,-6.5,71,101050,0,0,234,0,0,0,0,0,0,0,160,0.7,0,0,0,0,0,0,0,0,0,0,0,0,0
2012,4,1,5,0,,-2.7,-7.7,68,101080,0,0,230,0,0,0,0,0,0,0,160,0.7,0,0,0,0,0,0,0,0,0,0,0,0,0
2012,4,1,6,0,,-3.3,-7.6,72,101150,0,0,228,0,0,0,0,0,0,0,110,0.7,0,0,0,0,0,0,0,0,0,0,0,0,0
2012,4,1,7,0,,-3.5,-7.4,74,101250,0,0,228,43,21,22,3839,2101,2925,0,50,0.5,0,0,0,0,0,0,0,0,0,0,0,0,0
2012,4,1,8,0,,-0.4,-10,48,101320,0,0,237,200,643,48,45675,64201,7110,0,340,0.7,0,0,0,0,0,0,0,0,0,0,0,0,0
2012,4,1,9,0,,2.8,-16.3,23,101340,0,0,243,423,854,58,70774,85868,8211,0,50,0.8,0,0,0,0,0,0,0,0,0,0,0,0,0
2012,4,1,10,0,,4.7,-16.4,20,101350,0,0,250,615,910,75,84567,91698,10258,0,290,1.5,0,0,0,0,0,0,0,0,0,0,0,0,0
2012,4,1,11,0,,6.7,-15.3,19,101340,0,0,258,744,878,109,88787,88444,14455,0,270,1.3,0,0,0,0,0,0,0,0,0,0,0,0,0
2012,4,1,12,0,,7.9,-16.4,16,101310,0,0,261,803,804,155,85869,81100,19627,0,200,1.5,0,0,0,0,0,0,0,0,0,0,0,0,0
2012,4,1,13,0,,9.4,-14.4,17,101230,0,0,269,832,793,168,82041,80657,22271,0,360,1.6,0,0,0,0,0,0,0,0,0,0,0,0,0
2012,4,1,14,0,,10.4,-14.4,16,101170,0,0,272,798,772,169,69870,76955,22282,0,200,2,0,0,0,0,0,0,0,0,0,0,0,0,0
2012,4,1,15,0,,10.9,-14,16,101150,0,0,274,728,801,138,53508,76449,18559,0,230,3.6,0,0,0,0,0,0,0,0,0,0,0,0,0
2012,4,1,16,0,,11,-14.7,15,101130,0,0,274,586,763,117,31930,61805,15342,0,230,3.5,0,0,0,0,0,0,0,0,0,0,0,0,0
2012,4,1,17,0,,10.7,-14.1,16,101120,0,0,274,413,717,88,10815,24405,9229,0,230,3,0,0,0,0,0,0,0,0,0,0,0,0,0
2012,4,1,18,0,,9.8,-12.7,19,101160,0,0,272,229,673,51,0,0,0,0,250,2.5,0,0,0,0,0,0,0,0,0,0,0,0,0
2012,4,1,19,0,,8.6,-11.9,22,101180,0,0,268,61,40,21,0,0,0,0,230,2.3,0,0,0,0,0,0,0,0,0,0,0,0,0
2012,4,1,20,0,,7.9,-11.4,24,101260,0,0,266,0,0,0,0,0,0,0,230,1.9,0,0,0,0,0,0,0,0,0,0,0,0,0
2012,4,1,21,0,,7,-10.7,27,101340,0,0,264,0,0,0,0,0,0,0,200,0.9,0,0,0,0,0,0,0,0,0,0,0,0,0
2012,4,1,22,0,,6.8,-9.6,30,101360,0,0,269,0,0,0,0,0,0,0,200,1.3,1,0,0,0,0,0,0,0,0,0,0,0,0
2012,4,1,23,0,,5.1,-5,48,101370,0,0,270,0,0,0,0,0,0,0,0,0.3,2,0,0,0,0,0,0,0,0,0,0,0,0
2012,4,1,24,0,,3.5,-4.2,57,101360,0,0,267,0,0,0,0,0,0,0,70,0.5,3,0,0,0,0,0,0,0,0,0,0,0,0
2012,4,2,1,0,,3.2,-3.8,60,101370,0,0,269,0,0,0,0,0,0,0,320,0.6,4,0,0,0,0,0,0,0,0,0,0,0,0
2012,4,2,2,0,,2.4,-4.1,62,101320,0,0,268,0,0,0,0,0,0,0,0,0,6,0,0,0,0,0,0,0,0,0,0,0,0
2012,4,2,3,0,,2,-4.3,63,101320,0,0,270,0,0,0,0,0,0,0,0,0.1,7,0,0,0,0,0,0,0,0,0,0,0,0
2012,4,2,4,0,,1.7,-4.8,62,101320,0,0,269,0,0,0,0,0,0,0,0,0.2,7,0,0,0,0,0,0,0,0,0,0,0,0
2012,4,2,5,0,,1.4,-4.6,64,101300,0,0,268,0,0,0,0,0,0,0,0,0,7,0,0,0,0,0,0,0,0,0,0,0,0
2012,4,2,6,0,,1,-3.8,70,101350,0,0,267,0,0,0,0,0,0,0,110,0.6,7,0,0,0,0,0,0,0,0,0,0,0,0
2012,4,2,7,0,,0.7,-3.9,71,101310,0,0,266,29,8,21,2887,712,2574,0,0,0,7,0,0,0,0,0,0,0,0,0,0,0,0
2012,4,2,8,0,,1.6,-4.2,65,101250,0,0,269,131,205,82,24458,20753,11899,0,0,0.3,7,0,0,0,0,0,0,0,0,0,0,0,0
2012,4,2,9,0,,3.8,-5.1,52,101180,0,0,277,274,258,163,40532,26318,21246,0,320,0.7,7,0,0,0,0,0,0,0,0,0,0,0,0
2012,4,2,10,0,,6,-5.9,42,101090,0,0,290,383,216,254,47687,22845,29086,0,0,0.4,8,0,0,0,0,0,0,0,0,0,0,0,0
2012,4,2,11,0,,8.3,-6.6,34,100960,0,0,299,493,222,331,56510,23401,36758,0,110,0.6,8,0,0,0,0,0,0,0,0,0,0,0,0
2012,4,2,12,0,,10,-7.7,28,100850,0,0,321,404,87,333,44914,8796,37700,0,70,0.7,10,0,0,0,0,0,0,0,0,0,0,0,0
2012,4,2,13,0,,11.3,-6.5,28,100630,0,0,328,409,79,342,44426,7994,38477,0,320,1.6,10,0,0,0,0,0,0,0,0,0,0,0,0
2012,4,2,14,0,,11.5,-5.5,30,100530,0,0,330,361,62,310,38632,6221,34766,0,70,0.7,10,0,0,0,0,0,0,0,0,0,0,0,0
2012,4,2,15,0,,10.8,1.8,54,100440,0,0,335,249,31,226,26344,2621,25138,0,160,1,10,0,0,0,0,0,0,0,0,0,0,0,0
2012,4,2,16,0,,9.4,5.3,76,100410,0,0,333,154,15,145,15954,952,15696,0,0,0.1,10,0,0,0,0,0,0,0,0,0,0,0,0
2012,4,2,17,0,,7.8,5.5,86,100350,0,0,326,87,8,84,8350,260,8332,0,320,1.5,10,0,0,0,0,0,0,0,0,0,0,0,0
2012,4,2,18,0,,7.4,6,91,100310,0,0,325,45,7,43,0,0,0,0,0,0.3,10,0,0,0,0,0,0,0,0,0,0,0,0
2012,4,2,19,0,,7,5.9,93,100230,0,0,323,10,0,9,0,0,0,0,0,0.3,10,0,0,0,0,0,0,0,0,0,0,0,0
2012,4,2,20,0,,6.9,6.1,95,100150,0,0,323,0,0,0,0,0,0,0,110,1,10,0,0,0,0,0,0,0,0,0,0,0,0
2012,4,2,21,0,,6.9,6.1,95,100110,0,0,323,0,0,0,0,0,0,0,110,0.5,10,0,0,0,0,0,0,0,0,0,0,0,0
2012,4,2,22,0,,6.9,6.3,96,100040,0,0,323,0,0,0,0,0,0,0,20,0.6,10,0,0,0,0,0,0,0,0,0,0,0,0
2012,4,2,23,0,,7,6.4,96,99870,0,0,324,0,0,0,0,0,0,0,110,1.1,10,0,0,0,0,0,0,0,0,0,0,0,0
2012,4,2,24,0,,6.9,6.3,96,99790,0,0,323,0,0,0,0,0,0,0,320,1.2,10,0,0,0,0,0,0,0,0,0,0,0,0
2012,4,3,1,0,,7,6.4,96,99640,0,0,324,0,0,0,0,0,0,0,360,1.2,10,0,0,0,0,0,0,0,0,0,0,0,0
2012,4,3,2,0,,6.9,5.9,94,99470,0,0,323,0,0,0,0,0,0,0,340,2.2,10,0,0,0,0,0,0,0,0,0,0,0,0
2012,4,3,3,0,,6.2,4.8,91,99200,0,0,318,0,0,0,0,0,0,0,340,2.6,10,0,0,0,0,0,0,0,0,0,0,0,0
2012,4,3,4,0,,5.3,3.9,91,99020,0,0,313,0,0,0,0,0,0,0,340,4.3,10,0,0,0,0,0,0,0,0,0,0,0,0
2012,4,3,5,0,,5.1,3.7,91,98820,0,0,312,0,0,0,0,0,0,0,340,2.9,10,0,0,0,0,0,0,0,0,0,0,0,0
2012,4,3,6,0,,4.8,3.4,91,98640,0,0,310,0,0,0,0,0,0,0,340,3.4,10,0,0,0,0,0,0,0,0,0,0,0,0
2012,4,3,7,0,,4.4,2.5,88,98560,0,0,307,13,1,12,1699,35,1684,0,320,5.4,10,0,0,0,0,0,0,0,0,0,0,0,0
2012,4,3,8,0,,3.1,1.2,88,98610,0,0,300,62,23,57,8078,2157,6763,0,340,4.6,10,0,0,0,0,0,0,0,0,0,0,0,0
2012,4,3,9,0,,2,0.6,91,98700,0,0,295,101,14,94,12141,1369,11133,0,360,3.9,10,0,0,0,0,0,0,0,0,0,0,0,0
2012,4,3,10,0,,1.6,0.5,93,98790,0,0,293,133,11,126,15679,1047,14822,0,320,3,10,0,0,0,0,0,0,0,0,0,0,0,0
2012,4,3,11,0,,2.2,0.4,88,98930,0,0,295,200,18,187,23178,1739,21704,0,320,4.5,10,0,0,0,0,0,0,0,0,0,0,0,0
2012,4,3,12,0,,3.4,0.2,80,99060,0,0,300,253,24,234,28787,2350,26852,0,320,2.1,10,0,0,0,0,0,0,0,0,0,0,0,0
2012,4,3,13,0,,4.2,0.3,76,99150,0,0,304,301,34,272,33476,3349,30974,0,230,2.6,10,0,0,0,0,0,0,0,0,0,0,0,0
2012,4,3,14,0,,4.3,1.1,80,99190,0,0,305,287,33,260,31478,3221,29467,0,250,2.9,10,0,0,0,0,0,0,0,0,0,0,0,0
2012,4,3,15,0,,3.6,-0.2,76,99280,0,0,300,223,23,206,24024,1842,23171,0,270,2.9,10,0,0,0,0,0,0,0,0,0,0,0,0
2012,4,3,16,0,,4,-2.2,64,99370,0,0,292,259,63,220,25786,5658,24234,0,230,3,9,0,0,0,0,0,0,0,0,0,0,0,0
2012,4,3,17,0,,6,-5.3,44,99420,0,0,286,301,278,174,18396,8669,17780,0,270,2.6,7,0,0,0,0,0,0,0,0,0,0,0,0
2012,4,3,18,0,,5.4,-4.4,49,99580,0,0,284,175,345,81,0,0,0,0,270,3.3,7,0,0,0,0,0,0,0,0,0,0,0,0
2012,4,3,19,0,,4.9,-5.7,46,99750,0,0,275,59,34,25,0,0,0,0,270,4.1,5,0,0,0,0,0,0,0,0,0,0,0,0
2012,4,3,20,0,,4.6,-7.5,41,99910,0,0,268,0,0,0,0,0,0,0,270,3.4,3,0,0,0,0,0,0,0,0,0,0,0,0
2012,4,3,21,0,,4.1,-8,41,100050,0,0,260,0,0,0,0,0,0,0,270,3.1,1,0,0,0,0,0,0,0,0,0,0,0,0
2012,4,3,22,0,,4.1,-8.6,39,100160,0,0,258,0,0,0,0,0,0,0,270,4,1,0,0,0,0,0,0,0,0,0,0,0,0
2012,4,3,23,0,,3.4,-7.7,44,100270,0,0,254,0,0,0,0,0,0,0,200,2.1,0,0,0,0,0,0,0,0,0,0,0,0,0
2012,4,3,24,0,,3.9,-8.1,41,100320,0,0,254,0,0,0,0,0,0,0,290,3.6,0,0,0,0,0,0,0,0,0,0,0,0,0
2012,4,4,1,0,,2.1,-6,55,100380,0,0,249,0,0,0,0,0,0,0,110,1.3,0,0,0,0,0,0,0,0,0,0,0,0,0
2012,4,4,2,0,,1.4,-4.2,66,100400,0,0,248,0,0,0,0,0,0,0,50,0.7,0,0,0,0,0,0,0,0,0,0,0,0,0
2012,4,4,3,0,,-0.2,-2.7,83,100360,0,0,244,0,0,0,0,0,0,0,0,0.4,0,0,0,0,0,0,0,0,0,0,0,0,0
2012,4,4,4,0,,-0.9,-3.2,84,100380,0,0,241,0,0,0,0,0,0,0,0,0,0,0,0,0,0,0,0,0,0,0,0,0,0
2012,4,4,5,0,,-1.5,-3.3,87,100330,0,0,247,0,0,0,0,0,0,0,0,0.4,2,0,0,0,0,0,0,0,0,0,0,0,0
2012,4,4,6,0,,-1.6,-3.3,88,100390,0,0,247,0,0,0,0,0,0,0,20,0.7,2,0,0,0,0,0,0,0,0,0,0,0,0
2012,4,4,7,0,,-1.6,-3.6,86,100430,0,0,243,47,22,25,4308,2184,3326,0,360,0.5,1,0,0,0,0,0,0,0,0,0,0,0,0
2012,4,4,8,0,,-0.3,-3,82,100400,0,0,244,191,498,66,40869,50811,9675,0,360,1.3,0,0,0,0,0,0,0,0,0,0,0,0,0
2012,4,4,9,0,,2.2,-3.1,68,100340,0,0,263,362,560,115,59176,57458,16602,0,20,0.5,3,0,0,0,0,0,0,0,0,0,0,0,0
2012,4,4,10,0,,5.1,-4.2,51,100250,0,0,273,560,706,131,76052,71963,16910,0,200,1.7,3,0,0,0,0,0,0,0,0,0,0,0,0
2012,4,4,11,0,,7.2,-2.8,49,100110,0,0,290,600,474,251,71737,48349,30588,0,180,1.7,6,0,0,0,0,0,0,0,0,0,0,0,0
2012,4,4,12,0,,9.6,-0.8,48,99940,0,0,300,716,568,252,77870,56780,30930,0,200,3.6,5,0,0,0,0,0,0,0,0,0,0,0,0
2012,4,4,13,0,,12,0.1,44,99740,0,0,307,820,740,193,80977,74282,25238,0,230,3.4,3,0,0,0,0,0,0,0,0,0,0,0,0
2012,4,4,14,0,,13.7,-0.7,37,99580,0,0,313,821,801,161,71728,79646,21766,0,230,6.6,3,0,0,0,0,0,0,0,0,0,0,0,0
2012,4,4,15,0,,14.5,-0.4,36,99490,0,0,317,720,755,156,54037,71305,20816,0,230,6.4,3,0,0,0,0,0,0,0,0,0,0,0,0
2012,4,4,16,0,,14.3,0.1,38,99480,0,0,317,560,660,148,32992,53688,18110,0,230,5,3,0,0,0,0,0,0,0,0,0,0,0,0
2012,4,4,17,0,,13.6,0.9,42,99500,0,0,315,381,565,120,13827,19126,12411,0,230,5.2,3,0,0,0,0,0,0,0,0,0,0,0,0
2012,4,4,18,0,,12.1,1.4,48,99590,0,0,308,210,508,72,0,0,0,0,230,4.4,3,0,0,0,0,0,0,0,0,0,0,0,0
2012,4,4,19,0,,10.6,0.8,51,99660,0,0,300,57,29,27,0,0,0,0,230,3.9,3,0,0,0,0,0,0,0,0,0,0,0,0
2012,4,4,20,0,,9.8,1.6,57,99820,0,0,297,0,0,0,0,0,0,0,230,2.7,2,0,0,0,0,0,0,0,0,0,0,0,0
2012,4,4,21,0,,8.6,1.9,63,99970,0,0,291,0,0,0,0,0,0,0,230,2.3,2,0,0,0,0,0,0,0,0,0,0,0,0
2012,4,4,22,0,,8,2,66,100010,0,0,286,0,0,0,0,0,0,0,230,3,1,0,0,0,0,0,0,0,0,0,0,0,0
2012,4,4,23,0,,7.3,1.7,68,100090,0,0,280,0,0,0,0,0,0,0,200,1.6,1,0,0,0,0,0,0,0,0,0,0,0,0
2012,4,4,24,0,,6.6,0.6,66,100130,0,0,272,0,0,0,0,0,0,0,200,2.1,0,0,0,0,0,0,0,0,0,0,0,0,0
2012,4,5,1,0,,6.4,-0.8,60,100170,0,0,270,0,0,0,0,0,0,0,230,2,0,0,0,0,0,0,0,0,0,0,0,0,0
2012,4,5,2,0,,5.7,-2.4,56,100180,0,0,266,0,0,0,0,0,0,0,230,1.9,0,0,0,0,0,0,0,0,0,0,0,0,0
2012,4,5,3,0,,3.2,-1.1,73,100170,0,0,258,0,0,0,0,0,0,0,200,0.8,0,0,0,0,0,0,0,0,0,0,0,0,0
2012,4,5,4,0,,1.2,-0.1,91,100190,0,0,252,0,0,0,0,0,0,0,360,0.5,0,0,0,0,0,0,0,0,0,0,0,0,0
2012,4,5,5,0,,0.3,-0.8,92,100180,0,0,248,0,0,0,0,0,0,0,0,0.1,0,0,0,0,0,0,0,0,0,0,0,0,0
2012,4,5,6,0,,-0.3,-1.2,93,100210,0,0,246,0,0,0,0,0,0,0,360,1.1,0,0,0,0,0,0,0,0,0,0,0,0,0
2012,4,5,7,0,,-0.6,-1.8,91,100300,0,0,244,46,27,19,4061,2685,2842,0,0,0,0,0,0,0,0,0,0,0,0,0,0,0,0
2012,4,5,8,0,,0.8,-1.7,83,100310,0,0,249,186,442,74,39448,45078,11579,0,360,0.5,0,0,0,0,0,0,0,0,0,0,0,0,0
2012,4,5,9,0,,4.1,-1.6,66,100290,0,0,272,369,572,114,58704,58308,15266,0,340,0.5,3,0,0,0,0,0,0,0,0,0,0,0,0
2012,4,5,10,0,,7.7,-4.4,42,100230,0,0,294,483,461,201,64354,46673,25823,0,230,3,7,0,0,0,0,0,0,0,0,0,0,0,0
2012,4,5,11,0,,9.4,-5.7,34,100160,0,0,297,653,602,207,78654,61086,26454,0,270,3.1,6,0,0,0,0,0,0,0,0,0,0,0,0
2012,4,5,12,0,,9.9,-6,32,100070,0,0,302,636,304,387,68581,31873,42130,0,270,3.2,7,0,0,0,0,0,0,0,0,0,0,0,0
2012,4,5,13,0,,10.1,-4.3,36,99980,0,0,310,523,149,396,55482,15327,43935,0,290,2.4,8,0,0,0,0,0,0,0,0,0,0,0,0
2012,4,5,14,0,,9,-2.9,43,99950,0,0,301,532,174,388,53963,17508,42929,0,320,5.1,7,0,0,0,0,0,0,0,0,0,0,0,0
2012,4,5,15,0,,9.6,-4.7,36,99840,0,0,299,538,257,345,49436,24765,37827,0,230,4.6,6,0,0,0,0,0,0,0,0,0,0,0,0
2012,4,5,16,0,,9.7,-5.8,33,99790,0,0,295,475,399,225,33837,33095,24568,0,250,2.9,5,0,0,0,0,0,0,0,0,0,0,0,0
2012,4,5,17,0,,10.8,-14,16,99810,0,0,275,448,806,73,11027,30136,8704,0,290,5.2,0,0,0,0,0,0,0,0,0,0,0,0,0
2012,4,5,18,0,,9.7,-13.5,18,99930,0,0,271,249,733,47,0,0,0,0,270,4.3,0,0,0,0,0,0,0,0,0,0,0,0,0
2012,4,5,19,0,,7.4,-11.9,24,100020,0,0,268,68,48,21,0,0,0,0,270,3.6,1,0,0,0,0,0,0,0,0,0,0,0,0
2012,4,5,20,0,,6.7,-10.5,28,100180,0,0,269,0,0,0,0,0,0,0,290,3.8,1,0,0,0,0,0,0,0,0,0,0,0,0
2012,4,5,21,0,,5.8,-10,31,100300,0,0,268,0,0,0,0,0,0,0,320,4.1,2,0,0,0,0,0,0,0,0,0,0,0,0
2012,4,5,22,0,,5.2,-9.7,33,100400,0,0,264,0,0,0,0,0,0,0,290,1.2,1,0,0,0,0,0,0,0,0,0,0,0,0
2012,4,5,23,0,,4.3,-9.4,36,100490,0,0,258,0,0,0,0,0,0,0,270,1.5,1,0,0,0,0,0,0,0,0,0,0,0,0
2012,4,5,24,0,,4.2,-9.9,35,100560,0,0,253,0,0,0,0,0,0,0,250,1.6,0,0,0,0,0,0,0,0,0,0,0,0,0
2012,4,6,1,0,,1.9,-4.8,61,100580,0,0,254,0,0,0,0,0,0,0,110,0.5,1,0,0,0,0,0,0,0,0,0,0,0,0
2012,4,6,2,0,,0.6,-4.2,70,100590,0,0,253,0,0,0,0,0,0,0,110,0.6,2,0,0,0,0,0,0,0,0,0,0,0,0
2012,4,6,3,0,,-0.5,-3.7,79,100580,0,0,253,0,0,0,0,0,0,0,0,0.3,3,0,0,0,0,0,0,0,0,0,0,0,0
2012,4,6,4,0,,-0.7,-4.7,74,100570,0,0,253,0,0,0,0,0,0,0,0,0.2,4,0,0,0,0,0,0,0,0,0,0,0,0
2012,4,6,5,0,,-1.1,-5.1,74,100550,0,0,249,0,0,0,0,0,0,0,50,0.5,3,0,0,0,0,0,0,0,0,0,0,0,0
2012,4,6,6,0,,-1.7,-4.5,81,100560,0,0,254,0,0,0,0,0,0,0,0,0.4,6,0,0,0,0,0,0,0,0,0,0,0,0
2012,4,6,7,0,,-1.4,-6.1,70,100560,0,0,253,40,15,25,3948,1531,3246,0,140,0.5,6,0,0,0,0,0,0,0,0,0,0,0,0
2012,4,6,8,0,,0.3,-4.9,68,100540,0,0,260,166,334,79,33483,34146,12227,0,290,0.6,6,0,0,0,0,0,0,0,0,0,0,0,0
2012,4,6,9,0,,4.5,-3,58,100510,0,0,282,314,343,159,47213,35021,20985,0,200,2.3,7,0,0,0,0,0,0,0,0,0,0,0,0
2012,4,6,10,0,,6.7,-3.8,47,100450,0,0,290,487,462,202,64754,46753,25986,0,230,4.3,7,0,0,0,0,0,0,0,0,0,0,0,0
2012,4,6,11,0,,7.6,-5.4,39,100360,0,0,297,531,256,341,60895,26954,37771,0,250,4,8,0,0,0,0,0,0,0,0,0,0,0,0
2012,4,6,12,0,,6.8,-6.5,38,100360,0,0,293,552,195,392,60402,20188,43584,0,250,8.5,8,0,0,0,0,0,0,0,0,0,0,0,0
2012,4,6,13,0,,9.1,-14.7,17,100310,0,0,279,815,712,207,80496,71752,26226,0,270,6.4,3,0,0,0,0,0,0,0,0,0,0,0,0
2012,4,6,14,0,,10,-12.6,19,100300,0,0,285,778,686,209,69154,67657,26322,0,270,4.6,3,0,0,0,0,0,0,0,0,0,0,0,0
2012,4,6,15,0,,9.7,-14.2,17,100300,0,0,282,731,766,154,54790,73087,20322,0,270,6.5,3,0,0,0,0,0,0,0,0,0,0,0,0
2012,4,6,16,0,,10,-13.2,18,100280,0,0,281,591,734,129,33371,61936,15845,0,290,4.4,2,0,0,0,0,0,0,0,0,0,0,0,0
2012,4,6,17,0,,9.7,-12.8,19,100340,0,0,281,417,682,98,12592,27016,10429,0,270,4.2,2,0,0,0,0,0,0,0,0,0,0,0,0
2012,4,6,18,0,,8.3,-12.2,22,100430,0,0,276,240,662,56,0,0,0,0,290,3.4,2,0,0,0,0,0,0,0,0,0,0,0,0
2012,4,6,19,0,,6.6,-11.5,26,100530,0,0,270,65,42,24,0,0,0,0,270,2.4,2,0,0,0,0,0,0,0,0,0,0,0,0
2012,4,6,20,0,,5.8,-10.4,30,100640,0,0,268,0,0,0,0,0,0,0,270,2.5,2,0,0,0,0,0,0,0,0,0,0,0,0
2012,4,6,21,0,,4.8,-8,39,100780,0,0,266,0,0,0,0,0,0,0,290,2,2,0,0,0,0,0,0,0,0,0,0,0,0
2012,4,6,22,0,,3.9,-8.8,39,100860,0,0,259,0,0,0,0,0,0,0,290,1.5,1,0,0,0,0,0,0,0,0,0,0,0,0
2012,4,6,23,0,,3,-8.3,43,100930,0,0,253,0,0,0,0,0,0,0,270,0.8,1,0,0,0,0,0,0,0,0,0,0,0,0
2012,4,6,24,0,,2.5,-9.4,41,100980,0,0,247,0,0,0,0,0,0,0,230,1.1,0,0,0,0,0,0,0,0,0,0,0,0,0
2012,4,7,1,0,,0.8,-5.6,62,101020,0,0,244,0,0,0,0,0,0,0,140,0.5,0,0,0,0,0,0,0,0,0,0,0,0,0
2012,4,7,2,0,,-0.4,-5,71,101020,0,0,241,0,0,0,0,0,0,0,0,0.2,0,0,0,0,0,0,0,0,0,0,0,0,0
2012,4,7,3,0,,-1.5,-5.5,74,101060,0,0,237,0,0,0,0,0,0,0,360,0.7,0,0,0,0,0,0,0,0,0,0,0,0,0
2012,4,7,4,0,,-2.2,-5.5,78,101100,0,0,234,0,0,0,0,0,0,0,0,0.2,0,0,0,0,0,0,0,0,0,0,0,0,0
2012,4,7,5,0,,-2.9,-5.8,80,101160,0,0,232,0,0,0,0,0,0,0,0,0.3,0,0,0,0,0,0,0,0,0,0,0,0,0
2012,4,7,6,0,,-3.3,-6.2,80,101230,0,0,230,0,0,0,0,0,0,0,0,0.1,0,0,0,0,0,0,0,0,0,0,0,0,0
2012,4,7,7,0,,-3.3,-6.7,77,101330,0,0,229,54,28,26,4735,2819,3431,0,0,0.4,0,0,0,0,0,0,0,0,0,0,0,0,0
2012,4,7,8,0,,-1.3,-7.2,64,101380,0,0,236,215,580,61,45301,58075,8907,0,360,0.5,0,0,0,0,0,0,0,0,0,0,0,0,0
2012,4,7,9,0,,2.1,-8.6,45,101390,0,0,246,426,757,81,68573,76264,11159,0,340,1.2,0,0,0,0,0,0,0,0,0,0,0,0,0
2012,4,7,10,0,,4.5,-12.4,28,101410,0,0,252,630,871,89,85275,87922,12052,0,200,1,0,0,0,0,0,0,0,0,0,0,0,0,0
2012,4,7,11,0,,6.6,-11.1,27,101380,0,0,262,768,871,117,90981,87807,15358,0,200,1.5,0,0,0,0,0,0,0,0,0,0,0,0,0
2012,4,7,12,0,,8.2,-13.4,20,101300,0,0,265,836,824,154,89045,83303,19390,0,200,1.6,0,0,0,0,0,0,0,0,0,0,0,0,0
2012,4,7,13,0,,10.2,-13.8,17,101210,0,0,272,863,813,166,82953,81330,21200,0,250,1.5,0,0,0,0,0,0,0,0,0,0,0,0,0
2012,4,7,14,0,,11.9,-13.1,16,101090,0,0,279,838,817,158,73218,81948,21108,0,180,2.6,0,0,0,0,0,0,0,0,0,0,0,0,0
2012,4,7,15,0,,13.4,-12.7,15,101000,0,0,285,755,817,137,55852,78648,18542,0,200,1.7,0,0,0,0,0,0,0,0,0,0,0,0,0
2012,4,7,16,0,,14,-9.3,19,100960,0,0,292,623,816,107,33994,68316,14467,0,270,3.7,0,0,0,0,0,0,0,0,0,0,0,0,0
2012,4,7,17,0,,13.5,-9,20,100960,0,0,290,439,752,85,12249,28214,9906,0,250,2.9,0,0,0,0,0,0,0,0,0,0,0,0,0
2012,4,7,18,0,,12.8,-10.3,19,100960,0,0,286,247,687,53,0,0,0,0,230,2.7,0,0,0,0,0,0,0,0,0,0,0,0,0
2012,4,7,19,0,,11.6,-9.4,22,100980,0,0,283,71,49,21,0,0,0,0,200,3.2,0,0,0,0,0,0,0,0,0,0,0,0,0
2012,4,7,20,0,,10.3,-8.4,26,101040,0,0,279,0,0,0,0,0,0,0,200,1.4,0,0,0,0,0,0,0,0,0,0,0,0,0
2012,4,7,21,0,,9.4,-6.4,32,101130,0,0,277,0,0,0,0,0,0,0,230,3.2,0,0,0,0,0,0,0,0,0,0,0,0,0
2012,4,7,22,0,,8.3,-6.6,34,101170,0,0,272,0,0,0,0,0,0,0,230,2.2,0,0,0,0,0,0,0,0,0,0,0,0,0
2012,4,7,23,0,,7.3,-6.8,36,101190,0,0,268,0,0,0,0,0,0,0,160,1.1,0,0,0,0,0,0,0,0,0,0,0,0,0
2012,4,7,24,0,,6.4,-9.1,32,101180,0,0,263,0,0,0,0,0,0,0,230,0.9,0,0,0,0,0,0,0,0,0,0,0,0,0
2012,4,8,1,0,,3.7,-3.5,59,101210,0,0,257,0,0,0,0,0,0,0,0,0,0,0,0,0,0,0,0,0,0,0,0,0,0
2012,4,8,2,0,,2.4,-2.7,69,101190,0,0,253,0,0,0,0,0,0,0,0,0.1,0,0,0,0,0,0,0,0,0,0,0,0,0
2012,4,8,3,0,,1.6,-3.2,70,101150,0,0,250,0,0,0,0,0,0,0,0,0.1,0,0,0,0,0,0,0,0,0,0,0,0,0
2012,4,8,4,0,,0.8,-2.9,76,101140,0,0,247,0,0,0,0,0,0,0,0,0,0,0,0,0,0,0,0,0,0,0,0,0,0
2012,4,8,5,0,,0.2,-2.5,82,101080,0,0,246,0,0,0,0,0,0,0,360,0.6,0,0,0,0,0,0,0,0,0,0,0,0,0
2012,4,8,6,0,,-0.1,-3.4,78,101110,0,0,252,0,0,0,0,0,0,0,0,0,2,0,0,0,0,0,0,0,0,0,0,0,0
2012,4,8,7,0,,-0.1,-3.4,78,101120,0,0,244,56,29,27,4892,2912,3531,0,0,0.1,0,0,0,0,0,0,0,0,0,0,0,0,0
2012,4,8,8,0,,1.3,-3.2,72,101080,0,0,249,210,521,69,43591,53224,10016,0,0,0.4,0,0,0,0,0,0,0,0,0,0,0,0,0
2012,4,8,9,0,,4,-3.3,59,101040,0,0,267,394,619,108,62423,63233,14577,0,50,0.6,2,0,0,0,0,0,0,0,0,0,0,0,0
2012,4,8,10,0,,8.3,-4.8,39,100980,0,0,283,617,820,104,83307,83011,13879,0,340,0.6,2,0,0,0,0,0,0,0,0,0,0,0,0
2012,4,8,11,0,,13.1,-1.6,36,100910,0,0,297,833,13,72,9617,1211,8570,0,200,3.4,0,0,0,0,0,0,0,0,0,0,0,0,0
2012,4,8,12,0,,16,-1.1,31,100790,0,0,310,926,12,84,10962,1182,9970,0,200,3.2,0,0,0,0,0,0,0,0,0,0,0,0,0
2012,4,8,13,0,,17.7,-0.5,29,100690,0,0,318,938,968,105,89014,98027,14301,0,230,5.6,0,0,0,0,0,0,0,0,0,0,0,0,0
2012,4,8,14,0,,19,-0.9,26,100590,0,0,340,796,712,201,70627,70084,25865,0,230,5.4,4,0,0,0,0,0,0,0,0,0,0,0,0
2012,4,8,15,0,,19.3,-1.2,25,100500,0,0,347,630,495,254,51866,48308,28815,0,250,6.5,6,0,0,0,0,0,0,0,0,0,0,0,0
2012,4,8,16,0,,19.1,-1.4,25,100420,0,0,345,495,435,218,34667,36033,24265,0,250,5.9,6,0,0,0,0,0,0,0,0,0,0,0,0
2012,4,8,17,0,,18.1,0.2,30,100560,0,0,347,315,286,180,19633,10374,18740,0,270,4.9,7,0,0,0,0,0,0,0,0,0,0,0,0
2012,4,8,18,0,,16.6,2.2,38,100590,0,0,342,166,240,98,0,0,0,0,250,4,7,0,0,0,0,0,0,0,0,0,0,0,0
2012,4,8,19,0,,16,2.3,40,100650,0,0,341,48,20,28,0,0,0,0,250,5,7,0,0,0,0,0,0,0,0,0,0,0,0
2012,4,8,20,0,,15.6,3,43,100720,0,0,341,0,0,0,0,0,0,0,230,3.8,8,0,0,0,0,0,0,0,0,0,0,0,0
2012,4,8,21,0,,15.4,3.8,46,100800,0,0,343,0,0,0,0,0,0,0,230,3.7,8,0,0,0,0,0,0,0,0,0,0,0,0
2012,4,8,22,0,,14.4,4.9,53,100860,0,0,340,0,0,0,0,0,0,0,230,4,8,0,0,0,0,0,0,0,0,0,0,0,0
2012,4,8,23,0,,14.1,5.4,56,100900,0,0,339,0,0,0,0,0,0,0,200,1,8,0,0,0,0,0,0,0,0,0,0,0,0
2012,4,8,24,0,,13.4,6.2,62,100900,0,0,337,0,0,0,0,0,0,0,230,1.5,8,0,0,0,0,0,0,0,0,0,0,0,0
2012,4,9,1,0,,13.4,6.9,65,100920,0,0,337,0,0,0,0,0,0,0,230,0.7,8,0,0,0,0,0,0,0,0,0,0,0,0
2012,4,9,2,0,,13.1,7.1,67,100920,0,0,336,0,0,0,0,0,0,0,180,1.8,8,0,0,0,0,0,0,0,0,0,0,0,0
2012,4,9,3,0,,13.1,7.7,70,100930,0,0,337,0,0,0,0,0,0,0,230,1.2,8,0,0,0,0,0,0,0,0,0,0,0,0
2012,4,9,4,0,,12.6,7.8,73,100920,0,0,330,0,0,0,0,0,0,0,140,0.9,7,0,0,0,0,0,0,0,0,0,0,0,0
2012,4,9,5,0,,12.4,7.6,73,100980,0,0,334,0,0,0,0,0,0,0,230,1.5,8,0,0,0,0,0,0,0,0,0,0,0,0
2012,4,9,6,0,,12.2,7.2,72,100960,0,0,332,0,0,0,0,0,0,0,230,2,8,0,0,0,0,0,0,0,0,0,0,0,0
2012,4,9,7,0,,10.2,7.6,84,101000,0,0,324,27,4,23,2966,370,2792,0,360,1,8,0,0,0,0,0,0,0,0,0,0,0,0
2012,4,9,8,0,,10.1,6.9,81,101040,0,0,317,131,132,95,20841,13137,12500,0,360,0.9,7,0,0,0,0,0,0,0,0,0,0,0,0
2012,4,9,9,0,,13,6.1,63,101060,0,0,326,294,246,180,42486,24464,23882,0,180,1.2,6,0,0,0,0,0,0,0,0,0,0,0,0
2012,4,9,10,0,,15.6,6.5,55,101070,0,0,316,583,712,135,78837,73008,17521,0,140,2,0,0,0,0,0,0,0,0,0,0,0,0,0
2012,4,9,11,0,,17.7,5.6,45,101050,0,0,325,745,794,145,89001,81267,18483,0,200,1.7,0,0,0,0,0,0,0,0,0,0,0,0,0
2012,4,9,12,0,,20.2,3.3,33,100990,0,0,334,835,803,164,89372,81525,20711,0,160,2,0,0,0,0,0,0,0,0,0,0,0,0,0
2012,4,9,13,0,,21.6,-0.4,23,100910,0,0,335,873,818,166,84201,82210,21310,0,200,2.4,0,0,0,0,0,0,0,0,0,0,0,0,0
2012,4,9,14,0,,23,-2.6,18,100850,0,0,339,838,803,165,73478,80068,22119,0,230,2.7,0,0,0,0,0,0,0,0,0,0,0,0,0
2012,4,9,15,0,,23.9,-5.2,14,100810,0,0,339,747,783,150,56077,74958,20103,0,250,2.2,0,0,0,0,0,0,0,0,0,0,0,0,0
2012,4,9,16,0,,24.2,-7,12,100780,0,0,336,615,776,119,34724,64855,15819,0,250,2.1,0,0,0,0,0,0,0,0,0,0,0,0,0
2012,4,9,17,0,,23.9,-6.2,13,100780,0,0,337,440,737,89,12991,29025,10408,0,270,2,0,0,0,0,0,0,0,0,0,0,0,0,0
2012,4,9,18,0,,22.6,-5.3,15,100820,0,0,333,249,672,56,0,0,0,0,250,1.9,0,0,0,0,0,0,0,0,0,0,0,0,0
2012,4,9,19,0,,20.7,-6,16,100870,0,0,324,70,46,24,0,0,0,0,250,1.8,0,0,0,0,0,0,0,0,0,0,0,0,0
2012,4,9,20,0,,18,-2.3,25,100940,0,0,317,0,0,0,0,0,0,0,90,0.8,0,0,0,0,0,0,0,0,0,0,0,0,0
2012,4,9,21,0,,14.5,1.7,42,101040,0,0,306,0,0,0,0,0,0,0,20,1.1,0,0,0,0,0,0,0,0,0,0,0,0,0
2012,4,9,22,0,,11.9,2,51,101080,0,0,301,0,0,0,0,0,0,0,0,0.3,1,0,0,0,0,0,0,0,0,0,0,0,0
2012,4,9,23,0,,10.6,0.5,50,101120,0,0,298,0,0,0,0,0,0,0,360,0.7,2,0,0,0,0,0,0,0,0,0,0,0,0
2012,4,9,24,0,,9,1.4,59,101180,0,0,295,0,0,0,0,0,0,0,20,0.9,3,0,0,0,0,0,0,0,0,0,0,0,0
2012,4,10,1,0,,8.3,0.7,59,101190,0,0,294,0,0,0,0,0,0,0,360,0.5,4,0,0,0,0,0,0,0,0,0,0,0,0
2012,4,10,2,0,,8.1,0.7,60,101200,0,0,297,0,0,0,0,0,0,0,0,0.3,6,0,0,0,0,0,0,0,0,0,0,0,0
2012,4,10,3,0,,7.1,1.1,66,101220,0,0,297,0,0,0,0,0,0,0,20,0.5,7,0,0,0,0,0,0,0,0,0,0,0,0
2012,4,10,4,0,,6.8,1.4,69,101220,0,0,296,0,0,0,0,0,0,0,0,0.1,7,0,0,0,0,0,0,0,0,0,0,0,0
2012,4,10,5,0,,5.9,1.7,75,101180,0,0,293,0,0,0,0,0,0,0,320,1,7,0,0,0,0,0,0,0,0,0,0,0,0
2012,4,10,6,0,,6.2,1.3,71,101250,0,0,294,0,0,0,0,0,0,0,110,0.8,7,0,0,0,0,0,0,0,0,0,0,0,0
2012,4,10,7,0,,6,1.8,75,101220,0,0,293,41,13,28,3958,1219,3377,0,340,0.9,7,0,0,0,0,0,0,0,0,0,0,0,0
2012,4,10,8,0,,7.4,1.4,66,101170,0,0,304,137,143,97,21905,14679,12526,0,90,0.7,8,0,0,0,0,0,0,0,0,0,0,0,0
2012,4,10,9,0,,8.7,0.8,58,101110,0,0,309,259,162,183,34967,16834,22104,0,0,0.3,8,0,0,0,0,0,0,0,0,0,0,0,0
2012,4,10,10,0,,10.1,1.1,54,101040,0,0,322,315,101,251,37935,10422,29146,0,340,1.1,9,0,0,0,0,0,0,0,0,0,0,0,0
2012,4,10,11,0,,12.3,0.3,44,101000,0,0,341,340,67,288,38762,6661,32960,0,140,0.8,10,0,0,0,0,0,0,0,0,0,0,0,0
2012,4,10,12,0,,14.4,2.6,45,100900,0,0,354,379,65,324,42356,6406,36943,0,320,1,10,0,0,0,0,0,0,0,0,0,0,0,0
2012,4,10,13,0,,14.8,3.8,48,100830,0,0,358,376,57,327,41394,5615,37083,0,0,0.4,10,0,0,0,0,0,0,0,0,0,0,0,0
2012,4,10,14,0,,16.1,7,55,100600,0,0,368,354,53,309,38378,5190,35035,0,20,2.7,10,0,0,0,0,0,0,0,0,0,0,0,0
2012,4,10,15,0,,15.6,6.3,54,100520,0,0,365,267,34,241,28188,2868,26804,0,0,0.4,10,0,0,0,0,0,0,0,0,0,0,0,0
2012,4,10,16,0,,15.6,10.1,70,100440,0,0,370,201,28,183,20222,2053,19618,0,160,1.3,10,0,0,0,0,0,0,0,0,0,0,0,0
2012,4,10,17,0,,14.2,12.5,90,100360,0,0,366,107,13,101,10138,463,10095,0,360,0.8,10,0,0,0,0,0,0,0,0,0,0,0,0
2012,4,10,18,0,,14,10.9,82,100250,0,0,363,66,16,61,0,0,0,0,180,1.3,10,0,0,0,0,0,0,0,0,0,0,0,0
2012,4,10,19,0,,13.3,11.6,90,100130,0,0,360,13,0,13,0,0,0,0,0,0.4,10,0,0,0,0,0,0,0,0,0,0,0,0
2012,4,10,20,0,,12.6,11.4,93,100050,0,0,357,0,0,0,0,0,0,0,360,0.7,10,0,0,0,0,0,0,0,0,0,0,0,0
2012,4,10,21,0,,12.2,11.4,95,100020,0,0,355,0,0,0,0,0,0,0,360,1,10,0,0,0,0,0,0,0,0,0,0,0,0
2012,4,10,22,0,,11.8,11,95,99950,0,0,352,0,0,0,0,0,0,0,340,1.3,10,0,0,0,0,0,0,0,0,0,0,0,0
2012,4,10,23,0,,11.6,10.8,95,99880,0,0,351,0,0,0,0,0,0,0,0,0.2,10,0,0,0,0,0,0,0,0,0,0,0,0
2012,4,10,24,0,,11.5,10.8,96,99800,0,0,351,0,0,0,0,0,0,0,0,0,10,0,0,0,0,0,0,0,0,0,0,0,0
2012,4,11,1,0,,11.3,10.6,96,99790,0,0,349,0,0,0,0,0,0,0,270,0.7,10,0,0,0,0,0,0,0,0,0,0,0,0
2012,4,11,2,0,,11.2,10.5,96,99710,0,0,349,0,0,0,0,0,0,0,0,0.2,10,0,0,0,0,0,0,0,0,0,0,0,0
2012,4,11,3,0,,11.3,10.6,96,99640,0,0,349,0,0,0,0,0,0,0,290,0.5,10,0,0,0,0,0,0,0,0,0,0,0,0
2012,4,11,4,0,,11.3,10.6,96,99560,0,0,349,0,0,0,0,0,0,0,0,0,10,0,0,0,0,0,0,0,0,0,0,0,0
2012,4,11,5,0,,11.2,10.5,96,99500,0,0,349,0,0,0,0,0,0,0,0,0,10,0,0,0,0,0,0,0,0,0,0,0,0
2012,4,11,6,0,,11.2,10.5,96,99460,0,0,349,0,0,0,0,0,0,0,110,0.5,10,0,0,0,0,0,0,0,0,0,0,0,0
2012,4,11,7,0,,11.4,10.7,96,99390,0,0,350,16,1,15,2028,33,2012,0,0,0.4,10,0,0,0,0,0,0,0,0,0,0,0,0
2012,4,11,8,0,,11.5,10.8,96,99320,0,0,351,68,19,63,8675,1728,7564,0,160,1.1,10,0,0,0,0,0,0,0,0,0,0,0,0
2012,4,11,9,0,,12.2,11.4,95,99350,0,0,355,125,21,116,15197,1904,13735,0,140,0.8,10,0,0,0,0,0,0,0,0,0,0,0,0
2012,4,11,10,0,,12.6,11.4,93,99420,0,0,357,176,20,163,20811,1852,19243,0,140,0.5,10,0,0,0,0,0,0,0,0,0,0,0,0
2012,4,11,11,0,,13.2,11.4,89,99450,0,0,360,224,21,208,26016,1975,24290,0,320,0.9,10,0,0,0,0,0,0,0,0,0,0,0,0
2012,4,11,12,0,,14,10.7,81,99420,0,0,353,338,47,298,38163,4477,34366,0,180,0.8,9,0,0,0,0,0,0,0,0,0,0,0,0
2012,4,11,13,0,,16.5,10.1,66,99350,0,0,344,666,277,424,69057,26846,48370,0,230,1.7,5,0,0,0,0,0,0,0,0,0,0,0,0
2012,4,11,14,0,,18.4,8,51,99300,0,0,351,679,334,397,65931,32468,44929,0,230,1,5,0,0,0,0,0,0,0,0,0,0,0,0
2012,4,11,15,0,,18.9,7.9,49,99230,0,0,360,534,230,357,50440,21261,40121,0,250,1.6,7,0,0,0,0,0,0,0,0,0,0,0,0
2012,4,11,16,0,,18.9,8.5,51,99190,0,0,357,464,297,273,37469,23579,30464,0,230,2.9,6,0,0,0,0,0,0,0,0,0,0,0,0
2012,4,11,17,0,,17.6,8.4,55,99220,0,0,378,161,39,142,14113,2808,13846,0,250,2.6,10,0,0,0,0,0,0,0,0,0,0,0,0
2012,4,11,18,0,,15.8,12.3,80,99270,0,0,356,110,65,91,0,0,0,0,200,0.9,8,0,0,0,0,0,0,0,0,0,0,0,0
2012,4,11,19,0,,15.1,13.2,89,99390,0,0,354,28,4,24,0,0,0,0,110,0.5,8,0,0,0,0,0,0,0,0,0,0,0,0
2012,4,11,20,0,,14.3,11.9,86,99540,0,0,337,0,0,0,0,0,0,0,160,0.7,6,0,0,0,0,0,0,0,0,0,0,0,0
2012,4,11,21,0,,13,11,88,99670,0,0,324,0,0,0,0,0,0,0,90,0.6,3,0,0,0,0,0,0,0,0,0,0,0,0
2012,4,11,22,0,,11.9,8.7,81,99740,0,0,313,0,0,0,0,0,0,0,180,1.3,2,0,0,0,0,0,0,0,0,0,0,0,0
2012,4,11,23,0,,11.7,5.1,64,99790,0,0,304,0,0,0,0,0,0,0,230,2.2,1,0,0,0,0,0,0,0,0,0,0,0,0
2012,4,11,24,0,,11,3.5,60,99850,0,0,293,0,0,0,0,0,0,0,230,2.1,0,0,0,0,0,0,0,0,0,0,0,0,0
2012,4,12,1,0,,8.2,6.8,91,99900,0,0,286,0,0,0,0,0,0,0,360,0.9,0,0,0,0,0,0,0,0,0,0,0,0,0
2012,4,12,2,0,,6.9,5.9,94,99930,0,0,280,0,0,0,0,0,0,0,20,0.6,0,0,0,0,0,0,0,0,0,0,0,0,0
2012,4,12,3,0,,6,5.1,94,100000,0,0,275,0,0,0,0,0,0,0,0,0,0,0,0,0,0,0,0,0,0,0,0,0,0
2012,4,12,4,0,,5,4.1,94,100000,0,0,270,0,0,0,0,0,0,0,0,0.4,0,0,0,0,0,0,0,0,0,0,0,0,0
2012,4,12,5,0,,4,3.2,95,100000,0,0,275,0,0,0,0,0,0,0,290,0.7,2,0,0,0,0,0,0,0,0,0,0,0,0
2012,4,12,6,0,,3.4,2.6,95,100040,0,0,268,0,0,0,0,0,0,0,270,0.9,1,0,0,0,0,0,0,0,0,0,0,0,0
2012,4,12,7,0,,3.6,2.8,95,100150,0,0,273,56,31,25,5111,3033,3641,0,90,0.7,2,0,0,0,0,0,0,0,0,0,0,0,0
2012,4,12,8,0,,5.8,0.5,69,100180,0,0,278,230,553,71,46812,56598,10204,0,200,2.3,2,0,0,0,0,0,0,0,0,0,0,0,0
2012,4,12,9,0,,7.8,0.7,61,100190,0,0,292,394,563,125,62414,57655,17939,0,200,2.3,4,0,0,0,0,0,0,0,0,0,0,0,0
2012,4,12,10,0,,9.4,0.2,53,100170,0,0,300,538,547,187,71844,55557,24624,0,160,2.5,5,0,0,0,0,0,0,0,0,0,0,0,0
2012,4,12,11,0,,11.1,-1.6,41,100110,0,0,312,561,270,355,64140,28111,39486,0,180,1.9,7,0,0,0,0,0,0,0,0,0,0,0,0
2012,4,12,12,0,,12.4,-4.2,31,100080,0,0,320,562,187,404,61444,19314,45010,0,230,2.5,8,0,0,0,0,0,0,0,0,0,0,0,0
2012,4,12,13,0,,13.2,-5.9,26,100040,0,0,322,590,191,423,61886,19652,46689,0,230,3.5,8,0,0,0,0,0,0,0,0,0,0,0,0
2012,4,12,14,0,,13.7,-3.5,30,99950,0,0,322,612,238,410,60772,23947,45219,0,200,4,7,0,0,0,0,0,0,0,0,0,0,0,0
2012,4,12,15,0,,13.9,-3.4,30,99910,0,0,328,469,157,349,46270,15589,38662,0,230,2.7,8,0,0,0,0,0,0,0,0,0,0,0,0
2012,4,12,16,0,,13.8,-4.9,27,99910,0,0,326,398,183,280,35811,17138,30672,0,230,4.4,8,0,0,0,0,0,0,0,0,0,0,0,0
2012,4,12,17,0,,13.2,-1.5,36,99960,0,0,343,190,61,160,17720,4384,17291,0,230,4.8,10,0,0,0,0,0,0,0,0,0,0,0,0
2012,4,12,18,0,,11.9,-0.9,41,100040,0,0,338,101,50,86,0,0,0,0,230,4.9,10,0,0,0,0,0,0,0,0,0,0,0,0
2012,4,12,19,0,,11.1,-0.4,45,100090,0,0,334,25,3,22,0,0,0,0,230,3.4,10,0,0,0,0,0,0,0,0,0,0,0,0
2012,4,12,20,0,,10.6,-0.8,45,100170,0,0,331,0,0,0,0,0,0,0,230,3.5,10,0,0,0,0,0,0,0,0,0,0,0,0
2012,4,12,21,0,,10.3,-1.1,45,100260,0,0,330,0,0,0,0,0,0,0,200,2.8,10,0,0,0,0,0,0,0,0,0,0,0,0
2012,4,12,22,0,,9.9,-4.1,37,100290,0,0,318,0,0,0,0,0,0,0,180,2.4,9,0,0,0,0,0,0,0,0,0,0,0,0
2012,4,12,23,0,,9.3,-5.4,35,100330,0,0,309,0,0,0,0,0,0,0,140,1.3,9,0,0,0,0,0,0,0,0,0,0,0,0
2012,4,12,24,0,,8.1,0.3,58,100350,0,0,305,0,0,0,0,0,0,0,50,0.8,8,0,0,0,0,0,0,0,0,0,0,0,0
2012,4,13,1,0,,6.6,0.8,67,100380,0,0,298,0,0,0,0,0,0,0,0,0.3,8,0,0,0,0,0,0,0,0,0,0,0,0
2012,4,13,2,0,,5.3,1.2,75,100390,0,0,291,0,0,0,0,0,0,0,0,0.3,7,0,0,0,0,0,0,0,0,0,0,0,0
2012,4,13,3,0,,4.8,0.3,73,100450,0,0,287,0,0,0,0,0,0,0,0,0.1,7,0,0,0,0,0,0,0,0,0,0,0,0
2012,4,13,4,0,,4.1,0.6,78,100480,0,0,289,0,0,0,0,0,0,0,0,0,8,0,0,0,0,0,0,0,0,0,0,0,0
2012,4,13,5,0,,3.6,0.4,80,100510,0,0,287,0,0,0,0,0,0,0,340,0.7,8,0,0,0,0,0,0,0,0,0,0,0,0
2012,4,13,6,0,,3.5,0.5,81,100510,0,0,286,0,0,0,0,0,0,0,0,0.3,8,0,0,0,0,0,0,0,0,0,0,0,0
2012,4,13,7,0,,3.6,0,77,100540,0,0,286,36,8,28,3741,698,3400,0,0,0.4,8,0,0,0,0,0,0,0,0,0,0,0,0
2012,4,13,8,0,,4.4,0.3,75,100550,0,0,290,138,125,101,21350,12857,12985,0,340,1.1,8,0,0,0,0,0,0,0,0,0,0,0,0
2012,4,13,9,0,,5.9,-0.1,65,100530,0,0,296,257,145,187,34183,15043,22526,0,0,0.3,8,0,0,0,0,0,0,0,0,0,0,0,0
2012,4,13,10,0,,7.9,-0.6,55,100520,0,0,310,327,105,259,39276,10917,29961,0,90,0.9,9,0,0,0,0,0,0,0,0,0,0,0,0
2012,4,13,11,0,,9.7,-3.6,39,100490,0,0,308,487,174,353,55676,18025,39814,0,340,0.7,8,0,0,0,0,0,0,0,0,0,0,0,0
2012,4,13,12,0,,12.2,-0.6,41,100370,0,0,323,557,180,404,61033,18456,45278,0,320,1.2,8,0,0,0,0,0,0,0,0,0,0,0,0
2012,4,13,13,0,,14.2,-0.6,36,100280,0,0,332,599,198,426,62940,20102,47343,0,270,1.6,8,0,0,0,0,0,0,0,0,0,0,0,0
2012,4,13,14,0,,16.1,-1,31,100230,0,0,341,589,210,411,59114,21022,45406,0,230,1.3,8,0,0,0,0,0,0,0,0,0,0,0,0
2012,4,13,15,0,,17.1,-2,27,100180,0,0,352,451,138,344,44926,13715,38196,0,230,1.5,9,0,0,0,0,0,0,0,0,0,0,0,0
2012,4,13,16,0,,16.9,-2.2,27,100130,0,0,351,349,124,268,32994,11492,29516,0,230,2.5,9,0,0,0,0,0,0,0,0,0,0,0,0
2012,4,13,17,0,,16.8,-1.8,28,100130,0,0,343,283,184,193,22067,13840,20672,0,230,2.1,8,0,0,0,0,0,0,0,0,0,0,0,0
2012,4,13,18,0,,16.2,-0.9,31,100150,0,0,342,162,190,105,0,0,0,0,230,3.1,8,0,0,0,0,0,0,0,0,0,0,0,0
2012,4,13,19,0,,15.4,0.3,36,100150,0,0,337,46,14,31,0,0,0,0,200,1.7,8,0,0,0,0,0,0,0,0,0,0,0,0
2012,4,13,20,0,,14.5,2.3,44,100190,0,0,333,0,0,0,0,0,0,0,200,2.2,7,0,0,0,0,0,0,0,0,0,0,0,0
2012,4,13,21,0,,13.4,2.8,49,100290,0,0,327,0,0,0,0,0,0,0,200,1.9,7,0,0,0,0,0,0,0,0,0,0,0,0
2012,4,13,22,0,,12.5,2.8,52,100340,0,0,325,0,0,0,0,0,0,0,200,1.5,7,0,0,0,0,0,0,0,0,0,0,0,0
2012,4,13,23,0,,11.5,2.7,55,100380,0,0,322,0,0,0,0,0,0,0,160,0.6,8,0,0,0,0,0,0,0,0,0,0,0,0
2012,4,13,24,0,,10,4.5,69,100410,0,0,319,0,0,0,0,0,0,0,0,0.3,8,0,0,0,0,0,0,0,0,0,0,0,0
2012,4,14,1,0,,8.7,5,78,100390,0,0,310,0,0,0,0,0,0,0,360,0.6,7,0,0,0,0,0,0,0,0,0,0,0,0
2012,4,14,2,0,,7.6,4.8,83,100430,0,0,303,0,0,0,0,0,0,0,0,0.1,7,0,0,0,0,0,0,0,0,0,0,0,0
2012,4,14,3,0,,6.5,4.1,85,100460,0,0,295,0,0,0,0,0,0,0,0,0.1,6,0,0,0,0,0,0,0,0,0,0,0,0
2012,4,14,4,0,,5.3,3.4,88,100490,0,0,285,0,0,0,0,0,0,0,20,0.5,4,0,0,0,0,0,0,0,0,0,0,0,0
2012,4,14,5,0,,4.5,2.5,87,100540,0,0,278,0,0,0,0,0,0,0,0,0,3,0,0,0,0,0,0,0,0,0,0,0,0
2012,4,14,6,0,,3.6,2.4,92,100580,0,0,263,0,0,0,0,0,0,0,0,0.3,0,0,0,0,0,0,0,0,0,0,0,0,0
2012,4,14,7,0,,3.8,1.9,88,100660,0,0,263,63,30,33,5776,2980,4307,0,0,0.1,0,0,0,0,0,0,0,0,0,0,0,0,0
2012,4,14,8,0,,5.1,2.6,84,100650,0,0,269,221,458,85,43644,46656,13112,0,320,0.5,0,0,0,0,0,0,0,0,0,0,0,0,0
2012,4,14,9,0,,7.9,2.1,67,100650,0,0,279,420,629,114,65357,64412,15218,0,340,0.5,0,0,0,0,0,0,0,0,0,0,0,0,0
2012,4,14,10,0,,10.8,3.5,61,100630,0,0,292,601,706,143,79998,72113,18243,0,320,1.6,0,0,0,0,0,0,0,0,0,0,0,0,0
2012,4,14,11,0,,13.6,3.9,52,100600,0,0,305,749,757,163,88445,77028,20432,0,50,1,0,0,0,0,0,0,0,0,0,0,0,0,0
2012,4,14,12,0,,16.1,2.4,40,100500,0,0,314,854,804,168,90933,81555,21088,0,250,1,0,0,0,0,0,0,0,0,0,0,0,0,0
2012,4,14,13,0,,17.8,3.6,39,100430,0,0,323,867,768,192,85380,77190,25285,0,110,1.4,0,0,0,0,0,0,0,0,0,0,0,0,0
2012,4,14,14,0,,20,4.4,36,100330,0,0,334,838,767,184,74065,75779,24454,0,230,1.7,0,0,0,0,0,0,0,0,0,0,0,0,0
2012,4,14,15,0,,21.4,2.6,29,100240,0,0,338,762,783,154,57732,74706,20882,0,270,1.9,0,0,0,0,0,0,0,0,0,0,0,0,0
2012,4,14,16,0,,21.7,1.3,26,100230,0,0,338,627,772,124,36491,64993,16647,0,230,2.7,0,0,0,0,0,0,0,0,0,0,0,0,0
2012,4,14,17,0,,21.1,0.8,26,100220,0,0,335,444,706,99,14632,32453,11266,0,230,3.1,0,0,0,0,0,0,0,0,0,0,0,0,0
2012,4,14,18,0,,19.9,2.6,32,100230,0,0,332,248,594,69,0,0,0,0,230,2.2,0,0,0,0,0,0,0,0,0,0,0,0,0
2012,4,14,19,0,,18.3,3.3,37,100300,0,0,331,73,45,27,0,0,0,0,200,1.9,1,0,0,0,0,0,0,0,0,0,0,0,0
2012,4,14,20,0,,16.9,2.8,39,100370,0,0,329,0,0,0,0,0,0,0,200,2.6,2,0,0,0,0,0,0,0,0,0,0,0,0
2012,4,14,21,0,,15.8,2.5,41,100420,0,0,326,0,0,0,0,0,0,0,200,1.5,3,0,0,0,0,0,0,0,0,0,0,0,0
2012,4,14,22,0,,13.2,6,62,100440,0,0,319,0,0,0,0,0,0,0,0,0.4,3,0,0,0,0,0,0,0,0,0,0,0,0
2012,4,14,23,0,,11.4,5.9,69,100480,0,0,312,0,0,0,0,0,0,0,0,0,4,0,0,0,0,0,0,0,0,0,0,0,0
2012,4,14,24,0,,10.1,5.4,73,100500,0,0,307,0,0,0,0,0,0,0,20,0.6,4,0,0,0,0,0,0,0,0,0,0,0,0
2012,4,15,1,0,,9,5.5,79,100500,0,0,304,0,0,0,0,0,0,0,0,0,5,0,0,0,0,0,0,0,0,0,0,0,0
2012,4,15,2,0,,8.2,4.9,80,100480,0,0,301,0,0,0,0,0,0,0,0,0.3,5,0,0,0,0,0,0,0,0,0,0,0,0
2012,4,15,3,0,,7.2,4.8,85,100480,0,0,299,0,0,0,0,0,0,0,0,0.1,6,0,0,0,0,0,0,0,0,0,0,0,0
2012,4,15,4,0,,6.6,4.4,86,100500,0,0,296,0,0,0,0,0,0,0,20,0.5,6,0,0,0,0,0,0,0,0,0,0,0,0
2012,4,15,5,0,,6,4.1,88,100500,0,0,296,0,0,0,0,0,0,0,0,0.4,7,0,0,0,0,0,0,0,0,0,0,0,0
2012,4,15,6,0,,5.7,3.8,88,100530,0,0,295,0,0,0,0,0,0,0,0,0.1,7,0,0,0,0,0,0,0,0,0,0,0,0
2012,4,15,7,0,,5.8,3.7,87,100550,0,0,295,41,11,31,4209,969,3728,0,70,0.5,7,0,0,0,0,0,0,0,0,0,0,0,0
2012,4,15,8,0,,6.7,4.1,84,100550,0,0,299,155,159,107,24386,16093,13795,0,0,0.4,7,0,0,0,0,0,0,0,0,0,0,0,0
2012,4,15,9,0,,8.4,4.4,76,100540,0,0,307,282,178,194,37888,18208,23653,0,0,0.1,7,0,0,0,0,0,0,0,0,0,0,0,0
2012,4,15,10,0,,11.3,4.7,64,100510,0,0,320,436,232,285,53581,23656,33249,0,360,0.6,7,0,0,0,0,0,0,0,0,0,0,0,0
2012,4,15,11,0,,14,4.2,52,100470,0,0,332,566,262,362,64712,26736,41028,0,340,1.2,7,0,0,0,0,0,0,0,0,0,0,0,0
2012,4,15,12,0,,17,2.9,39,100370,0,0,341,730,509,294,79247,51077,35366,0,290,1,6,0,0,0,0,0,0,0,0,0,0,0,0
2012,4,15,13,0,,19.7,1.6,30,100280,0,0,329,900,834,165,86747,84014,21122,0,230,1.1,0,0,0,0,0,0,0,0,0,0,0,0,0
2012,4,15,14,0,,22.1,0.5,24,100120,0,0,339,893,883,137,76597,88367,18521,0,160,1.4,0,0,0,0,0,0,0,0,0,0,0,0,0
2012,4,15,15,0,,23.2,-0.3,21,100010,0,0,343,784,831,138,58716,80125,18986,0,200,2,0,0,0,0,0,0,0,0,0,0,0,0,0
2012,4,15,16,0,,23.9,0.2,21,99970,0,0,358,630,772,125,36800,65272,16693,0,250,1.9,2,0,0,0,0,0,0,0,0,0,0,0,0
2012,4,15,17,0,,23.8,-0.5,20,99930,0,0,357,447,706,99,14893,33324,11340,0,270,2.1,2,0,0,0,0,0,0,0,0,0,0,0,0
2012,4,15,18,0,,22.3,0.7,24,99970,0,0,340,262,660,61,0,0,0,0,250,3.8,0,0,0,0,0,0,0,0,0,0,0,0,0
2012,4,15,19,0,,20.6,0.9,27,100050,0,0,333,78,53,25,0,0,0,0,250,3.4,0,0,0,0,0,0,0,0,0,0,0,0,0
2012,4,15,20,0,,19,1,30,100130,0,0,325,0,0,0,0,0,0,0,230,1.2,0,0,0,0,0,0,0,0,0,0,0,0,0
2012,4,15,21,0,,16.7,2.6,39,100220,0,0,317,0,0,0,0,0,0,0,180,0.6,0,0,0,0,0,0,0,0,0,0,0,0,0
2012,4,15,22,0,,14.5,2.6,45,100230,0,0,315,0,0,0,0,0,0,0,270,1.7,1,0,0,0,0,0,0,0,0,0,0,0,0
2012,4,15,23,0,,12.2,5.1,62,100220,0,0,312,0,0,0,0,0,0,0,0,0.4,3,0,0,0,0,0,0,0,0,0,0,0,0
2012,4,15,24,0,,10.2,4.9,70,100230,0,0,306,0,0,0,0,0,0,0,360,0.5,4,0,0,0,0,0,0,0,0,0,0,0,0
2012,4,16,1,0,,8.9,3.9,71,100230,0,0,301,0,0,0,0,0,0,0,20,0.8,5,0,0,0,0,0,0,0,0,0,0,0,0
2012,4,16,2,0,,8.1,3.5,73,100270,0,0,299,0,0,0,0,0,0,0,0,0.3,5,0,0,0,0,0,0,0,0,0,0,0,0
2012,4,16,3,0,,7.2,3.2,76,100300,0,0,297,0,0,0,0,0,0,0,200,0.8,6,0,0,0,0,0,0,0,0,0,0,0,0
2012,4,16,4,0,,6.7,2.7,76,100330,0,0,294,0,0,0,0,0,0,0,0,0.4,6,0,0,0,0,0,0,0,0,0,0,0,0
2012,4,16,5,0,,6.6,2.4,75,100320,0,0,293,0,0,0,0,0,0,0,140,0.5,6,0,0,0,0,0,0,0,0,0,0,0,0
2012,4,16,6,0,,5.8,3.2,84,100340,0,0,291,0,0,0,0,0,0,0,0,0.4,6,0,0,0,0,0,0,0,0,0,0,0,0
2012,4,16,7,0,,6.1,2.7,79,100380,0,0,295,46,14,33,4570,1289,3924,0,0,0.2,7,0,0,0,0,0,0,0,0,0,0,0,0
2012,4,16,8,0,,7.4,2.6,72,100410,0,0,294,203,359,93,38310,36540,14129,0,0,0.4,5,0,0,0,0,0,0,0,0,0,0,0,0
2012,4,16,9,0,,9.8,3,63,100430,0,0,307,352,349,179,51155,35131,23572,0,20,0.5,6,0,0,0,0,0,0,0,0,0,0,0,0
2012,4,16,10,0,,12.3,2.9,53,100440,0,0,319,499,395,240,64287,39745,30005,0,340,0.7,6,0,0,0,0,0,0,0,0,0,0,0,0
2012,4,16,11,0,,15,3.1,45,100390,0,0,328,683,577,233,80873,57967,29360,0,180,1.1,5,0,0,0,0,0,0,0,0,0,0,0,0
2012,4,16,12,0,,17.1,4.4,43,100290,0,0,335,813,697,215,88102,70079,27712,0,230,1.8,3,0,0,0,0,0,0,0,0,0,0,0,0
2012,4,16,13,0,,19.2,5.2,40,100180,0,0,346,846,707,220,83501,70407,28327,0,230,1.7,3,0,0,0,0,0,0,0,0,0,0,0,0
2012,4,16,14,0,,20.1,2.4,31,100090,0,0,347,818,706,211,72905,69402,27119,0,230,4.1,3,0,0,0,0,0,0,0,0,0,0,0,0
2012,4,16,15,0,,20.3,0.1,26,100010,0,0,345,730,691,190,56910,66561,23735,0,230,4,3,0,0,0,0,0,0,0,0,0,0,0,0
2012,4,16,16,0,,20.3,-2.7,21,99990,0,0,341,585,640,165,36879,54702,19881,0,250,3.2,3,0,0,0,0,0,0,0,0,0,0,0,0
2012,4,16,17,0,,20.3,-4.8,18,100040,0,0,338,438,664,109,15636,32379,12090,0,250,3.2,3,0,0,0,0,0,0,0,0,0,0,0,0
2012,4,16,18,0,,19.3,-2.9,22,100080,0,0,328,263,656,63,0,0,0,0,250,2.5,1,0,0,0,0,0,0,0,0,0,0,0,0
2012,4,16,19,0,,17.5,-1.2,28,100150,0,0,321,79,52,26,0,0,0,0,250,2,1,0,0,0,0,0,0,0,0,0,0,0,0
2012,4,16,20,0,,16.1,1.3,37,100220,0,0,315,0,0,0,0,0,0,0,230,1.3,0,0,0,0,0,0,0,0,0,0,0,0,0
2012,4,16,21,0,,13.9,1.8,44,100320,0,0,304,0,0,0,0,0,0,0,90,1.6,0,0,0,0,0,0,0,0,0,0,0,0,0
2012,4,16,22,0,,12.9,2.1,48,100380,0,0,300,0,0,0,0,0,0,0,90,1.8,0,0,0,0,0,0,0,0,0,0,0,0,0
2012,4,16,23,0,,11.9,1.2,48,100410,0,0,295,0,0,0,0,0,0,0,90,0.8,0,0,0,0,0,0,0,0,0,0,0,0,0
2012,4,16,24,0,,10.7,2,55,100460,0,0,290,0,0,0,0,0,0,0,50,0.8,0,0,0,0,0,0,0,0,0,0,0,0,0
2012,4,17,1,0,,8.4,4.2,75,100500,0,0,283,0,0,0,0,0,0,0,360,1.2,0,0,0,0,0,0,0,0,0,0,0,0,0
2012,4,17,2,0,,7.4,3,74,100530,0,0,278,0,0,0,0,0,0,0,340,0.6,0,0,0,0,0,0,0,0,0,0,0,0,0
2012,4,17,3,0,,6.4,3.5,82,100560,0,0,275,0,0,0,0,0,0,0,0,0.1,0,0,0,0,0,0,0,0,0,0,0,0,0
2012,4,17,4,0,,5.8,2.7,81,100590,0,0,272,0,0,0,0,0,0,0,360,0.8,0,0,0,0,0,0,0,0,0,0,0,0,0
2012,4,17,5,0,,5.3,2.8,84,100640,0,0,270,0,0,0,0,0,0,0,360,0.7,0,0,0,0,0,0,0,0,0,0,0,0,0
2012,4,17,6,0,,4.6,2.4,86,100660,0,0,267,0,0,0,0,0,0,0,340,0.9,0,0,0,0,0,0,0,0,0,0,0,0,0
2012,4,17,7,0,,5.2,1.8,79,100730,0,0,268,72,39,34,6731,3862,4783,0,110,0.5,0,0,0,0,0,0,0,0,0,0,0,0,0
2012,4,17,8,0,,6.5,2.5,76,100750,0,0,274,242,521,81,46950,53301,11487,0,340,0.7,0,0,0,0,0,0,0,0,0,0,0,0,0
2012,4,17,9,0,,9,2.3,63,100770,0,0,284,429,623,119,66038,63782,15751,0,340,0.7,0,0,0,0,0,0,0,0,0,0,0,0,0
2012,4,17,10,0,,11.9,2.3,52,100770,0,0,296,620,729,139,82266,74526,17762,0,340,1.1,0,0,0,0,0,0,0,0,0,0,0,0,0
2012,4,17,11,0,,14.9,2,42,100720,0,0,314,780,805,149,91989,82211,18705,0,270,1.2,1,0,0,0,0,0,0,0,0,0,0,0,0
2012,4,17,12,0,,17.5,1.8,35,100640,0,0,333,855,784,179,90795,79312,22243,0,140,1.5,3,0,0,0,0,0,0,0,0,0,0,0,0
2012,4,17,13,0,,18.7,2,33,100560,0,0,339,862,736,208,84942,73827,26903,0,250,2.3,3,0,0,0,0,0,0,0,0,0,0,0,0
2012,4,17,14,0,,19.9,-0.1,26,100510,0,0,342,812,686,221,72540,67381,27921,0,230,1.9,3,0,0,0,0,0,0,0,0,0,0,0,0
2012,4,17,15,0,,20.4,0.7,27,100420,0,0,342,720,662,202,56875,63617,25005,0,250,1.3,2,0,0,0,0,0,0,0,0,0,0,0,0
2012,4,17,16,0,,21,-1.5,22,100350,0,0,338,616,718,142,37012,61631,17696,0,250,2.1,1,0,0,0,0,0,0,0,0,0,0,0,0
2012,4,17,17,0,,20.8,-1.7,22,100350,0,0,330,443,677,107,15806,33234,12070,0,230,1.7,0,0,0,0,0,0,0,0,0,0,0,0,0
2012,4,17,18,0,,20.2,-2.2,22,100340,0,0,327,264,644,65,0,0,0,0,200,1.1,0,0,0,0,0,0,0,0,0,0,0,0,0
2012,4,17,19,0,,18.8,-1.1,26,100380,0,0,322,82,56,26,0,0,0,0,250,1.3,0,0,0,0,0,0,0,0,0,0,0,0,0
2012,4,17,20,0,,15.9,2.9,42,100440,0,0,314,0,0,0,0,0,0,0,110,0.5,0,0,0,0,0,0,0,0,0,0,0,0,0
2012,4,17,21,0,,13.5,4.6,55,100550,0,0,305,0,0,0,0,0,0,0,0,0.2,0,0,0,0,0,0,0,0,0,0,0,0,0
2012,4,17,22,0,,11.9,4.6,61,100640,0,0,298,0,0,0,0,0,0,0,340,0.9,0,0,0,0,0,0,0,0,0,0,0,0,0
2012,4,17,23,0,,10.5,3.7,63,100700,0,0,291,0,0,0,0,0,0,0,0,0.1,0,0,0,0,0,0,0,0,0,0,0,0,0
2012,4,17,24,0,,9.2,4.4,72,100740,0,0,287,0,0,0,0,0,0,0,340,1.1,0,0,0,0,0,0,0,0,0,0,0,0,0
2012,4,18,1,0,,8.4,3.6,72,100790,0,0,288,0,0,0,0,0,0,0,0,0,1,0,0,0,0,0,0,0,0,0,0,0,0
2012,4,18,2,0,,7.4,3.4,76,100790,0,0,288,0,0,0,0,0,0,0,360,0.5,2,0,0,0,0,0,0,0,0,0,0,0,0
2012,4,18,3,0,,6.7,3.3,79,100800,0,0,288,0,0,0,0,0,0,0,360,0.9,3,0,0,0,0,0,0,0,0,0,0,0,0
2012,4,18,4,0,,5.9,3,82,100820,0,0,286,0,0,0,0,0,0,0,360,0.6,4,0,0,0,0,0,0,0,0,0,0,0,0
2012,4,18,5,0,,5.6,2.4,80,100890,0,0,282,0,0,0,0,0,0,0,0,0,3,0,0,0,0,0,0,0,0,0,0,0,0
2012,4,18,6,0,,4.9,2.7,86,100920,0,0,282,0,0,0,0,0,0,0,360,0.8,4,0,0,0,0,0,0,0,0,0,0,0,0
2012,4,18,7,0,,5,2.3,83,100980,0,0,280,71,33,38,6633,3331,4940,0,0,0.3,3,0,0,0,0,0,0,0,0,0,0,0,0
2012,4,18,8,0,,6.7,3.1,78,101010,0,0,287,233,449,91,44564,45767,13953,0,340,0.9,3,0,0,0,0,0,0,0,0,0,0,0,0
2012,4,18,9,0,,9.6,1.9,59,101010,0,0,298,422,583,129,65628,59674,18388,0,0,0.4,3,0,0,0,0,0,0,0,0,0,0,0,0
2012,4,18,10,0,,12.7,1,45,101000,0,0,311,624,730,140,82566,74571,17805,0,360,0.7,3,0,0,0,0,0,0,0,0,0,0,0,0
2012,4,18,11,0,,16,2,39,100960,0,0,329,759,747,171,88988,75849,21170,0,320,0.9,4,0,0,0,0,0,0,0,0,0,0,0,0
2012,4,18,12,0,,18.5,0.1,29,100900,0,0,341,804,661,233,86826,66535,29149,0,250,1.7,5,0,0,0,0,0,0,0,0,0,0,0,0
2012,4,18,13,0,,19.7,-0.9,25,100850,0,0,353,686,277,439,70878,28194,48644,0,250,0.7,7,0,0,0,0,0,0,0,0,0,0,0,0
2012,4,18,14,0,,21.3,-1.3,22,100770,0,0,366,586,195,417,59088,19548,46096,0,270,1.4,8,0,0,0,0,0,0,0,0,0,0,0,0
2012,4,18,15,0,,22.5,-2.3,19,100700,0,0,364,588,283,366,54029,27426,40221,0,250,1.8,7,0,0,0,0,0,0,0,0,0,0,0,0
2012,4,18,16,0,,22.8,-2,19,100650,0,0,366,480,297,284,39020,25426,30984,0,250,1.6,7,0,0,0,0,0,0,0,0,0,0,0,0
2012,4,18,17,0,,22.8,-2.7,18,100640,0,0,355,427,609,122,16918,30288,13427,0,250,1.3,4,0,0,0,0,0,0,0,0,0,0,0,0
2012,4,18,18,0,,22.1,-1.9,20,100660,0,0,350,261,616,69,0,0,0,0,230,1.9,3,0,0,0,0,0,0,0,0,0,0,0,0
2012,4,18,19,0,,20.5,-0.7,24,100690,0,0,344,81,52,29,0,0,0,0,250,1.2,3,0,0,0,0,0,0,0,0,0,0,0,0
2012,4,18,20,0,,17.5,3,38,100800,0,0,335,0,0,0,0,0,0,0,110,0.5,3,0,0,0,0,0,0,0,0,0,0,0,0
2012,4,18,21,0,,15,4.6,50,100850,0,0,325,0,0,0,0,0,0,0,0,0.2,3,0,0,0,0,0,0,0,0,0,0,0,0
2012,4,18,22,0,,13.2,4.6,56,100910,0,0,314,0,0,0,0,0,0,0,0,0,2,0,0,0,0,0,0,0,0,0,0,0,0
2012,4,18,23,0,,11.5,5.3,66,100950,0,0,303,0,0,0,0,0,0,0,0,0.3,1,0,0,0,0,0,0,0,0,0,0,0,0
2012,4,18,24,0,,10.8,4.4,65,101000,0,0,293,0,0,0,0,0,0,0,0,0.1,0,0,0,0,0,0,0,0,0,0,0,0,0
2012,4,19,1,0,,10,3.4,64,101010,0,0,300,0,0,0,0,0,0,0,50,0.6,2,0,0,0,0,0,0,0,0,0,0,0,0
2012,4,19,2,0,,9.1,4.1,71,101010,0,0,302,0,0,0,0,0,0,0,50,0.6,5,0,0,0,0,0,0,0,0,0,0,0,0
2012,4,19,3,0,,8.5,3.9,73,101020,0,0,307,0,0,0,0,0,0,0,50,0.6,7,0,0,0,0,0,0,0,0,0,0,0,0
2012,4,19,4,0,,8.2,3,70,101000,0,0,301,0,0,0,0,0,0,0,0,0.3,6,0,0,0,0,0,0,0,0,0,0,0,0
2012,4,19,5,0,,7.8,3.4,74,101000,0,0,299,0,0,0,0,0,0,0,90,1.2,6,0,0,0,0,0,0,0,0,0,0,0,0
2012,4,19,6,0,,7.4,3.4,76,101060,0,0,301,0,0,0,0,0,0,0,110,1.1,7,0,0,0,0,0,0,0,0,0,0,0,0
2012,4,19,7,0,,7.5,3.9,78,101120,0,0,299,63,27,36,6094,2679,4722,0,0,0.4,6,0,0,0,0,0,0,0,0,0,0,0,0
2012,4,19,8,0,,9.1,2.4,63,101150,0,0,304,200,291,107,34874,29223,15228,0,0,0.3,6,0,0,0,0,0,0,0,0,0,0,0,0
2012,4,19,9,0,,10.7,3,59,101170,0,0,315,316,224,202,42649,22990,24378,0,320,0.7,7,0,0,0,0,0,0,0,0,0,0,0,0
2012,4,19,10,0,,13.7,2.2,46,101150,0,0,324,522,432,234,67299,43623,29289,0,180,0.8,6,0,0,0,0,0,0,0,0,0,0,0,0
2012,4,19,11,0,,16.2,4.2,45,101090,0,0,335,682,549,248,80183,55005,30856,0,360,0.9,5,0,0,0,0,0,0,0,0,0,0,0,0
2012,4,19,12,0,,20,-0.1,26,101000,0,0,348,824,700,217,89089,70709,27617,0,270,2.1,5,0,0,0,0,0,0,0,0,0,0,0,0
2012,4,19,13,0,,21.8,-3.6,18,100910,0,0,355,790,559,290,79082,56807,34147,0,270,2,6,0,0,0,0,0,0,0,0,0,0,0,0
2012,4,19,14,0,,23.2,-1.7,19,100850,0,0,364,755,543,285,69679,54225,33509,0,320,1.9,6,0,0,0,0,0,0,0,0,0,0,0,0
2012,4,19,15,0,,24.2,-5.9,13,100780,0,0,356,733,680,197,57745,66650,24023,0,20,1.9,4,0,0,0,0,0,0,0,0,0,0,0,0
2012,4,19,16,0,,25.1,-10,9,100730,0,0,347,628,739,137,37652,65299,16839,0,180,2,3,0,0,0,0,0,0,0,0,0,0,0,0
2012,4,19,17,0,,24.4,-9.2,10,100750,0,0,355,389,467,155,18816,22877,16113,0,230,2.4,6,0,0,0,0,0,0,0,0,0,0,0,0
2012,4,19,18,0,,22.3,3.8,30,100790,0,0,372,190,258,109,0,0,0,0,50,3.3,7,0,0,0,0,0,0,0,0,0,0,0,0
2012,4,19,19,0,,18.9,4.2,38,100880,0,0,356,54,18,36,0,0,0,0,70,4.4,7,0,0,0,0,0,0,0,0,0,0,0,0
2012,4,19,20,0,,17.1,5,45,100980,0,0,348,0,0,0,0,0,0,0,70,3.7,7,0,0,0,0,0,0,0,0,0,0,0,0
2012,4,19,21,0,,15.9,6,52,101100,0,0,343,0,0,0,0,0,0,0,50,2.7,7,0,0,0,0,0,0,0,0,0,0,0,0
2012,4,19,22,0,,15,6.2,56,101170,0,0,340,0,0,0,0,0,0,0,70,3.2,7,0,0,0,0,0,0,0,0,0,0,0,0
2012,4,19,23,0,,14.4,6.4,59,101240,0,0,340,0,0,0,0,0,0,0,50,2.4,8,0,0,0,0,0,0,0,0,0,0,0,0
2012,4,19,24,0,,14.1,6.4,60,101270,0,0,340,0,0,0,0,0,0,0,50,2.2,8,0,0,0,0,0,0,0,0,0,0,0,0
2012,4,20,1,0,,13.7,6.5,62,101290,0,0,343,0,0,0,0,0,0,0,50,1.4,9,0,0,0,0,0,0,0,0,0,0,0,0
2012,4,20,2,0,,12.7,6.9,68,101300,0,0,344,0,0,0,0,0,0,0,340,2.2,9,0,0,0,0,0,0,0,0,0,0,0,0
2012,4,20,3,0,,12.3,6.1,66,101340,0,0,348,0,0,0,0,0,0,0,340,2.4,10,0,0,0,0,0,0,0,0,0,0,0,0
2012,4,20,4,0,,11.7,5.9,68,101360,0,0,345,0,0,0,0,0,0,0,360,1.9,10,0,0,0,0,0,0,0,0,0,0,0,0
2012,4,20,5,0,,11.1,6,71,101360,0,0,326,0,0,0,0,0,0,0,340,2,8,0,0,0,0,0,0,0,0,0,0,0,0
2012,4,20,6,0,,10.6,6.5,76,101390,0,0,324,0,0,0,0,0,0,0,360,2.1,8,0,0,0,0,0,0,0,0,0,0,0,0
2012,4,20,7,0,,10.9,6.2,73,101410,0,0,320,60,22,39,6159,2121,5065,0,360,1.8,7,0,0,0,0,0,0,0,0,0,0,0,0
2012,4,20,8,0,,12,6,67,101440,0,0,318,228,388,102,41999,39368,15400,0,360,2.7,5,0,0,0,0,0,0,0,0,0,0,0,0
2012,4,20,9,0,,14.1,5.4,56,101400,0,0,308,450,659,114,69242,67689,15238,0,360,2.7,0,0,0,0,0,0,0,0,0,0,0,0,0
2012,4,20,10,0,,17.1,5,45,101360,0,0,321,644,766,131,85653,78739,16825,0,70,2.1,0,0,0,0,0,0,0,0,0,0,0,0,0
2012,4,20,11,0,,18.9,4.6,39,101300,0,0,329,793,813,148,93548,83232,18693,0,20,3.4,0,0,0,0,0,0,0,0,0,0,0,0,0
2012,4,20,12,0,,20.8,4.7,35,101180,0,0,345,874,806,173,92921,81828,21583,0,50,3.5,1,0,0,0,0,0,0,0,0,0,0,0,0
2012,4,20,13,0,,22.1,4.1,31,101050,0,0,355,875,744,208,86085,74484,26991,0,50,4.2,2,0,0,0,0,0,0,0,0,0,0,0,0
2012,4,20,14,0,,22.7,4.2,30,101020,0,0,364,787,610,256,71677,60021,31497,0,50,4.3,4,0,0,0,0,0,0,0,0,0,0,0,0
2012,4,20,15,0,,23.1,3.5,28,100980,0,0,376,562,240,372,52941,22805,41346,0,50,2.5,7,0,0,0,0,0,0,0,0,0,0,0,0
2012,4,20,16,0,,23.1,1.9,25,100940,0,0,373,459,250,292,38921,21179,32115,0,90,3.2,7,0,0,0,0,0,0,0,0,0,0,0,0
2012,4,20,17,0,,21.6,1.7,27,100930,0,0,371,289,174,202,23365,13344,21750,0,90,4.1,8,0,0,0,0,0,0,0,0,0,0,0,0
2012,4,20,18,0,,19.7,1.6,30,100950,0,0,356,184,226,112,0,0,0,0,70,4.1,7,0,0,0,0,0,0,0,0,0,0,0,0
2012,4,20,19,0,,17.2,3.1,39,101080,0,0,347,54,18,37,0,0,0,0,50,3.6,7,0,0,0,0,0,0,0,0,0,0,0,0
2012,4,20,20,0,,15.4,2.5,42,101200,0,0,340,0,0,0,0,0,0,0,70,4.4,8,0,0,0,0,0,0,0,0,0,0,0,0
2012,4,20,21,0,,14.5,2,43,101360,0,0,337,0,0,0,0,0,0,0,70,3.3,8,0,0,0,0,0,0,0,0,0,0,0,0
2012,4,20,22,0,,13.8,0.7,41,101400,0,0,332,0,0,0,0,0,0,0,70,4,8,0,0,0,0,0,0,0,0,0,0,0,0
2012,4,20,23,0,,13.2,0.2,41,101290,0,0,328,0,0,0,0,0,0,0,70,2.4,8,0,0,0,0,0,0,0,0,0,0,0,0
2012,4,20,24,0,,12.8,0.1,42,101260,0,0,326,0,0,0,0,0,0,0,50,1.3,8,0,0,0,0,0,0,0,0,0,0,0,0
2012,4,21,1,0,,12.2,0.2,44,101180,0,0,326,0,0,0,0,0,0,0,70,2.3,8,0,0,0,0,0,0,0,0,0,0,0,0
2012,4,21,2,0,,11.8,0.8,47,101090,0,0,327,0,0,0,0,0,0,0,70,2.5,9,0,0,0,0,0,0,0,0,0,0,0,0
2012,4,21,3,0,,11.7,1.3,49,101080,0,0,330,0,0,0,0,0,0,0,70,2.7,9,0,0,0,0,0,0,0,0,0,0,0,0
2012,4,21,4,0,,11.3,3,57,101040,0,0,330,0,0,0,0,0,0,0,50,3,9,0,0,0,0,0,0,0,0,0,0,0,0
2012,4,21,5,0,,11.1,3.6,60,101020,0,0,330,0,0,0,0,0,0,0,20,3,9,0,0,0,0,0,0,0,0,0,0,0,0
2012,4,21,6,0,,11.1,4,62,101010,0,0,330,0,0,0,0,0,0,0,20,3.2,9,0,0,0,0,0,0,0,0,0,0,0,0
2012,4,21,7,0,,11.3,4.5,63,100930,0,0,341,35,4,30,4089,204,3983,0,50,3,10,0,0,0,0,0,0,0,0,0,0,0,0
2012,4,21,8,0,,11.4,4.5,63,100880,0,0,342,110,47,95,15013,4739,11796,0,50,3.3,10,0,0,0,0,0,0,0,0,0,0,0,0
2012,4,21,9,0,,11.6,4.3,61,100830,0,0,342,183,46,160,22173,4391,18657,0,50,4.1,10,0,0,0,0,0,0,0,0,0,0,0,0
2012,4,21,10,0,,11.1,5.4,68,100810,0,0,341,230,34,206,26882,3325,23967,0,70,4.9,10,0,0,0,0,0,0,0,0,0,0,0,0
2012,4,21,11,0,,10.6,6.5,76,100800,0,0,340,240,22,223,27761,2130,25839,0,70,4.1,10,0,0,0,0,0,0,0,0,0,0,0,0
2012,4,21,12,0,,9.5,6.7,83,100760,0,0,336,222,13,211,26655,932,25840,0,50,2.6,10,0,0,0,0,0,0,0,0,0,0,0,0
2012,4,21,13,0,,9.2,6.6,84,100630,0,0,334,238,14,225,27884,1062,27039,0,20,2.7,10,0,0,0,0,0,0,0,0,0,0,0,0
2012,4,21,14,0,,9.3,6.1,81,100440,0,0,334,240,16,226,27319,1264,26470,0,20,2.7,10,0,0,0,0,0,0,0,0,0,0,0,0
2012,4,21,15,0,,9.3,6,80,100270,0,0,334,243,23,225,26315,1885,25352,0,50,3.7,10,0,0,0,0,0,0,0,0,0,0,0,0
2012,4,21,16,0,,9.2,6.1,81,100160,0,0,333,204,25,187,20830,1905,20213,0,50,3.5,10,0,0,0,0,0,0,0,0,0,0,0,0
2012,4,21,17,0,,9.2,6.1,81,100120,0,0,333,149,27,136,13856,1604,13657,0,50,3.2,10,0,0,0,0,0,0,0,0,0,0,0,0
2012,4,21,18,0,,8.9,6.8,87,100040,0,0,333,78,19,72,0,0,0,0,20,1.8,10,0,0,0,0,0,0,0,0,0,0,0,0
2012,4,21,19,0,,8.8,7.5,92,100010,0,0,333,21,1,20,0,0,0,0,360,1,10,0,0,0,0,0,0,0,0,0,0,0,0
2012,4,21,20,0,,8.9,7.8,93,99990,0,0,334,0,0,0,0,0,0,0,0,0.3,10,0,0,0,0,0,0,0,0,0,0,0,0
2012,4,21,21,0,,9.3,6.9,85,99940,0,0,335,0,0,0,0,0,0,0,90,2.7,10,0,0,0,0,0,0,0,0,0,0,0,0
2012,4,21,22,0,,9.3,7.9,91,99830,0,0,336,0,0,0,0,0,0,0,360,1.5,10,0,0,0,0,0,0,0,0,0,0,0,0
2012,4,21,23,0,,9.5,8.2,92,99730,0,0,338,0,0,0,0,0,0,0,340,2.1,10,0,0,0,0,0,0,0,0,0,0,0,0
2012,4,21,24,0,,9.6,8.3,92,99630,0,0,338,0,0,0,0,0,0,0,340,3.1,10,0,0,0,0,0,0,0,0,0,0,0,0
2012,4,22,1,0,,9.7,8.6,93,99530,0,0,339,0,0,0,0,0,0,0,340,2.8,10,0,0,0,0,0,0,0,0,0,0,0,0
2012,4,22,2,0,,9.8,8.5,92,99410,0,0,339,0,0,0,0,0,0,0,340,3.1,10,0,0,0,0,0,0,0,0,0,0,0,0
2012,4,22,3,0,,9.7,8.6,93,99350,0,0,339,0,0,0,0,0,0,0,340,3.3,10,0,0,0,0,0,0,0,0,0,0,0,0
2012,4,22,4,0,,9.6,8.5,93,99280,0,0,339,0,0,0,0,0,0,0,340,3.2,10,0,0,0,0,0,0,0,0,0,0,0,0
2012,4,22,5,0,,9.6,8.5,93,99220,0,0,339,0,0,0,0,0,0,0,360,2.1,10,0,0,0,0,0,0,0,0,0,0,0,0
2012,4,22,6,0,,9.6,8.5,93,99210,0,0,339,0,0,0,0,0,0,0,360,1.9,10,0,0,0,0,0,0,0,0,0,0,0,0
2012,4,22,7,0,,9.4,8.1,92,99230,0,0,337,27,2,25,3336,85,3292,0,340,2.1,10,0,0,0,0,0,0,0,0,0,0,0,0
2012,4,22,8,0,,9.4,8.4,94,99310,0,0,337,80,18,74,10004,1719,8831,0,90,1.6,10,0,0,0,0,0,0,0,0,0,0,0,0
2012,4,22,9,0,,9.5,8.4,93,99370,0,0,338,128,16,119,15327,1520,14105,0,340,1,10,0,0,0,0,0,0,0,0,0,0,0,0
2012,4,22,10,0,,10.5,8.2,86,99480,0,0,342,203,24,186,23776,2268,21781,0,250,2.7,10,0,0,0,0,0,0,0,0,0,0,0,0
2012,4,22,11,0,,10.5,7.7,83,99590,0,0,342,243,23,225,28067,2158,26115,0,250,1.5,10,0,0,0,0,0,0,0,0,0,0,0,0
2012,4,22,12,0,,10.4,7.4,82,99610,0,0,341,276,24,255,31437,2265,29452,0,230,2.5,10,0,0,0,0,0,0,0,0,0,0,0,0
2012,4,22,13,0,,10.2,7.9,86,99640,0,0,340,243,15,229,28388,1110,27502,0,200,1.9,10,0,0,0,0,0,0,0,0,0,0,0,0
2012,4,22,14,0,,10.2,7.7,85,99650,0,0,340,235,15,222,26789,1157,26009,0,180,2.2,10,0,0,0,0,0,0,0,0,0,0,0,0
2012,4,22,15,0,,10,7.7,86,99640,0,0,339,221,18,207,24215,1370,23512,0,180,3.3,10,0,0,0,0,0,0,0,0,0,0,0,0
2012,4,22,16,0,,9.8,6.6,81,99700,0,0,337,208,26,190,21190,2003,20536,0,200,4,10,0,0,0,0,0,0,0,0,0,0,0,0
2012,4,22,17,0,,9.5,6.2,80,99760,0,0,335,146,25,134,13675,1443,13493,0,200,3.5,10,0,0,0,0,0,0,0,0,0,0,0,0
2012,4,22,18,0,,9.1,6.8,86,99810,0,0,334,78,19,72,0,0,0,0,200,2.5,10,0,0,0,0,0,0,0,0,0,0,0,0
2012,4,22,19,0,,9,7.2,89,99860,0,0,334,22,1,21,0,0,0,0,200,2.6,10,0,0,0,0,0,0,0,0,0,0,0,0
2012,4,22,20,0,,9,7.4,90,99910,0,0,334,0,0,0,0,0,0,0,180,0.8,10,0,0,0,0,0,0,0,0,0,0,0,0
2012,4,22,21,0,,9.1,7.2,88,99980,0,0,334,0,0,0,0,0,0,0,180,2,10,0,0,0,0,0,0,0,0,0,0,0,0
2012,4,22,22,0,,9,7.2,89,100040,0,0,334,0,0,0,0,0,0,0,200,2.8,10,0,0,0,0,0,0,0,0,0,0,0,0
2012,4,22,23,0,,9,7.6,91,100050,0,0,335,0,0,0,0,0,0,0,180,2.2,10,0,0,0,0,0,0,0,0,0,0,0,0
2012,4,22,24,0,,8.9,7.5,91,100090,0,0,334,0,0,0,0,0,0,0,180,2.1,10,0,0,0,0,0,0,0,0,0,0,0,0
2012,4,23,1,0,,8.9,7.6,92,100120,0,0,334,0,0,0,0,0,0,0,160,2.1,10,0,0,0,0,0,0,0,0,0,0,0,0
2012,4,23,2,0,,8.9,7.8,93,100130,0,0,334,0,0,0,0,0,0,0,160,1.8,10,0,0,0,0,0,0,0,0,0,0,0,0
2012,4,23,3,0,,9.1,8,93,100150,0,0,336,0,0,0,0,0,0,0,160,1.9,10,0,0,0,0,0,0,0,0,0,0,0,0
2012,4,23,4,0,,9.2,8.2,94,100160,0,0,336,0,0,0,0,0,0,0,140,1.4,10,0,0,0,0,0,0,0,0,0,0,0,0
2012,4,23,5,0,,9.6,8,90,100150,0,0,338,0,0,0,0,0,0,0,140,1.8,10,0,0,0,0,0,0,0,0,0,0,0,0
2012,4,23,6,0,,10,7.7,86,100210,0,0,339,0,0,0,0,0,0,0,160,2,10,0,0,0,0,0,0,0,0,0,0,0,0
2012,4,23,7,0,,10.1,8.1,88,100250,0,0,340,31,3,28,3807,129,3739,0,180,2,10,0,0,0,0,0,0,0,0,0,0,0,0
2012,4,23,8,0,,10.5,8.2,86,100300,0,0,342,95,29,85,12011,2711,10154,0,180,2.6,10,0,0,0,0,0,0,0,0,0,0,0,0
2012,4,23,9,0,,11.8,8.8,82,100360,0,0,340,215,67,180,27200,6735,21767,0,200,2.6,9,0,0,0,0,0,0,0,0,0,0,0,0
2012,4,23,10,0,,13.1,9.1,77,100410,0,0,346,308,74,257,36986,7409,30450,0,250,2,9,0,0,0,0,0,0,0,0,0,0,0,0
2012,4,23,11,0,,14.2,9.4,73,100400,0,0,344,449,120,353,51686,11880,40913,0,250,2.3,8,0,0,0,0,0,0,0,0,0,0,0,0
2012,4,23,12,0,,15.4,9.5,68,100370,0,0,345,566,167,420,62370,16351,48000,0,270,2.2,7,0,0,0,0,0,0,0,0,0,0,0,0
2012,4,23,13,0,,16.7,10,65,100370,0,0,352,579,161,434,61939,15657,49410,0,250,2.1,7,0,0,0,0,0,0,0,0,0,0,0,0
2012,4,23,14,0,,16.1,9.7,66,100340,0,0,372,317,34,286,34940,3298,32710,0,230,2.6,10,0,0,0,0,0,0,0,0,0,0,0,0
2012,4,23,15,0,,15.8,10.3,70,100310,0,0,371,243,23,225,26241,1783,25322,0,200,2.1,10,0,0,0,0,0,0,0,0,0,0,0,0
2012,4,23,16,0,,15.4,10.1,71,100320,0,0,369,196,22,181,20158,1592,19634,0,200,2.1,10,0,0,0,0,0,0,0,0,0,0,0,0
2012,4,23,17,0,,15.4,10.3,72,100330,0,0,369,149,26,136,13874,1463,13685,0,230,1.6,10,0,0,0,0,0,0,0,0,0,0,0,0
2012,4,23,18,0,,15.6,10.7,73,100330,0,0,353,150,113,113,0,0,0,0,230,1.2,8,0,0,0,0,0,0,0,0,0,0,0,0
2012,4,23,19,0,,15.1,11.4,79,100330,0,0,349,50,12,38,0,0,0,0,290,1.4,8,0,0,0,0,0,0,0,0,0,0,0,0
2012,4,23,20,0,,14,11.1,83,100400,0,0,342,0,0,0,0,0,0,0,0,0.2,7,0,0,0,0,0,0,0,0,0,0,0,0
2012,4,23,21,0,,12.8,11.1,90,100460,0,0,335,0,0,0,0,0,0,0,0,0.2,7,0,0,0,0,0,0,0,0,0,0,0,0
2012,4,23,22,0,,12.2,10.9,92,100540,0,0,337,0,0,0,0,0,0,0,320,0.6,8,0,0,0,0,0,0,0,0,0,0,0,0
2012,4,23,23,0,,11.9,10.7,93,100560,0,0,343,0,0,0,0,0,0,0,0,0.4,9,0,0,0,0,0,0,0,0,0,0,0,0
2012,4,23,24,0,,11.6,10.6,94,100580,0,0,351,0,0,0,0,0,0,0,270,0.8,10,0,0,0,0,0,0,0,0,0,0,0,0
2012,4,24,1,0,,11.2,10.1,93,100550,0,0,348,0,0,0,0,0,0,0,320,1,10,0,0,0,0,0,0,0,0,0,0,0,0
2012,4,24,2,0,,10.5,9.5,94,100530,0,0,344,0,0,0,0,0,0,0,0,0.4,10,0,0,0,0,0,0,0,0,0,0,0,0
2012,4,24,3,0,,10.3,9.5,95,100590,0,0,343,0,0,0,0,0,0,0,0,0.3,10,0,0,0,0,0,0,0,0,0,0,0,0
2012,4,24,4,0,,10.4,9.7,96,100590,0,0,344,0,0,0,0,0,0,0,290,0.5,10,0,0,0,0,0,0,0,0,0,0,0,0
2012,4,24,5,0,,10.5,9.8,96,100620,0,0,344,0,0,0,0,0,0,0,0,0.4,10,0,0,0,0,0,0,0,0,0,0,0,0
2012,4,24,6,0,,10.6,9.8,95,100680,0,0,345,0,0,0,0,0,0,0,50,0.5,10,0,0,0,0,0,0,0,0,0,0,0,0
2012,4,24,7,0,,10.8,10,95,100740,0,0,346,25,1,24,3192,64,3158,0,110,0.6,10,0,0,0,0,0,0,0,0,0,0,0,0
2012,4,24,8,0,,11.4,10.6,95,100730,0,0,350,85,21,79,10704,1907,9391,0,0,0.3,10,0,0,0,0,0,0,0,0,0,0,0,0
2012,4,24,9,0,,12,10.7,92,100720,0,0,353,150,24,137,18019,2265,16186,0,0,0.4,10,0,0,0,0,0,0,0,0,0,0,0,0
2012,4,24,10,0,,13,11,88,100690,0,0,358,204,24,188,23978,2210,22022,0,270,0.7,10,0,0,0,0,0,0,0,0,0,0,0,0
2012,4,24,11,0,,15.7,11.4,76,100600,0,0,322,676,499,274,79015,48437,34978,0,250,0.9,0,0,0,0,0,0,0,0,0,0,0,0,0
2012,4,24,12,0,,18.7,11,61,100480,0,0,336,822,662,239,88582,65706,30690,0,50,1,0,0,0,0,0,0,0,0,0,0,0,0,0
2012,4,24,13,0,,21.8,9.3,45,100400,0,0,363,882,735,215,86809,73070,28174,0,250,1.8,3,0,0,0,0,0,0,0,0,0,0,0,0
2012,4,24,14,0,,23.8,10.1,42,100310,0,0,381,786,585,271,72108,56045,34076,0,250,1.5,5,0,0,0,0,0,0,0,0,0,0,0,0
2012,4,24,15,0,,24.9,8.7,36,100230,0,0,382,725,630,220,58441,58896,27931,0,250,1.5,4,0,0,0,0,0,0,0,0,0,0,0,0
2012,4,24,16,0,,25.9,8.8,34,100120,0,0,387,600,629,175,39460,52407,22078,0,270,1.9,4,0,0,0,0,0,0,0,0,0,0,0,0
2012,4,24,17,0,,25.5,7.1,31,100140,0,0,389,369,347,190,22972,17273,20687,0,0,0.2,6,0,0,0,0,0,0,0,0,0,0,0,0
2012,4,24,18,0,,25,8.8,36,100170,0,0,389,218,351,103,0,0,0,0,0,0.2,6,0,0,0,0,0,0,0,0,0,0,0,0
2012,4,24,19,0,,23.4,13.2,53,100180,0,0,387,68,28,40,0,0,0,0,0,0.2,6,0,0,0,0,0,0,0,0,0,0,0,0
2012,4,24,20,0,,20.7,15,70,100190,0,0,376,0,0,0,0,0,0,0,0,0,7,0,0,0,0,0,0,0,0,0,0,0,0
2012,4,24,21,0,,18.8,14.2,75,100220,0,0,367,0,0,0,0,0,0,0,160,0.5,7,0,0,0,0,0,0,0,0,0,0,0,0
2012,4,24,22,0,,17.6,12,70,100210,0,0,360,0,0,0,0,0,0,0,110,0.8,7,0,0,0,0,0,0,0,0,0,0,0,0
2012,4,24,23,0,,16.5,12.2,76,100200,0,0,357,0,0,0,0,0,0,0,70,0.8,8,0,0,0,0,0,0,0,0,0,0,0,0
2012,4,24,24,0,,15.4,11.7,79,100140,0,0,353,0,0,0,0,0,0,0,20,0.7,8,0,0,0,0,0,0,0,0,0,0,0,0
2012,4,25,1,0,,15,11.5,80,100120,0,0,353,0,0,0,0,0,0,0,90,0.7,8,0,0,0,0,0,0,0,0,0,0,0,0
2012,4,25,2,0,,14.1,11.6,85,100060,0,0,351,0,0,0,0,0,0,0,320,0.6,9,0,0,0,0,0,0,0,0,0,0,0,0
2012,4,25,3,0,,13.8,11.1,84,100010,0,0,352,0,0,0,0,0,0,0,0,0.3,9,0,0,0,0,0,0,0,0,0,0,0,0
2012,4,25,4,0,,13.3,11.1,87,99920,0,0,350,0,0,0,0,0,0,0,0,0.2,9,0,0,0,0,0,0,0,0,0,0,0,0
2012,4,25,5,0,,13.3,10.8,85,99850,0,0,359,0,0,0,0,0,0,0,110,1.1,10,0,0,0,0,0,0,0,0,0,0,0,0
2012,4,25,6,0,,13.1,10.9,87,99760,0,0,358,0,0,0,0,0,0,0,360,1.3,10,0,0,0,0,0,0,0,0,0,0,0,0
2012,4,25,7,0,,13.3,10.8,85,99710,0,0,359,31,2,29,3824,112,3764,0,160,0.7,10,0,0,0,0,0,0,0,0,0,0,0,0
2012,4,25,8,0,,13.4,10.9,85,99620,0,0,360,82,18,76,10207,1628,9081,0,0,0.2,10,0,0,0,0,0,0,0,0,0,0,0,0
2012,4,25,9,0,,13.9,11.4,85,99580,0,0,363,146,22,135,17620,2071,15937,0,90,0.9,10,0,0,0,0,0,0,0,0,0,0,0,0
2012,4,25,10,0,,14.4,12,86,99590,0,0,366,200,22,185,23575,2058,21749,0,20,0.9,10,0,0,0,0,0,0,0,0,0,0,0,0
2012,4,25,11,0,,14.7,13,90,99520,0,0,369,220,17,207,25675,1537,24274,0,270,0.9,10,0,0,0,0,0,0,0,0,0,0,0,0
2012,4,25,12,0,,15.4,13,86,99350,0,0,373,279,24,258,31946,2203,30000,0,340,2,10,0,0,0,0,0,0,0,0,0,0,0,0
2012,4,25,13,0,,15.6,13,85,99270,0,0,374,263,18,246,30417,1320,29355,0,270,0.7,10,0,0,0,0,0,0,0,0,0,0,0,0
2012,4,25,14,0,,15,12.8,87,99160,0,0,370,250,18,234,28228,1310,27336,0,320,2.1,10,0,0,0,0,0,0,0,0,0,0,0,0
2012,4,25,15,0,,14.7,12.1,85,99010,0,0,368,206,14,195,22763,1024,22230,0,320,2.5,10,0,0,0,0,0,0,0,0,0,0,0,0
2012,4,25,16,0,,14.5,12.5,88,98940,0,0,367,170,14,160,17837,935,17524,0,320,1.9,10,0,0,0,0,0,0,0,0,0,0,0,0
2012,4,25,17,0,,13.8,12.3,91,98920,0,0,364,126,15,118,12132,674,12041,0,340,2,10,0,0,0,0,0,0,0,0,0,0,0,0
2012,4,25,18,0,,13.7,12.4,92,98860,0,0,363,77,17,72,0,0,0,0,360,0.9,10,0,0,0,0,0,0,0,0,0,0,0,0
2012,4,25,19,0,,13.6,12.4,93,98850,0,0,363,21,1,20,0,0,0,0,0,0.1,10,0,0,0,0,0,0,0,0,0,0,0,0
2012,4,25,20,0,,13.5,12.5,94,98850,0,0,363,0,0,0,0,0,0,0,360,1.4,10,0,0,0,0,0,0,0,0,0,0,0,0
2012,4,25,21,0,,13.3,12.3,94,98930,0,0,361,0,0,0,0,0,0,0,270,0.5,10,0,0,0,0,0,0,0,0,0,0,0,0
2012,4,25,22,0,,13.3,12.5,95,98940,0,0,362,0,0,0,0,0,0,0,320,0.6,10,0,0,0,0,0,0,0,0,0,0,0,0
2012,4,25,23,0,,13.2,12.4,95,98900,0,0,361,0,0,0,0,0,0,0,0,0.2,10,0,0,0,0,0,0,0,0,0,0,0,0
2012,4,25,24,0,,13.1,12.3,95,98910,0,0,360,0,0,0,0,0,0,0,250,0.5,10,0,0,0,0,0,0,0,0,0,0,0,0
2012,4,26,1,0,,13.1,12.3,95,98880,0,0,360,0,0,0,0,0,0,0,0,0.2,10,0,0,0,0,0,0,0,0,0,0,0,0
2012,4,26,2,0,,13.1,12.4,96,98830,0,0,360,0,0,0,0,0,0,0,0,0.1,10,0,0,0,0,0,0,0,0,0,0,0,0
2012,4,26,3,0,,13.1,11.8,92,98870,0,0,360,0,0,0,0,0,0,0,200,2.7,10,0,0,0,0,0,0,0,0,0,0,0,0
2012,4,26,4,0,,12.1,9.6,85,98930,0,0,352,0,0,0,0,0,0,0,200,2.4,10,0,0,0,0,0,0,0,0,0,0,0,0
2012,4,26,5,0,,11.4,8.9,85,99020,0,0,347,0,0,0,0,0,0,0,200,3.7,10,0,0,0,0,0,0,0,0,0,0,0,0
2012,4,26,6,0,,11.2,8.9,86,99100,0,0,346,0,0,0,0,0,0,0,200,2.3,10,0,0,0,0,0,0,0,0,0,0,0,0
2012,4,26,7,0,,10.5,6.8,78,99270,0,0,324,61,15,46,6236,1412,5478,0,250,3.8,8,0,0,0,0,0,0,0,0,0,0,0,0
2012,4,26,8,0,,10.1,4.6,69,99370,0,0,319,165,123,122,24330,12517,15638,0,230,4.8,8,0,0,0,0,0,0,0,0,0,0,0,0
2012,4,26,9,0,,10.9,2.9,58,99410,0,0,312,357,275,211,49524,27671,26976,0,230,4.1,6,0,0,0,0,0,0,0,0,0,0,0,0
2012,4,26,10,0,,12.6,0.3,43,99490,0,0,310,609,615,184,80072,62678,24311,0,270,4.2,3,0,0,0,0,0,0,0,0,0,0,0,0
2012,4,26,11,0,,14.1,-1.9,33,99570,0,0,314,756,680,205,89513,69205,26279,0,250,4.6,3,0,0,0,0,0,0,0,0,0,0,0,0
2012,4,26,12,0,,15.2,-1.8,31,99600,0,0,319,834,676,234,89607,68208,29214,0,270,4.5,3,0,0,0,0,0,0,0,0,0,0,0,0
2012,4,26,13,0,,15.6,-3.8,26,99620,0,0,315,882,725,221,86758,72943,27912,0,270,6.3,2,0,0,0,0,0,0,0,0,0,0,0,0
2012,4,26,14,0,,16.4,-5.4,22,99660,0,0,317,855,732,209,76201,72720,26532,0,270,5.1,2,0,0,0,0,0,0,0,0,0,0,0,0
2012,4,26,15,0,,17,-4.3,23,99650,0,0,317,769,726,185,60228,69618,23838,0,270,4.3,1,0,0,0,0,0,0,0,0,0,0,0,0
2012,4,26,16,0,,17.2,-5.3,21,99690,0,0,316,648,748,139,40132,64960,18257,0,270,4.8,1,0,0,0,0,0,0,0,0,0,0,0,0
2012,4,26,17,0,,17.3,-5.9,20,99720,0,0,310,475,712,105,17818,40906,12179,0,250,3,0,0,0,0,0,0,0,0,0,0,0,0,0
2012,4,26,18,0,,17,-7.5,18,99750,0,0,307,302,732,58,0,0,0,0,270,4.3,0,0,0,0,0,0,0,0,0,0,0,0,0
2012,4,26,19,0,,15.8,-5.9,22,99810,0,0,304,108,79,29,0,0,0,0,250,2.7,0,0,0,0,0,0,0,0,0,0,0,0,0
2012,4,26,20,0,,14.2,-0.3,37,99950,0,0,303,0,0,0,0,0,0,0,230,3.9,0,0,0,0,0,0,0,0,0,0,0,0,0
2012,4,26,21,0,,13.1,-1.6,36,100070,0,0,297,0,0,0,0,0,0,0,230,3.3,0,0,0,0,0,0,0,0,0,0,0,0,0
2012,4,26,22,0,,12.2,-3.2,34,100160,0,0,292,0,0,0,0,0,0,0,230,2.9,0,0,0,0,0,0,0,0,0,0,0,0,0
2012,4,26,23,0,,10.4,2.2,57,100260,0,0,289,0,0,0,0,0,0,0,0,0.4,0,0,0,0,0,0,0,0,0,0,0,0,0
2012,4,26,24,0,,8.4,3,69,100320,0,0,282,0,0,0,0,0,0,0,20,0.7,0,0,0,0,0,0,0,0,0,0,0,0,0
2012,4,27,1,0,,7.1,3.3,77,100330,0,0,277,0,0,0,0,0,0,0,0,0.1,0,0,0,0,0,0,0,0,0,0,0,0,0
2012,4,27,2,0,,5.9,2.3,78,100320,0,0,272,0,0,0,0,0,0,0,0,0.2,0,0,0,0,0,0,0,0,0,0,0,0,0
2012,4,27,3,0,,5.3,2.1,80,100380,0,0,269,0,0,0,0,0,0,0,0,0.1,0,0,0,0,0,0,0,0,0,0,0,0,0
2012,4,27,4,0,,4.7,1.8,82,100380,0,0,266,0,0,0,0,0,0,0,0,0.2,0,0,0,0,0,0,0,0,0,0,0,0,0
2012,4,27,5,0,,3.9,2,88,100410,0,0,264,0,0,0,0,0,0,0,360,0.8,0,0,0,0,0,0,0,0,0,0,0,0,0
2012,4,27,6,0,,3.6,1.6,87,100460,0,0,262,8,2,7,894,149,841,0,0,0.3,0,0,0,0,0,0,0,0,0,0,0,0,0
2012,4,27,7,0,,4.3,1.1,80,100470,0,0,264,107,65,42,9405,6569,5860,0,20,0.5,0,0,0,0,0,0,0,0,0,0,0,0,0
2012,4,27,8,0,,5.8,1.5,74,100460,0,0,270,273,519,92,49899,53112,12867,0,0,0.4,0,0,0,0,0,0,0,0,0,0,0,0,0
2012,4,27,9,0,,8.8,0.9,58,100420,0,0,281,488,710,109,73563,72081,14642,0,20,0.8,0,0,0,0,0,0,0,0,0,0,0,0,0
2012,4,27,10,0,,11.6,-0.2,44,100420,0,0,292,667,766,137,87276,78419,17326,0,0,0.4,0,0,0,0,0,0,0,0,0,0,0,0,0
2012,4,27,11,0,,14.7,-1.8,32,100330,0,0,314,826,838,144,96305,84965,18484,0,360,1.1,2,0,0,0,0,0,0,0,0,0,0,0,0
2012,4,27,12,0,,17.2,-3,25,100210,0,0,335,779,547,293,84160,55715,34711,0,320,1.6,6,0,0,0,0,0,0,0,0,0,0,0,0
2012,4,27,13,0,,20.1,-3.5,20,100120,0,0,342,905,770,202,88939,77861,25963,0,250,2.6,4,0,0,0,0,0,0,0,0,0,0,0,0
2012,4,27,14,0,,21.8,-1.5,21,100050,0,0,350,892,808,176,78789,80801,23427,0,230,3,3,0,0,0,0,0,0,0,0,0,0,0,0
2012,4,27,15,0,,22.2,-0.5,22,100000,0,0,353,776,738,181,60728,70735,23592,0,250,3.1,3,0,0,0,0,0,0,0,0,0,0,0,0
2012,4,27,16,0,,22.9,-2.7,18,99940,0,0,350,653,754,138,40460,65646,18189,0,250,3.6,2,0,0,0,0,0,0,0,0,0,0,0,0
2012,4,27,17,0,,23,-3.3,17,99940,0,0,338,481,726,103,17955,42005,12049,0,250,2.8,0,0,0,0,0,0,0,0,0,0,0,0,0
2012,4,27,18,0,,21.5,-2.4,20,99960,0,0,333,295,686,65,0,0,0,0,250,3.2,0,0,0,0,0,0,0,0,0,0,0,0,0
2012,4,27,19,0,,19.9,-4.4,19,100020,0,0,323,110,80,29,0,0,0,0,250,3.6,0,0,0,0,0,0,0,0,0,0,0,0,0
2012,4,27,20,0,,18.2,-4.5,21,100110,0,0,315,0,0,0,0,0,0,0,250,1.5,0,0,0,0,0,0,0,0,0,0,0,0,0
2012,4,27,21,0,,15.8,0.3,35,100210,0,0,310,0,0,0,0,0,0,0,140,0.7,0,0,0,0,0,0,0,0,0,0,0,0,0
2012,4,27,22,0,,15,-6,23,100290,0,0,304,0,0,0,0,0,0,0,180,1.3,1,0,0,0,0,0,0,0,0,0,0,0,0
2012,4,27,23,0,,13.1,-0.9,38,100340,0,0,305,0,0,0,0,0,0,0,140,1.5,1,0,0,0,0,0,0,0,0,0,0,0,0
2012,4,27,24,0,,12.1,0.5,45,100370,0,0,304,0,0,0,0,0,0,0,140,1.2,2,0,0,0,0,0,0,0,0,0,0,0,0
2012,4,28,1,0,,11.5,1.6,51,100370,0,0,300,0,0,0,0,0,0,0,160,0.6,1,0,0,0,0,0,0,0,0,0,0,0,0
2012,4,28,2,0,,10.7,0.1,48,100320,0,0,292,0,0,0,0,0,0,0,140,1,1,0,0,0,0,0,0,0,0,0,0,0,0
2012,4,28,3,0,,12.5,-6,27,100360,0,0,290,0,0,0,0,0,0,0,200,1.4,0,0,0,0,0,0,0,0,0,0,0,0,0
2012,4,28,4,0,,9.9,0.4,52,100370,0,0,285,0,0,0,0,0,0,0,110,1,0,0,0,0,0,0,0,0,0,0,0,0,0
2012,4,28,5,0,,8.9,0.5,56,100400,0,0,281,0,0,0,0,0,0,0,140,0.9,0,0,0,0,0,0,0,0,0,0,0,0,0
2012,4,28,6,0,,8.1,1.6,64,100430,0,0,288,10,2,8,1026,211,950,0,110,0.7,2,0,0,0,0,0,0,0,0,0,0,0,0
2012,4,28,7,0,,8.4,1.7,63,100530,0,0,300,84,233,48,20952,23601,8142,0,140,0.7,6,0,0,0,0,0,0,0,0,0,0,0,0
2012,4,28,8,0,,10.3,1.8,56,100550,0,0,306,258,430,107,46494,43828,15811,0,360,0.9,5,0,0,0,0,0,0,0,0,0,0,0,0
2012,4,28,9,0,,14.1,-1.9,33,100570,0,0,314,495,723,107,74417,73257,14350,0,180,0.9,3,0,0,0,0,0,0,0,0,0,0,0,0
2012,4,28,10,0,,17.3,-0.4,30,100610,0,0,335,648,707,157,83908,72001,19516,0,250,2.1,5,0,0,0,0,0,0,0,0,0,0,0,0
2012,4,28,11,0,,18.8,0.8,30,100560,0,0,347,701,533,266,81357,53477,32262,0,270,1.1,6,0,0,0,0,0,0,0,0,0,0,0,0
2012,4,28,12,0,,20.7,2,29,100490,0,0,357,740,453,337,79838,45482,39377,0,180,1.2,6,0,0,0,0,0,0,0,0,0,0,0,0
2012,4,28,13,0,,22.5,5.4,33,100440,0,0,365,827,592,285,82371,58605,34850,0,230,1.7,4,0,0,0,0,0,0,0,0,0,0,0,0
2012,4,28,14,0,,23.8,5.6,31,100370,0,0,375,766,521,304,71439,50870,36476,0,250,2.4,5,0,0,0,0,0,0,0,0,0,0,0,0
2012,4,28,15,0,,24.6,5.8,30,100340,0,0,376,715,586,241,58956,55589,29646,0,230,2.3,4,0,0,0,0,0,0,0,0,0,0,0,0
2012,4,28,16,0,,24.8,6,30,100360,0,0,359,629,685,160,40379,58729,20309,0,250,2.6,0,0,0,0,0,0,0,0,0,0,0,0,0
2012,4,28,17,0,,23.7,6,32,100440,0,0,354,463,656,119,19312,36259,14114,0,250,3.8,0,0,0,0,0,0,0,0,0,0,0,0,0
2012,4,28,18,0,,22.9,4.8,31,100450,0,0,348,280,597,78,0,0,0,0,250,2.7,0,0,0,0,0,0,0,0,0,0,0,0,0
2012,4,28,19,0,,21.5,5.7,36,100500,0,0,343,103,67,36,0,0,0,0,270,1.5,0,0,0,0,0,0,0,0,0,0,0,0,0
2012,4,28,20,0,,20.4,5.9,39,100560,0,0,338,0,0,0,0,0,0,0,230,1.5,0,0,0,0,0,0,0,0,0,0,0,0,0
2012,4,28,21,0,,19.3,7,45,100650,0,0,334,0,0,0,0,0,0,0,230,1.4,0,0,0,0,0,0,0,0,0,0,0,0,0
2012,4,28,22,0,,17.2,9.6,61,100690,0,0,337,0,0,0,0,0,0,0,180,0.5,2,0,0,0,0,0,0,0,0,0,0,0,0
2012,4,28,23,0,,15.1,10.4,74,100670,0,0,333,0,0,0,0,0,0,0,360,0.5,3,0,0,0,0,0,0,0,0,0,0,0,0
2012,4,28,24,0,,13.8,10.2,79,100730,0,0,331,0,0,0,0,0,0,0,340,0.9,5,0,0,0,0,0,0,0,0,0,0,0,0
2012,4,29,1,0,,12.9,9.3,79,100750,0,0,327,0,0,0,0,0,0,0,0,0.1,5,0,0,0,0,0,0,0,0,0,0,0,0
2012,4,29,2,0,,11.7,9,84,100770,0,0,322,0,0,0,0,0,0,0,90,0.6,6,0,0,0,0,0,0,0,0,0,0,0,0
2012,4,29,3,0,,10.9,8.8,87,100760,0,0,319,0,0,0,0,0,0,0,360,0.7,6,0,0,0,0,0,0,0,0,0,0,0,0
2012,4,29,4,0,,10.7,8.4,86,100800,0,0,318,0,0,0,0,0,0,0,340,0.8,6,0,0,0,0,0,0,0,0,0,0,0,0
2012,4,29,5,0,,10.6,8.3,86,100790,0,0,318,0,0,0,0,0,0,0,0,0.1,6,0,0,0,0,0,0,0,0,0,0,0,0
2012,4,29,6,0,,10.3,8.2,87,100820,0,0,320,6,0,5,754,13,749,0,0,0.4,7,0,0,0,0,0,0,0,0,0,0,0,0
2012,4,29,7,0,,10.4,8.4,88,100860,0,0,320,75,153,51,16252,14708,8224,0,340,0.9,7,0,0,0,0,0,0,0,0,0,0,0,0
2012,4,29,8,0,,11.9,8.1,78,100830,0,0,327,188,165,130,28257,16358,16761,0,0,0.2,7,0,0,0,0,0,0,0,0,0,0,0,0
2012,4,29,9,0,,14.3,7.5,64,100830,0,0,337,344,229,221,45753,22984,26851,0,0,0.4,7,0,0,0,0,0,0,0,0,0,0,0,0
2012,4,29,10,0,,17.1,9.2,60,100770,0,0,358,433,177,310,52365,17522,36656,0,290,0.5,8,0,0,0,0,0,0,0,0,0,0,0,0
2012,4,29,11,0,,18.8,9.8,56,100750,0,0,368,536,183,386,61122,18032,44530,0,290,1.3,8,0,0,0,0,0,0,0,0,0,0,0,0
2012,4,29,12,0,,20.7,11,54,100630,0,0,379,565,156,425,62387,15126,48900,0,290,1.6,8,0,0,0,0,0,0,0,0,0,0,0,0
2012,4,29,13,0,,22.1,10.5,48,100560,0,0,386,584,156,440,62555,15081,50296,0,250,1.9,8,0,0,0,0,0,0,0,0,0,0,0,0
2012,4,29,14,0,,23.6,9.5,41,100500,0,0,387,624,211,437,63369,20196,49446,0,270,1,7,0,0,0,0,0,0,0,0,0,0,0,0
2012,4,29,15,0,,25.2,7.3,32,100400,0,0,392,583,243,386,55333,22803,43259,0,230,1.5,7,0,0,0,0,0,0,0,0,0,0,0,0
2012,4,29,16,0,,26.1,7.1,30,100330,0,0,392,537,425,245,40624,35884,28273,0,250,1.5,6,0,0,0,0,0,0,0,0,0,0,0,0
2012,4,29,17,0,,26.1,8.1,32,100330,0,0,398,359,288,207,24804,15149,22591,0,250,1.2,7,0,0,0,0,0,0,0,0,0,0,0,0
2012,4,29,18,0,,25.6,8.5,34,100310,0,0,396,215,289,117,0,0,0,0,250,1.4,7,0,0,0,0,0,0,0,0,0,0,0,0
2012,4,29,19,0,,24.5,6.7,32,100310,0,0,385,88,40,49,0,0,0,0,180,2.1,6,0,0,0,0,0,0,0,0,0,0,0,0
2012,4,29,20,0,,22.6,10,45,100390,0,0,376,4,0,4,0,0,0,0,110,1,6,0,0,0,0,0,0,0,0,0,0,0,0
2012,4,29,21,0,,20.7,13.6,64,100450,0,0,369,0,0,0,0,0,0,0,290,0.9,5,0,0,0,0,0,0,0,0,0,0,0,0
2012,4,29,22,0,,19,12.9,68,100470,0,0,361,0,0,0,0,0,0,0,0,0.1,6,0,0,0,0,0,0,0,0,0,0,0,0
2012,4,29,23,0,,17.6,13.5,77,100460,0,0,358,0,0,0,0,0,0,0,0,0.4,6,0,0,0,0,0,0,0,0,0,0,0,0
2012,4,29,24,0,,16.4,12.9,80,100470,0,0,354,0,0,0,0,0,0,0,0,0.1,7,0,0,0,0,0,0,0,0,0,0,0,0
2012,4,30,1,0,,15.2,11.9,81,100440,0,0,339,0,0,0,0,0,0,0,50,0.5,5,0,0,0,0,0,0,0,0,0,0,0,0
2012,4,30,2,0,,14.3,11.4,83,100380,0,0,328,0,0,0,0,0,0,0,360,0.5,2,0,0,0,0,0,0,0,0,0,0,0,0
2012,4,30,3,0,,13.7,10.6,82,100380,0,0,313,0,0,0,0,0,0,0,340,0.6,0,0,0,0,0,0,0,0,0,0,0,0,0
2012,4,30,4,0,,12.6,10.6,88,100370,0,0,308,0,0,0,0,0,0,0,0,0.1,0,0,0,0,0,0,0,0,0,0,0,0,0
2012,4,30,5,0,,12.3,10,86,100400,0,0,306,0,0,0,0,0,0,0,270,1.5,0,0,0,0,0,0,0,0,0,0,0,0,0
2012,4,30,6,0,,11.4,9.6,89,100460,0,0,302,13,4,9,1240,307,1128,0,360,0.7,0,0,0,0,0,0,0,0,0,0,0,0,0
2012,4,30,7,0,,12,9.1,83,100500,0,0,304,113,409,47,30274,41919,7272,0,320,0.5,0,0,0,0,0,0,0,0,0,0,0,0,0
2012,4,30,8,0,,14.1,9.3,73,100490,0,0,313,280,510,97,51379,51735,14884,0,0,0.4,0,0,0,0,0,0,0,0,0,0,0,0,0
2012,4,30,9,0,,16.4,10.9,70,100540,0,0,325,475,636,129,71091,65492,17072,0,360,1.1,0,0,0,0,0,0,0,0,0,0,0,0,0
2012,4,30,10,0,,19,10,56,100560,0,0,336,652,702,160,84823,71969,20142,0,340,1,0,0,0,0,0,0,0,0,0,0,0,0,0
2012,4,30,11,0,,22.2,5.9,35,100460,0,0,346,835,839,146,97841,85820,18698,0,320,1.4,0,0,0,0,0,0,0,0,0,0,0,0,0
2012,4,30,12,0,,24.6,5.8,30,100360,0,0,358,908,818,175,96106,83245,21720,0,340,1.1,0,0,0,0,0,0,0,0,0,0,0,0,0
2012,4,30,13,0,,26.8,6.2,27,100230,0,0,369,941,832,176,90903,84159,22324,0,360,1.3,0,0,0,0,0,0,0,0,0,0,0,0,0
2012,4,30,14,0,,28.3,7.5,27,100140,0,0,379,889,786,188,78886,77681,25173,0,290,2,0,0,0,0,0,0,0,0,0,0,0,0,0
2012,4,30,15,0,,29.2,7.7,26,100000,0,0,391,798,774,169,62230,74066,22845,0,320,2.7,1,0,0,0,0,0,0,0,0,0,0,0,0
2012,4,30,16,0,,29.7,6.3,23,99930,0,0,391,647,721,150,40851,61986,19363,0,320,2,1,0,0,0,0,0,0,0,0,0,0,0,0
2012,4,30,17,0,,30.1,6.6,23,99880,0,0,386,483,708,108,19189,40080,13226,0,270,1.7,0,0,0,0,0,0,0,0,0,0,0,0,0
2012,4,30,18,0,,29.4,6.7,24,99860,0,0,383,300,674,69,0,0,0,0,270,2.2,0,0,0,0,0,0,0,0,0,0,0,0,0
2012,4,30,19,0,,27.6,7.9,29,99940,0,0,376,114,81,33,0,0,0,0,270,1.5,0,0,0,0,0,0,0,0,0,0,0,0,0
2012,4,30,20,0,,24.4,13.5,51,100010,0,0,366,7,1,6,0,0,0,0,340,0.5,0,0,0,0,0,0,0,0,0,0,0,0,0
2012,4,30,21,0,,24,6.7,33,100180,0,0,356,0,0,0,0,0,0,0,200,4.3,0,0,0,0,0,0,0,0,0,0,0,0,0
2012,4,30,22,0,,22.9,7.8,38,100290,0,0,352,0,0,0,0,0,0,0,200,2.7,0,0,0,0,0,0,0,0,0,0,0,0,0
2012,4,30,23,0,,21.8,7.5,40,100300,0,0,346,0,0,0,0,0,0,0,180,1.8,0,0,0,0,0,0,0,0,0,0,0,0,0
2012,4,30,24,0,,18.4,12.8,70,100250,0,0,336,0,0,0,0,0,0,0,0,0.1,0,0,0,0,0,0,0,0,0,0,0,0,0
2013,5,1,1,0,,10.4,3.1,61,100160,0,0,310,0,0,0,0,0,0,0,50,2.3,6,0,0,0,0,0,0,0,0,0,0,0,0
2013,5,1,2,0,,10.3,2.6,59,100180,0,0,309,0,0,0,0,0,0,0,70,2.8,6,0,0,0,0,0,0,0,0,0,0,0,0
2013,5,1,3,0,,10.1,2.4,59,100180,0,0,308,0,0,0,0,0,0,0,50,2.2,6,0,0,0,0,0,0,0,0,0,0,0,0
2013,5,1,4,0,,9.8,3,63,100170,0,0,303,0,0,0,0,0,0,0,20,1,4,0,0,0,0,0,0,0,0,0,0,0,0
2013,5,1,5,0,,9.1,4.1,71,100210,0,0,301,0,0,0,0,0,0,0,360,1.4,4,0,0,0,0,0,0,0,0,0,0,0,0
2013,5,1,6,0,,8.6,3.2,69,100240,0,0,300,12,3,9,1220,237,1132,0,70,1.1,5,0,0,0,0,0,0,0,0,0,0,0,0
2013,5,1,7,0,,9.1,2.4,63,100270,0,0,304,93,261,51,23046,26458,8470,0,360,1.6,6,0,0,0,0,0,0,0,0,0,0,0,0
2013,5,1,8,0,,9.9,2.4,60,100290,0,0,307,242,342,119,41768,34812,17142,0,20,1.9,6,0,0,0,0,0,0,0,0,0,0,0,0
2013,5,1,9,0,,11.4,2.4,54,100270,0,0,318,357,247,223,47468,25454,26428,0,50,1.7,7,0,0,0,0,0,0,0,0,0,0,0,0
2013,5,1,10,0,,12.8,1.7,47,100270,0,0,309,630,635,183,82327,64642,24127,0,90,2.1,2,0,0,0,0,0,0,0,0,0,0,0,0
2013,5,1,11,0,,14.2,2.1,44,100260,0,0,315,764,666,215,89663,67450,27360,0,70,2.5,2,0,0,0,0,0,0,0,0,0,0,0,0
2013,5,1,12,0,,15.7,0.6,36,100220,0,0,326,784,537,302,84310,54208,35792,0,340,2.2,4,0,0,0,0,0,0,0,0,0,0,0,0
2013,5,1,13,0,,17.1,0.2,32,100150,0,0,335,775,463,348,77861,46463,39931,0,70,1.1,5,0,0,0,0,0,0,0,0,0,0,0,0
2013,5,1,14,0,,17.3,-0.9,29,100080,0,0,338,683,271,441,67449,27235,48575,0,90,1.3,6,0,0,0,0,0,0,0,0,0,0,0,0
2013,5,1,15,0,,17.5,-1.2,28,100030,0,0,348,501,154,375,49897,15423,41670,0,230,1.3,8,0,0,0,0,0,0,0,0,0,0,0,0
2013,5,1,16,0,,17.3,0,31,100010,0,0,348,391,137,296,37198,13013,32662,0,230,1.6,8,0,0,0,0,0,0,0,0,0,0,0,0
2013,5,1,17,0,,17.7,-1,28,99990,0,0,343,347,249,214,24956,14365,22789,0,180,1.4,7,0,0,0,0,0,0,0,0,0,0,0,0
2013,5,1,18,0,,17.2,0.3,32,99990,0,0,333,270,515,92,0,0,0,0,50,1.3,4,0,0,0,0,0,0,0,0,0,0,0,0
2013,5,1,19,0,,16.5,1.7,37,99990,0,0,330,105,64,41,0,0,0,0,70,0.5,4,0,0,0,0,0,0,0,0,0,0,0,0
2013,5,1,20,0,,13.7,6,60,100070,0,0,322,8,2,6,0,0,0,0,0,0.4,3,0,0,0,0,0,0,0,0,0,0,0,0
2013,5,1,21,0,,12.1,5.4,64,100150,0,0,313,0,0,0,0,0,0,0,0,0.3,3,0,0,0,0,0,0,0,0,0,0,0,0
2013,5,1,22,0,,10.5,6.2,75,100200,0,0,310,0,0,0,0,0,0,0,0,0.4,4,0,0,0,0,0,0,0,0,0,0,0,0
2013,5,1,23,0,,9.3,6.1,81,100210,0,0,308,0,0,0,0,0,0,0,360,0.8,6,0,0,0,0,0,0,0,0,0,0,0,0
2013,5,1,24,0,,9.1,5.4,78,100240,0,0,311,0,0,0,0,0,0,0,0,0.1,7,0,0,0,0,0,0,0,0,0,0,0,0
2013,5,2,1,0,,8.4,6.6,89,100220,0,0,308,0,0,0,0,0,0,0,360,0.7,7,0,0,0,0,0,0,0,0,0,0,0,0
2013,5,2,2,0,,7.7,6.4,92,100220,0,0,304,0,0,0,0,0,0,0,320,1,6,0,0,0,0,0,0,0,0,0,0,0,0
2013,5,2,3,0,,7.3,6.3,94,100240,0,0,301,0,0,0,0,0,0,0,0,0.3,6,0,0,0,0,0,0,0,0,0,0,0,0
2013,5,2,4,0,,7.2,5.5,89,100240,0,0,300,0,0,0,0,0,0,0,0,0.2,6,0,0,0,0,0,0,0,0,0,0,0,0
2013,5,2,5,0,,6.8,6,95,100270,0,0,299,0,0,0,0,0,0,0,0,0.2,6,0,0,0,0,0,0,0,0,0,0,0,0
2013,5,2,6,0,,6.9,5.5,91,100320,0,0,302,8,1,7,1010,28,1000,0,0,0.2,7,0,0,0,0,0,0,0,0,0,0,0,0
2013,5,2,7,0,,7.6,6.2,91,100390,0,0,311,69,98,53,12639,9625,7309,0,0,0.4,8,0,0,0,0,0,0,0,0,0,0,0,0
2013,5,2,8,0,,8.4,6.3,87,100400,0,0,309,195,166,134,28982,16723,17110,0,0,0.2,7,0,0,0,0,0,0,0,0,0,0,0,0
2013,5,2,9,0,,10.2,4.5,68,100380,0,0,315,338,205,226,44320,20897,27000,0,0,0.4,7,0,0,0,0,0,0,0,0,0,0,0,0
2013,5,2,10,0,,12.3,4,57,100390,0,0,329,417,153,309,49731,15580,35671,0,250,1.5,8,0,0,0,0,0,0,0,0,0,0,0,0
2013,5,2,11,0,,13.1,3.4,52,100380,0,0,339,438,102,354,49964,10352,40382,0,250,0.9,9,0,0,0,0,0,0,0,0,0,0,0,0
2013,5,2,12,0,,13.8,3.5,50,100360,0,0,342,451,83,377,50127,8164,42804,0,270,0.6,9,0,0,0,0,0,0,0,0,0,0,0,0
2013,5,2,13,0,,14.5,4.1,50,100330,0,0,334,594,160,446,62966,16035,49845,0,20,1.6,7,0,0,0,0,0,0,0,0,0,0,0,0
2013,5,2,14,0,,15.8,4.4,47,100300,0,0,341,580,167,431,59432,16490,47971,0,50,1.6,7,0,0,0,0,0,0,0,0,0,0,0,0
2013,5,2,15,0,,16.2,3.9,44,100210,0,0,335,632,304,384,58192,29153,42577,0,70,1.5,5,0,0,0,0,0,0,0,0,0,0,0,0
2013,5,2,16,0,,16.4,4.4,45,100190,0,0,349,408,153,302,38433,14385,33385,0,20,1.9,8,0,0,0,0,0,0,0,0,0,0,0,0
2013,5,2,17,0,,14.5,8.8,69,100220,0,0,340,292,148,213,25082,11590,23302,0,90,2,7,0,0,0,0,0,0,0,0,0,0,0,0
2013,5,2,18,0,,14.5,6.3,58,100220,0,0,333,208,239,125,0,0,0,0,0,0.3,6,0,0,0,0,0,0,0,0,0,0,0,0
2013,5,2,19,0,,14,7,63,100260,0,0,331,81,33,47,0,0,0,0,180,0.9,6,0,0,0,0,0,0,0,0,0,0,0,0
2013,5,2,20,0,,12.9,7.7,71,100360,0,0,327,6,1,6,0,0,0,0,200,1.7,6,0,0,0,0,0,0,0,0,0,0,0,0
2013,5,2,21,0,,11.7,9,84,100470,0,0,323,0,0,0,0,0,0,0,70,1.8,6,0,0,0,0,0,0,0,0,0,0,0,0
2013,5,2,22,0,,11.6,8.8,83,100480,0,0,325,0,0,0,0,0,0,0,230,0.9,7,0,0,0,0,0,0,0,0,0,0,0,0
2013,5,2,23,0,,10.8,8.5,86,100500,0,0,324,0,0,0,0,0,0,0,0,0.1,7,0,0,0,0,0,0,0,0,0,0,0,0
2013,5,2,24,0,,10.6,9.5,93,100520,0,0,328,0,0,0,0,0,0,0,0,0.1,8,0,0,0,0,0,0,0,0,0,0,0,0
2013,5,3,1,0,,10.2,9.1,93,100520,0,0,326,0,0,0,0,0,0,0,0,0.3,8,0,0,0,0,0,0,0,0,0,0,0,0
2013,5,3,2,0,,9.8,8.8,94,100510,0,0,321,0,0,0,0,0,0,0,0,0.1,8,0,0,0,0,0,0,0,0,0,0,0,0
2013,5,3,3,0,,8.5,8.1,98,100530,0,0,312,0,0,0,0,0,0,0,0,0.3,7,0,0,0,0,0,0,0,0,0,0,0,0
2013,5,3,4,0,,8.1,6.8,92,100550,0,0,302,0,0,0,0,0,0,0,0,0.3,5,0,0,0,0,0,0,0,0,0,0,0,0
2013,5,3,5,0,,7.2,6.9,98,100580,0,0,294,0,0,0,0,0,0,0,0,0,3,0,0,0,0,0,0,0,0,0,0,0,0
2013,5,3,6,0,,6.6,6.1,97,100620,0,0,295,13,3,10,1355,261,1257,0,340,2.1,5,0,0,0,0,0,0,0,0,0,0,0,0
2013,5,3,7,0,,7.3,5.9,91,100650,0,0,293,109,301,58,26391,30283,9540,0,340,0.7,3,0,0,0,0,0,0,0,0,0,0,0,0
2013,5,3,8,0,,9,6.4,84,100650,0,0,301,271,431,112,47718,43686,16598,0,340,1,3,0,0,0,0,0,0,0,0,0,0,0,0
2013,5,3,9,0,,11.3,6.8,74,100640,0,0,316,411,398,191,58117,39554,25245,0,270,1.2,5,0,0,0,0,0,0,0,0,0,0,0,0
2013,5,3,10,0,,13.1,7.3,68,100650,0,0,331,481,227,320,57843,22825,37199,0,360,1.2,7,0,0,0,0,0,0,0,0,0,0,0,0
2013,5,3,11,0,,13.7,6.3,61,100650,0,0,333,553,193,394,62755,19326,44829,0,360,0.8,7,0,0,0,0,0,0,0,0,0,0,0,0
2013,5,3,12,0,,14.3,6.6,60,100630,0,0,336,580,163,433,63557,16220,48979,0,340,0.6,7,0,0,0,0,0,0,0,0,0,0,0,0
2013,5,3,13,0,,15.5,5.1,50,100570,0,0,340,600,163,449,63583,16281,50230,0,70,1.3,7,0,0,0,0,0,0,0,0,0,0,0,0
2013,5,3,14,0,,16.3,5.2,48,100510,0,0,344,581,167,432,59624,16414,48183,0,180,1.4,7,0,0,0,0,0,0,0,0,0,0,0,0
2013,5,3,15,0,,17.1,4.7,44,100440,0,0,347,550,197,388,53237,18812,43120,0,230,1.5,7,0,0,0,0,0,0,0,0,0,0,0,0
2013,5,3,16,0,,17.7,3.1,38,100390,0,0,341,557,458,238,41200,40228,26987,0,230,2.5,5,0,0,0,0,0,0,0,0,0,0,0,0
2013,5,3,17,0,,18.1,3.1,37,100370,0,0,346,394,387,187,23649,21544,20283,0,230,2.2,6,0,0,0,0,0,0,0,0,0,0,0,0
2013,5,3,18,0,,17.5,2.6,37,100360,0,0,347,220,280,122,0,0,0,0,250,1.8,7,0,0,0,0,0,0,0,0,0,0,0,0
2013,5,3,19,0,,13.3,8.7,74,100520,0,0,334,71,144,49,0,0,0,0,360,5.1,7,0,0,0,0,0,0,0,0,0,0,0,0
2013,5,3,20,0,,12.5,10.3,87,100600,0,0,332,3,0,3,0,0,0,0,290,1.1,7,0,0,0,0,0,0,0,0,0,0,0,0
2013,5,3,21,0,,11.4,10.6,95,100700,0,0,328,0,0,0,0,0,0,0,360,0.5,7,0,0,0,0,0,0,0,0,0,0,0,0
2013,5,3,22,0,,11,10.3,96,100780,0,0,334,0,0,0,0,0,0,0,50,1,9,0,0,0,0,0,0,0,0,0,0,0,0
2013,5,3,23,0,,11,10.3,96,100820,0,0,348,0,0,0,0,0,0,0,0,0.3,10,0,0,0,0,0,0,0,0,0,0,0,0
2013,5,3,24,0,,10.6,9.9,96,100820,0,0,345,0,0,0,0,0,0,0,140,0.8,10,0,0,0,0,0,0,0,0,0,0,0,0
2013,5,4,1,0,,10.4,9.9,97,100820,0,0,328,0,0,0,0,0,0,0,0,0.1,8,0,0,0,0,0,0,0,0,0,0,0,0
2013,5,4,2,0,,10,8.2,89,100770,0,0,321,0,0,0,0,0,0,0,180,1.6,8,0,0,0,0,0,0,0,0,0,0,0,0
2013,5,4,3,0,,9.7,7.9,89,100800,0,0,317,0,0,0,0,0,0,0,200,0.8,7,0,0,0,0,0,0,0,0,0,0,0,0
2013,5,4,4,0,,9.3,8.8,97,100820,0,0,313,0,0,0,0,0,0,0,250,0.8,6,0,0,0,0,0,0,0,0,0,0,0,0
2013,5,4,5,0,,8.5,8.3,99,100840,0,0,301,0,0,0,0,0,0,0,230,0.9,3,0,0,0,0,0,0,0,0,0,0,0,0
2013,5,4,6,0,,8.4,8.2,99,100910,0,0,333,0,0,0,0,0,0,0,290,0.9,10,0,0,0,0,0,0,0,0,0,0,0,0
2013,5,4,7,0,,8.7,8.2,97,100960,0,0,334,35,13,33,4680,1183,4018,0,230,1.1,10,0,0,0,0,0,0,0,0,0,0,0,0
2013,5,4,8,0,,9.3,8.2,93,101020,0,0,337,97,22,89,11972,2028,10523,0,270,1.2,10,0,0,0,0,0,0,0,0,0,0,0,0
2013,5,4,9,0,,10.5,8.2,86,101060,0,0,342,167,27,152,20037,2603,17869,0,340,0.9,10,0,0,0,0,0,0,0,0,0,0,0,0
2013,5,4,10,0,,11.6,7.3,75,101080,0,0,330,375,111,297,44686,11147,34582,0,230,1.3,8,0,0,0,0,0,0,0,0,0,0,0,0
2013,5,4,11,0,,13.2,5.8,61,101080,0,0,326,601,243,399,67742,24615,44866,0,270,2,6,0,0,0,0,0,0,0,0,0,0,0,0
2013,5,4,12,0,,15,6.2,56,101000,0,0,319,809,579,286,86087,57358,34432,0,230,1.2,1,0,0,0,0,0,0,0,0,0,0,0,0
2013,5,4,13,0,,17,5.2,46,100920,0,0,321,882,686,246,86686,68151,30666,0,140,1.6,0,0,0,0,0,0,0,0,0,0,0,0,0
2013,5,4,14,0,,18.6,5,41,100820,0,0,328,853,689,233,76624,67515,29434,0,180,1.9,0,0,0,0,0,0,0,0,0,0,0,0,0
2013,5,4,15,0,,20.3,3.4,33,100750,0,0,341,794,745,182,62497,71488,23899,0,160,1.5,1,0,0,0,0,0,0,0,0,0,0,0,0
2013,5,4,16,0,,21.2,2.4,29,100730,0,0,344,656,723,152,41895,63843,19186,0,200,1.4,1,0,0,0,0,0,0,0,0,0,0,0,0
2013,5,4,17,0,,21.4,2.6,29,100720,0,0,345,501,740,103,20174,44589,13091,0,200,1.6,1,0,0,0,0,0,0,0,0,0,0,0,0
2013,5,4,18,0,,20.8,2,29,100700,0,0,335,303,646,75,0,0,0,0,180,1.3,0,0,0,0,0,0,0,0,0,0,0,0,0
2013,5,4,19,0,,19.3,5.3,40,100750,0,0,332,122,551,36,0,0,0,0,230,2.7,0,0,0,0,0,0,0,0,0,0,0,0,0
2013,5,4,20,0,,17.6,4.8,43,100850,0,0,324,13,4,8,0,0,0,0,230,1.8,0,0,0,0,0,0,0,0,0,0,0,0,0
2013,5,4,21,0,,16.7,3.7,42,100960,0,0,318,0,0,0,0,0,0,0,180,1,0,0,0,0,0,0,0,0,0,0,0,0,0
2013,5,4,22,0,,15.6,7.1,57,101020,0,0,317,0,0,0,0,0,0,0,250,1.4,0,0,0,0,0,0,0,0,0,0,0,0,0
2013,5,4,23,0,,12.8,9,78,101040,0,0,307,0,0,0,0,0,0,0,70,0.9,0,0,0,0,0,0,0,0,0,0,0,0,0
2013,5,4,24,0,,11,9.5,91,101100,0,0,300,0,0,0,0,0,0,0,360,0.7,0,0,0,0,0,0,0,0,0,0,0,0,0
2013,5,5,1,0,,9.8,8.7,93,101110,0,0,294,0,0,0,0,0,0,0,0,0.1,0,0,0,0,0,0,0,0,0,0,0,0,0
2013,5,5,2,0,,8.9,8.1,95,101150,0,0,290,0,0,0,0,0,0,0,0,0.3,0,0,0,0,0,0,0,0,0,0,0,0,0
2013,5,5,3,0,,8,7.5,97,101170,0,0,286,0,0,0,0,0,0,0,0,0.4,0,0,0,0,0,0,0,0,0,0,0,0,0
2013,5,5,4,0,,7.5,6.8,96,101210,0,0,283,0,0,0,0,0,0,0,0,0.1,0,0,0,0,0,0,0,0,0,0,0,0,0
2013,5,5,5,0,,6.7,6.5,99,101220,0,0,280,0,0,0,0,0,0,0,0,0.3,0,0,0,0,0,0,0,0,0,0,0,0,0
2013,5,5,6,0,,6.2,6,99,101250,0,0,277,18,6,12,1663,559,1450,0,0,0.2,0,0,0,0,0,0,0,0,0,0,0,0,0
2013,5,5,7,0,,7,6.2,95,101290,0,0,280,121,373,55,30292,37631,9156,0,0,0.1,0,0,0,0,0,0,0,0,0,0,0,0,0
2013,5,5,8,0,,9.4,6.9,85,101300,0,0,291,293,514,101,52756,52292,15260,0,50,0.6,0,0,0,0,0,0,0,0,0,0,0,0,0
2013,5,5,9,0,,11.9,5.2,64,101280,0,0,299,499,670,125,73773,68761,16339,0,340,1.1,0,0,0,0,0,0,0,0,0,0,0,0,0
2013,5,5,10,0,,15.1,4.4,49,101260,0,0,312,699,791,135,90647,80681,17366,0,360,1.3,0,0,0,0,0,0,0,0,0,0,0,0,0
2013,5,5,11,0,,18.1,2.7,36,101190,0,0,323,849,842,148,98637,85707,18830,0,110,1.2,0,0,0,0,0,0,0,0,0,0,0,0,0
2013,5,5,12,0,,20.7,2,29,101070,0,0,334,938,858,161,98775,87387,19923,0,200,1,0,0,0,0,0,0,0,0,0,0,0,0,0
2013,5,5,13,0,,22.5,-0.9,21,100960,0,0,339,972,872,160,92964,88199,20307,0,200,2.8,0,0,0,0,0,0,0,0,0,0,0,0,0
2013,5,5,14,0,,22.8,0.5,23,100900,0,0,342,895,777,195,79535,77390,25292,0,230,4.2,0,0,0,0,0,0,0,0,0,0,0,0,0
2013,5,5,15,0,,22.9,-1.2,20,100820,0,0,340,792,735,187,62484,70708,24157,0,230,4.8,0,0,0,0,0,0,0,0,0,0,0,0,0
2013,5,5,16,0,,22.8,-2,19,100760,0,0,339,646,689,164,42176,61716,20078,0,230,4.8,0,0,0,0,0,0,0,0,0,0,0,0,0
2013,5,5,17,0,,22.2,-1.1,21,100740,0,0,337,492,701,113,20396,43672,13343,0,230,5,0,0,0,0,0,0,0,0,0,0,0,0,0
2013,5,5,18,0,,21.6,-0.4,23,100740,0,0,335,306,651,75,0,0,0,0,230,2.8,0,0,0,0,0,0,0,0,0,0,0,0,0
2013,5,5,19,0,,20,0.4,27,100770,0,0,329,126,571,36,0,0,0,0,230,3.6,0,0,0,0,0,0,0,0,0,0,0,0,0
2013,5,5,20,0,,18.5,-0.3,28,100840,0,0,322,16,8,8,0,0,0,0,230,4.4,0,0,0,0,0,0,0,0,0,0,0,0,0
2013,5,5,21,0,,17.2,-0.5,30,100910,0,0,316,0,0,0,0,0,0,0,200,1.2,0,0,0,0,0,0,0,0,0,0,0,0,0
2013,5,5,22,0,,16,-2.5,28,100930,0,0,308,0,0,0,0,0,0,0,200,1.3,0,0,0,0,0,0,0,0,0,0,0,0,0
2013,5,5,23,0,,15.1,-3.3,28,100910,0,0,304,0,0,0,0,0,0,0,230,2.1,0,0,0,0,0,0,0,0,0,0,0,0,0
2013,5,5,24,0,,14.4,-3.9,28,100900,0,0,300,0,0,0,0,0,0,0,230,2.1,0,0,0,0,0,0,0,0,0,0,0,0,0
2013,5,6,1,0,,13.3,0.3,41,100910,0,0,300,0,0,0,0,0,0,0,90,0.5,0,0,0,0,0,0,0,0,0,0,0,0,0
2013,5,6,2,0,,11.1,4.7,65,100890,0,0,295,0,0,0,0,0,0,0,360,1.3,0,0,0,0,0,0,0,0,0,0,0,0,0
2013,5,6,3,0,,8.7,5.9,83,100910,0,0,287,0,0,0,0,0,0,0,360,0.6,0,0,0,0,0,0,0,0,0,0,0,0,0
2013,5,6,4,0,,7.8,4.1,78,100920,0,0,281,0,0,0,0,0,0,0,0,0.2,0,0,0,0,0,0,0,0,0,0,0,0,0
2013,5,6,5,0,,6.8,4.2,84,100930,0,0,277,0,0,0,0,0,0,0,20,0.6,0,0,0,0,0,0,0,0,0,0,0,0,0
2013,5,6,6,0,,6.4,4.2,86,100970,0,0,276,20,8,12,1969,743,1685,0,0,0.2,0,0,0,0,0,0,0,0,0,0,0,0,0
2013,5,6,7,0,,7.3,3.8,79,100970,0,0,279,129,432,51,32696,44130,7799,0,360,0.5,0,0,0,0,0,0,0,0,0,0,0,0,0
2013,5,6,8,0,,9.6,1.9,59,100970,0,0,286,317,614,86,57323,63019,11995,0,340,0.8,0,0,0,0,0,0,0,0,0,0,0,0,0
2013,5,6,9,0,,12.6,1.5,47,100970,0,0,298,530,761,104,78653,77400,13849,0,320,1.1,0,0,0,0,0,0,0,0,0,0,0,0,0
2013,5,6,10,0,,15.1,1.2,39,100950,0,0,308,714,822,125,92291,83627,16181,0,320,1.6,0,0,0,0,0,0,0,0,0,0,0,0,0
2013,5,6,11,0,,17.7,1.2,33,100880,0,0,320,854,849,145,99063,86328,18528,0,250,1.4,0,0,0,0,0,0,0,0,0,0,0,0,0
2013,5,6,12,0,,20.3,1.6,29,100800,0,0,332,925,825,176,97190,83675,21544,0,50,1.3,0,0,0,0,0,0,0,0,0,0,0,0,0
2013,5,6,13,0,,22.6,3.1,28,100690,0,0,345,953,830,180,91630,83616,22600,0,110,1.8,0,0,0,0,0,0,0,0,0,0,0,0,0
2013,5,6,14,0,,24.4,5.6,30,100600,0,0,357,901,786,191,80052,77921,25289,0,200,1.4,0,0,0,0,0,0,0,0,0,0,0,0,0
2013,5,6,15,0,,25,6.6,31,100520,0,0,361,802,755,180,63195,72260,23876,0,230,3.4,0,0,0,0,0,0,0,0,0,0,0,0,0
2013,5,6,16,0,,24.8,6.5,31,100510,0,0,360,653,702,160,42418,61052,20415,0,230,3.6,0,0,0,0,0,0,0,0,0,0,0,0,0
2013,5,6,17,0,,24.4,6.6,32,100500,0,0,358,478,650,126,21462,38944,15070,0,230,3.6,0,0,0,0,0,0,0,0,0,0,0,0,0
2013,5,6,18,0,,23.2,6.8,35,100530,0,0,352,295,587,85,0,0,0,0,230,2.3,0,0,0,0,0,0,0,0,0,0,0,0,0
2013,5,6,19,0,,22.5,6.6,36,100600,0,0,349,124,532,39,0,0,0,0,200,1.2,0,0,0,0,0,0,0,0,0,0,0,0,0
2013,5,6,20,0,,21.1,5.8,37,100700,0,0,341,16,7,9,0,0,0,0,160,2.1,0,0,0,0,0,0,0,0,0,0,0,0,0
2013,5,6,21,0,,19,8.6,51,100820,0,0,334,0,0,0,0,0,0,0,90,1.1,0,0,0,0,0,0,0,0,0,0,0,0,0
2013,5,6,22,0,,18.4,7.7,50,100920,0,0,330,0,0,0,0,0,0,0,90,4.1,0,0,0,0,0,0,0,0,0,0,0,0,0
2013,5,6,23,0,,17,8.1,56,101000,0,0,324,0,0,0,0,0,0,0,70,2.5,0,0,0,0,0,0,0,0,0,0,0,0,0
2013,5,6,24,0,,15.9,7.8,59,101060,0,0,319,0,0,0,0,0,0,0,50,1.6,0,0,0,0,0,0,0,0,0,0,0,0,0
2013,5,7,1,0,,15.4,7.4,59,101080,0,0,316,0,0,0,0,0,0,0,50,2.3,0,0,0,0,0,0,0,0,0,0,0,0,0
2013,5,7,2,0,,14.7,7.2,61,101090,0,0,313,0,0,0,0,0,0,0,50,1.3,0,0,0,0,0,0,0,0,0,0,0,0,0
2013,5,7,3,0,,12.7,11,90,101150,0,0,309,0,0,0,0,0,0,0,20,0.8,0,0,0,0,0,0,0,0,0,0,0,0,0
2013,5,7,4,0,,11.9,10.6,92,101160,0,0,305,0,0,0,0,0,0,0,360,1.2,0,0,0,0,0,0,0,0,0,0,0,0,0
2013,5,7,5,0,,10.9,10.1,95,101170,0,0,300,0,0,0,0,0,0,0,360,1.3,0,0,0,0,0,0,0,0,0,0,0,0,0
2013,5,7,6,0,,10.7,9.6,93,101210,0,0,299,21,9,13,2059,776,1760,0,360,1.7,0,0,0,0,0,0,0,0,0,0,0,0,0
2013,5,7,7,0,,11.6,8.9,84,101240,0,0,302,133,445,51,33696,45620,7848,0,360,1.1,0,0,0,0,0,0,0,0,0,0,0,0,0
2013,5,7,8,0,,13.4,7.8,69,101260,0,0,314,310,566,94,55142,58246,13121,0,360,1.4,1,0,0,0,0,0,0,0,0,0,0,0,0
2013,5,7,9,0,,15.6,5.7,52,101270,0,0,315,513,700,119,76095,72043,15636,0,340,1.8,0,0,0,0,0,0,0,0,0,0,0,0,0
2013,5,7,10,0,,17.6,5.1,44,101260,0,0,324,686,745,151,88398,76227,18887,0,340,1.6,0,0,0,0,0,0,0,0,0,0,0,0,0
2013,5,7,11,0,,20,5.6,39,101210,0,0,335,817,758,182,94238,77108,22175,0,270,1.7,0,0,0,0,0,0,0,0,0,0,0,0,0
2013,5,7,12,0,,21.5,4.5,33,101150,0,0,341,895,755,208,95872,76213,26844,0,230,1.8,0,0,0,0,0,0,0,0,0,0,0,0,0
2013,5,7,13,0,,23.4,5.2,31,101070,0,0,351,911,735,225,89367,73377,28663,0,230,1.5,0,0,0,0,0,0,0,0,0,0,0,0,0
2013,5,7,14,0,,25,5.7,29,101000,0,0,360,873,720,221,78231,70777,28357,0,290,1.8,0,0,0,0,0,0,0,0,0,0,0,0,0
2013,5,7,15,0,,26.4,5.8,27,100910,0,0,367,801,748,183,63308,71679,24156,0,270,1.4,0,0,0,0,0,0,0,0,0,0,0,0,0
2013,5,7,16,0,,27.3,5.5,25,100850,0,0,371,666,733,151,42656,64263,19347,0,180,1.2,0,0,0,0,0,0,0,0,0,0,0,0,0
2013,5,7,17,0,,27.6,5.7,25,100810,0,0,372,507,737,106,21117,45465,13537,0,200,1.5,0,0,0,0,0,0,0,0,0,0,0,0,0
2013,5,7,18,0,,26.8,6.7,28,100800,0,0,370,313,661,74,0,0,0,0,250,2.1,0,0,0,0,0,0,0,0,0,0,0,0,0
2013,5,7,19,0,,25.5,7.1,31,100810,0,0,364,129,556,38,0,0,0,0,200,0.9,0,0,0,0,0,0,0,0,0,0,0,0,0
2013,5,7,20,0,,23.5,9.8,42,100860,0,0,357,16,6,10,0,0,0,0,110,1.1,0,0,0,0,0,0,0,0,0,0,0,0,0
2013,5,7,21,0,,20.3,13.2,64,100950,0,0,346,0,0,0,0,0,0,0,360,0.7,0,0,0,0,0,0,0,0,0,0,0,0,0
2013,5,7,22,0,,18.6,13.2,71,100980,0,0,338,0,0,0,0,0,0,0,0,0,0,0,0,0,0,0,0,0,0,0,0,0,0
2013,5,7,23,0,,16.8,13.5,81,101030,0,0,330,0,0,0,0,0,0,0,0,0,0,0,0,0,0,0,0,0,0,0,0,0,0
2013,5,7,24,0,,15.6,13,85,101070,0,0,324,0,0,0,0,0,0,0,360,1,0,0,0,0,0,0,0,0,0,0,0,0,0
2013,5,8,1,0,,14.8,12.8,88,101080,0,0,320,0,0,0,0,0,0,0,340,1.3,0,0,0,0,0,0,0,0,0,0,0,0,0
2013,5,8,2,0,,13.8,12.8,94,101070,0,0,316,0,0,0,0,0,0,0,0,0,0,0,0,0,0,0,0,0,0,0,0,0,0
2013,5,8,3,0,,13,12.2,95,101100,0,0,312,0,0,0,0,0,0,0,0,0.4,0,0,0,0,0,0,0,0,0,0,0,0,0
2013,5,8,4,0,,12.4,11.9,97,101130,0,0,309,0,0,0,0,0,0,0,360,1.1,0,0,0,0,0,0,0,0,0,0,0,0,0
2013,5,8,5,0,,11.7,11.5,99,101150,0,0,305,0,0,0,0,0,0,0,0,0,0,0,0,0,0,0,0,0,0,0,0,0,0
2013,5,8,6,0,,11.2,11,99,101180,0,0,309,22,9,13,2136,777,1835,0,360,0.5,1,0,0,0,0,0,0,0,0,0,0,0,0
2013,5,8,7,0,,11.7,11.3,98,101230,0,0,305,125,355,59,30087,35466,9909,0,360,0.7,0,0,0,0,0,0,0,0,0,0,0,0,0
2013,5,8,8,0,,13.3,11.3,88,101250,0,0,312,292,474,110,51211,47824,16610,0,340,0.6,0,0,0,0,0,0,0,0,0,0,0,0,0
2013,5,8,9,0,,16,9.6,66,101240,0,0,328,500,653,132,73677,67175,17178,0,50,0.8,1,0,0,0,0,0,0,0,0,0,0,0,0
2013,5,8,10,0,,18.9,7.6,48,101200,0,0,333,690,751,150,89187,77048,18795,0,140,0.8,0,0,0,0,0,0,0,0,0,0,0,0,0
2013,5,8,11,0,,21.5,6.5,38,101140,0,0,344,842,812,161,97717,83111,19906,0,360,0.8,0,0,0,0,0,0,0,0,0,0,0,0,0
2013,5,8,12,0,,23.4,7,35,101030,0,0,353,906,776,199,95408,78466,24212,0,250,1.2,0,0,0,0,0,0,0,0,0,0,0,0,0
2013,5,8,13,0,,25.5,6.6,30,100920,0,0,363,930,773,207,91192,77351,27068,0,200,1.5,0,0,0,0,0,0,0,0,0,0,0,0,0
2013,5,8,14,0,,26.9,5.7,26,100820,0,0,369,880,731,217,78776,71985,27918,0,250,1.3,0,0,0,0,0,0,0,0,0,0,0,0,0
2013,5,8,15,0,,28.1,3,20,100750,0,0,371,817,779,171,64035,75282,22761,0,230,1.8,0,0,0,0,0,0,0,0,0,0,0,0,0
2013,5,8,16,0,,28.3,2.4,19,100690,0,0,383,668,732,151,42973,65204,19172,0,230,3.2,2,0,0,0,0,0,0,0,0,0,0,0,0
2013,5,8,17,0,,28,3.6,21,100650,0,0,384,491,679,120,21549,42425,14367,0,250,2.3,2,0,0,0,0,0,0,0,0,0,0,0,0
2013,5,8,18,0,,27,1.3,19,100650,0,0,375,316,668,74,0,0,0,0,230,3.6,2,0,0,0,0,0,0,0,0,0,0,0,0
2013,5,8,19,0,,25.4,2.7,23,100650,0,0,371,130,550,39,0,0,0,0,230,2.2,2,0,0,0,0,0,0,0,0,0,0,0,0
2013,5,8,20,0,,23.5,3.9,28,100710,0,0,364,17,7,10,0,0,0,0,230,2.1,3,0,0,0,0,0,0,0,0,0,0,0,0
2013,5,8,21,0,,21.9,4.4,32,100800,0,0,358,0,0,0,0,0,0,0,200,2,3,0,0,0,0,0,0,0,0,0,0,0,0
2013,5,8,22,0,,18,10.6,62,100810,0,0,346,0,0,0,0,0,0,0,20,0.5,3,0,0,0,0,0,0,0,0,0,0,0,0
2013,5,8,23,0,,15.8,10.3,70,100840,0,0,335,0,0,0,0,0,0,0,20,0.8,3,0,0,0,0,0,0,0,0,0,0,0,0
2013,5,8,24,0,,14.6,10,74,100830,0,0,330,0,0,0,0,0,0,0,20,0.6,3,0,0,0,0,0,0,0,0,0,0,0,0
2013,5,9,1,0,,13.4,10.3,82,100780,0,0,325,0,0,0,0,0,0,0,340,1.2,3,0,0,0,0,0,0,0,0,0,0,0,0
2013,5,9,2,0,,12.7,9.5,81,100770,0,0,320,0,0,0,0,0,0,0,0,0,3,0,0,0,0,0,0,0,0,0,0,0,0
2013,5,9,3,0,,11.4,9.8,90,100780,0,0,315,0,0,0,0,0,0,0,360,1.3,3,0,0,0,0,0,0,0,0,0,0,0,0
2013,5,9,4,0,,10.8,9.5,92,100770,0,0,320,0,0,0,0,0,0,0,360,1.1,6,0,0,0,0,0,0,0,0,0,0,0,0
2013,5,9,5,0,,10.1,8.8,92,100760,0,0,316,0,0,0,0,0,0,0,0,0,6,0,0,0,0,0,0,0,0,0,0,0,0
2013,5,9,6,0,,9.9,9.1,95,100770,0,0,316,16,3,13,1688,286,1577,0,20,0.5,6,0,0,0,0,0,0,0,0,0,0,0,0
2013,5,9,7,0,,10.2,8.7,91,100760,0,0,316,98,189,63,20204,18185,9817,0,0,0.1,6,0,0,0,0,0,0,0,0,0,0,0,0
2013,5,9,8,0,,12.4,8.2,76,100750,0,0,325,245,277,138,39055,27246,19287,0,20,0.5,6,0,0,0,0,0,0,0,0,0,0,0,0
2013,5,9,9,0,,14.9,7.1,60,100710,0,0,336,415,346,218,57142,34343,28195,0,360,0.7,6,0,0,0,0,0,0,0,0,0,0,0,0
2013,5,9,10,0,,17.9,6.7,48,100650,0,0,350,584,465,248,73600,46183,31330,0,360,1,6,0,0,0,0,0,0,0,0,0,0,0,0
2013,5,9,11,0,,21.3,5.6,36,100550,0,0,369,664,318,397,74910,32065,44839,0,200,1.2,7,0,0,0,0,0,0,0,0,0,0,0,0
2013,5,9,12,0,,24.2,2.3,24,100440,0,0,386,698,266,455,74461,27162,49773,0,200,1.9,8,0,0,0,0,0,0,0,0,0,0,0,0
2013,5,9,13,0,,24.6,2.6,24,100390,0,0,408,507,99,414,54974,9900,46750,0,230,2.9,10,0,0,0,0,0,0,0,0,0,0,0,0
2013,5,9,14,0,,23.1,3,27,100360,0,0,400,413,63,356,44570,6259,40137,0,250,3.4,10,0,0,0,0,0,0,0,0,0,0,0,0
2013,5,9,15,0,,23,5.4,32,100320,0,0,403,307,38,276,33170,3672,31149,0,230,3.6,10,0,0,0,0,0,0,0,0,0,0,0,0
2013,5,9,16,0,,21.8,3.9,31,100340,0,0,395,245,35,220,24930,2954,23845,0,200,2.9,10,0,0,0,0,0,0,0,0,0,0,0,0
2013,5,9,17,0,,20.8,3.9,33,100320,0,0,389,184,37,163,17135,2625,16684,0,200,2.4,10,0,0,0,0,0,0,0,0,0,0,0,0
2013,5,9,18,0,,20.5,5.6,38,100240,0,0,390,117,39,102,0,0,0,0,180,1.3,10,0,0,0,0,0,0,0,0,0,0,0,0
2013,5,9,19,0,,20.2,6.8,42,100180,0,0,390,47,33,42,0,0,0,0,230,1,10,0,0,0,0,0,0,0,0,0,0,0,0
2013,5,9,20,0,,18.7,13.5,72,100160,0,0,391,1,0,1,0,0,0,0,340,0.9,10,0,0,0,0,0,0,0,0,0,0,0,0
2013,5,9,21,0,,16.9,14.5,86,100110,0,0,382,0,0,0,0,0,0,0,290,0.9,10,0,0,0,0,0,0,0,0,0,0,0,0
2013,5,9,22,0,,16.3,14.6,90,100080,0,0,379,0,0,0,0,0,0,0,0,0.2,10,0,0,0,0,0,0,0,0,0,0,0,0
2013,5,9,23,0,,16.1,14.1,88,100000,0,0,378,0,0,0,0,0,0,0,0,0.4,10,0,0,0,0,0,0,0,0,0,0,0,0
2013,5,9,24,0,,15.8,15.1,96,99940,0,0,378,0,0,0,0,0,0,0,0,0.2,10,0,0,0,0,0,0,0,0,0,0,0,0
2013,5,10,1,0,,15.3,14.9,98,99880,0,0,375,0,0,0,0,0,0,0,250,1,10,0,0,0,0,0,0,0,0,0,0,0,0
2013,5,10,2,0,,14.9,14.7,99,99790,0,0,373,0,0,0,0,0,0,0,320,0.5,10,0,0,0,0,0,0,0,0,0,0,0,0
2013,5,10,3,0,,14.8,14.6,99,99660,0,0,372,0,0,0,0,0,0,0,0,0.1,10,0,0,0,0,0,0,0,0,0,0,0,0
2013,5,10,4,0,,14.7,14.5,99,99550,0,0,371,0,0,0,0,0,0,0,0,0,10,0,0,0,0,0,0,0,0,0,0,0,0
2013,5,10,5,0,,14.6,14.4,99,99450,0,0,371,0,0,0,0,0,0,0,0,0.2,10,0,0,0,0,0,0,0,0,0,0,0,0
2013,5,10,6,0,,14.6,14.4,99,99390,0,0,371,2,0,2,315,0,315,0,0,0.3,10,0,0,0,0,0,0,0,0,0,0,0,0
2013,5,10,7,0,,14.6,14.4,99,99350,0,0,371,39,12,36,5051,1092,4424,0,290,0.6,10,0,0,0,0,0,0,0,0,0,0,0,0
2013,5,10,8,0,,14.7,14.5,99,99310,0,0,371,85,13,80,10440,1168,9591,0,0,0,10,0,0,0,0,0,0,0,0,0,0,0,0
2013,5,10,9,0,,15,14.8,99,99280,0,0,373,135,14,127,16194,1240,15147,0,0,0.2,10,0,0,0,0,0,0,0,0,0,0,0,0
2013,5,10,10,0,,15.6,15.4,99,99260,0,0,377,181,14,171,21383,1250,20237,0,0,0.2,10,0,0,0,0,0,0,0,0,0,0,0,0
2013,5,10,11,0,,16.3,16.1,99,99200,0,0,382,225,15,212,26350,1385,25049,0,70,0.7,10,0,0,0,0,0,0,0,0,0,0,0,0
2013,5,10,12,0,,16.9,16.5,98,99120,0,0,385,248,15,234,29372,998,28464,0,230,1,10,0,0,0,0,0,0,0,0,0,0,0,0
2013,5,10,13,0,,16.8,16.1,96,99060,0,0,384,264,17,248,30602,1158,29638,0,180,2.2,10,0,0,0,0,0,0,0,0,0,0,0,0
2013,5,10,14,0,,16.8,16.3,97,99050,0,0,384,232,13,221,26562,895,25926,0,200,1.7,10,0,0,0,0,0,0,0,0,0,0,0,0
2013,5,10,15,0,,16.7,15,90,99070,0,0,382,234,18,219,25607,1321,24878,0,230,3,10,0,0,0,0,0,0,0,0,0,0,0,0
2013,5,10,16,0,,16.2,14.7,91,99120,0,0,379,197,19,183,20531,1309,20047,0,230,3.8,10,0,0,0,0,0,0,0,0,0,0,0,0
2013,5,10,17,0,,17.3,13.2,77,99150,0,0,359,319,171,225,27166,13409,24827,0,230,4.4,7,0,0,0,0,0,0,0,0,0,0,0,0
2013,5,10,18,0,,17.4,12.5,73,99200,0,0,354,232,279,130,0,0,0,0,230,3.2,6,0,0,0,0,0,0,0,0,0,0,0,0
2013,5,10,19,0,,16.5,12.6,78,99260,0,0,352,92,216,55,0,0,0,0,230,2.9,7,0,0,0,0,0,0,0,0,0,0,0,0
2013,5,10,20,0,,15.4,12.5,83,99280,0,0,350,10,1,9,0,0,0,0,180,2.9,7,0,0,0,0,0,0,0,0,0,0,0,0
2013,5,10,21,0,,15.2,11.9,81,99340,0,0,352,0,0,0,0,0,0,0,200,2.7,8,0,0,0,0,0,0,0,0,0,0,0,0
2013,5,10,22,0,,14.8,10.7,77,99430,0,0,347,0,0,0,0,0,0,0,200,3.4,8,0,0,0,0,0,0,0,0,0,0,0,0
2013,5,10,23,0,,14.3,10.5,78,99450,0,0,342,0,0,0,0,0,0,0,200,2.3,7,0,0,0,0,0,0,0,0,0,0,0,0
2013,5,10,24,0,,13.7,9.7,77,99510,0,0,337,0,0,0,0,0,0,0,230,4,7,0,0,0,0,0,0,0,0,0,0,0,0
2013,5,11,1,0,,13.1,9.5,79,99540,0,0,334,0,0,0,0,0,0,0,200,2.4,7,0,0,0,0,0,0,0,0,0,0,0,0
2013,5,11,2,0,,12.6,9.2,80,99560,0,0,331,0,0,0,0,0,0,0,200,1.9,7,0,0,0,0,0,0,0,0,0,0,0,0
2013,5,11,3,0,,12.4,9.4,82,99600,0,0,331,0,0,0,0,0,0,0,180,1.6,7,0,0,0,0,0,0,0,0,0,0,0,0
2013,5,11,4,0,,11.9,9.4,85,99580,0,0,328,0,0,0,0,0,0,0,160,1.3,7,0,0,0,0,0,0,0,0,0,0,0,0
2013,5,11,5,0,,11.4,9.6,89,99580,0,0,323,0,0,0,0,0,0,0,180,0.8,6,0,0,0,0,0,0,0,0,0,0,0,0
2013,5,11,6,0,,10.1,9.9,99,99630,0,0,326,10,1,9,1221,24,1212,0,0,0.2,8,0,0,0,0,0,0,0,0,0,0,0,0
2013,5,11,7,0,,10.6,10.1,97,99650,0,0,345,35,9,33,4556,829,4078,0,0,0.4,10,0,0,0,0,0,0,0,0,0,0,0,0
2013,5,11,8,0,,11.8,10,89,99660,0,0,329,197,137,144,28339,13468,18516,0,20,0.6,7,0,0,0,0,0,0,0,0,0,0,0,0
2013,5,11,9,0,,13.7,8.1,69,99660,0,0,328,427,398,200,59679,39382,26351,0,290,1.2,5,0,0,0,0,0,0,0,0,0,0,0,0
2013,5,11,10,0,,15.3,9.8,70,99640,0,0,329,635,589,207,81489,59150,27165,0,320,1.6,2,0,0,0,0,0,0,0,0,0,0,0,0
2013,5,11,11,0,,17.3,8.4,56,99610,0,0,326,780,654,228,90810,65552,29135,0,340,1.3,0,0,0,0,0,0,0,0,0,0,0,0,0
2013,5,11,12,0,,19.7,8.3,48,99550,0,0,337,862,666,251,91929,66365,31403,0,200,1.9,0,0,0,0,0,0,0,0,0,0,0,0,0
2013,5,11,13,0,,21.5,6.1,37,99480,0,0,343,927,753,218,90888,75281,28110,0,230,2.7,0,0,0,0,0,0,0,0,0,0,0,0,0
2013,5,11,14,0,,23,4.9,31,99410,0,0,349,896,754,208,80059,74542,26993,0,230,3,0,0,0,0,0,0,0,0,0,0,0,0,0
2013,5,11,15,0,,24.1,4.4,28,99350,0,0,354,809,748,186,64177,71848,24355,0,230,2.9,0,0,0,0,0,0,0,0,0,0,0,0,0
2013,5,11,16,0,,24.7,3.8,26,99320,0,0,356,671,725,155,43733,64477,19762,0,270,3.2,0,0,0,0,0,0,0,0,0,0,0,0,0
2013,5,11,17,0,,24.4,3.6,26,99320,0,0,354,509,716,113,21920,46008,13781,0,250,3.2,0,0,0,0,0,0,0,0,0,0,0,0,0
2013,5,11,18,0,,24,3.2,26,99310,0,0,352,328,693,72,0,0,0,0,230,3.5,0,0,0,0,0,0,0,0,0,0,0,0,0
2013,5,11,19,0,,23,4.9,31,99330,0,0,349,137,552,41,0,0,0,0,230,0.8,0,0,0,0,0,0,0,0,0,0,0,0,0
2013,5,11,20,0,,20.4,9.3,49,99400,0,0,342,20,9,11,0,0,0,0,70,1,0,0,0,0,0,0,0,0,0,0,0,0,0
2013,5,11,21,0,,17.9,10.7,63,99420,0,0,332,0,0,0,0,0,0,0,0,0.3,0,0,0,0,0,0,0,0,0,0,0,0,0
2013,5,11,22,0,,15.5,10.8,74,99460,0,0,321,0,0,0,0,0,0,0,0,0.3,0,0,0,0,0,0,0,0,0,0,0,0,0
2013,5,11,23,0,,14,12.2,89,99480,0,0,316,0,0,0,0,0,0,0,20,0.6,0,0,0,0,0,0,0,0,0,0,0,0,0
2013,5,11,24,0,,13.4,11.2,87,99520,0,0,312,0,0,0,0,0,0,0,0,0.1,0,0,0,0,0,0,0,0,0,0,0,0,0
2013,5,12,1,0,,12.7,11.2,91,99690,0,0,328,0,0,0,0,0,0,0,360,1.5,5,0,0,0,0,0,0,0,0,0,0,0,0
2013,5,12,2,0,,15.2,5.9,54,99570,0,0,362,0,0,0,0,0,0,0,180,3.6,10,0,0,0,0,0,0,0,0,0,0,0,0
2013,5,12,3,0,,16.5,8.4,59,99450,0,0,372,0,0,0,0,0,0,0,180,6.5,10,0,0,0,0,0,0,0,0,0,0,0,0
2013,5,12,4,0,,15.3,11,76,99500,0,0,346,0,0,0,0,0,0,0,50,0.5,7,0,0,0,0,0,0,0,0,0,0,0,0
2013,5,12,5,0,,15.3,9.6,69,99500,0,0,344,0,0,0,0,0,0,0,230,1.5,7,0,0,0,0,0,0,0,0,0,0,0,0
2013,5,12,6,0,,15.3,11.2,77,99500,0,0,370,5,0,5,661,3,660,0,0,0.2,10,0,0,0,0,0,0,0,0,0,0,0,0
2013,5,12,7,0,,15,12.8,87,99510,0,0,370,42,15,40,5594,1350,4814,0,0,0.4,10,0,0,0,0,0,0,0,0,0,0,0,0
2013,5,12,8,0,,16.1,11.2,73,99510,0,0,364,156,70,129,21063,6859,16049,0,200,2,9,0,0,0,0,0,0,0,0,0,0,0,0
2013,5,12,9,0,,16.4,12.1,76,99510,0,0,358,281,103,222,35350,10093,26793,0,250,1.2,8,0,0,0,0,0,0,0,0,0,0,0,0
2013,5,12,10,0,,17.1,11.7,71,99530,0,0,361,381,106,303,45382,10378,35835,0,250,1.2,8,0,0,0,0,0,0,0,0,0,0,0,0
2013,5,12,11,0,,17.9,12.7,72,99550,0,0,367,428,88,354,49546,8530,41509,0,290,0.5,8,0,0,0,0,0,0,0,0,0,0,0,0
2013,5,12,12,0,,19.1,12.5,66,99540,0,0,373,488,96,400,54248,9128,45909,0,250,0.8,8,0,0,0,0,0,0,0,0,0,0,0,0
2013,5,12,13,0,,21.6,12.7,57,99510,0,0,386,572,136,445,61925,12915,51134,0,270,2.8,8,0,0,0,0,0,0,0,0,0,0,0,0
2013,5,12,14,0,,23.3,12.8,52,99480,0,0,385,713,284,453,70798,26633,51792,0,250,2.6,6,0,0,0,0,0,0,0,0,0,0,0,0
2013,5,12,15,0,,24.6,12.5,47,99440,0,0,391,655,312,395,60834,28391,45042,0,270,2.7,6,0,0,0,0,0,0,0,0,0,0,0,0
2013,5,12,16,0,,25.2,13,47,99380,0,0,389,600,532,221,43326,44027,26861,0,270,2.5,4,0,0,0,0,0,0,0,0,0,0,0,0
2013,5,12,17,0,,25.1,11.9,44,99410,0,0,380,479,613,139,23718,36998,17081,0,250,2.1,2,0,0,0,0,0,0,0,0,0,0,0,0
2013,5,12,18,0,,24.4,12.3,47,99430,0,0,381,298,547,95,0,0,0,0,250,2.4,3,0,0,0,0,0,0,0,0,0,0,0,0
2013,5,12,19,0,,23.3,13.4,54,99470,0,0,379,121,380,54,0,0,0,0,230,1.8,4,0,0,0,0,0,0,0,0,0,0,0,0
2013,5,12,20,0,,22.3,13.6,58,99570,0,0,377,17,5,12,0,0,0,0,230,1.4,5,0,0,0,0,0,0,0,0,0,0,0,0
2013,5,12,21,0,,21.4,13,59,99650,0,0,375,0,0,0,0,0,0,0,200,1.7,6,0,0,0,0,0,0,0,0,0,0,0,0
2013,5,12,22,0,,20.8,11.4,55,99740,0,0,371,0,0,0,0,0,0,0,180,1.8,6,0,0,0,0,0,0,0,0,0,0,0,0
2013,5,12,23,0,,19.2,14,72,99810,0,0,368,0,0,0,0,0,0,0,0,0,7,0,0,0,0,0,0,0,0,0,0,0,0
2013,5,12,24,0,,17.9,13.1,74,99800,0,0,361,0,0,0,0,0,0,0,90,1.2,7,0,0,0,0,0,0,0,0,0,0,0,0
2013,5,13,1,0,,17.2,12.9,76,99810,0,0,356,0,0,0,0,0,0,0,110,1,7,0,0,0,0,0,0,0,0,0,0,0,0
2013,5,13,2,0,,16.6,12.1,75,99850,0,0,351,0,0,0,0,0,0,0,70,1,6,0,0,0,0,0,0,0,0,0,0,0,0
2013,5,13,3,0,,15.7,12.2,80,99910,0,0,346,0,0,0,0,0,0,0,140,0.6,6,0,0,0,0,0,0,0,0,0,0,0,0
2013,5,13,4,0,,15.9,12,78,99950,0,0,350,0,0,0,0,0,0,0,110,0.5,7,0,0,0,0,0,0,0,0,0,0,0,0
2013,5,13,5,0,,16.6,11,70,99960,0,0,358,0,0,0,0,0,0,0,140,1.1,8,0,0,0,0,0,0,0,0,0,0,0,0
2013,5,13,6,0,,17.2,11.2,68,100050,0,0,361,18,4,14,1901,319,1774,0,90,1.4,8,0,0,0,0,0,0,0,0,0,0,0,0
2013,5,13,7,0,,18.2,10.7,62,100130,0,0,366,101,173,67,20093,16572,10491,0,160,1.1,8,0,0,0,0,0,0,0,0,0,0,0,0
2013,5,13,8,0,,19.3,11.3,60,100170,0,0,372,218,177,148,31766,17181,19175,0,140,1.6,8,0,0,0,0,0,0,0,0,0,0,0,0
2013,5,13,9,0,,20.4,10.7,54,100210,0,0,367,418,335,226,57263,32558,29606,0,180,1.9,6,0,0,0,0,0,0,0,0,0,0,0,0
2013,5,13,10,0,,22.3,9.4,44,100200,0,0,358,680,699,170,86963,71490,21095,0,200,3.2,1,0,0,0,0,0,0,0,0,0,0,0,0
2013,5,13,11,0,,23.7,9.2,40,100190,0,0,358,802,698,211,93691,70089,27549,0,200,2.8,0,0,0,0,0,0,0,0,0,0,0,0,0
2013,5,13,12,0,,24.7,9.8,39,100200,0,0,363,866,669,251,92414,66443,31624,0,230,3,0,0,0,0,0,0,0,0,0,0,0,0,0
2013,5,13,13,0,,25.8,8.7,34,100170,0,0,383,856,593,296,85036,57861,36604,0,230,2.9,3,0,0,0,0,0,0,0,0,0,0,0,0
2013,5,13,14,0,,26.6,8,31,100150,0,0,396,710,279,455,70433,26959,51148,0,200,3.1,6,0,0,0,0,0,0,0,0,0,0,0,0
2013,5,13,15,0,,27.4,7.2,28,100170,0,0,399,645,293,399,60161,27682,44710,0,250,2,6,0,0,0,0,0,0,0,0,0,0,0,0
2013,5,13,16,0,,27.9,6,25,100160,0,0,405,498,245,323,43868,21272,35865,0,180,1.9,7,0,0,0,0,0,0,0,0,0,0,0,0
2013,5,13,17,0,,28.1,1.5,18,100130,0,0,385,499,673,124,22876,44338,14813,0,250,2.2,3,0,0,0,0,0,0,0,0,0,0,0,0
2013,5,13,18,0,,27.7,1.2,18,100100,0,0,382,323,650,80,0,0,0,0,250,2.1,3,0,0,0,0,0,0,0,0,0,0,0,0
2013,5,13,19,0,,26.2,2.1,21,100110,0,0,378,133,481,47,0,0,0,0,230,0.6,4,0,0,0,0,0,0,0,0,0,0,0,0
2013,5,13,20,0,,22.4,9.1,43,100200,0,0,370,18,6,12,0,0,0,0,340,0.6,4,0,0,0,0,0,0,0,0,0,0,0,0
2013,5,13,21,0,,20.1,11,56,100240,0,0,363,0,0,0,0,0,0,0,0,0,5,0,0,0,0,0,0,0,0,0,0,0,0
2013,5,13,22,0,,18.1,9.9,59,100280,0,0,352,0,0,0,0,0,0,0,110,0.5,5,0,0,0,0,0,0,0,0,0,0,0,0
2013,5,13,23,0,,16.6,11.5,72,100290,0,0,348,0,0,0,0,0,0,0,320,0.8,6,0,0,0,0,0,0,0,0,0,0,0,0
2013,5,13,24,0,,15.6,10.7,73,100350,0,0,343,0,0,0,0,0,0,0,0,0.2,6,0,0,0,0,0,0,0,0,0,0,0,0
2013,5,14,1,0,,14.6,11.3,81,100370,0,0,339,0,0,0,0,0,0,0,0,0,6,0,0,0,0,0,0,0,0,0,0,0,0
2013,5,14,2,0,,13.6,10.9,84,100380,0,0,334,0,0,0,0,0,0,0,0,0.3,6,0,0,0,0,0,0,0,0,0,0,0,0
2013,5,14,3,0,,13,11,88,100340,0,0,332,0,0,0,0,0,0,0,360,0.9,6,0,0,0,0,0,0,0,0,0,0,0,0
2013,5,14,4,0,,12.4,11.1,92,100360,0,0,333,0,0,0,0,0,0,0,0,0.1,7,0,0,0,0,0,0,0,0,0,0,0,0
2013,5,14,5,0,,12.2,10.6,90,100390,0,0,331,0,0,0,0,0,0,0,0,0,7,0,0,0,0,0,0,0,0,0,0,0,0
2013,5,14,6,0,,11.9,10.9,94,100390,0,0,330,17,3,14,1811,242,1714,0,0,0.2,7,0,0,0,0,0,0,0,0,0,0,0,0
2013,5,14,7,0,,12.3,11,92,100380,0,0,332,97,144,67,18592,13746,10601,0,360,1,7,0,0,0,0,0,0,0,0,0,0,0,0
2013,5,14,8,0,,13.7,11,84,100390,0,0,344,187,111,143,26497,10854,18525,0,0,0.3,8,0,0,0,0,0,0,0,0,0,0,0,0
2013,5,14,9,0,,14.7,10.5,76,100470,0,0,356,245,69,205,30566,6805,24776,0,320,0.6,9,0,0,0,0,0,0,0,0,0,0,0,0
2013,5,14,10,0,,16.7,9.6,63,100470,0,0,365,353,85,291,42025,8438,34239,0,0,0.3,9,0,0,0,0,0,0,0,0,0,0,0,0
2013,5,14,11,0,,18.1,9.9,59,100550,0,0,372,435,91,358,50039,8977,41555,0,290,1.3,9,0,0,0,0,0,0,0,0,0,0,0,0
2013,5,14,12,0,,20.7,3.3,32,100510,0,0,369,625,187,453,68017,18821,50771,0,180,1.5,8,0,0,0,0,0,0,0,0,0,0,0,0
2013,5,14,13,0,,22.2,3.3,29,100410,0,0,377,644,186,468,67839,18690,52166,0,250,1.9,8,0,0,0,0,0,0,0,0,0,0,0,0
2013,5,14,14,0,,22.5,3,28,100350,0,0,386,525,117,417,55235,11719,46833,0,250,1.4,9,0,0,0,0,0,0,0,0,0,0,0,0
2013,5,14,15,0,,23.4,4.8,30,100290,0,0,385,524,158,391,52421,15639,43662,0,290,2.2,8,0,0,0,0,0,0,0,0,0,0,0,0
2013,5,14,16,0,,24.1,4.4,28,100210,0,0,382,484,222,324,43261,19555,35863,0,290,1.4,7,0,0,0,0,0,0,0,0,0,0,0,0
2013,5,14,17,0,,23.6,2.9,26,100150,0,0,384,322,166,229,27522,13819,24976,0,230,0.9,8,0,0,0,0,0,0,0,0,0,0,0,0
2013,5,14,18,0,,22.8,2.8,27,100090,0,0,388,176,111,134,0,0,0,0,230,1.4,9,0,0,0,0,0,0,0,0,0,0,0,0
2013,5,14,19,0,,22.4,3.4,29,99990,0,0,383,76,101,58,0,0,0,0,160,1.8,9,0,0,0,0,0,0,0,0,0,0,0,0
2013,5,14,20,0,,20.5,9.7,50,100020,0,0,379,11,1,10,0,0,0,0,0,0.4,8,0,0,0,0,0,0,0,0,0,0,0,0
2013,5,14,21,0,,18.5,10.5,60,100110,0,0,367,0,0,0,0,0,0,0,0,0.2,8,0,0,0,0,0,0,0,0,0,0,0,0
2013,5,14,22,0,,17.7,11.7,68,100190,0,0,364,0,0,0,0,0,0,0,290,0.5,8,0,0,0,0,0,0,0,0,0,0,0,0
2013,5,14,23,0,,16.5,12.6,78,100230,0,0,360,0,0,0,0,0,0,0,0,0.3,8,0,0,0,0,0,0,0,0,0,0,0,0
2013,5,14,24,0,,17.1,6.8,51,100260,0,0,355,0,0,0,0,0,0,0,200,1.8,8,0,0,0,0,0,0,0,0,0,0,0,0
2013,5,15,1,0,,18.1,7.7,51,100310,0,0,366,0,0,0,0,0,0,0,200,2,9,0,0,0,0,0,0,0,0,0,0,0,0
2013,5,15,2,0,,18.1,9.1,56,100280,0,0,374,0,0,0,0,0,0,0,180,3,9,0,0,0,0,0,0,0,0,0,0,0,0
2013,5,15,3,0,,18,10.1,60,100250,0,0,382,0,0,0,0,0,0,0,180,2.8,10,0,0,0,0,0,0,0,0,0,0,0,0
2013,5,15,4,0,,18,11.5,66,100200,0,0,366,0,0,0,0,0,0,0,180,2.4,8,0,0,0,0,0,0,0,0,0,0,0,0
2013,5,15,5,0,,17.7,11.9,69,100190,0,0,359,0,0,0,0,0,0,0,180,2.6,7,0,0,0,0,0,0,0,0,0,0,0,0
2013,5,15,6,0,,17.2,12.5,74,100250,0,0,353,24,8,16,2287,695,2006,0,180,2.2,6,0,0,0,0,0,0,0,0,0,0,0,0
2013,5,15,7,0,,17.5,11.9,70,100280,0,0,348,144,401,62,33656,40149,10245,0,200,1.3,4,0,0,0,0,0,0,0,0,0,0,0,0
2013,5,15,8,0,,18.5,10,58,100320,0,0,348,312,505,111,54201,51122,16572,0,230,1.7,3,0,0,0,0,0,0,0,0,0,0,0,0
2013,5,15,9,0,,20.1,9.3,50,100330,0,0,364,418,324,230,56885,31737,29834,0,250,2.5,6,0,0,0,0,0,0,0,0,0,0,0,0
2013,5,15,10,0,,20.3,8.2,46,100340,0,0,357,615,520,234,77800,51985,29762,0,340,2.6,4,0,0,0,0,0,0,0,0,0,0,0,0
2013,5,15,11,0,,21.6,5.4,35,100340,0,0,367,643,273,411,72221,27550,46149,0,320,1.1,6,0,0,0,0,0,0,0,0,0,0,0,0
2013,5,15,12,0,,22.4,7.3,38,100310,0,0,373,678,235,462,73496,23227,52181,0,160,1.4,6,0,0,0,0,0,0,0,0,0,0,0,0
2013,5,15,13,0,,23.4,6.1,33,100260,0,0,368,840,553,317,83934,54609,38062,0,250,2,3,0,0,0,0,0,0,0,0,0,0,0,0
2013,5,15,14,0,,24.4,5.1,29,100220,0,0,371,815,561,300,75561,55080,35976,0,200,1.1,3,0,0,0,0,0,0,0,0,0,0,0,0
2013,5,15,15,0,,24.9,5.6,29,100200,0,0,366,774,651,227,63407,62428,28326,0,160,1.2,1,0,0,0,0,0,0,0,0,0,0,0,0
2013,5,15,16,0,,25.8,5.3,27,100190,0,0,370,660,676,174,44707,59980,21886,0,230,1.9,1,0,0,0,0,0,0,0,0,0,0,0,0
2013,5,15,17,0,,26.2,5.7,27,100200,0,0,378,502,669,127,23538,43614,15395,0,250,1.3,2,0,0,0,0,0,0,0,0,0,0,0,0
2013,5,15,18,0,,25.1,7.6,33,100280,0,0,384,281,441,114,0,0,0,0,20,1.8,5,0,0,0,0,0,0,0,0,0,0,0,0
2013,5,15,19,0,,21.7,6.3,37,100380,0,0,360,136,466,50,0,0,0,0,90,4.1,3,0,0,0,0,0,0,0,0,0,0,0,0
2013,5,15,20,0,,20,6.3,41,100520,0,0,346,23,11,12,0,0,0,0,70,2.9,2,0,0,0,0,0,0,0,0,0,0,0,0
2013,5,15,21,0,,18.6,6.7,46,100590,0,0,330,0,0,0,0,0,0,0,50,2.3,0,0,0,0,0,0,0,0,0,0,0,0,0
2013,5,15,22,0,,17.6,6.7,49,100670,0,0,326,0,0,0,0,0,0,0,70,2.3,0,0,0,0,0,0,0,0,0,0,0,0,0
2013,5,15,23,0,,16.5,6.8,53,100760,0,0,321,0,0,0,0,0,0,0,70,2.6,0,0,0,0,0,0,0,0,0,0,0,0,0
2013,5,15,24,0,,15.3,7.3,59,100870,0,0,316,0,0,0,0,0,0,0,70,2.3,0,0,0,0,0,0,0,0,0,0,0,0,0
2013,5,16,1,0,,14.3,6.8,61,100880,0,0,311,0,0,0,0,0,0,0,70,2.2,0,0,0,0,0,0,0,0,0,0,0,0,0
2013,5,16,2,0,,13.6,6.2,61,100890,0,0,307,0,0,0,0,0,0,0,90,3.7,0,0,0,0,0,0,0,0,0,0,0,0,0
2013,5,16,3,0,,12.9,5.7,62,100970,0,0,304,0,0,0,0,0,0,0,90,3.4,0,0,0,0,0,0,0,0,0,0,0,0,0
2013,5,16,4,0,,12.4,5.7,64,101010,0,0,302,0,0,0,0,0,0,0,90,3,0,0,0,0,0,0,0,0,0,0,0,0,0
2013,5,16,5,0,,11.7,7.9,78,101050,0,0,301,0,0,0,0,0,0,0,20,1.4,0,0,0,0,0,0,0,0,0,0,0,0,0
2013,5,16,6,0,,10.8,8.1,84,101100,0,0,298,30,15,15,2661,1392,2096,0,0,0.3,0,0,0,0,0,0,0,0,0,0,0,0,0
2013,5,16,7,0,,12.2,5.5,64,101080,0,0,300,160,517,52,38276,52229,7731,0,340,1.4,0,0,0,0,0,0,0,0,0,0,0,0,0
2013,5,16,8,0,,14.2,6,58,101070,0,0,310,346,645,87,61208,66512,12151,0,360,2.2,0,0,0,0,0,0,0,0,0,0,0,0,0
2013,5,16,9,0,,16.5,6,50,101050,0,0,320,549,753,111,80505,77063,14715,0,340,2.2,0,0,0,0,0,0,0,0,0,0,0,0,0
2013,5,16,10,0,,19.5,5.5,40,101010,0,0,333,735,825,129,94689,84389,16600,0,70,3.6,0,0,0,0,0,0,0,0,0,0,0,0,0
2013,5,16,11,0,,21.6,5,34,100970,0,0,342,867,835,156,100261,85551,19192,0,70,3.4,0,0,0,0,0,0,0,0,0,0,0,0,0
2013,5,16,12,0,,23.4,3.3,27,100920,0,0,349,945,830,178,99239,84339,21732,0,70,3.6,0,0,0,0,0,0,0,0,0,0,0,0,0
2013,5,16,13,0,,24.5,2.5,24,100880,0,0,353,952,791,203,93366,79709,26294,0,50,3.9,0,0,0,0,0,0,0,0,0,0,0,0,0
2013,5,16,14,0,,25.1,1.2,21,100860,0,0,354,902,751,212,80817,74524,27137,0,50,4.5,0,0,0,0,0,0,0,0,0,0,0,0,0
2013,5,16,15,0,,25.7,1,20,100790,0,0,356,811,734,194,64903,70804,24984,0,70,4.4,0,0,0,0,0,0,0,0,0,0,0,0,0
2013,5,16,16,0,,25.9,1.8,21,100760,0,0,358,678,719,160,45005,64961,20150,0,70,3.6,0,0,0,0,0,0,0,0,0,0,0,0,0
2013,5,16,17,0,,25.6,0.9,20,100760,0,0,356,514,702,119,23334,47483,14355,0,50,3.3,0,0,0,0,0,0,0,0,0,0,0,0,0
2013,5,16,18,0,,24.8,0.9,21,100770,0,0,352,333,669,78,0,0,0,0,70,2.5,0,0,0,0,0,0,0,0,0,0,0,0,0
2013,5,16,19,0,,23.1,0.8,23,100840,0,0,344,151,588,41,0,0,0,0,50,2.8,0,0,0,0,0,0,0,0,0,0,0,0,0
2013,5,16,20,0,,20.9,0.6,26,100940,0,0,333,27,12,15,0,0,0,0,50,2.8,0,0,0,0,0,0,0,0,0,0,0,0,0
2013,5,16,21,0,,19.5,0.9,29,101040,0,0,327,0,0,0,0,0,0,0,50,2,0,0,0,0,0,0,0,0,0,0,0,0,0
2013,5,16,22,0,,18.3,1.2,32,101110,0,0,322,0,0,0,0,0,0,0,50,1.7,0,0,0,0,0,0,0,0,0,0,0,0,0
2013,5,16,23,0,,15.9,6.5,54,101150,0,0,318,0,0,0,0,0,0,0,20,1,0,0,0,0,0,0,0,0,0,0,0,0,0
2013,5,16,24,0,,14.1,8.2,68,101140,0,0,312,0,0,0,0,0,0,0,360,1.3,0,0,0,0,0,0,0,0,0,0,0,0,0
2013,5,17,1,0,,13.1,6.4,64,101120,0,0,305,0,0,0,0,0,0,0,360,1.1,0,0,0,0,0,0,0,0,0,0,0,0,0
2013,5,17,2,0,,12,7,72,101100,0,0,301,0,0,0,0,0,0,0,360,1.6,0,0,0,0,0,0,0,0,0,0,0,0,0
2013,5,17,3,0,,11.3,7.7,79,101060,0,0,299,0,0,0,0,0,0,0,360,1.7,0,0,0,0,0,0,0,0,0,0,0,0,0
2013,5,17,4,0,,10.5,7.5,82,101000,0,0,305,0,0,0,0,0,0,0,360,1.9,2,0,0,0,0,0,0,0,0,0,0,0,0
2013,5,17,5,0,,10,7.4,84,101040,0,0,303,0,0,0,0,0,0,0,50,0.8,2,0,0,0,0,0,0,0,0,0,0,0,0
2013,5,17,6,0,,9.7,7.1,84,101050,0,0,305,30,14,16,2731,1345,2182,0,20,1.3,3,0,0,0,0,0,0,0,0,0,0,0,0
2013,5,17,7,0,,11.1,5.6,69,101040,0,0,311,148,409,62,33731,41744,9249,0,340,1.4,4,0,0,0,0,0,0,0,0,0,0,0,0
2013,5,17,8,0,,13.9,5.7,58,101060,0,0,326,310,482,116,53203,48994,16996,0,110,1.6,5,0,0,0,0,0,0,0,0,0,0,0,0
2013,5,17,9,0,,16.1,5.6,50,101000,0,0,331,533,699,125,77735,71895,16263,0,180,0.8,3,0,0,0,0,0,0,0,0,0,0,0,0
2013,5,17,10,0,,18.3,4.4,40,100970,0,0,343,672,659,186,86661,66947,24630,0,90,1.1,4,0,0,0,0,0,0,0,0,0,0,0,0
2013,5,17,11,0,,20.4,-0.8,24,100910,0,0,352,726,506,294,83694,51358,34965,0,320,1.9,6,0,0,0,0,0,0,0,0,0,0,0,0
2013,5,17,12,0,,22.4,1.9,26,100810,0,0,362,825,566,301,88399,57004,35939,0,270,2,5,0,0,0,0,0,0,0,0,0,0,0,0
2013,5,17,13,0,,24,2.1,24,100710,0,0,368,876,624,284,86019,61741,33978,0,250,2,4,0,0,0,0,0,0,0,0,0,0,0,0
2013,5,17,14,0,,24.9,2.9,24,100630,0,0,371,863,660,255,78606,65647,31216,0,270,2.3,3,0,0,0,0,0,0,0,0,0,0,0,0
2013,5,17,15,0,,25.8,1.7,21,100500,0,0,373,771,636,235,63609,61971,28557,0,290,1.8,3,0,0,0,0,0,0,0,0,0,0,0,0
2013,5,17,16,0,,26.4,-0.6,17,100440,0,0,376,645,627,192,45038,56977,23119,0,230,2.5,4,0,0,0,0,0,0,0,0,0,0,0,0
2013,5,17,17,0,,26.2,0.7,19,100380,0,0,377,481,591,147,24690,39938,17044,0,200,1.9,4,0,0,0,0,0,0,0,0,0,0,0,0
2013,5,17,18,0,,25.6,2.2,22,100360,0,0,376,310,554,97,0,0,0,0,180,1.4,4,0,0,0,0,0,0,0,0,0,0,0,0
2013,5,17,19,0,,24.5,3.7,26,100360,0,0,373,140,472,51,0,0,0,0,200,1.9,4,0,0,0,0,0,0,0,0,0,0,0,0
2013,5,17,20,0,,22.6,5.4,33,100410,0,0,366,25,12,13,0,0,0,0,230,0.9,4,0,0,0,0,0,0,0,0,0,0,0,0
2013,5,17,21,0,,20.1,8.1,46,100450,0,0,356,0,0,0,0,0,0,0,70,0.5,4,0,0,0,0,0,0,0,0,0,0,0,0
2013,5,17,22,0,,18.5,8.4,52,100460,0,0,351,0,0,0,0,0,0,0,270,1.1,5,0,0,0,0,0,0,0,0,0,0,0,0
2013,5,17,23,0,,17.4,10.2,63,100490,0,0,351,0,0,0,0,0,0,0,0,0.2,6,0,0,0,0,0,0,0,0,0,0,0,0
2013,5,17,24,0,,16.4,11.1,71,100470,0,0,352,0,0,0,0,0,0,0,360,0.7,7,0,0,0,0,0,0,0,0,0,0,0,0
2013,5,18,1,0,,15.8,10.3,70,100450,0,0,349,0,0,0,0,0,0,0,340,1,7,0,0,0,0,0,0,0,0,0,0,0,0
2013,5,18,2,0,,15.3,10.4,73,100410,0,0,349,0,0,0,0,0,0,0,340,1,8,0,0,0,0,0,0,0,0,0,0,0,0
2013,5,18,3,0,,14.8,8.9,68,100380,0,0,347,0,0,0,0,0,0,0,90,0.6,8,0,0,0,0,0,0,0,0,0,0,0,0
2013,5,18,4,0,,14.3,11.4,83,100390,0,0,347,0,0,0,0,0,0,0,0,0.2,8,0,0,0,0,0,0,0,0,0,0,0,0
2013,5,18,5,0,,14,11.3,84,100370,0,0,346,0,0,0,0,0,0,0,0,0.3,8,0,0,0,0,0,0,0,0,0,0,0,0
2013,5,18,6,0,,13.7,11.3,86,100360,0,0,344,16,2,14,1896,81,1863,0,0,0.3,8,0,0,0,0,0,0,0,0,0,0,0,0
2013,5,18,7,0,,14.2,10.6,79,100350,0,0,353,73,57,61,11197,5545,7937,0,0,0.4,9,0,0,0,0,0,0,0,0,0,0,0,0
2013,5,18,8,0,,15.4,10.1,71,100330,0,0,359,168,78,137,22607,7686,16917,0,70,0.5,9,0,0,0,0,0,0,0,0,0,0,0,0
2013,5,18,9,0,,16.4,10,66,100290,0,0,363,263,81,216,32819,8014,25957,0,360,0.7,9,0,0,0,0,0,0,0,0,0,0,0,0
2013,5,18,10,0,,18.3,8.2,52,100190,0,0,363,434,147,326,51482,14611,37927,0,320,0.9,8,0,0,0,0,0,0,0,0,0,0,0,0
2013,5,18,11,0,,20.1,8.1,46,100140,0,0,380,453,100,368,51868,9892,42470,0,290,1.8,9,0,0,0,0,0,0,0,0,0,0,0,0
2013,5,18,12,0,,22.1,7.4,39,100070,0,0,390,528,115,422,58526,11396,48024,0,290,1.7,9,0,0,0,0,0,0,0,0,0,0,0,0
2013,5,18,13,0,,23.1,6.3,34,100000,0,0,386,623,166,465,66102,16429,52232,0,250,1.7,8,0,0,0,0,0,0,0,0,0,0,0,0
2013,5,18,14,0,,23.2,6,33,99940,0,0,405,419,63,362,45352,6141,40909,0,250,2.2,10,0,0,0,0,0,0,0,0,0,0,0,0
2013,5,18,15,0,,22.8,6.5,35,99880,0,0,404,327,43,291,35238,4116,32903,0,250,2.3,10,0,0,0,0,0,0,0,0,0,0,0,0
2013,5,18,16,0,,22.5,7.4,38,99860,0,0,403,261,38,233,26500,3291,25227,0,230,1.8,10,0,0,0,0,0,0,0,0,0,0,0,0
2013,5,18,17,0,,22,8.1,41,99830,0,0,402,192,37,171,18042,2653,17528,0,250,1,10,0,0,0,0,0,0,0,0,0,0,0,0
2013,5,18,18,0,,21.6,8.4,43,99750,0,0,400,123,38,109,11412,2421,11408,0,0,0.3,10,0,0,0,0,0,0,0,0,0,0,0,0
2013,5,18,19,0,,20.6,12,58,99700,0,0,399,47,22,43,0,0,0,0,270,0.9,10,0,0,0,0,0,0,0,0,0,0,0,0
2013,5,18,20,0,,19.2,14.4,74,99720,0,0,394,3,0,3,0,0,0,0,290,0.5,10,0,0,0,0,0,0,0,0,0,0,0,0
2013,5,18,21,0,,17.3,15.2,88,99820,0,0,385,0,0,0,0,0,0,0,320,1.5,10,0,0,0,0,0,0,0,0,0,0,0,0
2013,5,18,22,0,,16.6,15.1,91,99770,0,0,382,0,0,0,0,0,0,0,360,1.5,10,0,0,0,0,0,0,0,0,0,0,0,0
2013,5,18,23,0,,16.2,15,93,99710,0,0,379,0,0,0,0,0,0,0,340,1.5,10,0,0,0,0,0,0,0,0,0,0,0,0
2013,5,18,24,0,,15.4,14.4,94,99660,0,0,375,0,0,0,0,0,0,0,320,2,10,0,0,0,0,0,0,0,0,0,0,0,0
2013,5,19,1,0,,15.1,14.7,98,99570,0,0,374,0,0,0,0,0,0,0,360,0.7,10,0,0,0,0,0,0,0,0,0,0,0,0
2013,5,19,2,0,,14.7,14.5,99,99400,0,0,371,0,0,0,0,0,0,0,360,1.6,10,0,0,0,0,0,0,0,0,0,0,0,0
2013,5,19,3,0,,14.5,14,97,99340,0,0,370,0,0,0,0,0,0,0,340,1.7,10,0,0,0,0,0,0,0,0,0,0,0,0
2013,5,19,4,0,,14.4,14.2,99,99250,0,0,369,0,0,0,0,0,0,0,360,1.1,10,0,0,0,0,0,0,0,0,0,0,0,0
2013,5,19,5,0,,14.2,14,99,99180,0,0,368,0,0,0,0,0,0,0,320,1.1,10,0,0,0,0,0,0,0,0,0,0,0,0
2013,5,19,6,0,,14.2,14,99,99140,0,0,368,6,0,6,876,3,875,0,360,1,10,0,0,0,0,0,0,0,0,0,0,0,0
2013,5,19,7,0,,14.3,14.1,99,99080,0,0,369,45,14,42,5834,1223,5113,0,360,1.2,10,0,0,0,0,0,0,0,0,0,0,0,0
2013,5,19,8,0,,14.4,14,98,99080,0,0,369,102,19,94,12530,1695,11273,0,340,2,10,0,0,0,0,0,0,0,0,0,0,0,0
2013,5,19,9,0,,14.4,14,98,99070,0,0,369,153,18,143,18365,1635,16963,0,340,2.4,10,0,0,0,0,0,0,0,0,0,0,0,0
2013,5,19,10,0,,15.1,14.1,94,99060,0,0,373,200,17,187,23593,1578,22128,0,340,2.2,10,0,0,0,0,0,0,0,0,0,0,0,0
2013,5,19,11,0,,16.3,13.7,85,99030,0,0,378,265,23,246,30776,2133,28747,0,340,1.4,10,0,0,0,0,0,0,0,0,0,0,0,0
2013,5,19,12,0,,17.4,13.7,79,98990,0,0,384,315,28,289,36015,2632,33586,0,340,1.3,10,0,0,0,0,0,0,0,0,0,0,0,0
2013,5,19,13,0,,18.8,12.3,66,98940,0,0,390,355,36,321,39873,3427,36975,0,360,0.7,10,0,0,0,0,0,0,0,0,0,0,0,0
2013,5,19,14,0,,20.3,12.2,60,98900,0,0,387,472,86,393,50584,8227,44619,0,340,2.2,9,0,0,0,0,0,0,0,0,0,0,0,0
2013,5,19,15,0,,20.4,12.6,61,98880,0,0,388,410,78,344,43154,7442,38918,0,20,1.5,9,0,0,0,0,0,0,0,0,0,0,0,0
2013,5,19,16,0,,20.5,12.2,59,98840,0,0,374,445,167,324,42244,15486,36223,0,360,1.3,7,0,0,0,0,0,0,0,0,0,0,0,0
2013,5,19,17,0,,20.7,12.9,61,98830,0,0,376,324,160,234,28329,12863,25806,0,20,1.7,7,0,0,0,0,0,0,0,0,0,0,0,0
2013,5,19,18,0,,20.2,12.6,62,98880,0,0,373,212,174,145,14461,0,14461,0,20,1,7,0,0,0,0,0,0,0,0,0,0,0,0
2013,5,19,19,0,,19.8,13.2,66,98920,0,0,373,102,194,64,0,0,0,0,360,0.8,7,0,0,0,0,0,0,0,0,0,0,0,0
2013,5,19,20,0,,19.1,14.9,77,98990,0,0,373,12,1,11,0,0,0,0,0,0.4,8,0,0,0,0,0,0,0,0,0,0,0,0
2013,5,19,21,0,,18.6,16.2,86,99060,0,0,375,0,0,0,0,0,0,0,340,0.7,8,0,0,0,0,0,0,0,0,0,0,0,0
2013,5,19,22,0,,18,16.1,89,99140,0,0,372,0,0,0,0,0,0,0,250,0.7,8,0,0,0,0,0,0,0,0,0,0,0,0
2013,5,19,23,0,,17.2,16.3,95,99180,0,0,368,0,0,0,0,0,0,0,320,0.6,8,0,0,0,0,0,0,0,0,0,0,0,0
2013,5,19,24,0,,17.6,14.6,83,99160,0,0,368,0,0,0,0,0,0,0,230,1.9,8,0,0,0,0,0,0,0,0,0,0,0,0
2013,5,20,1,0,,17.2,13.5,79,99200,0,0,364,0,0,0,0,0,0,0,230,3.4,8,0,0,0,0,0,0,0,0,0,0,0,0
2013,5,20,2,0,,16.6,13.1,80,99150,0,0,361,0,0,0,0,0,0,0,180,1.5,8,0,0,0,0,0,0,0,0,0,0,0,0
2013,5,20,3,0,,16.3,12.4,78,99190,0,0,358,0,0,0,0,0,0,0,230,2.8,8,0,0,0,0,0,0,0,0,0,0,0,0
2013,5,20,4,0,,16.2,12.1,77,99230,0,0,357,0,0,0,0,0,0,0,230,2.3,8,0,0,0,0,0,0,0,0,0,0,0,0
2013,5,20,5,0,,16,11.5,75,99200,0,0,356,0,0,0,0,0,0,0,230,2.4,8,0,0,0,0,0,0,0,0,0,0,0,0
2013,5,20,6,0,,15.7,11.4,76,99260,0,0,354,19,3,16,2074,286,1956,0,200,2.2,8,0,0,0,0,0,0,0,0,0,0,0,0
2013,5,20,7,0,,15.6,11.7,78,99300,0,0,354,95,112,71,16129,10652,9835,0,200,2.4,8,0,0,0,0,0,0,0,0,0,0,0,0
2013,5,20,8,0,,16,10.7,71,99340,0,0,362,165,71,136,22060,7044,16828,0,200,2.4,9,0,0,0,0,0,0,0,0,0,0,0,0
2013,5,20,9,0,,16,9.8,67,99360,0,0,361,251,69,210,31195,6895,25276,0,180,2.2,9,0,0,0,0,0,0,0,0,0,0,0,0
2013,5,20,10,0,,15.7,9.8,68,99390,0,0,360,304,54,264,35373,5164,30571,0,180,2.3,9,0,0,0,0,0,0,0,0,0,0,0,0
2013,5,20,11,0,,15.9,9.7,67,99400,0,0,361,365,55,318,41630,5231,36649,0,200,2.6,9,0,0,0,0,0,0,0,0,0,0,0,0
2013,5,20,12,0,,16,10.3,69,99380,0,0,362,391,51,344,44038,4850,39557,0,180,3.1,9,0,0,0,0,0,0,0,0,0,0,0,0
2013,5,20,13,0,,17,10.3,65,99340,0,0,367,439,64,378,48359,6142,43157,0,200,3.1,9,0,0,0,0,0,0,0,0,0,0,0,0
2013,5,20,14,0,,18.6,9.9,57,99340,0,0,357,656,212,460,66706,20335,51931,0,230,3.2,6,0,0,0,0,0,0,0,0,0,0,0,0
2013,5,20,15,0,,19.3,9.1,52,99310,0,0,354,718,500,294,61671,47695,34439,0,230,3.6,4,0,0,0,0,0,0,0,0,0,0,0,0
2013,5,20,16,0,,19.9,7.9,46,99280,0,0,352,634,586,208,45806,51639,25625,0,250,3.4,3,0,0,0,0,0,0,0,0,0,0,0,0
2013,5,20,17,0,,20,8.6,48,99330,0,0,354,478,563,157,26010,37051,18661,0,230,2.8,3,0,0,0,0,0,0,0,0,0,0,0,0
2013,5,20,18,0,,18.9,8.5,51,99380,0,0,345,316,560,98,8830,0,8830,0,230,3.2,2,0,0,0,0,0,0,0,0,0,0,0,0
2013,5,20,19,0,,18.3,8.2,52,99510,0,0,339,153,537,48,0,0,0,0,230,3.5,1,0,0,0,0,0,0,0,0,0,0,0,0
2013,5,20,20,0,,17.4,9,58,99570,0,0,332,29,17,12,0,0,0,0,230,1.3,1,0,0,0,0,0,0,0,0,0,0,0,0
2013,5,20,21,0,,16.3,9.6,65,99640,0,0,323,0,0,0,0,0,0,0,200,1.3,0,0,0,0,0,0,0,0,0,0,0,0,0
2013,5,20,22,0,,14.8,11.5,81,99680,0,0,319,0,0,0,0,0,0,0,0,0.4,0,0,0,0,0,0,0,0,0,0,0,0,0
2013,5,20,23,0,,13.1,11.4,90,99690,0,0,311,0,0,0,0,0,0,0,360,0.5,0,0,0,0,0,0,0,0,0,0,0,0,0
2013,5,20,24,0,,12,10.7,92,99750,0,0,306,0,0,0,0,0,0,0,0,0.2,0,0,0,0,0,0,0,0,0,0,0,0,0
2013,5,21,1,0,,10.8,10.1,96,99760,0,0,300,0,0,0,0,0,0,0,0,0.4,0,0,0,0,0,0,0,0,0,0,0,0,0
2013,5,21,2,0,,10.1,9.6,97,99740,0,0,297,0,0,0,0,0,0,0,0,0.4,0,0,0,0,0,0,0,0,0,0,0,0,0
2013,5,21,3,0,,9.4,9,98,99790,0,0,293,0,0,0,0,0,0,0,0,0.3,0,0,0,0,0,0,0,0,0,0,0,0,0
2013,5,21,4,0,,8.9,8.5,98,99850,0,0,291,0,0,0,0,0,0,0,360,0.6,0,0,0,0,0,0,0,0,0,0,0,0,0
2013,5,21,5,0,,9.3,8.9,98,99890,0,0,293,0,0,0,0,0,0,0,0,0.3,0,0,0,0,0,0,0,0,0,0,0,0,0
2013,5,21,6,0,,9.9,9.5,98,99950,0,0,341,7,0,7,1012,7,1009,0,20,0.6,10,0,0,0,0,0,0,0,0,0,0,0,0
2013,5,21,7,0,,10.3,9.5,95,99980,0,0,343,57,25,51,8153,2463,6695,0,50,1.3,10,0,0,0,0,0,0,0,0,0,0,0,0
2013,5,21,8,0,,10.8,9.7,93,100010,0,0,346,106,20,97,12987,1888,11582,0,0,0.3,10,0,0,0,0,0,0,0,0,0,0,0,0
2013,5,21,9,0,,11.8,10,89,100020,0,0,341,227,52,196,27204,4960,22940,0,340,1,9,0,0,0,0,0,0,0,0,0,0,0,0
2013,5,21,10,0,,13.7,9.5,76,100000,0,0,311,624,520,237,78579,51965,30201,0,340,1,0,0,0,0,0,0,0,0,0,0,0,0,0
2013,5,21,11,0,,16,8.4,61,99990,0,0,320,783,627,245,90524,62680,30772,0,20,0.9,0,0,0,0,0,0,0,0,0,0,0,0,0
2013,5,21,12,0,,19.6,5.6,40,99940,0,0,334,923,769,208,98740,77625,26933,0,160,1.8,0,0,0,0,0,0,0,0,0,0,0,0,0
2013,5,21,13,0,,21.9,2,27,99830,0,0,340,979,833,185,94139,83911,22963,0,230,2,0,0,0,0,0,0,0,0,0,0,0,0,0
2013,5,21,14,0,,23.8,1.9,24,99760,0,0,349,958,854,167,83913,85452,21700,0,230,2,0,0,0,0,0,0,0,0,0,0,0,0,0
2013,5,21,15,0,,24.7,0.8,21,99690,0,0,351,843,788,174,66970,76843,22962,0,230,2.5,0,0,0,0,0,0,0,0,0,0,0,0,0
2013,5,21,16,0,,25.3,1.3,21,99650,0,0,355,708,775,144,46763,70176,19199,0,230,2.6,0,0,0,0,0,0,0,0,0,0,0,0,0
2013,5,21,17,0,,25.1,-0.1,19,99650,0,0,352,529,719,117,24394,50433,14278,0,200,3.2,0,0,0,0,0,0,0,0,0,0,0,0,0
2013,5,21,18,0,,24.4,0,20,99640,0,0,349,349,694,77,7164,0,7164,0,230,2.6,0,0,0,0,0,0,0,0,0,0,0,0,0
2013,5,21,19,0,,23,0.1,22,99710,0,0,347,159,572,46,0,0,0,0,250,1.4,1,0,0,0,0,0,0,0,0,0,0,0,0
2013,5,21,20,0,,20.3,5.5,38,99810,0,0,345,31,13,18,0,0,0,0,250,1.1,1,0,0,0,0,0,0,0,0,0,0,0,0
2013,5,21,21,0,,17.5,9.1,58,99880,0,0,339,0,0,0,0,0,0,0,320,1.2,2,0,0,0,0,0,0,0,0,0,0,0,0
2013,5,21,22,0,,15.8,8,60,99910,0,0,331,0,0,0,0,0,0,0,0,0.1,2,0,0,0,0,0,0,0,0,0,0,0,0
2013,5,21,23,0,,14.1,8.9,71,99980,0,0,325,0,0,0,0,0,0,0,340,0.8,3,0,0,0,0,0,0,0,0,0,0,0,0
2013,5,21,24,0,,13.2,8,71,100050,0,0,321,0,0,0,0,0,0,0,0,0.2,3,0,0,0,0,0,0,0,0,0,0,0,0
2013,5,22,1,0,,12.1,9.4,84,100080,0,0,315,0,0,0,0,0,0,0,0,0.1,2,0,0,0,0,0,0,0,0,0,0,0,0
2013,5,22,2,0,,11.2,7.8,80,100100,0,0,305,0,0,0,0,0,0,0,0,0.4,1,0,0,0,0,0,0,0,0,0,0,0,0
2013,5,22,3,0,,10.3,8.2,87,100120,0,0,296,0,0,0,0,0,0,0,20,0.9,0,0,0,0,0,0,0,0,0,0,0,0,0
2013,5,22,4,0,,10,7.5,85,100140,0,0,294,0,0,0,0,0,0,0,0,0.2,0,0,0,0,0,0,0,0,0,0,0,0,0
2013,5,22,5,0,,9.4,7.6,89,100190,0,0,297,0,0,0,0,0,0,0,0,0.1,1,0,0,0,0,0,0,0,0,0,0,0,0
2013,5,22,6,0,,9.4,7.8,90,100270,0,0,304,34,17,17,2987,1607,2318,0,20,0.6,3,0,0,0,0,0,0,0,0,0,0,0,0
2013,5,22,7,0,,10.2,7.2,82,100310,0,0,307,151,377,68,33629,38087,11023,0,340,0.8,3,0,0,0,0,0,0,0,0,0,0,0,0
2013,5,22,8,0,,11.8,6.4,70,100330,0,0,324,240,205,156,34949,20662,19551,0,320,0.6,7,0,0,0,0,0,0,0,0,0,0,0,0
2013,5,22,9,0,,13.3,6.6,64,100320,0,0,337,331,148,243,41984,14936,29130,0,320,1,8,0,0,0,0,0,0,0,0,0,0,0,0
2013,5,22,10,0,,15.3,7,58,100290,0,0,364,324,64,276,37602,6141,31878,0,320,0.9,10,0,0,0,0,0,0,0,0,0,0,0,0
2013,5,22,11,0,,16.3,6.9,54,100310,0,0,369,359,52,314,40903,5008,36124,0,140,0.8,10,0,0,0,0,0,0,0,0,0,0,0,0
2013,5,22,12,0,,17.5,6.3,48,100280,0,0,375,394,51,347,44277,4997,39649,0,140,0.7,10,0,0,0,0,0,0,0,0,0,0,0,0
2013,5,22,13,0,,19.7,5.7,40,100190,0,0,386,411,53,360,45414,5188,41007,0,320,0.8,10,0,0,0,0,0,0,0,0,0,0,0,0
2013,5,22,14,0,,21.9,5.3,34,100140,0,0,378,610,171,452,62683,16802,50426,0,340,1.1,8,0,0,0,0,0,0,0,0,0,0,0,0
2013,5,22,15,0,,23.5,6.7,34,100080,0,0,388,562,183,406,55379,17444,45359,0,110,1.2,8,0,0,0,0,0,0,0,0,0,0,0,0
2013,5,22,16,0,,24.9,10.7,41,100050,0,0,395,526,267,331,46331,22848,37311,0,180,1.1,7,0,0,0,0,0,0,0,0,0,0,0,0
2013,5,22,17,0,,25.1,11.2,42,100040,0,0,397,390,268,236,29728,16975,26286,0,180,1.9,7,0,0,0,0,0,0,0,0,0,0,0,0
2013,5,22,18,0,,25,12.2,45,100060,0,0,387,311,522,106,9904,0,9904,0,200,1.8,4,0,0,0,0,0,0,0,0,0,0,0,0
2013,5,22,19,0,,24,12.3,48,100120,0,0,377,151,489,53,0,0,0,0,250,1.9,3,0,0,0,0,0,0,0,0,0,0,0,0
2013,5,22,20,0,,22,13,57,100180,0,0,362,31,13,18,0,0,0,0,160,0.8,1,0,0,0,0,0,0,0,0,0,0,0,0
2013,5,22,21,0,,19.8,17,84,100300,0,0,348,0,0,0,0,0,0,0,340,1,0,0,0,0,0,0,0,0,0,0,0,0,0
2013,5,22,22,0,,18.4,16.3,88,100360,0,0,340,0,0,0,0,0,0,0,360,0.7,0,0,0,0,0,0,0,0,0,0,0,0,0
2013,5,22,23,0,,17.3,15.1,87,100400,0,0,334,0,0,0,0,0,0,0,270,1,0,0,0,0,0,0,0,0,0,0,0,0,0
2013,5,22,24,0,,16.1,15.2,95,100450,0,0,329,0,0,0,0,0,0,0,0,0.1,0,0,0,0,0,0,0,0,0,0,0,0,0
2013,5,23,1,0,,15.1,14.4,96,100480,0,0,323,0,0,0,0,0,0,0,360,0.9,0,0,0,0,0,0,0,0,0,0,0,0,0
2013,5,23,2,0,,14.5,14,97,100480,0,0,320,0,0,0,0,0,0,0,0,0.3,0,0,0,0,0,0,0,0,0,0,0,0,0
2013,5,23,3,0,,14.3,13.8,97,100450,0,0,319,0,0,0,0,0,0,0,360,0.9,0,0,0,0,0,0,0,0,0,0,0,0,0
2013,5,23,4,0,,13.7,13.3,98,100460,0,0,316,0,0,0,0,0,0,0,0,0.1,0,0,0,0,0,0,0,0,0,0,0,0,0
2013,5,23,5,0,,13.1,12.7,98,100510,0,0,313,0,0,0,0,0,0,0,0,0.2,0,0,0,0,0,0,0,0,0,0,0,0,0
2013,5,23,6,0,,13.2,13,99,100560,0,0,362,5,0,5,691,3,689,0,0,0,10,0,0,0,0,0,0,0,0,0,0,0,0
2013,5,23,7,0,,14.1,13.9,99,100610,0,0,367,46,13,43,5911,1163,5219,0,360,0.5,10,0,0,0,0,0,0,0,0,0,0,0,0
2013,5,23,8,0,,14.7,14,96,100650,0,0,371,104,19,96,12737,1696,11472,0,360,1.2,10,0,0,0,0,0,0,0,0,0,0,0,0
2013,5,23,9,0,,15.6,14.1,91,100650,0,0,375,174,24,159,20757,2246,18822,0,340,0.7,10,0,0,0,0,0,0,0,0,0,0,0,0
2013,5,23,10,0,,18.1,13.1,73,100620,0,0,335,645,571,220,81956,56820,28951,0,250,0.8,0,0,0,0,0,0,0,0,0,0,0,0,0
2013,5,23,11,0,,21.3,13.2,60,100570,0,0,350,797,654,234,92419,64978,30348,0,160,0.7,0,0,0,0,0,0,0,0,0,0,0,0,0
2013,5,23,12,0,,24.2,12.1,47,100490,0,0,363,939,797,195,99273,81232,23951,0,270,1.3,0,0,0,0,0,0,0,0,0,0,0,0,0
2013,5,23,13,0,,26.6,8.5,32,100390,0,0,371,976,821,191,94462,82940,23902,0,320,1.3,0,0,0,0,0,0,0,0,0,0,0,0,0
2013,5,23,14,0,,28.1,6.7,26,100310,0,0,376,944,819,184,84243,81547,24636,0,250,1.7,0,0,0,0,0,0,0,0,0,0,0,0,0
2013,5,23,15,0,,29.4,5.4,22,100240,0,0,381,832,758,187,66804,73208,24630,0,160,1.2,0,0,0,0,0,0,0,0,0,0,0,0,0
2013,5,23,16,0,,30.4,4.1,19,100170,0,0,384,703,753,152,47139,67833,20232,0,180,1,0,0,0,0,0,0,0,0,0,0,0,0,0
2013,5,23,17,0,,30.8,9,26,100140,0,0,393,525,697,124,25225,46851,15623,0,230,1.7,0,0,0,0,0,0,0,0,0,0,0,0,0
2013,5,23,18,0,,30.3,6.8,23,100100,0,0,388,354,701,77,7517,0,7517,0,180,1.6,0,0,0,0,0,0,0,0,0,0,0,0,0
2013,5,23,19,0,,28.9,10.5,32,100120,0,0,386,161,561,48,0,0,0,0,200,1.2,0,0,0,0,0,0,0,0,0,0,0,0,0
2013,5,23,20,0,,25.5,16,56,100180,0,0,375,30,15,14,0,0,0,0,20,1.1,0,0,0,0,0,0,0,0,0,0,0,0,0
2013,5,23,21,0,,23,16.2,66,100270,0,0,362,0,0,0,0,0,0,0,0,0,0,0,0,0,0,0,0,0,0,0,0,0,0
2013,5,23,22,0,,21,16.1,74,100370,0,0,352,0,0,0,0,0,0,0,360,1,0,0,0,0,0,0,0,0,0,0,0,0,0
2013,5,23,23,0,,19.5,16.3,82,100440,0,0,345,0,0,0,0,0,0,0,340,0.8,0,0,0,0,0,0,0,0,0,0,0,0,0
2013,5,23,24,0,,18.3,15.5,84,100470,0,0,339,0,0,0,0,0,0,0,340,1.7,0,0,0,0,0,0,0,0,0,0,0,0,0
2013,5,24,1,0,,17.3,14.9,86,100460,0,0,334,0,0,0,0,0,0,0,340,1.1,0,0,0,0,0,0,0,0,0,0,0,0,0
2013,5,24,2,0,,16.4,15,92,100480,0,0,330,0,0,0,0,0,0,0,360,1.2,0,0,0,0,0,0,0,0,0,0,0,0,0
2013,5,24,3,0,,15.8,14.6,93,100500,0,0,327,0,0,0,0,0,0,0,360,1.6,0,0,0,0,0,0,0,0,0,0,0,0,0
2013,5,24,4,0,,15.3,14.1,93,100520,0,0,324,0,0,0,0,0,0,0,0,0.2,0,0,0,0,0,0,0,0,0,0,0,0,0
2013,5,24,5,0,,14.8,14,95,100540,0,0,322,0,0,0,0,0,0,0,360,0.7,0,0,0,0,0,0,0,0,0,0,0,0,0
2013,5,24,6,0,,14.5,13.8,96,100580,0,0,320,36,20,16,3049,1798,2296,0,20,0.6,0,0,0,0,0,0,0,0,0,0,0,0,0
2013,5,24,7,0,,15.3,14,92,100610,0,0,324,159,417,66,35752,41669,10925,0,360,0.5,0,0,0,0,0,0,0,0,0,0,0,0,0
2013,5,24,8,0,,16.8,13.8,83,100640,0,0,347,292,365,141,47687,36464,20441,0,360,0.7,4,0,0,0,0,0,0,0,0,0,0,0,0
2013,5,24,9,0,,19.3,13.6,70,100630,0,0,362,454,425,202,63631,42254,27188,0,50,0.6,5,0,0,0,0,0,0,0,0,0,0,0,0
2013,5,24,10,0,,21.1,14.2,65,100560,0,0,369,622,508,244,78318,50171,31472,0,320,1,4,0,0,0,0,0,0,0,0,0,0,0,0
2013,5,24,11,0,,23.3,14.2,57,100540,0,0,383,722,478,310,82891,45382,39498,0,90,1.3,5,0,0,0,0,0,0,0,0,0,0,0,0
2013,5,24,12,0,,25.5,13.6,48,100470,0,0,394,787,464,353,84682,44099,43745,0,290,1.6,5,0,0,0,0,0,0,0,0,0,0,0,0
2013,5,24,13,0,,27.5,13.4,42,100390,0,0,401,865,583,307,86078,55285,38979,0,230,1.1,4,0,0,0,0,0,0,0,0,0,0,0,0
2013,5,24,14,0,,29.3,12.2,35,100320,0,0,397,908,740,221,81977,72289,29036,0,270,1.6,1,0,0,0,0,0,0,0,0,0,0,0,0
2013,5,24,15,0,,30,13.2,36,100260,0,0,395,815,716,205,66453,67789,27290,0,230,2.7,0,0,0,0,0,0,0,0,0,0,0,0,0
2013,5,24,16,0,,30,12.8,35,100230,0,0,394,673,673,180,46712,57762,23691,0,230,3,0,0,0,0,0,0,0,0,0,0,0,0,0
2013,5,24,17,0,,29.7,12.5,35,100210,0,0,392,499,609,147,26635,39655,18423,0,230,2.7,0,0,0,0,0,0,0,0,0,0,0,0,0
2013,5,24,18,0,,28.7,10.3,32,100220,0,0,384,333,600,94,9113,0,9113,0,230,1.7,0,0,0,0,0,0,0,0,0,0,0,0,0
2013,5,24,19,0,,27.6,9.8,33,100260,0,0,378,163,557,49,0,0,0,0,200,1.7,0,0,0,0,0,0,0,0,0,0,0,0,0
2013,5,24,20,0,,26.2,10.7,38,100330,0,0,372,35,17,18,0,0,0,0,180,1.8,0,0,0,0,0,0,0,0,0,0,0,0,0
2013,5,24,21,0,,24.3,15.7,59,100410,0,0,368,0,0,0,0,0,0,0,360,1,0,0,0,0,0,0,0,0,0,0,0,0,0
2013,5,24,22,0,,22,16.9,73,100480,0,0,365,0,0,0,0,0,0,0,360,0.8,1,0,0,0,0,0,0,0,0,0,0,0,0
2013,5,24,23,0,,20.8,16.1,75,100490,0,0,363,0,0,0,0,0,0,0,320,0.9,2,0,0,0,0,0,0,0,0,0,0,0,0
2013,5,24,24,0,,19.7,16.1,80,100520,0,0,361,0,0,0,0,0,0,0,270,0.5,3,0,0,0,0,0,0,0,0,0,0,0,0
2013,5,25,1,0,,19,16.5,86,100480,0,0,361,0,0,0,0,0,0,0,320,0.9,4,0,0,0,0,0,0,0,0,0,0,0,0
2013,5,25,2,0,,18.4,15.8,85,100480,0,0,360,0,0,0,0,0,0,0,340,1.3,5,0,0,0,0,0,0,0,0,0,0,0,0
2013,5,25,3,0,,17.9,15.8,88,100470,0,0,361,0,0,0,0,0,0,0,360,0.7,6,0,0,0,0,0,0,0,0,0,0,0,0
2013,5,25,4,0,,17.4,15.7,90,100500,0,0,362,0,0,0,0,0,0,0,0,0,7,0,0,0,0,0,0,0,0,0,0,0,0
2013,5,25,5,0,,17.1,15.7,92,100550,0,0,367,0,0,0,0,0,0,0,0,0,8,0,0,0,0,0,0,0,0,0,0,0,0
2013,5,25,6,0,,16.9,15.4,91,100590,0,0,365,18,2,16,2110,83,2075,0,360,0.8,8,0,0,0,0,0,0,0,0,0,0,0,0
2013,5,25,7,0,,17.3,15.2,88,100610,0,0,367,92,91,72,15151,8305,10194,0,320,0.5,8,0,0,0,0,0,0,0,0,0,0,0,0
2013,5,25,8,0,,18.2,15.2,83,100640,0,0,371,195,107,150,27459,10012,19969,0,0,0.4,8,0,0,0,0,0,0,0,0,0,0,0,0
2013,5,25,9,0,,20,14.5,71,100620,0,0,380,315,126,240,39552,12062,29139,0,0,0.4,8,0,0,0,0,0,0,0,0,0,0,0,0
2013,5,25,10,0,,22,13.8,60,100610,0,0,389,445,151,333,52874,14415,39403,0,320,0.7,8,0,0,0,0,0,0,0,0,0,0,0,0
2013,5,25,11,0,,24.3,13.8,52,100570,0,0,396,610,221,420,69568,20910,49556,0,250,1.2,7,0,0,0,0,0,0,0,0,0,0,0,0
2013,5,25,12,0,,26.2,13.3,45,100540,0,0,401,740,291,467,79973,27564,54358,0,290,1.2,6,0,0,0,0,0,0,0,0,0,0,0,0
2013,5,25,13,0,,28.2,12.1,37,100470,0,0,407,820,483,357,82904,46074,43598,0,230,1.2,5,0,0,0,0,0,0,0,0,0,0,0,0
2013,5,25,14,0,,29.7,13,36,100410,0,0,416,785,467,350,74140,43838,41974,0,290,1.7,5,0,0,0,0,0,0,0,0,0,0,0,0
2013,5,25,15,0,,30.8,13.9,36,100340,0,0,417,772,613,249,64779,56129,32262,0,270,1.3,3,0,0,0,0,0,0,0,0,0,0,0,0
2013,5,25,16,0,,31.2,14.3,36,100300,0,0,416,660,635,194,47026,53781,25491,0,250,1.7,2,0,0,0,0,0,0,0,0,0,0,0,0
2013,5,25,17,0,,30.9,13.6,35,100260,0,0,421,476,530,168,27064,32137,20342,0,250,1,4,0,0,0,0,0,0,0,0,0,0,0,0
2013,5,25,18,0,,30.5,10.9,30,100260,0,0,422,279,355,137,13701,0,13701,0,230,1.6,6,0,0,0,0,0,0,0,0,0,0,0,0
2013,5,25,19,0,,28.3,17.4,52,100320,0,0,419,119,252,67,0,0,0,0,290,1,6,0,0,0,0,0,0,0,0,0,0,0,0
2013,5,25,20,0,,26.1,17.7,60,100380,0,0,409,18,3,15,0,0,0,0,0,0.4,7,0,0,0,0,0,0,0,0,0,0,0,0
2013,5,25,21,0,,24.8,18.4,68,100460,0,0,404,0,0,0,0,0,0,0,290,0.8,7,0,0,0,0,0,0,0,0,0,0,0,0
2013,5,25,22,0,,23.8,17.9,70,100520,0,0,400,0,0,0,0,0,0,0,320,0.5,7,0,0,0,0,0,0,0,0,0,0,0,0
2013,5,25,23,0,,22.7,17.6,73,100570,0,0,396,0,0,0,0,0,0,0,50,0.6,8,0,0,0,0,0,0,0,0,0,0,0,0
2013,5,25,24,0,,22.3,17.4,74,100590,0,0,396,0,0,0,0,0,0,0,290,0.9,8,0,0,0,0,0,0,0,0,0,0,0,0
2013,5,26,1,0,,21.9,18,79,100600,0,0,394,0,0,0,0,0,0,0,290,1.3,8,0,0,0,0,0,0,0,0,0,0,0,0
2013,5,26,2,0,,21.5,18.6,84,100590,0,0,393,0,0,0,0,0,0,0,290,0.6,8,0,0,0,0,0,0,0,0,0,0,0,0
2013,5,26,3,0,,20.8,18.1,85,100610,0,0,389,0,0,0,0,0,0,0,0,0.3,8,0,0,0,0,0,0,0,0,0,0,0,0
2013,5,26,4,0,,20.6,18.1,86,100650,0,0,387,0,0,0,0,0,0,0,360,0.6,8,0,0,0,0,0,0,0,0,0,0,0,0
2013,5,26,5,0,,20.2,18.3,89,100670,0,0,386,0,0,0,0,0,0,0,0,0.2,8,0,0,0,0,0,0,0,0,0,0,0,0
2013,5,26,6,0,,20.1,17.6,86,100720,0,0,384,20,3,17,2164,241,2063,0,0,0,8,0,0,0,0,0,0,0,0,0,0,0,0
2013,5,26,7,0,,20.1,17.4,85,100730,0,0,378,109,144,76,20131,13113,12292,0,0,0.3,7,0,0,0,0,0,0,0,0,0,0,0,0
2013,5,26,8,0,,20.9,16.7,77,100780,0,0,387,199,112,152,28148,10313,20423,0,0,0.4,8,0,0,0,0,0,0,0,0,0,0,0,0
2013,5,26,9,0,,22.7,15,62,100800,0,0,389,371,200,252,47968,18807,31717,0,320,1.1,7,0,0,0,0,0,0,0,0,0,0,0,0
2013,5,26,10,0,,24.3,11.5,45,100780,0,0,399,460,165,337,54520,15998,39556,0,200,0.8,8,0,0,0,0,0,0,0,0,0,0,0,0
2013,5,26,11,0,,25.5,10.1,38,100760,0,0,393,670,293,418,75494,28592,48105,0,230,1.3,6,0,0,0,0,0,0,0,0,0,0,0,0
2013,5,26,12,0,,26.7,10.3,36,100720,0,0,404,665,211,468,72447,20499,53378,0,250,1.9,7,0,0,0,0,0,0,0,0,0,0,0,0
2013,5,26,13,0,,28,10.2,33,100660,0,0,407,741,265,486,77019,25556,55188,0,270,2.5,6,0,0,0,0,0,0,0,0,0,0,0,0
2013,5,26,14,0,,28.3,11.7,36,100570,0,0,415,645,197,462,66259,18549,52624,0,250,2.2,7,0,0,0,0,0,0,0,0,0,0,0,0
2013,5,26,15,0,,29.1,10.7,32,100520,0,0,418,585,202,413,57617,18702,46753,0,250,2,7,0,0,0,0,0,0,0,0,0,0,0,0
2013,5,26,16,0,,28.4,10.5,33,100530,0,0,421,426,140,323,41362,13097,36094,0,230,2.2,8,0,0,0,0,0,0,0,0,0,0,0,0
2013,5,26,17,0,,27.9,9.6,32,100540,0,0,438,211,45,185,21355,3620,20590,0,200,1.1,10,0,0,0,0,0,0,0,0,0,0,0,0
2013,5,26,18,0,,27.2,11.6,38,100560,0,0,436,134,42,117,12529,2507,12477,0,230,1.5,10,0,0,0,0,0,0,0,0,0,0,0,0
2013,5,26,19,0,,26.2,14.6,49,100560,0,0,434,57,29,51,0,0,0,0,290,1.4,10,0,0,0,0,0,0,0,0,0,0,0,0
2013,5,26,20,0,,24.8,16.5,60,100580,0,0,429,6,0,6,0,0,0,0,0,0.2,10,0,0,0,0,0,0,0,0,0,0,0,0
2013,5,26,21,0,,23.8,15.2,59,100650,0,0,421,0,0,0,0,0,0,0,0,0,10,0,0,0,0,0,0,0,0,0,0,0,0
2013,5,26,22,0,,22.9,15.2,62,100660,0,0,416,0,0,0,0,0,0,0,250,0.6,10,0,0,0,0,0,0,0,0,0,0,0,0
2013,5,26,23,0,,22.3,16.3,69,100670,0,0,414,0,0,0,0,0,0,0,290,1,10,0,0,0,0,0,0,0,0,0,0,0,0
2013,5,26,24,0,,21.9,15.2,66,100660,0,0,410,0,0,0,0,0,0,0,0,0,10,0,0,0,0,0,0,0,0,0,0,0,0
2013,5,27,1,0,,21.3,15.8,71,100620,0,0,408,0,0,0,0,0,0,0,320,0.5,10,0,0,0,0,0,0,0,0,0,0,0,0
2013,5,27,2,0,,20.5,16.3,77,100570,0,0,404,0,0,0,0,0,0,0,20,0.7,10,0,0,0,0,0,0,0,0,0,0,0,0
2013,5,27,3,0,,20,15.8,77,100570,0,0,401,0,0,0,0,0,0,0,0,0.1,10,0,0,0,0,0,0,0,0,0,0,0,0
2013,5,27,4,0,,20,15.4,75,100570,0,0,400,0,0,0,0,0,0,0,90,0.8,10,0,0,0,0,0,0,0,0,0,0,0,0
2013,5,27,5,0,,19.5,16.5,83,100550,0,0,399,0,0,0,0,0,0,0,20,1.3,10,0,0,0,0,0,0,0,0,0,0,0,0
2013,5,27,6,0,,19.3,15.3,78,100530,0,0,396,10,0,10,1325,14,1320,0,90,1,10,0,0,0,0,0,0,0,0,0,0,0,0
2013,5,27,7,0,,19.4,15.4,78,100470,0,0,397,57,23,52,8215,2122,6944,0,290,1.2,10,0,0,0,0,0,0,0,0,0,0,0,0
2013,5,27,8,0,,19.5,15.9,80,100530,0,0,398,110,21,101,13586,1921,12146,0,200,0.6,10,0,0,0,0,0,0,0,0,0,0,0,0
2013,5,27,9,0,,19.4,16.8,85,100460,0,0,399,164,20,152,19653,1823,18077,0,360,2.1,10,0,0,0,0,0,0,0,0,0,0,0,0
2013,5,27,10,0,,19.6,16,80,100450,0,0,399,208,18,194,24501,1660,22947,0,360,1,10,0,0,0,0,0,0,0,0,0,0,0,0
2013,5,27,11,0,,20,17,83,100420,0,0,402,258,21,240,30095,1864,28308,0,340,1.9,10,0,0,0,0,0,0,0,0,0,0,0,0
2013,5,27,12,0,,19.8,17.3,86,100430,0,0,402,261,16,246,30902,1079,29897,0,230,0.8,10,0,0,0,0,0,0,0,0,0,0,0,0
2013,5,27,13,0,,19.6,17.5,88,100290,0,0,401,255,14,242,29810,942,29005,0,340,1.5,10,0,0,0,0,0,0,0,0,0,0,0,0
2013,5,27,14,0,,20.6,16,75,100230,0,0,404,293,23,272,32905,1711,31645,0,50,2.4,10,0,0,0,0,0,0,0,0,0,0,0,0
2013,5,27,15,0,,21.6,15.2,67,100160,0,0,409,306,34,277,32748,2791,31122,0,70,2.7,10,0,0,0,0,0,0,0,0,0,0,0,0
2013,5,27,16,0,,21.7,15.2,67,100090,0,0,409,266,38,238,26984,3090,25736,0,50,2.3,10,0,0,0,0,0,0,0,0,0,0,0,0
2013,5,27,17,0,,21.2,15.9,72,100060,0,0,407,176,27,161,17042,1656,16689,0,70,1.2,10,0,0,0,0,0,0,0,0,0,0,0,0
2013,5,27,18,0,,20,17.7,87,100050,0,0,403,91,14,86,7923,1087,7897,0,50,1.1,10,0,0,0,0,0,0,0,0,0,0,0,0
2013,5,27,19,0,,18.8,17.4,92,100100,0,0,396,39,9,37,0,0,0,0,360,1.7,10,0,0,0,0,0,0,0,0,0,0,0,0
2013,5,27,20,0,,17.8,16.9,95,100120,0,0,390,3,0,3,0,0,0,0,360,2.2,10,0,0,0,0,0,0,0,0,0,0,0,0
2013,5,27,21,0,,17.4,16.5,95,100050,0,0,388,0,0,0,0,0,0,0,20,1.6,10,0,0,0,0,0,0,0,0,0,0,0,0
2013,5,27,22,0,,17.1,16.4,96,100030,0,0,386,0,0,0,0,0,0,0,360,1.6,10,0,0,0,0,0,0,0,0,0,0,0,0
2013,5,27,23,0,,16.9,16,95,99930,0,0,384,0,0,0,0,0,0,0,340,2,10,0,0,0,0,0,0,0,0,0,0,0,0
2013,5,27,24,0,,16.8,16.1,96,99860,0,0,384,0,0,0,0,0,0,0,360,1.6,10,0,0,0,0,0,0,0,0,0,0,0,0
2013,5,28,1,0,,16.8,16.1,96,99800,0,0,384,0,0,0,0,0,0,0,360,1.2,10,0,0,0,0,0,0,0,0,0,0,0,0
2013,5,28,2,0,,16.7,16.2,97,99730,0,0,384,0,0,0,0,0,0,0,340,1.7,10,0,0,0,0,0,0,0,0,0,0,0,0
2013,5,28,3,0,,16.7,16,96,99710,0,0,383,0,0,0,0,0,0,0,20,1,10,0,0,0,0,0,0,0,0,0,0,0,0
2013,5,28,4,0,,16.7,16,96,99680,0,0,383,0,0,0,0,0,0,0,340,1.5,10,0,0,0,0,0,0,0,0,0,0,0,0
2013,5,28,5,0,,16.8,16.3,97,99680,0,0,384,0,0,0,0,0,0,0,360,1,10,0,0,0,0,0,0,0,0,0,0,0,0
2013,5,28,6,0,,16.8,16.1,96,99690,0,0,384,9,0,8,1168,10,1164,0,360,1.4,10,0,0,0,0,0,0,0,0,0,0,0,0
2013,5,28,7,0,,16.8,16.3,97,99720,0,0,384,50,15,46,6449,1321,5657,0,360,1.3,10,0,0,0,0,0,0,0,0,0,0,0,0
2013,5,28,8,0,,17.1,16.6,97,99710,0,0,386,106,19,98,13055,1691,11785,0,360,0.9,10,0,0,0,0,0,0,0,0,0,0,0,0
2013,5,28,9,0,,17.5,16.8,96,99700,0,0,389,156,18,145,18721,1576,17357,0,0,0.3,10,0,0,0,0,0,0,0,0,0,0,0,0
2013,5,28,10,0,,17.8,16.8,94,99700,0,0,390,194,15,183,22990,1356,21719,0,0,0.1,10,0,0,0,0,0,0,0,0,0,0,0,0
2013,5,28,11,0,,18.1,17.2,95,99710,0,0,392,231,15,218,27074,1356,25773,0,320,0.5,10,0,0,0,0,0,0,0,0,0,0,0,0
2013,5,28,12,0,,18.5,17.6,95,99690,0,0,395,237,12,226,28325,791,27587,0,0,0.1,10,0,0,0,0,0,0,0,0,0,0,0,0
2013,5,28,13,0,,19.2,18,93,99670,0,0,399,271,17,255,31470,1129,30502,0,0,0,10,0,0,0,0,0,0,0,0,0,0,0,0
2013,5,28,14,0,,19.2,18.3,95,99640,0,0,400,253,15,239,28782,1034,28019,0,0,0.2,10,0,0,0,0,0,0,0,0,0,0,0,0
2013,5,28,15,0,,19.7,18.7,94,99620,0,0,403,228,15,215,25159,1031,24557,0,0,0.3,10,0,0,0,0,0,0,0,0,0,0,0,0
2013,5,28,16,0,,19.8,18.8,94,99610,0,0,404,193,16,182,20456,1023,20041,0,0,0.3,10,0,0,0,0,0,0,0,0,0,0,0,0
2013,5,28,17,0,,20.1,18.9,93,99600,0,0,405,146,16,136,14498,755,14335,0,160,0.5,10,0,0,0,0,0,0,0,0,0,0,0,0
2013,5,28,18,0,,19.9,18.8,94,99600,0,0,404,102,19,94,8693,1694,8650,0,0,0.4,10,0,0,0,0,0,0,0,0,0,0,0,0
2013,5,28,19,0,,19.7,19,96,99640,0,0,403,42,11,39,0,0,0,0,250,0.6,10,0,0,0,0,0,0,0,0,0,0,0,0
2013,5,28,20,0,,19.5,19,97,99700,0,0,402,5,0,5,0,0,0,0,0,0.2,10,0,0,0,0,0,0,0,0,0,0,0,0
2013,5,28,21,0,,19.5,19,97,99810,0,0,402,0,0,0,0,0,0,0,160,1.1,10,0,0,0,0,0,0,0,0,0,0,0,0
2013,5,28,22,0,,19.6,17.3,87,99850,0,0,400,0,0,0,0,0,0,0,200,2,10,0,0,0,0,0,0,0,0,0,0,0,0
2013,5,28,23,0,,19.3,17.2,88,99860,0,0,399,0,0,0,0,0,0,0,180,1.4,10,0,0,0,0,0,0,0,0,0,0,0,0
2013,5,28,24,0,,19.1,16.6,86,99760,0,0,397,0,0,0,0,0,0,0,200,1.6,10,0,0,0,0,0,0,0,0,0,0,0,0
2013,5,29,1,0,,18.4,17.5,95,99730,0,0,394,0,0,0,0,0,0,0,290,1.2,10,0,0,0,0,0,0,0,0,0,0,0,0
2013,5,29,2,0,,18.5,16.6,89,99750,0,0,394,0,0,0,0,0,0,0,230,2,10,0,0,0,0,0,0,0,0,0,0,0,0
2013,5,29,3,0,,18.5,16.1,86,99770,0,0,393,0,0,0,0,0,0,0,200,1.9,10,0,0,0,0,0,0,0,0,0,0,0,0
2013,5,29,4,0,,18.2,16.7,91,99680,0,0,392,0,0,0,0,0,0,0,160,1.6,10,0,0,0,0,0,0,0,0,0,0,0,0
2013,5,29,5,0,,18.1,16.2,89,99770,0,0,391,0,0,0,0,0,0,0,250,0.7,10,0,0,0,0,0,0,0,0,0,0,0,0
2013,5,29,6,0,,18.1,15.3,84,99890,0,0,390,11,1,10,1417,17,1410,0,200,1.8,10,0,0,0,0,0,0,0,0,0,0,0,0
2013,5,29,7,0,,18,15.2,84,99870,0,0,389,55,19,50,7111,1700,6091,0,180,1.8,10,0,0,0,0,0,0,0,0,0,0,0,0
2013,5,29,8,0,,18.1,15.1,83,99940,0,0,389,116,24,106,14252,2178,12615,0,180,1.6,10,0,0,0,0,0,0,0,0,0,0,0,0
2013,5,29,9,0,,18.3,14.9,81,99850,0,0,390,171,23,158,20469,2071,18676,0,200,2,10,0,0,0,0,0,0,0,0,0,0,0,0
2013,5,29,10,0,,18.4,15,81,99800,0,0,391,221,22,205,26035,1987,24172,0,200,1.7,10,0,0,0,0,0,0,0,0,0,0,0,0
2013,5,29,11,0,,18.2,15.4,84,99820,0,0,390,234,16,220,27324,1424,25957,0,200,0.8,10,0,0,0,0,0,0,0,0,0,0,0,0
2013,5,29,12,0,,17.8,16.3,91,99830,0,0,390,239,13,227,28559,822,27792,0,110,1.4,10,0,0,0,0,0,0,0,0,0,0,0,0
2013,5,29,13,0,,18.6,15.2,81,99810,0,0,392,261,15,246,30458,1034,29571,0,200,1,10,0,0,0,0,0,0,0,0,0,0,0,0
2013,5,29,14,0,,18.9,14.9,78,99770,0,0,393,293,22,272,32907,1707,31645,0,230,2.6,10,0,0,0,0,0,0,0,0,0,0,0,0
2013,5,29,15,0,,19,14.6,76,99780,0,0,394,282,27,259,30550,2148,29292,0,230,3.1,10,0,0,0,0,0,0,0,0,0,0,0,0
2013,5,29,16,0,,18.1,14.7,81,99900,0,0,389,221,23,204,23112,1677,22429,0,230,3,10,0,0,0,0,0,0,0,0,0,0,0,0
2013,5,29,17,0,,17.5,13,75,99820,0,0,383,171,24,157,16726,1511,16398,0,230,3.6,10,0,0,0,0,0,0,0,0,0,0,0,0
2013,5,29,18,0,,17.3,13.4,78,99820,0,0,383,104,20,96,8924,1834,8874,0,230,2.4,10,0,0,0,0,0,0,0,0,0,0,0,0
2013,5,29,19,0,,17,12.3,74,99970,0,0,369,77,62,64,0,0,0,0,200,2.2,9,0,0,0,0,0,0,0,0,0,0,0,0
2013,5,29,20,0,,16.7,11.8,73,100060,0,0,360,19,3,16,0,0,0,0,230,2.3,8,0,0,0,0,0,0,0,0,0,0,0,0
2013,5,29,21,0,,16.3,11.2,72,100100,0,0,351,0,0,0,0,0,0,0,180,1.8,7,0,0,0,0,0,0,0,0,0,0,0,0
2013,5,29,22,0,,15.6,11.9,79,100180,0,0,349,0,0,0,0,0,0,0,160,1.9,7,0,0,0,0,0,0,0,0,0,0,0,0
2013,5,29,23,0,,14.9,12.9,88,100230,0,0,347,0,0,0,0,0,0,0,320,1.1,7,0,0,0,0,0,0,0,0,0,0,0,0
2013,5,29,24,0,,13.5,12.5,94,100270,0,0,340,0,0,0,0,0,0,0,140,0.8,7,0,0,0,0,0,0,0,0,0,0,0,0
2013,5,30,1,0,,12.8,12,95,100310,0,0,334,0,0,0,0,0,0,0,0,0.1,7,0,0,0,0,0,0,0,0,0,0,0,0
2013,5,30,2,0,,12.5,11.8,96,100360,0,0,332,0,0,0,0,0,0,0,0,0.4,6,0,0,0,0,0,0,0,0,0,0,0,0
2013,5,30,3,0,,12.6,11.9,96,100360,0,0,331,0,0,0,0,0,0,0,0,0.1,6,0,0,0,0,0,0,0,0,0,0,0,0
2013,5,30,4,0,,12.3,11.8,97,100400,0,0,330,0,0,0,0,0,0,0,290,0.9,6,0,0,0,0,0,0,0,0,0,0,0,0
2013,5,30,5,0,,12.2,11.7,97,100450,0,0,355,0,0,0,0,0,0,0,0,0,10,0,0,0,0,0,0,0,0,0,0,0,0
2013,5,30,6,0,,12.2,11.7,97,100480,0,0,355,8,0,7,1027,7,1024,0,0,0,10,0,0,0,0,0,0,0,0,0,0,0,0
2013,5,30,7,0,,12.8,12.3,97,100520,0,0,336,109,133,78,18355,12590,10789,0,0,0.2,7,0,0,0,0,0,0,0,0,0,0,0,0
2013,5,30,8,0,,14.2,11.8,86,100530,0,0,335,285,322,149,44404,31125,21007,0,0,0.3,5,0,0,0,0,0,0,0,0,0,0,0,0
2013,5,30,9,0,,15.8,11.5,76,100500,0,0,342,429,308,244,57617,29871,31728,0,250,1.1,5,0,0,0,0,0,0,0,0,0,0,0,0
2013,5,30,10,0,,17.5,11.7,69,100470,0,0,354,538,258,345,64409,25032,40928,0,50,0.7,6,0,0,0,0,0,0,0,0,0,0,0,0
2013,5,30,11,0,,19.5,11,58,100420,0,0,357,724,473,315,83099,45910,38983,0,230,1.1,4,0,0,0,0,0,0,0,0,0,0,0,0
2013,5,30,12,0,,21.8,10.6,49,100330,0,0,361,878,652,266,93445,64556,33162,0,180,1.5,2,0,0,0,0,0,0,0,0,0,0,0,0
2013,5,30,13,0,,23.7,8.9,39,100240,0,0,364,941,734,235,92678,72950,30048,0,200,2.7,1,0,0,0,0,0,0,0,0,0,0,0,0
2013,5,30,14,0,,24.8,9.5,38,100200,0,0,363,913,736,225,82596,72310,29070,0,230,3.1,0,0,0,0,0,0,0,0,0,0,0,0,0
2013,5,30,15,0,,25.3,8.7,35,100160,0,0,365,817,703,213,66687,66964,27380,0,230,3.3,0,0,0,0,0,0,0,0,0,0,0,0,0
2013,5,30,16,0,,25.6,8.1,33,100100,0,0,366,678,662,187,47869,59044,23706,0,230,3.6,0,0,0,0,0,0,0,0,0,0,0,0,0
2013,5,30,17,0,,25.9,4.9,26,100090,0,0,363,535,693,128,26718,49612,15850,0,230,3.3,0,0,0,0,0,0,0,0,0,0,0,0,0
2013,5,30,18,0,,25.4,2.7,23,100100,0,0,358,369,710,78,8144,2048,8084,0,250,4.2,0,0,0,0,0,0,0,0,0,0,0,0,0
2013,5,30,19,0,,24.4,4.6,28,100140,0,0,355,182,622,46,0,0,0,0,250,1.9,0,0,0,0,0,0,0,0,0,0,0,0,0
2013,5,30,20,0,,22.7,5.1,32,100190,0,0,348,40,22,19,0,0,0,0,230,1.4,0,0,0,0,0,0,0,0,0,0,0,0,0
2013,5,30,21,0,,20.8,6.6,40,100280,0,0,341,0,0,0,0,0,0,0,250,1.4,0,0,0,0,0,0,0,0,0,0,0,0,0
2013,5,30,22,0,,18.2,11.7,66,100320,0,0,334,0,0,0,0,0,0,0,20,0.5,0,0,0,0,0,0,0,0,0,0,0,0,0
2013,5,30,23,0,,16.4,10.9,70,100350,0,0,325,0,0,0,0,0,0,0,0,0,0,0,0,0,0,0,0,0,0,0,0,0,0
2013,5,30,24,0,,14.8,11.1,79,100360,0,0,318,0,0,0,0,0,0,0,0,0,0,0,0,0,0,0,0,0,0,0,0,0,0
2013,5,31,1,0,,13.7,11.2,85,100370,0,0,313,0,0,0,0,0,0,0,0,0.4,0,0,0,0,0,0,0,0,0,0,0,0,0
2013,5,31,2,0,,12.8,10.5,86,100360,0,0,309,0,0,0,0,0,0,0,340,1.1,0,0,0,0,0,0,0,0,0,0,0,0,0
2013,5,31,3,0,,12,10.2,89,100370,0,0,305,0,0,0,0,0,0,0,0,0.4,0,0,0,0,0,0,0,0,0,0,0,0,0
2013,5,31,4,0,,11.4,10.1,92,100380,0,0,303,0,0,0,0,0,0,0,360,0.9,0,0,0,0,0,0,0,0,0,0,0,0,0
2013,5,31,5,0,,10.7,9.7,94,100430,0,0,299,0,0,0,0,0,0,0,0,0,0,0,0,0,0,0,0,0,0,0,0,0,0
2013,5,31,6,0,,10.7,9.7,94,100430,0,0,299,39,22,18,3293,2043,2424,0,340,0.9,0,0,0,0,0,0,0,0,0,0,0,0,0
2013,5,31,7,0,,12.2,9.5,84,100430,0,0,305,172,463,64,38154,47532,9559,0,20,0.6,0,0,0,0,0,0,0,0,0,0,0,0,0
2013,5,31,8,0,,13.8,9.8,77,100380,0,0,326,333,510,118,56205,51601,17387,0,360,0.9,3,0,0,0,0,0,0,0,0,0,0,0,0
2013,5,31,9,0,,16.2,8.9,62,100350,0,0,332,532,646,144,75973,66274,18500,0,160,1.1,2,0,0,0,0,0,0,0,0,0,0,0,0
2013,5,31,10,0,,18.5,9.2,55,100300,0,0,350,644,550,231,81195,55061,29513,0,270,1.1,4,0,0,0,0,0,0,0,0,0,0,0,0
2013,5,31,11,0,,20.9,7.1,41,100230,0,0,362,760,554,280,86974,55122,33968,0,320,1.6,5,0,0,0,0,0,0,0,0,0,0,0,0
2013,5,31,12,0,,23,3.9,29,100130,0,0,368,832,551,315,89050,55090,37561,0,270,1.5,5,0,0,0,0,0,0,0,0,0,0,0,0
2013,5,31,13,0,,24.9,5.6,29,100070,0,0,388,745,266,489,77330,26338,54691,0,290,1.6,7,0,0,0,0,0,0,0,0,0,0,0,0
2013,5,31,14,0,,26.4,6.4,28,100010,0,0,404,635,185,462,65141,18081,51734,0,250,1.6,8,0,0,0,0,0,0,0,0,0,0,0,0
2013,5,31,15,0,,27.1,7.5,29,99970,0,0,403,631,246,419,60677,23297,46969,0,250,1.5,7,0,0,0,0,0,0,0,0,0,0,0,0
2013,5,31,16,0,,27.4,8.2,30,99900,0,0,405,508,225,341,46283,19785,38154,0,230,1.8,7,0,0,0,0,0,0,0,0,0,0,0,0
2013,5,31,17,0,,28.1,6.2,25,99860,0,0,402,443,401,207,29383,27434,23322,0,230,2,6,0,0,0,0,0,0,0,0,0,0,0,0
2013,5,31,18,0,,27.3,6.1,26,99860,0,0,402,264,279,150,15269,1263,15229,0,200,1.8,7,0,0,0,0,0,0,0,0,0,0,0,0
2013,5,31,19,0,,26,10.9,39,99870,0,0,401,126,248,72,0,0,0,0,230,1.2,7,0,0,0,0,0,0,0,0,0,0,0,0
2013,5,31,20,0,,23.3,15.6,62,99910,0,0,393,21,4,17,0,0,0,0,0,0,7,0,0,0,0,0,0,0,0,0,0,0,0
2013,5,31,21,0,,21.2,13.8,63,99930,0,0,379,0,0,0,0,0,0,0,340,1.3,7,0,0,0,0,0,0,0,0,0,0,0,0
2013,5,31,22,0,,19.8,14.1,70,99960,0,0,374,0,0,0,0,0,0,0,320,0.6,7,0,0,0,0,0,0,0,0,0,0,0,0
2013,5,31,23,0,,18.8,11.8,64,99970,0,0,368,0,0,0,0,0,0,0,70,0.5,8,0,0,0,0,0,0,0,0,0,0,0,0
2013,5,31,24,0,,17.7,12.1,70,99930,0,0,365,0,0,0,0,0,0,0,20,0.6,8,0,0,0,0,0,0,0,0,0,0,0,0
2007,6,1,1,0,,15.6,13.3,85,100380,0,0,356,0,0,0,0,0,0,0,360,2,8,0,0,0,0,0,0,0,0,0,0,0,0
2007,6,1,2,0,,15.1,13.2,87,100360,0,0,354,0,0,0,0,0,0,0,340,1,8,0,0,0,0,0,0,0,0,0,0,0,0
2007,6,1,3,0,,14.6,13,89,100350,0,0,351,0,0,0,0,0,0,0,20,1.1,8,0,0,0,0,0,0,0,0,0,0,0,0
2007,6,1,4,0,,14.5,13,88,100360,0,0,350,0,0,0,0,0,0,0,360,1.4,8,0,0,0,0,0,0,0,0,0,0,0,0
2007,6,1,5,0,,14.1,12.9,91,100380,0,0,348,0,0,0,0,0,0,0,340,0.9,8,0,0,0,0,0,0,0,0,0,0,0,0
2007,6,1,6,0,,14.1,12.9,91,100390,0,0,348,21,3,18,2312,285,2190,0,20,1.4,8,0,0,0,0,0,0,0,0,0,0,0,0
2007,6,1,7,0,,14.8,12.6,87,100390,0,0,351,104,115,77,17247,10831,10728,0,360,1.3,8,0,0,0,0,0,0,0,0,0,0,0,0
2007,6,1,8,0,,16.1,12.2,77,100400,0,0,357,213,130,158,29851,12583,20381,0,340,1.3,8,0,0,0,0,0,0,0,0,0,0,0,0
2007,6,1,9,0,,17.6,11.9,68,100400,0,0,364,331,139,247,41354,13603,29554,0,320,0.8,8,0,0,0,0,0,0,0,0,0,0,0,0
2007,6,1,10,0,,19.6,12,57,100350,0,0,372,435,138,331,51520,13391,38948,0,360,0.9,8,0,0,0,0,0,0,0,0,0,0,0,0
2007,6,1,11,0,,21.8,12.2,50,100300,0,0,382,597,203,421,67508,19565,48689,0,160,0.8,7,0,0,0,0,0,0,0,0,0,0,0,0
2007,6,1,12,0,,23,12.3,50,100250,0,0,387,655,199,468,71484,19015,53706,0,290,1.7,7,0,0,0,0,0,0,0,0,0,0,0,0
2007,6,1,13,0,,22.7,12.5,47,100210,0,0,392,564,121,447,61307,11500,51417,0,230,1,8,0,0,0,0,0,0,0,0,0,0,0,0
2007,6,1,14,0,,22.5,12.8,53,100160,0,0,399,426,62,368,46404,5931,42003,0,250,1.3,9,0,0,0,0,0,0,0,0,0,0,0,0
2007,6,1,15,0,,23.2,13,52,100120,0,0,415,298,31,271,32092,2558,30585,0,20,0.6,10,0,0,0,0,0,0,0,0,0,0,0,0
2007,6,1,16,0,,23.7,13.5,49,100110,0,0,418,261,35,235,26724,2899,25531,0,0,0.4,10,0,0,0,0,0,0,0,0,0,0,0,0
2007,6,1,17,0,,23,13.9,52,100100,0,0,415,184,29,167,17749,1897,17329,0,0,0.2,10,0,0,0,0,0,0,0,0,0,0,0,0
2007,6,1,18,0,,22.6,14.4,59,100090,0,0,413,123,30,111,10248,3322,10141,0,250,0.5,10,0,0,0,0,0,0,0,0,0,0,0,0
2007,6,1,19,0,,21.7,14.9,68,100110,0,0,401,75,52,63,0,0,0,0,320,1.2,9,0,0,0,0,0,0,0,0,0,0,0,0
2007,6,1,20,0,,20.6,15.5,76,100130,0,0,389,13,1,12,0,0,0,0,0,0.1,9,0,0,0,0,0,0,0,0,0,0,0,0
2007,6,1,21,0,,19.5,16,79,100150,0,0,379,0,0,0,0,0,0,0,340,0.7,8,0,0,0,0,0,0,0,0,0,0,0,0
2007,6,1,22,0,,18.6,15.7,83,100140,0,0,374,0,0,0,0,0,0,0,360,1,8,0,0,0,0,0,0,0,0,0,0,0,0
2007,6,1,23,0,,17.7,15.5,87,100130,0,0,369,0,0,0,0,0,0,0,360,1.4,8,0,0,0,0,0,0,0,0,0,0,0,0
2007,6,1,24,0,,17.2,15.2,87,100120,0,0,366,0,0,0,0,0,0,0,360,2.2,8,0,0,0,0,0,0,0,0,0,0,0,0
2007,6,2,1,0,,17,14.9,87,100140,0,0,358,0,0,0,0,0,0,0,320,0.7,7,0,0,0,0,0,0,0,0,0,0,0,0
2007,6,2,2,0,,15.8,14.5,92,100150,0,0,347,0,0,0,0,0,0,0,0,0.1,5,0,0,0,0,0,0,0,0,0,0,0,0
2007,6,2,3,0,,15.1,14.2,93,100170,0,0,340,0,0,0,0,0,0,0,20,0.9,4,0,0,0,0,0,0,0,0,0,0,0,0
2007,6,2,4,0,,14.6,14.1,95,100190,0,0,336,0,0,0,0,0,0,0,360,0.7,4,0,0,0,0,0,0,0,0,0,0,0,0
2007,6,2,5,0,,14.1,14,95,100200,0,0,333,0,0,0,0,0,0,0,0,0.1,3,0,0,0,0,0,0,0,0,0,0,0,0
2007,6,2,6,0,,14.6,13.9,94,100220,0,0,334,38,18,20,3421,1650,2718,0,0,0.2,3,0,0,0,0,0,0,0,0,0,0,0,0
2007,6,2,7,0,,15.6,13.3,81,100230,0,0,335,172,452,66,37896,46588,9831,0,360,1.8,2,0,0,0,0,0,0,0,0,0,0,0,0
2007,6,2,8,0,,17.2,12.6,72,100230,0,0,337,354,591,103,60173,61033,14217,0,360,1.6,1,0,0,0,0,0,0,0,0,0,0,0,0
2007,6,2,9,0,,19.7,12,60,100240,0,0,341,537,658,142,77080,67773,18259,0,340,1.5,0,0,0,0,0,0,0,0,0,0,0,0,0
2007,6,2,10,0,,22.1,11.4,48,100210,0,0,359,722,745,161,91950,76536,20053,0,340,2.2,1,0,0,0,0,0,0,0,0,0,0,0,0
2007,6,2,11,0,,24,10.8,41,100170,0,0,373,832,716,210,96655,71765,27580,0,340,2.2,2,0,0,0,0,0,0,0,0,0,0,0,0
2007,6,2,12,0,,25.3,10.2,38,100140,0,0,383,877,645,270,93159,63838,33423,0,270,1.1,3,0,0,0,0,0,0,0,0,0,0,0,0
2007,6,2,13,0,,26.7,10.2,34,100080,0,0,391,876,591,307,87217,57228,37948,0,250,1.3,3,0,0,0,0,0,0,0,0,0,0,0,0
2007,6,2,14,0,,27.8,10.1,33,100030,0,0,398,821,529,325,77163,50708,39480,0,290,2.1,4,0,0,0,0,0,0,0,0,0,0,0,0
2007,6,2,15,0,,28.6,10.1,31,99970,0,0,403,737,509,297,63589,48067,35210,0,250,1.4,4,0,0,0,0,0,0,0,0,0,0,0,0
2007,6,2,16,0,,28.7,10.6,32,99930,0,0,404,621,507,244,47275,44171,29025,0,340,1.2,4,0,0,0,0,0,0,0,0,0,0,0,0
2007,6,2,17,0,,28.6,11.1,31,99890,0,0,405,475,493,183,28814,32313,21592,0,290,1.3,4,0,0,0,0,0,0,0,0,0,0,0,0
2007,6,2,18,0,,27.8,11.6,36,99850,0,0,401,318,478,120,12738,183,12732,0,290,1.5,4,0,0,0,0,0,0,0,0,0,0,0,0
2007,6,2,19,0,,26.1,10.8,47,99920,0,0,390,158,407,67,0,0,0,0,250,0.9,4,0,0,0,0,0,0,0,0,0,0,0,0
2007,6,2,20,0,,23.7,10.1,48,100000,0,0,375,38,22,16,0,0,0,0,0,0.4,3,0,0,0,0,0,0,0,0,0,0,0,0
2007,6,2,21,0,,22.2,9.3,43,100070,0,0,366,0,0,0,0,0,0,0,70,1.9,3,0,0,0,0,0,0,0,0,0,0,0,0
2007,6,2,22,0,,21.2,9.3,44,100140,0,0,358,0,0,0,0,0,0,0,70,2.1,2,0,0,0,0,0,0,0,0,0,0,0,0
2007,6,2,23,0,,20.2,9.3,46,100200,0,0,351,0,0,0,0,0,0,0,70,2.1,2,0,0,0,0,0,0,0,0,0,0,0,0
2007,6,2,24,0,,18.8,9.3,53,100270,0,0,341,0,0,0,0,0,0,0,360,0.9,1,0,0,0,0,0,0,0,0,0,0,0,0
2007,6,3,1,0,,17.3,10.3,61,100290,0,0,338,0,0,0,0,0,0,0,0,0.4,2,0,0,0,0,0,0,0,0,0,0,0,0
2007,6,3,2,0,,16.6,11.2,65,100300,0,0,338,0,0,0,0,0,0,0,360,1.8,2,0,0,0,0,0,0,0,0,0,0,0,0
2007,6,3,3,0,,15.8,12.2,78,100320,0,0,338,0,0,0,0,0,0,0,340,1,3,0,0,0,0,0,0,0,0,0,0,0,0
2007,6,3,4,0,,15.1,11.7,75,100360,0,0,331,0,0,0,0,0,0,0,360,1.6,2,0,0,0,0,0,0,0,0,0,0,0,0
2007,6,3,5,0,,14.3,11.3,78,100410,0,0,322,0,0,0,0,0,0,0,360,1.4,1,0,0,0,0,0,0,0,0,0,0,0,0
2007,6,3,6,0,,14.3,10.8,78,100450,0,0,316,45,23,22,3915,2124,3008,0,340,3.1,0,0,0,0,0,0,0,0,0,0,0,0,0
2007,6,3,7,0,,15.6,10.7,70,100460,0,0,325,182,524,59,41367,53899,8873,0,340,2.4,1,0,0,0,0,0,0,0,0,0,0,0,0
2007,6,3,8,0,,17.5,10.6,59,100460,0,0,338,367,642,94,63042,66367,13042,0,340,1.9,1,0,0,0,0,0,0,0,0,0,0,0,0
2007,6,3,9,0,,19.5,10.5,55,100470,0,0,350,539,661,141,77157,67978,18131,0,340,2.1,2,0,0,0,0,0,0,0,0,0,0,0,0
2007,6,3,10,0,,21,10.6,47,100430,0,0,354,699,687,182,88213,70171,22263,0,340,1.3,1,0,0,0,0,0,0,0,0,0,0,0,0
2007,6,3,11,0,,23.2,10.7,43,100390,0,0,362,818,684,224,94855,68435,28946,0,290,0.9,1,0,0,0,0,0,0,0,0,0,0,0,0
2007,6,3,12,0,,24.7,10.8,41,100350,0,0,364,880,652,267,93601,64489,33209,0,320,1.1,0,0,0,0,0,0,0,0,0,0,0,0,0
2007,6,3,13,0,,26.6,10.7,37,100280,0,0,374,925,692,257,91082,68168,32332,0,20,0.8,0,0,0,0,0,0,0,0,0,0,0,0,0
2007,6,3,14,0,,28.3,10.7,32,100210,0,0,383,902,704,241,81880,68589,30832,0,230,1.3,0,0,0,0,0,0,0,0,0,0,0,0,0
2007,6,3,15,0,,29.2,10.6,31,100140,0,0,387,827,716,209,67740,68260,27346,0,230,1.2,0,0,0,0,0,0,0,0,0,0,0,0,0
2007,6,3,16,0,,29.1,10.2,30,100110,0,0,389,675,643,195,48421,56735,24891,0,50,1,0,0,0,0,0,0,0,0,0,0,0,0,0
2007,6,3,17,0,,30,9.7,29,100080,0,0,396,534,671,136,27694,47054,17096,0,250,1.3,1,0,0,0,0,0,0,0,0,0,0,0,0
2007,6,3,18,0,,30.1,9.3,27,100050,0,0,398,361,651,90,9732,8701,9417,0,250,0.5,1,0,0,0,0,0,0,0,0,0,0,0,0
2007,6,3,19,0,,28.2,11.7,41,100120,0,0,389,185,596,50,0,0,0,0,250,1.2,1,0,0,0,0,0,0,0,0,0,0,0,0
2007,6,3,20,0,,24.5,14.1,61,100180,0,0,370,38,21,17,0,0,0,0,320,0.6,0,0,0,0,0,0,0,0,0,0,0,0,0
2007,6,3,21,0,,22.5,16.5,68,100250,0,0,360,0,0,0,0,0,0,0,0,0.4,0,0,0,0,0,0,0,0,0,0,0,0,0
2007,6,3,22,0,,20.8,16.4,76,100250,0,0,360,0,0,0,0,0,0,0,0,0.1,1,0,0,0,0,0,0,0,0,0,0,0,0
2007,6,3,23,0,,19.6,16.2,78,100250,0,0,360,0,0,0,0,0,0,0,320,0.9,3,0,0,0,0,0,0,0,0,0,0,0,0
2007,6,3,24,0,,18.7,16.1,84,100250,0,0,359,0,0,0,0,0,0,0,320,0.7,4,0,0,0,0,0,0,0,0,0,0,0,0
2007,6,4,1,0,,18.1,15.9,86,100270,0,0,358,0,0,0,0,0,0,0,340,0.6,5,0,0,0,0,0,0,0,0,0,0,0,0
2007,6,4,2,0,,17.8,15.7,85,100280,0,0,358,0,0,0,0,0,0,0,0,0,5,0,0,0,0,0,0,0,0,0,0,0,0
2007,6,4,3,0,,17.7,15.5,86,100300,0,0,359,0,0,0,0,0,0,0,0,0,6,0,0,0,0,0,0,0,0,0,0,0,0
2007,6,4,4,0,,16.8,15.5,94,100320,0,0,353,0,0,0,0,0,0,0,0,0.3,5,0,0,0,0,0,0,0,0,0,0,0,0
2007,6,4,5,0,,16.6,15.5,93,100350,0,0,350,0,0,0,0,0,0,0,360,1.4,5,0,0,0,0,0,0,0,0,0,0,0,0
2007,6,4,6,0,,16.8,15.5,91,100370,0,0,349,36,16,21,3480,1377,2891,0,0,0,4,0,0,0,0,0,0,0,0,0,0,0,0
2007,6,4,7,0,,17.3,15.1,87,100360,0,0,353,144,300,74,30003,29813,12018,0,0,0.1,5,0,0,0,0,0,0,0,0,0,0,0,0
2007,6,4,8,0,,19,14.8,78,100350,0,0,363,294,347,146,45849,32862,21080,0,360,0.6,5,0,0,0,0,0,0,0,0,0,0,0,0
2007,6,4,9,0,,21,14.4,65,100340,0,0,374,427,298,248,57323,28281,32756,0,50,0.5,6,0,0,0,0,0,0,0,0,0,0,0,0
2007,6,4,10,0,,22.7,15,64,100290,0,0,390,509,214,348,61156,20097,42260,0,320,1,7,0,0,0,0,0,0,0,0,0,0,0,0
2007,6,4,11,0,,24.8,15.7,62,100250,0,0,413,472,105,381,54547,9824,45080,0,250,1.3,9,0,0,0,0,0,0,0,0,0,0,0,0
2007,6,4,12,0,,25.8,16.3,55,100200,0,0,434,395,50,348,44758,4601,40446,0,230,1.9,10,0,0,0,0,0,0,0,0,0,0,0,0
2007,6,4,13,0,,26.2,16.3,54,100140,0,0,437,388,44,346,43569,4054,40072,0,230,1.5,10,0,0,0,0,0,0,0,0,0,0,0,0
2007,6,4,14,0,,26.8,16.2,54,100080,0,0,440,352,37,318,39186,3382,36666,0,250,2.1,10,0,0,0,0,0,0,0,0,0,0,0,0
2007,6,4,15,0,,27,16.2,51,100020,0,0,441,324,38,291,35469,3516,33384,0,250,1.7,10,0,0,0,0,0,0,0,0,0,0,0,0
2007,6,4,16,0,,26.2,15.9,52,100000,0,0,421,331,67,282,34434,5983,31944,0,250,2.5,9,0,0,0,0,0,0,0,0,0,0,0,0
2007,6,4,17,0,,26.2,15.7,52,99970,0,0,410,349,169,249,30844,13761,27721,0,230,2.1,7,0,0,0,0,0,0,0,0,0,0,0,0
2007,6,4,18,0,,25.5,15.4,53,99950,0,0,400,258,244,156,16582,493,16563,0,230,1.8,6,0,0,0,0,0,0,0,0,0,0,0,0
2007,6,4,19,0,,24.3,15.5,55,99980,0,0,392,136,280,72,0,0,0,0,230,1.7,6,0,0,0,0,0,0,0,0,0,0,0,0
2007,6,4,20,0,,23.5,15.5,59,100010,0,0,387,34,14,20,0,0,0,0,230,1.1,5,0,0,0,0,0,0,0,0,0,0,0,0
2007,6,4,21,0,,22.5,15.6,64,100040,0,0,380,0,0,0,0,0,0,0,250,0.5,5,0,0,0,0,0,0,0,0,0,0,0,0
2007,6,4,22,0,,21.7,15.4,66,100040,0,0,374,0,0,0,0,0,0,0,270,0.9,4,0,0,0,0,0,0,0,0,0,0,0,0
2007,6,4,23,0,,20.6,15.1,74,100050,0,0,366,0,0,0,0,0,0,0,0,0.4,4,0,0,0,0,0,0,0,0,0,0,0,0
2007,6,4,24,0,,19.7,14.9,73,100050,0,0,360,0,0,0,0,0,0,0,200,0.7,3,0,0,0,0,0,0,0,0,0,0,0,0
2007,6,5,1,0,,18.2,15.1,87,100030,0,0,349,0,0,0,0,0,0,0,0,0.1,2,0,0,0,0,0,0,0,0,0,0,0,0
2007,6,5,2,0,,17.2,15.2,88,100020,0,0,340,0,0,0,0,0,0,0,0,0,1,0,0,0,0,0,0,0,0,0,0,0,0
2007,6,5,3,0,,16.5,15.4,92,100000,0,0,331,0,0,0,0,0,0,0,0,0,0,0,0,0,0,0,0,0,0,0,0,0,0
2007,6,5,4,0,,15.8,15.5,95,100010,0,0,342,0,0,0,0,0,0,0,0,0.1,3,0,0,0,0,0,0,0,0,0,0,0,0
2007,6,5,5,0,,16.2,15.5,93,100010,0,0,352,0,0,0,0,0,0,0,0,0.1,6,0,0,0,0,0,0,0,0,0,0,0,0
2007,6,5,6,0,,16.5,15.6,93,100020,0,0,371,15,1,14,1910,45,1890,0,0,0.1,9,0,0,0,0,0,0,0,0,0,0,0,0
2007,6,5,7,0,,17.2,15.4,88,100010,0,0,375,84,59,70,12459,5517,9129,0,0,0,9,0,0,0,0,0,0,0,0,0,0,0,0
2007,6,5,8,0,,17.8,15.2,87,100010,0,0,377,161,58,136,21289,5494,17147,0,0,0.1,9,0,0,0,0,0,0,0,0,0,0,0,0
2007,6,5,9,0,,19.8,15,73,100000,0,0,388,275,82,225,34277,7810,27490,0,180,1.6,9,0,0,0,0,0,0,0,0,0,0,0,0
2007,6,5,10,0,,20.6,15.3,70,99970,0,0,392,345,72,290,41377,6834,34948,0,180,1.5,9,0,0,0,0,0,0,0,0,0,0,0,0
2007,6,5,11,0,,21.2,15.5,69,99930,0,0,396,405,69,345,46252,6444,40038,0,180,2.2,9,0,0,0,0,0,0,0,0,0,0,0,0
2007,6,5,12,0,,22,15.8,67,99900,0,0,400,434,64,374,48798,5961,43207,0,180,2.2,9,0,0,0,0,0,0,0,0,0,0,0,0
2007,6,5,13,0,,21.8,15.8,68,99870,0,0,403,407,50,359,45436,4622,41444,0,230,0.8,9,0,0,0,0,0,0,0,0,0,0,0,0
2007,6,5,14,0,,22.2,15.9,66,99830,0,0,409,309,26,285,34523,1964,33056,0,230,1.6,10,0,0,0,0,0,0,0,0,0,0,0,0
2007,6,5,15,0,,23.1,15.9,63,99800,0,0,418,301,31,274,32307,2517,30810,0,250,2.2,10,0,0,0,0,0,0,0,0,0,0,0,0
2007,6,5,16,0,,22.2,16,68,99810,0,0,409,241,28,220,24951,2128,24062,0,250,2.1,10,0,0,0,0,0,0,0,0,0,0,0,0
2007,6,5,17,0,,22.1,16.1,69,99810,0,0,405,238,57,204,23927,4574,22881,0,250,1.5,9,0,0,0,0,0,0,0,0,0,0,0,0
2007,6,5,18,0,,22,16.2,69,99820,0,0,401,156,56,133,14461,3330,14329,0,250,1.7,9,0,0,0,0,0,0,0,0,0,0,0,0
2007,6,5,19,0,,21.7,16.1,70,99840,0,0,396,84,65,69,0,0,0,0,230,1.8,9,0,0,0,0,0,0,0,0,0,0,0,0
2007,6,5,20,0,,21.2,15.9,72,99850,0,0,390,22,4,18,0,0,0,0,230,1.1,8,0,0,0,0,0,0,0,0,0,0,0,0
2007,6,5,21,0,,21.1,15.8,71,99870,0,0,387,0,0,0,0,0,0,0,230,2.4,8,0,0,0,0,0,0,0,0,0,0,0,0
2007,6,5,22,0,,20.7,15.8,72,99890,0,0,385,0,0,0,0,0,0,0,230,0.9,8,0,0,0,0,0,0,0,0,0,0,0,0
2007,6,5,23,0,,20.7,15.9,72,99900,0,0,385,0,0,0,0,0,0,0,250,1,8,0,0,0,0,0,0,0,0,0,0,0,0
2007,6,5,24,0,,20.3,15.9,75,99920,0,0,383,0,0,0,0,0,0,0,200,1.1,8,0,0,0,0,0,0,0,0,0,0,0,0
2007,6,6,1,0,,20.2,16.1,75,99900,0,0,383,0,0,0,0,0,0,0,180,1,8,0,0,0,0,0,0,0,0,0,0,0,0
2007,6,6,2,0,,19.5,16.3,79,99890,0,0,379,0,0,0,0,0,0,0,0,0.1,8,0,0,0,0,0,0,0,0,0,0,0,0
2007,6,6,3,0,,18.3,16.5,88,99870,0,0,374,0,0,0,0,0,0,0,0,0,8,0,0,0,0,0,0,0,0,0,0,0,0
2007,6,6,4,0,,18.1,16.4,91,99900,0,0,372,0,0,0,0,0,0,0,0,0.2,8,0,0,0,0,0,0,0,0,0,0,0,0
2007,6,6,5,0,,18,16.3,92,99920,0,0,372,0,0,0,0,0,0,0,0,0.1,8,0,0,0,0,0,0,0,0,0,0,0,0
2007,6,6,6,0,,18.8,16.2,84,99950,0,0,376,24,4,19,2566,371,2407,0,200,0.7,8,0,0,0,0,0,0,0,0,0,0,0,0
2007,6,6,7,0,,19.2,15.6,82,99950,0,0,368,142,279,76,29089,27717,12352,0,180,0.7,6,0,0,0,0,0,0,0,0,0,0,0,0
2007,6,6,8,0,,20.6,15.1,72,99950,0,0,369,306,386,142,49587,38402,20622,0,230,1.4,5,0,0,0,0,0,0,0,0,0,0,0,0
2007,6,6,9,0,,22.2,14.5,61,99950,0,0,372,503,548,173,71572,54681,24041,0,230,1.4,3,0,0,0,0,0,0,0,0,0,0,0,0
2007,6,6,10,0,,23,14.2,58,99940,0,0,375,638,527,240,80126,52131,31071,0,250,2,3,0,0,0,0,0,0,0,0,0,0,0,0
2007,6,6,11,0,,24,13.9,55,99930,0,0,380,746,515,298,85400,49050,38085,0,230,2.4,3,0,0,0,0,0,0,0,0,0,0,0,0
2007,6,6,12,0,,25.2,13.6,48,99920,0,0,386,810,496,343,86801,47095,42602,0,250,2.5,3,0,0,0,0,0,0,0,0,0,0,0,0
2007,6,6,13,0,,26.7,14,45,99880,0,0,400,784,307,487,81433,28701,56623,0,250,2,5,0,0,0,0,0,0,0,0,0,0,0,0
2007,6,6,14,0,,27.1,14.4,44,99840,0,0,409,702,243,474,71221,22405,54473,0,200,2.3,6,0,0,0,0,0,0,0,0,0,0,0,0
2007,6,6,15,0,,27.2,14.8,46,99800,0,0,420,508,129,396,52111,12206,44841,0,200,2,8,0,0,0,0,0,0,0,0,0,0,0,0
2007,6,6,16,0,,25.7,15.2,51,99800,0,0,414,386,100,311,38904,9095,35092,0,230,2.9,8,0,0,0,0,0,0,0,0,0,0,0,0
2007,6,6,17,0,,24.8,15.6,53,99790,0,0,413,232,53,200,23432,4216,22461,0,230,2.3,9,0,0,0,0,0,0,0,0,0,0,0,0
2007,6,6,18,0,,24,16,60,99790,0,0,412,146,47,127,13857,2702,13745,0,200,1.9,9,0,0,0,0,0,0,0,0,0,0,0,0
2007,6,6,19,0,,22.6,15.8,68,99840,0,0,404,76,49,65,0,0,0,0,250,1.6,9,0,0,0,0,0,0,0,0,0,0,0,0
2007,6,6,20,0,,21.2,15.5,70,99890,0,0,396,14,1,13,0,0,0,0,250,1.7,9,0,0,0,0,0,0,0,0,0,0,0,0
2007,6,6,21,0,,20.5,15.3,71,99940,0,0,392,0,0,0,0,0,0,0,200,0.5,9,0,0,0,0,0,0,0,0,0,0,0,0
2007,6,6,22,0,,19.6,15.5,79,99970,0,0,384,0,0,0,0,0,0,0,270,1.4,9,0,0,0,0,0,0,0,0,0,0,0,0
2007,6,6,23,0,,17.8,15.7,90,100010,0,0,372,0,0,0,0,0,0,0,0,0.3,8,0,0,0,0,0,0,0,0,0,0,0,0
2007,6,6,24,0,,16.7,15.9,94,100040,0,0,365,0,0,0,0,0,0,0,0,0,8,0,0,0,0,0,0,0,0,0,0,0,0
2007,6,7,1,0,,16,15.6,96,100050,0,0,355,0,0,0,0,0,0,0,0,0.1,7,0,0,0,0,0,0,0,0,0,0,0,0
2007,6,7,2,0,,16,15.2,96,100060,0,0,351,0,0,0,0,0,0,0,0,0.2,6,0,0,0,0,0,0,0,0,0,0,0,0
2007,6,7,3,0,,15.3,14.9,96,100070,0,0,344,0,0,0,0,0,0,0,360,0.5,5,0,0,0,0,0,0,0,0,0,0,0,0
2007,6,7,4,0,,15.3,15,98,100090,0,0,344,0,0,0,0,0,0,0,0,0.1,5,0,0,0,0,0,0,0,0,0,0,0,0
2007,6,7,5,0,,15,15.1,97,100120,0,0,343,0,0,0,0,0,0,0,340,1.1,5,0,0,0,0,0,0,0,0,0,0,0,0
2007,6,7,6,0,,15.3,15.2,98,100140,0,0,344,35,14,21,3512,1237,2982,0,0,0,5,0,0,0,0,0,0,0,0,0,0,0,0
2007,6,7,7,0,,16,15.3,94,100130,0,0,351,132,217,80,24755,20078,12628,0,0,0.4,6,0,0,0,0,0,0,0,0,0,0,0,0
2007,6,7,8,0,,17.2,15.5,88,100110,0,0,361,230,160,162,32669,14863,21456,0,0,0.2,7,0,0,0,0,0,0,0,0,0,0,0,0
2007,6,7,9,0,,18.3,15.6,83,100100,0,0,372,299,104,237,37395,9795,28878,0,0,0.4,8,0,0,0,0,0,0,0,0,0,0,0,0
2007,6,7,10,0,,19.2,15.6,78,100080,0,0,382,332,65,283,38653,5980,33024,0,0,0.3,9,0,0,0,0,0,0,0,0,0,0,0,0
2007,6,7,11,0,,20.2,15.5,75,100060,0,0,394,374,56,325,42810,5151,37838,0,0,0.4,9,0,0,0,0,0,0,0,0,0,0,0,0
2007,6,7,12,0,,20.8,15.5,71,100040,0,0,405,323,29,296,36991,2648,34504,0,250,1.5,10,0,0,0,0,0,0,0,0,0,0,0,0
2007,6,7,13,0,,21.3,15.7,69,99980,0,0,408,318,25,294,36161,2332,34142,0,230,1,10,0,0,0,0,0,0,0,0,0,0,0,0
2007,6,7,14,0,,21.1,16,71,99910,0,0,407,301,24,279,33728,1797,32382,0,230,1.1,10,0,0,0,0,0,0,0,0,0,0,0,0
2007,6,7,15,0,,21.7,16.2,70,99850,0,0,411,278,25,256,30148,1936,28993,0,270,1.3,10,0,0,0,0,0,0,0,0,0,0,0,0
2007,6,7,16,0,,22.5,16.3,66,99850,0,0,401,334,67,284,34697,6016,32167,0,230,1.9,9,0,0,0,0,0,0,0,0,0,0,0,0
2007,6,7,17,0,,22.2,16.3,68,99850,0,0,389,351,167,251,31136,13635,27977,0,230,2.2,7,0,0,0,0,0,0,0,0,0,0,0,0
2007,6,7,18,0,,22.7,16.4,67,99850,0,0,386,275,287,154,16561,1476,16497,0,230,1.9,6,0,0,0,0,0,0,0,0,0,0,0,0
2007,6,7,19,0,,21.6,16.6,73,99870,0,0,383,118,169,79,0,0,0,0,180,1.3,7,0,0,0,0,0,0,0,0,0,0,0,0
2007,6,7,20,0,,20.5,16.9,79,99880,0,0,381,26,6,20,0,0,0,0,180,1.3,7,0,0,0,0,0,0,0,0,0,0,0,0
2007,6,7,21,0,,19.7,17.1,84,99900,0,0,382,0,0,0,0,0,0,0,0,0.2,8,0,0,0,0,0,0,0,0,0,0,0,0
2007,6,7,22,0,,18.3,16.9,92,99920,0,0,374,0,0,0,0,0,0,0,340,0.5,8,0,0,0,0,0,0,0,0,0,0,0,0
2007,6,7,23,0,,17.5,16.6,95,99930,0,0,370,0,0,0,0,0,0,0,340,1,8,0,0,0,0,0,0,0,0,0,0,0,0
2007,6,7,24,0,,17.2,16.4,94,99950,0,0,368,0,0,0,0,0,0,0,0,0,8,0,0,0,0,0,0,0,0,0,0,0,0
2007,6,8,1,0,,17.2,16.6,95,99930,0,0,373,0,0,0,0,0,0,0,200,1.2,9,0,0,0,0,0,0,0,0,0,0,0,0
2007,6,8,2,0,,17.2,16.9,97,99920,0,0,380,0,0,0,0,0,0,0,160,0.5,9,0,0,0,0,0,0,0,0,0,0,0,0
2007,6,8,3,0,,17.2,17.1,98,99900,0,0,388,0,0,0,0,0,0,0,0,0.4,10,0,0,0,0,0,0,0,0,0,0,0,0
2007,6,8,4,0,,17.2,17.1,98,99930,0,0,388,0,0,0,0,0,0,0,0,0.1,10,0,0,0,0,0,0,0,0,0,0,0,0
2007,6,8,5,0,,17,17.1,98,99960,0,0,387,0,0,0,0,0,0,0,0,0.1,10,0,0,0,0,0,0,0,0,0,0,0,0
2007,6,8,6,0,,17.2,17.1,98,99990,0,0,388,8,0,8,1115,6,1112,0,0,0.1,10,0,0,0,0,0,0,0,0,0,0,0,0
2007,6,8,7,0,,17.6,16.9,96,100010,0,0,382,77,46,66,11372,4273,8790,0,0,0.3,9,0,0,0,0,0,0,0,0,0,0,0,0
2007,6,8,8,0,,18.2,16.7,95,100030,0,0,378,157,54,134,20847,5031,17050,0,320,0.9,9,0,0,0,0,0,0,0,0,0,0,0,0
2007,6,8,9,0,,19.7,16.5,81,100050,0,0,381,289,94,232,36190,8828,28513,0,0,0.1,8,0,0,0,0,0,0,0,0,0,0,0,0
2007,6,8,10,0,,20,16.6,81,100020,0,0,388,309,53,269,36063,4863,31484,0,200,0.7,9,0,0,0,0,0,0,0,0,0,0,0,0
2007,6,8,11,0,,21.5,16.6,74,99980,0,0,402,394,64,338,45058,5898,39364,0,70,0.9,9,0,0,0,0,0,0,0,0,0,0,0,0
2007,6,8,12,0,,21.6,16.7,73,99950,0,0,411,317,27,292,36424,2495,34080,0,20,0.9,10,0,0,0,0,0,0,0,0,0,0,0,0
2007,6,8,13,0,,21.7,16.2,70,99900,0,0,411,317,25,293,36039,2297,34050,0,20,1,10,0,0,0,0,0,0,0,0,0,0,0,0
2007,6,8,14,0,,22.5,15.6,63,99840,0,0,414,318,28,293,35737,2559,33820,0,290,1.2,10,0,0,0,0,0,0,0,0,0,0,0,0
2007,6,8,15,0,,22.5,15.1,62,99790,0,0,414,284,26,261,30815,2103,29557,0,0,0,10,0,0,0,0,0,0,0,0,0,0,0,0
2007,6,8,16,0,,23.2,14.7,64,99840,0,0,409,343,72,289,35422,6529,32668,0,360,1.5,9,0,0,0,0,0,0,0,0,0,0,0,0
2007,6,8,17,0,,19.5,14.3,72,99890,0,0,382,216,43,190,20410,3193,19665,0,70,4.3,9,0,0,0,0,0,0,0,0,0,0,0,0
2007,6,8,18,0,,19.5,13.9,69,99940,0,0,376,177,78,144,15752,4846,15535,0,50,2.3,8,0,0,0,0,0,0,0,0,0,0,0,0
2007,6,8,19,0,,19,13.3,70,100040,0,0,373,88,70,72,0,0,0,0,50,1.7,8,0,0,0,0,0,0,0,0,0,0,0,0
2007,6,8,20,0,,18.2,12.6,69,100150,0,0,368,25,5,20,0,0,0,0,70,2.5,8,0,0,0,0,0,0,0,0,0,0,0,0
2007,6,8,21,0,,17.5,12,69,100250,0,0,364,0,0,0,0,0,0,0,20,1.5,8,0,0,0,0,0,0,0,0,0,0,0,0
2007,6,8,22,0,,16.7,11.8,72,100280,0,0,351,0,0,0,0,0,0,0,20,0.8,6,0,0,0,0,0,0,0,0,0,0,0,0
2007,6,8,23,0,,15.3,11.7,76,100320,0,0,339,0,0,0,0,0,0,0,20,1.2,5,0,0,0,0,0,0,0,0,0,0,0,0
2007,6,8,24,0,,14.3,11.5,82,100350,0,0,330,0,0,0,0,0,0,0,360,1.1,3,0,0,0,0,0,0,0,0,0,0,0,0
2007,6,9,1,0,,13.1,11.5,91,100330,0,0,322,0,0,0,0,0,0,0,340,1.1,2,0,0,0,0,0,0,0,0,0,0,0,0
2007,6,9,2,0,,12.5,11.6,94,100310,0,0,315,0,0,0,0,0,0,0,320,1.5,1,0,0,0,0,0,0,0,0,0,0,0,0
2007,6,9,3,0,,12.1,11.6,95,100290,0,0,307,0,0,0,0,0,0,0,360,0.8,0,0,0,0,0,0,0,0,0,0,0,0,0
2007,6,9,4,0,,11.1,11.5,96,100320,0,0,303,0,0,0,0,0,0,0,110,0.7,0,0,0,0,0,0,0,0,0,0,0,0,0
2007,6,9,5,0,,10.6,11.5,97,100340,0,0,301,0,0,0,0,0,0,0,0,0.1,0,0,0,0,0,0,0,0,0,0,0,0,0
2007,6,9,6,0,,11.5,11.4,98,100370,0,0,305,42,24,18,3728,2116,2821,0,0,0,0,0,0,0,0,0,0,0,0,0,0,0,0
2007,6,9,7,0,,13.1,11.4,88,100360,0,0,311,182,501,62,40485,51575,9320,0,340,1.2,0,0,0,0,0,0,0,0,0,0,0,0,0
2007,6,9,8,0,,15.1,11.4,76,100360,0,0,320,356,587,105,60047,60510,14383,0,0,0.1,0,0,0,0,0,0,0,0,0,0,0,0,0
2007,6,9,9,0,,17.3,11.4,67,100350,0,0,330,532,634,149,75706,65132,19056,0,0,0.4,0,0,0,0,0,0,0,0,0,0,0,0,0
2007,6,9,10,0,,19.7,11.7,56,100330,0,0,355,660,582,221,83413,58081,28712,0,50,0.6,3,0,0,0,0,0,0,0,0,0,0,0,0
2007,6,9,11,0,,21,12,54,100320,0,0,369,713,437,333,81654,42131,40962,0,250,1.1,5,0,0,0,0,0,0,0,0,0,0,0,0
2007,6,9,12,0,,22.1,12.3,53,100300,0,0,388,581,141,448,64311,13501,51617,0,20,1.4,8,0,0,0,0,0,0,0,0,0,0,0,0
2007,6,9,13,0,,22.2,12.3,53,100270,0,0,384,639,168,477,68357,16000,54489,0,90,2.6,7,0,0,0,0,0,0,0,0,0,0,0,0
2007,6,9,14,0,,23.1,12.2,50,100230,0,0,386,618,167,460,64303,15765,52473,0,110,2,7,0,0,0,0,0,0,0,0,0,0,0,0
2007,6,9,15,0,,24,12.2,47,100200,0,0,388,614,219,424,60239,20175,48152,0,90,1.9,6,0,0,0,0,0,0,0,0,0,0,0,0
2007,6,9,16,0,,23.8,12.2,49,100190,0,0,383,571,307,340,49790,26478,38584,0,20,2.2,5,0,0,0,0,0,0,0,0,0,0,0,0
2007,6,9,17,0,,23.8,12.3,49,100180,0,0,380,474,464,195,30282,31039,22999,0,20,3.2,4,0,0,0,0,0,0,0,0,0,0,0,0
2007,6,9,18,0,,23.7,12.3,48,100170,0,0,377,334,505,119,13079,3780,12904,0,90,1.2,3,0,0,0,0,0,0,0,0,0,0,0,0
2007,6,9,19,0,,22.7,13.2,51,100220,0,0,372,175,465,65,0,0,0,0,90,1.7,3,0,0,0,0,0,0,0,0,0,0,0,0
2007,6,9,20,0,,20.7,14,58,100270,0,0,361,41,23,18,0,0,0,0,0,0,2,0,0,0,0,0,0,0,0,0,0,0,0
2007,6,9,21,0,,18.8,14.9,77,100320,0,0,352,0,0,0,0,0,0,0,290,0.6,2,0,0,0,0,0,0,0,0,0,0,0,0
2007,6,9,22,0,,17.2,14.7,84,100350,0,0,345,0,0,0,0,0,0,0,0,0.3,2,0,0,0,0,0,0,0,0,0,0,0,0
2007,6,9,23,0,,16.6,14.4,84,100370,0,0,343,0,0,0,0,0,0,0,0,0.1,3,0,0,0,0,0,0,0,0,0,0,0,0
2007,6,9,24,0,,15.3,14.2,92,100400,0,0,338,0,0,0,0,0,0,0,0,0.3,3,0,0,0,0,0,0,0,0,0,0,0,0
2007,6,10,1,0,,14.6,13.6,95,100380,0,0,331,0,0,0,0,0,0,0,340,0.7,2,0,0,0,0,0,0,0,0,0,0,0,0
2007,6,10,2,0,,14,13,93,100370,0,0,323,0,0,0,0,0,0,0,0,0.2,1,0,0,0,0,0,0,0,0,0,0,0,0
2007,6,10,3,0,,13.3,12.4,93,100350,0,0,313,0,0,0,0,0,0,0,0,0.1,0,0,0,0,0,0,0,0,0,0,0,0,0
2007,6,10,4,0,,13.1,12.4,97,100380,0,0,318,0,0,0,0,0,0,0,320,0.5,1,0,0,0,0,0,0,0,0,0,0,0,0
2007,6,10,5,0,,12.5,12.4,97,100420,0,0,320,0,0,0,0,0,0,0,0,0,2,0,0,0,0,0,0,0,0,0,0,0,0
2007,6,10,6,0,,12.6,12.4,97,100450,0,0,324,40,21,20,3520,1901,2705,0,0,0,3,0,0,0,0,0,0,0,0,0,0,0,0
2007,6,10,7,0,,14.3,12.4,90,100450,0,0,328,173,435,69,37636,43609,11284,0,340,0.7,2,0,0,0,0,0,0,0,0,0,0,0,0
2007,6,10,8,0,,16.3,12.3,78,100440,0,0,332,348,556,111,58338,57261,15124,0,0,0.4,1,0,0,0,0,0,0,0,0,0,0,0,0
2007,6,10,9,0,,18.1,12.3,68,100440,0,0,334,533,639,148,76102,65695,18957,0,0,0,0,0,0,0,0,0,0,0,0,0,0,0,0
2007,6,10,10,0,,20.2,12.6,63,100370,0,0,345,679,631,203,86450,63100,27009,0,340,1.2,0,0,0,0,0,0,0,0,0,0,0,0,0
2007,6,10,11,0,,23,13,53,100310,0,0,358,815,671,231,94355,66723,29887,0,0,0.4,0,0,0,0,0,0,0,0,0,0,0,0,0
2007,6,10,12,0,,25.6,13.3,46,100240,0,0,372,908,706,242,96882,69870,31151,0,90,0.6,0,0,0,0,0,0,0,0,0,0,0,0,0
2007,6,10,13,0,,27.7,13.1,40,100160,0,0,383,965,770,220,95047,76171,28969,0,200,1.5,0,0,0,0,0,0,0,0,0,0,0,0,0
2007,6,10,14,0,,28.8,13,38,100070,0,0,388,913,718,236,83107,69793,30669,0,250,1.6,0,0,0,0,0,0,0,0,0,0,0,0,0
2007,6,10,15,0,,29.7,12.8,35,99990,0,0,393,810,661,235,67335,61381,30492,0,200,1.3,0,0,0,0,0,0,0,0,0,0,0,0,0
2007,6,10,16,0,,30.2,13.1,33,99960,0,0,396,669,609,210,49518,52876,27074,0,340,0.6,0,0,0,0,0,0,0,0,0,0,0,0,0
2007,6,10,17,0,,30.6,13.4,34,99930,0,0,398,535,648,145,29223,44990,18604,0,270,1.7,0,0,0,0,0,0,0,0,0,0,0,0,0
2007,6,10,18,0,,30.2,13.7,36,99900,0,0,396,365,632,96,11151,10401,10654,0,270,1.4,0,0,0,0,0,0,0,0,0,0,0,0,0
2007,6,10,19,0,,29,15.1,44,99960,0,0,392,186,536,59,0,0,0,0,0,0.4,0,0,0,0,0,0,0,0,0,0,0,0,0
2007,6,10,20,0,,25.3,16.4,61,100010,0,0,374,42,18,25,0,0,0,0,290,1,0,0,0,0,0,0,0,0,0,0,0,0,0
2007,6,10,21,0,,22.7,17.8,73,100070,0,0,363,0,0,0,0,0,0,0,320,0.6,0,0,0,0,0,0,0,0,0,0,0,0,0
2007,6,10,22,0,,21,17.4,81,100120,0,0,354,0,0,0,0,0,0,0,0,0.3,0,0,0,0,0,0,0,0,0,0,0,0,0
2007,6,10,23,0,,19.8,16.9,81,100170,0,0,348,0,0,0,0,0,0,0,340,0.6,0,0,0,0,0,0,0,0,0,0,0,0,0
2007,6,10,24,0,,19.1,16.5,84,100220,0,0,344,0,0,0,0,0,0,0,0,0.4,0,0,0,0,0,0,0,0,0,0,0,0,0
2007,6,11,1,0,,18.2,16.3,83,100200,0,0,339,0,0,0,0,0,0,0,0,0.1,0,0,0,0,0,0,0,0,0,0,0,0,0
2007,6,11,2,0,,17.5,16,90,100190,0,0,336,0,0,0,0,0,0,0,340,0.7,0,0,0,0,0,0,0,0,0,0,0,0,0
2007,6,11,3,0,,16.7,15.8,93,100170,0,0,332,0,0,0,0,0,0,0,340,0.5,0,0,0,0,0,0,0,0,0,0,0,0,0
2007,6,11,4,0,,16.2,15.7,89,100210,0,0,330,0,0,0,0,0,0,0,0,0,0,0,0,0,0,0,0,0,0,0,0,0,0
2007,6,11,5,0,,15.8,15.5,96,100260,0,0,328,0,0,0,0,0,0,0,0,0.1,0,0,0,0,0,0,0,0,0,0,0,0,0
2007,6,11,6,0,,16,15.4,95,100300,0,0,328,43,18,25,4133,1590,3451,0,0,0.2,0,0,0,0,0,0,0,0,0,0,0,0,0
2007,6,11,7,0,,16.8,15.3,90,100300,0,0,332,172,426,70,37164,42381,11555,0,20,0.8,0,0,0,0,0,0,0,0,0,0,0,0,0
2007,6,11,8,0,,18.7,15.1,75,100300,0,0,340,346,547,112,58095,56527,15437,0,0,0.3,0,0,0,0,0,0,0,0,0,0,0,0,0
2007,6,11,9,0,,20.7,15,69,100300,0,0,350,515,584,163,73797,58386,23007,0,0,0.3,0,0,0,0,0,0,0,0,0,0,0,0,0
2007,6,11,10,0,,23.1,15.2,59,100250,0,0,362,707,702,177,89987,72151,22009,0,250,1.4,0,0,0,0,0,0,0,0,0,0,0,0,0
2007,6,11,11,0,,24.7,15.4,55,100190,0,0,370,800,636,246,92438,62723,31816,0,320,1.1,0,0,0,0,0,0,0,0,0,0,0,0,0
2007,6,11,12,0,,27,15.6,49,100140,0,0,382,896,679,255,95587,66629,32872,0,20,0.5,0,0,0,0,0,0,0,0,0,0,0,0,0
2007,6,11,13,0,,29.6,15.3,44,100070,0,0,403,926,687,261,91644,66985,33490,0,250,1.2,1,0,0,0,0,0,0,0,0,0,0,0,0
2007,6,11,14,0,,30.5,14.9,42,100010,0,0,413,904,697,246,82657,67333,32009,0,270,1.5,2,0,0,0,0,0,0,0,0,0,0,0,0
2007,6,11,15,0,,31.7,14.6,35,99940,0,0,423,790,613,256,66907,56023,33221,0,200,1.7,3,0,0,0,0,0,0,0,0,0,0,0,0
2007,6,11,16,0,,31.8,14.3,35,99940,0,0,423,660,583,220,49716,50041,28415,0,250,2.2,3,0,0,0,0,0,0,0,0,0,0,0,0
2007,6,11,17,0,,31.7,14.1,34,99950,0,0,422,514,580,164,30184,39863,20722,0,250,2.1,3,0,0,0,0,0,0,0,0,0,0,0,0
2007,6,11,18,0,,30.8,13.8,35,99950,0,0,417,341,526,116,12808,8206,12404,0,250,1.7,3,0,0,0,0,0,0,0,0,0,0,0,0
2007,6,11,19,0,,29.2,15.5,41,100000,0,0,406,181,494,63,0,0,0,0,230,0.7,2,0,0,0,0,0,0,0,0,0,0,0,0
2007,6,11,20,0,,26.3,17.3,61,100050,0,0,387,41,23,19,0,0,0,0,0,0.1,1,0,0,0,0,0,0,0,0,0,0,0,0
2007,6,11,21,0,,24,19,73,100100,0,0,370,0,0,0,0,0,0,0,20,0.6,0,0,0,0,0,0,0,0,0,0,0,0,0
2007,6,11,22,0,,22.5,18.7,76,100110,0,0,371,0,0,0,0,0,0,0,320,0.7,1,0,0,0,0,0,0,0,0,0,0,0,0
2007,6,11,23,0,,21.2,18.3,83,100130,0,0,370,0,0,0,0,0,0,0,0,0.1,3,0,0,0,0,0,0,0,0,0,0,0,0
2007,6,11,24,0,,20.2,18,86,100140,0,0,369,0,0,0,0,0,0,0,0,0,4,0,0,0,0,0,0,0,0,0,0,0,0
2007,6,12,1,0,,19.5,17.7,88,100160,0,0,365,0,0,0,0,0,0,0,0,0.1,4,0,0,0,0,0,0,0,0,0,0,0,0
2007,6,12,2,0,,18.7,17.4,90,100170,0,0,361,0,0,0,0,0,0,0,340,0.7,4,0,0,0,0,0,0,0,0,0,0,0,0
2007,6,12,3,0,,18.1,17.1,93,100190,0,0,357,0,0,0,0,0,0,0,0,0.4,4,0,0,0,0,0,0,0,0,0,0,0,0
2007,6,12,4,0,,17.5,16.9,95,100210,0,0,354,0,0,0,0,0,0,0,0,0.3,4,0,0,0,0,0,0,0,0,0,0,0,0
2007,6,12,5,0,,17.1,16.7,97,100230,0,0,352,0,0,0,0,0,0,0,0,0.2,4,0,0,0,0,0,0,0,0,0,0,0,0
2007,6,12,6,0,,16.8,16.5,97,100250,0,0,350,36,14,22,3572,1246,3037,0,0,0.1,4,0,0,0,0,0,0,0,0,0,0,0,0
2007,6,12,7,0,,17.5,16.4,93,100250,0,0,354,155,306,82,31489,30236,13222,0,0,0.3,4,0,0,0,0,0,0,0,0,0,0,0,0
2007,6,12,8,0,,19.5,16.3,81,100250,0,0,363,312,404,139,50715,40142,20425,0,340,0.9,4,0,0,0,0,0,0,0,0,0,0,0,0
2007,6,12,9,0,,21.7,16.2,70,100250,0,0,374,484,488,190,68157,48320,26122,0,320,1,4,0,0,0,0,0,0,0,0,0,0,0,0
2007,6,12,10,0,,23.7,16.2,60,100210,0,0,385,638,527,241,80296,51820,31467,0,340,1.1,4,0,0,0,0,0,0,0,0,0,0,0,0
2007,6,12,11,0,,26.1,16.1,52,100160,0,0,399,726,466,320,83254,43510,41190,0,230,0.9,5,0,0,0,0,0,0,0,0,0,0,0,0
2007,6,12,12,0,,27.2,16.1,50,100120,0,0,406,782,336,466,84427,30771,55449,0,270,2,5,0,0,0,0,0,0,0,0,0,0,0,0
2007,6,12,13,0,,28.8,15.4,44,100060,0,0,415,802,326,485,83260,30004,57192,0,250,1.4,5,0,0,0,0,0,0,0,0,0,0,0,0
2007,6,12,14,0,,29.7,14.7,40,100010,0,0,421,701,238,476,71307,21842,54859,0,230,0.8,6,0,0,0,0,0,0,0,0,0,0,0,0
2007,6,12,15,0,,30.1,14,37,99950,0,0,424,651,258,426,62900,23260,48891,0,180,1.6,6,0,0,0,0,0,0,0,0,0,0,0,0
2007,6,12,16,0,,29.8,14.4,40,99940,0,0,422,540,254,349,49076,21371,39954,0,250,1.7,6,0,0,0,0,0,0,0,0,0,0,0,0
2007,6,12,17,0,,29.3,14.8,40,99930,0,0,420,411,260,254,33016,17209,28910,0,250,1.6,6,0,0,0,0,0,0,0,0,0,0,0,0
2007,6,12,18,0,,29.2,15.2,42,99920,0,0,420,287,309,154,16736,3227,16573,0,290,2,6,0,0,0,0,0,0,0,0,0,0,0,0
2007,6,12,19,0,,28,16,46,99960,0,0,411,157,317,81,0,0,0,0,270,1.3,5,0,0,0,0,0,0,0,0,0,0,0,0
2007,6,12,20,0,,25.2,16.7,65,100000,0,0,393,39,18,21,0,0,0,0,340,1.1,4,0,0,0,0,0,0,0,0,0,0,0,0
2007,6,12,21,0,,23.1,17.5,70,100040,0,0,380,0,0,0,0,0,0,0,340,0.5,3,0,0,0,0,0,0,0,0,0,0,0,0
2007,6,12,22,0,,21.1,17.2,78,100070,0,0,366,0,0,0,0,0,0,0,340,0.9,2,0,0,0,0,0,0,0,0,0,0,0,0
2007,6,12,23,0,,19.7,16.8,85,100090,0,0,354,0,0,0,0,0,0,0,340,0.8,1,0,0,0,0,0,0,0,0,0,0,0,0
2007,6,12,24,0,,19.1,16.5,84,100120,0,0,344,0,0,0,0,0,0,0,340,2.1,0,0,0,0,0,0,0,0,0,0,0,0,0
2007,6,13,1,0,,18.1,16.3,88,100110,0,0,339,0,0,0,0,0,0,0,0,0.3,0,0,0,0,0,0,0,0,0,0,0,0,0
2007,6,13,2,0,,17.3,16.1,91,100100,0,0,335,0,0,0,0,0,0,0,340,1.6,0,0,0,0,0,0,0,0,0,0,0,0,0
2007,6,13,3,0,,16.8,15.9,93,100090,0,0,333,0,0,0,0,0,0,0,0,0.2,0,0,0,0,0,0,0,0,0,0,0,0,0
2007,6,13,4,0,,16.3,15.8,95,100080,0,0,335,0,0,0,0,0,0,0,0,0.2,1,0,0,0,0,0,0,0,0,0,0,0,0
2007,6,13,5,0,,15.8,15.8,97,100060,0,0,336,0,0,0,0,0,0,0,360,0.9,1,0,0,0,0,0,0,0,0,0,0,0,0
2007,6,13,6,0,,16.1,15.7,96,100050,0,0,340,41,23,19,3504,2002,2646,0,0,0.1,2,0,0,0,0,0,0,0,0,0,0,0,0
2007,6,13,7,0,,17.1,15.6,90,100030,0,0,349,167,390,74,35452,38724,12063,0,0,0.2,3,0,0,0,0,0,0,0,0,0,0,0,0
2007,6,13,8,0,,19,15.6,78,100020,0,0,362,300,355,148,46670,33415,21459,0,340,0.5,5,0,0,0,0,0,0,0,0,0,0,0,0
2007,6,13,9,0,,21.2,15.5,69,100000,0,0,377,427,293,250,57277,27615,33254,0,320,1.1,6,0,0,0,0,0,0,0,0,0,0,0,0
2007,6,13,10,0,,23.2,14.3,61,99920,0,0,386,571,303,342,68415,28603,41460,0,0,0.2,6,0,0,0,0,0,0,0,0,0,0,0,0
2007,6,13,11,0,,25.3,13,50,99850,0,0,396,692,313,419,78044,29798,49229,0,230,1.2,6,0,0,0,0,0,0,0,0,0,0,0,0
2007,6,13,12,0,,26.7,11.8,39,99770,0,0,402,749,292,474,80758,27988,54389,0,340,1.5,6,0,0,0,0,0,0,0,0,0,0,0,0
2007,6,13,13,0,,28,12.5,40,99710,0,0,410,743,257,494,77586,24278,56478,0,270,1.1,6,0,0,0,0,0,0,0,0,0,0,0,0
2007,6,13,14,0,,29,13.3,37,99650,0,0,416,712,249,477,72060,23190,54578,0,270,1.6,6,0,0,0,0,0,0,0,0,0,0,0,0
2007,6,13,15,0,,29.2,14,39,99590,0,0,418,647,253,427,62715,22825,48945,0,320,1.3,6,0,0,0,0,0,0,0,0,0,0,0,0
2007,6,13,16,0,,29.6,14.2,41,99570,0,0,426,496,196,348,46825,18079,39088,0,290,1.4,7,0,0,0,0,0,0,0,0,0,0,0,0
2007,6,13,17,0,,29,14.3,41,99540,0,0,429,328,132,248,30237,10981,27604,0,250,1.6,8,0,0,0,0,0,0,0,0,0,0,0,0
2007,6,13,18,0,,28,14.5,43,99520,0,0,433,176,73,145,15922,4491,15690,0,250,0.8,9,0,0,0,0,0,0,0,0,0,0,0,0
2007,6,13,19,0,,27,15.6,51,99560,0,0,432,90,69,74,0,0,0,0,230,0.9,9,0,0,0,0,0,0,0,0,0,0,0,0
2007,6,13,20,0,,25.5,16.8,59,99610,0,0,429,11,0,10,0,0,0,0,0,0.1,10,0,0,0,0,0,0,0,0,0,0,0,0
2007,6,13,21,0,,24.5,17.9,66,99650,0,0,429,0,0,0,0,0,0,0,0,0.4,10,0,0,0,0,0,0,0,0,0,0,0,0
2007,6,13,22,0,,23.7,18.3,70,99700,0,0,425,0,0,0,0,0,0,0,0,0.1,10,0,0,0,0,0,0,0,0,0,0,0,0
2007,6,13,23,0,,22.8,18.6,73,99740,0,0,420,0,0,0,0,0,0,0,270,1.2,10,0,0,0,0,0,0,0,0,0,0,0,0
2007,6,13,24,0,,22.3,19,81,99790,0,0,418,0,0,0,0,0,0,0,0,0,10,0,0,0,0,0,0,0,0,0,0,0,0
2007,6,14,1,0,,20.6,19,90,99780,0,0,408,0,0,0,0,0,0,0,0,0.3,10,0,0,0,0,0,0,0,0,0,0,0,0
2007,6,14,2,0,,19.7,18.9,94,99780,0,0,403,0,0,0,0,0,0,0,70,0.5,10,0,0,0,0,0,0,0,0,0,0,0,0
2007,6,14,3,0,,19.6,18.9,95,99770,0,0,403,0,0,0,0,0,0,0,0,0.1,10,0,0,0,0,0,0,0,0,0,0,0,0
2007,6,14,4,0,,19.2,18.8,97,99780,0,0,400,0,0,0,0,0,0,0,0,0,10,0,0,0,0,0,0,0,0,0,0,0,0
2007,6,14,5,0,,19.1,18.6,97,99790,0,0,400,0,0,0,0,0,0,0,0,0.3,10,0,0,0,0,0,0,0,0,0,0,0,0
2007,6,14,6,0,,19,18.5,96,99800,0,0,399,8,0,8,1126,6,1124,0,70,1,10,0,0,0,0,0,0,0,0,0,0,0,0
2007,6,14,7,0,,19.2,18,91,99820,0,0,388,79,49,68,11641,4420,8972,0,340,1.2,9,0,0,0,0,0,0,0,0,0,0,0,0
2007,6,14,8,0,,19.8,17.5,88,99850,0,0,383,193,96,152,25930,8849,19255,0,0,0.2,8,0,0,0,0,0,0,0,0,0,0,0,0
2007,6,14,9,0,,20.8,17,78,99870,0,0,381,337,144,250,43497,13198,32017,0,0,0.3,7,0,0,0,0,0,0,0,0,0,0,0,0
2007,6,14,10,0,,22.7,16.4,70,99860,0,0,389,474,173,343,56214,16092,41049,0,340,1.1,7,0,0,0,0,0,0,0,0,0,0,0,0
2007,6,14,11,0,,24.5,15.9,58,99860,0,0,396,638,243,426,72815,22479,51072,0,50,1.7,6,0,0,0,0,0,0,0,0,0,0,0,0
2007,6,14,12,0,,24.7,15.3,55,99850,0,0,395,698,235,476,75960,21906,55313,0,70,2.8,6,0,0,0,0,0,0,0,0,0,0,0,0
2007,6,14,13,0,,25.6,14.3,48,99850,0,0,400,709,223,492,74827,20873,56667,0,90,2.7,6,0,0,0,0,0,0,0,0,0,0,0,0
2007,6,14,14,0,,24.7,13.4,46,99850,0,0,396,581,140,449,61065,13376,50971,0,70,3.3,7,0,0,0,0,0,0,0,0,0,0,0,0
2007,6,14,15,0,,24.5,12.4,46,99850,0,0,395,558,164,415,56273,15768,46746,0,70,4.1,7,0,0,0,0,0,0,0,0,0,0,0,0
2007,6,14,16,0,,24.1,11.9,44,99860,0,0,386,488,186,347,46313,17457,38823,0,90,2.1,6,0,0,0,0,0,0,0,0,0,0,0,0
2007,6,14,17,0,,25.1,11.3,42,99860,0,0,387,479,464,197,30835,31819,23167,0,70,1.9,4,0,0,0,0,0,0,0,0,0,0,0,0
2007,6,14,18,0,,24.7,10.8,41,99870,0,0,380,349,545,114,12521,10873,11945,0,70,2.1,3,0,0,0,0,0,0,0,0,0,0,0,0
2007,6,14,19,0,,23.2,10.3,40,99920,0,0,375,180,465,67,0,0,0,0,50,1.5,4,0,0,0,0,0,0,0,0,0,0,0,0
2007,6,14,20,0,,21.8,9.9,38,99970,0,0,370,41,21,20,0,0,0,0,50,2.5,5,0,0,0,0,0,0,0,0,0,0,0,0
2007,6,14,21,0,,20.2,9.4,49,100020,0,0,364,0,0,0,0,0,0,0,20,0.7,6,0,0,0,0,0,0,0,0,0,0,0,0
2007,6,14,22,0,,19,10.1,52,100050,0,0,353,0,0,0,0,0,0,0,0,0.1,4,0,0,0,0,0,0,0,0,0,0,0,0
2007,6,14,23,0,,17.2,10.7,69,100070,0,0,339,0,0,0,0,0,0,0,20,0.8,2,0,0,0,0,0,0,0,0,0,0,0,0
2007,6,14,24,0,,16.2,11.4,72,100100,0,0,325,0,0,0,0,0,0,0,0,0.3,0,0,0,0,0,0,0,0,0,0,0,0,0
2007,6,15,1,0,,15.6,11.3,80,100110,0,0,332,0,0,0,0,0,0,0,360,0.6,2,0,0,0,0,0,0,0,0,0,0,0,0
2007,6,15,2,0,,14.6,11.2,83,100110,0,0,334,0,0,0,0,0,0,0,360,0.8,4,0,0,0,0,0,0,0,0,0,0,0,0
2007,6,15,3,0,,14.6,11.1,78,100120,0,0,339,0,0,0,0,0,0,0,340,1.1,6,0,0,0,0,0,0,0,0,0,0,0,0
2007,6,15,4,0,,14.1,11,79,100150,0,0,339,0,0,0,0,0,0,0,0,0,7,0,0,0,0,0,0,0,0,0,0,0,0
2007,6,15,5,0,,14.1,10.9,77,100190,0,0,342,0,0,0,0,0,0,0,0,0,7,0,0,0,0,0,0,0,0,0,0,0,0
2007,6,15,6,0,,14.3,10.8,78,100220,0,0,347,26,5,20,2704,464,2505,0,20,1.6,8,0,0,0,0,0,0,0,0,0,0,0,0
2007,6,15,7,0,,16,11,71,100240,0,0,360,97,87,76,15538,8356,10495,0,340,1.1,9,0,0,0,0,0,0,0,0,0,0,0,0
2007,6,15,8,0,,19,11.2,59,100270,0,0,382,210,121,158,29225,11818,20313,0,320,0.5,9,0,0,0,0,0,0,0,0,0,0,0,0
2007,6,15,9,0,,20.8,11.4,54,100290,0,0,399,266,74,221,32956,7287,26618,0,340,1.2,10,0,0,0,0,0,0,0,0,0,0,0,0
2007,6,15,10,0,,22.7,11.8,53,100310,0,0,406,352,76,295,41947,7403,34970,0,70,1.7,10,0,0,0,0,0,0,0,0,0,0,0,0
2007,6,15,11,0,,23.7,12.3,49,100330,0,0,409,470,103,380,53972,9933,44363,0,90,1.8,9,0,0,0,0,0,0,0,0,0,0,0,0
2007,6,15,12,0,,24.2,12.7,48,100350,0,0,409,490,88,407,54603,8396,46686,0,20,1.8,9,0,0,0,0,0,0,0,0,0,0,0,0
2007,6,15,13,0,,25,10.9,46,100310,0,0,396,641,168,478,68428,16120,54394,0,70,1.5,7,0,0,0,0,0,0,0,0,0,0,0,0
2007,6,15,14,0,,26.7,9.1,39,100260,0,0,395,766,311,472,75763,29902,53176,0,50,1.7,5,0,0,0,0,0,0,0,0,0,0,0,0
2007,6,15,15,0,,27.7,7.3,27,100220,0,0,391,806,644,243,67704,61799,30310,0,90,2.9,3,0,0,0,0,0,0,0,0,0,0,0,0
2007,6,15,16,0,,28,5.6,25,100200,0,0,388,707,695,181,50190,63558,22859,0,70,3.1,2,0,0,0,0,0,0,0,0,0,0,0,0
2007,6,15,17,0,,28,3.9,23,100190,0,0,383,546,667,141,29418,50270,17249,0,70,2.2,2,0,0,0,0,0,0,0,0,0,0,0,0
2007,6,15,18,0,,27.6,2.2,19,100170,0,0,374,388,703,85,10073,18406,9078,0,90,2.9,1,0,0,0,0,0,0,0,0,0,0,0,0
2007,6,15,19,0,,26.7,5.6,20,100240,0,0,377,206,641,50,0,0,0,0,90,2.9,1,0,0,0,0,0,0,0,0,0,0,0,0
2007,6,15,20,0,,23.7,9,30,100320,0,0,368,48,24,24,0,0,0,0,110,0.5,2,0,0,0,0,0,0,0,0,0,0,0,0
2007,6,15,21,0,,19.6,12.4,62,100390,0,0,353,0,0,0,0,0,0,0,0,0.2,2,0,0,0,0,0,0,0,0,0,0,0,0
2007,6,15,22,0,,17.8,11.3,53,100400,0,0,343,0,0,0,0,0,0,0,320,1.8,2,0,0,0,0,0,0,0,0,0,0,0,0
2007,6,15,23,0,,16.6,10.3,61,100410,0,0,336,0,0,0,0,0,0,0,320,1,2,0,0,0,0,0,0,0,0,0,0,0,0
2007,6,15,24,0,,15.3,9.2,66,100420,0,0,329,0,0,0,0,0,0,0,20,1,2,0,0,0,0,0,0,0,0,0,0,0,0
2007,6,16,1,0,,14.3,9.2,72,100450,0,0,324,0,0,0,0,0,0,0,340,0.8,2,0,0,0,0,0,0,0,0,0,0,0,0
2007,6,16,2,0,,13.3,9.3,77,100490,0,0,320,0,0,0,0,0,0,0,360,1.6,2,0,0,0,0,0,0,0,0,0,0,0,0
2007,6,16,3,0,,12.8,9.3,78,100520,0,0,318,0,0,0,0,0,0,0,0,0.3,2,0,0,0,0,0,0,0,0,0,0,0,0
2007,6,16,4,0,,12.6,9.4,78,100530,0,0,319,0,0,0,0,0,0,0,360,2.5,3,0,0,0,0,0,0,0,0,0,0,0,0
2007,6,16,5,0,,12,9.6,85,100540,0,0,318,0,0,0,0,0,0,0,360,1.8,3,0,0,0,0,0,0,0,0,0,0,0,0
2007,6,16,6,0,,12.3,9.7,83,100550,0,0,321,41,22,19,3508,2057,2628,0,360,2.6,4,0,0,0,0,0,0,0,0,0,0,0,0
2007,6,16,7,0,,14.6,9.1,68,100550,0,0,330,175,447,68,37631,45798,10006,0,360,2.3,4,0,0,0,0,0,0,0,0,0,0,0,0
2007,6,16,8,0,,16.7,8.6,61,100540,0,0,339,363,616,100,61515,63496,13649,0,340,1.3,3,0,0,0,0,0,0,0,0,0,0,0,0
2007,6,16,9,0,,19.7,8,46,100540,0,0,351,553,699,131,79491,71955,16922,0,50,0.6,3,0,0,0,0,0,0,0,0,0,0,0,0
2007,6,16,10,0,,22.6,7.1,41,100490,0,0,365,730,761,156,92878,78063,19307,0,360,0.6,3,0,0,0,0,0,0,0,0,0,0,0,0
2007,6,16,11,0,,26.2,6.3,32,100450,0,0,382,886,831,162,102198,85127,19829,0,290,1.7,3,0,0,0,0,0,0,0,0,0,0,0,0
2007,6,16,12,0,,29,5.4,22,100400,0,0,395,986,868,166,104004,88701,20336,0,50,3,3,0,0,0,0,0,0,0,0,0,0,0,0
2007,6,16,13,0,,30.2,5.4,21,100330,0,0,399,993,823,195,96223,82967,23950,0,50,2.7,2,0,0,0,0,0,0,0,0,0,0,0,0
2007,6,16,14,0,,30.7,5.5,21,100270,0,0,399,919,725,234,83585,71499,29529,0,70,2.6,2,0,0,0,0,0,0,0,0,0,0,0,0
2007,6,16,15,0,,30.8,5.5,20,100200,0,0,396,819,673,231,68281,65188,28782,0,70,2.9,1,0,0,0,0,0,0,0,0,0,0,0,0
2007,6,16,16,0,,31,5.9,22,100210,0,0,395,689,646,199,50119,58915,24729,0,70,1.7,1,0,0,0,0,0,0,0,0,0,0,0,0
2007,6,16,17,0,,30.1,6.4,22,100210,0,0,389,541,649,146,29731,48267,17997,0,70,3.1,0,0,0,0,0,0,0,0,0,0,0,0,0
2007,6,16,18,0,,29.2,6.8,24,100220,0,0,382,376,651,95,11030,15733,10163,0,70,3.2,0,0,0,0,0,0,0,0,0,0,0,0,0
2007,6,16,19,0,,27.7,6.8,25,100270,0,0,374,196,564,58,0,0,0,0,70,2.4,0,0,0,0,0,0,0,0,0,0,0,0,0
2007,6,16,20,0,,25.5,6.7,28,100320,0,0,363,51,29,22,0,0,0,0,70,2.4,0,0,0,0,0,0,0,0,0,0,0,0,0
2007,6,16,21,0,,23.2,6.7,34,100370,0,0,352,0,0,0,0,0,0,0,270,1.5,0,0,0,0,0,0,0,0,0,0,0,0,0
2007,6,16,22,0,,19.5,8.1,56,100390,0,0,336,0,0,0,0,0,0,0,340,0.6,0,0,0,0,0,0,0,0,0,0,0,0,0
2007,6,16,23,0,,17.5,9.4,62,100420,0,0,328,0,0,0,0,0,0,0,340,0.9,0,0,0,0,0,0,0,0,0,0,0,0,0
2007,6,16,24,0,,15.8,10.8,71,100440,0,0,322,0,0,0,0,0,0,0,360,0.7,0,0,0,0,0,0,0,0,0,0,0,0,0
2007,6,17,1,0,,14.6,10.2,69,100430,0,0,316,0,0,0,0,0,0,0,20,0.8,0,0,0,0,0,0,0,0,0,0,0,0,0
2007,6,17,2,0,,14,9.6,74,100430,0,0,313,0,0,0,0,0,0,0,0,0.3,0,0,0,0,0,0,0,0,0,0,0,0,0
2007,6,17,3,0,,13.3,9,74,100420,0,0,309,0,0,0,0,0,0,0,360,1.6,0,0,0,0,0,0,0,0,0,0,0,0,0
2007,6,17,4,0,,12.3,9.1,81,100450,0,0,305,0,0,0,0,0,0,0,360,0.8,0,0,0,0,0,0,0,0,0,0,0,0,0
2007,6,17,5,0,,11.8,9.3,83,100490,0,0,303,0,0,0,0,0,0,0,360,1.6,0,0,0,0,0,0,0,0,0,0,0,0,0
2007,6,17,6,0,,12.1,9.4,82,100520,0,0,305,45,21,24,4065,1994,3213,0,340,1.7,0,0,0,0,0,0,0,0,0,0,0,0,0
2007,6,17,7,0,,14,8.3,72,100520,0,0,311,190,556,57,42403,56459,8368,0,340,2.3,0,0,0,0,0,0,0,0,0,0,0,0,0
2007,6,17,8,0,,16.7,7.1,56,100520,0,0,322,390,728,79,67139,74469,11024,0,360,2.4,0,0,0,0,0,0,0,0,0,0,0,0,0
2007,6,17,9,0,,19.7,6,40,100520,0,0,335,586,798,105,84960,81770,13872,0,320,1.1,0,0,0,0,0,0,0,0,0,0,0,0,0
2007,6,17,10,0,,22.8,5.9,31,100460,0,0,352,780,883,114,100068,90597,14687,0,340,1.9,0,0,0,0,0,0,0,0,0,0,0,0,0
2007,6,17,11,0,,25.2,5.7,26,100400,0,0,366,884,826,164,101830,84532,20025,0,0,0.3,1,0,0,0,0,0,0,0,0,0,0,0,0
2007,6,17,12,0,,27.7,5.6,24,100340,0,0,380,981,859,170,103515,87654,20806,0,270,1.3,1,0,0,0,0,0,0,0,0,0,0,0,0
2007,6,17,13,0,,29.5,6.6,24,100260,0,0,389,980,796,208,96641,79895,27004,0,230,1.3,1,0,0,0,0,0,0,0,0,0,0,0,0
2007,6,17,14,0,,30.1,7.6,25,100180,0,0,391,931,748,223,84485,73758,28672,0,320,1.9,0,0,0,0,0,0,0,0,0,0,0,0,0
2007,6,17,15,0,,31.3,8.6,24,100100,0,0,396,824,684,226,68419,65276,28815,0,290,1.4,0,0,0,0,0,0,0,0,0,0,0,0,0
2007,6,17,16,0,,32,9.5,25,100070,0,0,400,704,683,186,50314,61133,23913,0,320,1.2,0,0,0,0,0,0,0,0,0,0,0,0,0
2007,6,17,17,0,,32.2,10.4,25,100030,0,0,403,556,692,135,29543,50241,17281,0,250,1.1,0,0,0,0,0,0,0,0,0,0,0,0,0
2007,6,17,18,0,,31.8,11.3,28,100000,0,0,402,379,657,94,11285,14612,10465,0,270,1.7,0,0,0,0,0,0,0,0,0,0,0,0,0
2007,6,17,19,0,,30.1,10.9,32,100060,0,0,392,197,566,58,0,0,0,0,230,1.3,0,0,0,0,0,0,0,0,0,0,0,0,0
2007,6,17,20,0,,28.6,10.6,32,100130,0,0,384,52,30,22,0,0,0,0,180,2.3,0,0,0,0,0,0,0,0,0,0,0,0,0
2007,6,17,21,0,,27.2,10.2,34,100190,0,0,376,0,0,0,0,0,0,0,200,1.2,0,0,0,0,0,0,0,0,0,0,0,0,0
2007,6,17,22,0,,22.6,12.2,69,100230,0,0,356,0,0,0,0,0,0,0,340,0.5,0,0,0,0,0,0,0,0,0,0,0,0,0
2007,6,17,23,0,,21,14.3,71,100280,0,0,350,0,0,0,0,0,0,0,0,0,0,0,0,0,0,0,0,0,0,0,0,0,0
2007,6,17,24,0,,19.5,16.3,81,100320,0,0,345,0,0,0,0,0,0,0,0,0.2,0,0,0,0,0,0,0,0,0,0,0,0,0
2007,6,18,1,0,,18.8,15.8,75,100340,0,0,342,0,0,0,0,0,0,0,0,0.4,0,0,0,0,0,0,0,0,0,0,0,0,0
2007,6,18,2,0,,18.1,15.3,82,100350,0,0,338,0,0,0,0,0,0,0,0,0,0,0,0,0,0,0,0,0,0,0,0,0,0
2007,6,18,3,0,,17.3,14.8,84,100370,0,0,334,0,0,0,0,0,0,0,340,1.2,0,0,0,0,0,0,0,0,0,0,0,0,0
2007,6,18,4,0,,16.7,14.9,85,100390,0,0,331,0,0,0,0,0,0,0,0,0,0,0,0,0,0,0,0,0,0,0,0,0,0
2007,6,18,5,0,,16.2,15,88,100400,0,0,329,0,0,0,0,0,0,0,0,0.2,0,0,0,0,0,0,0,0,0,0,0,0,0
2007,6,18,6,0,,16.5,15.1,90,100420,0,0,330,44,19,24,4102,1720,3367,0,0,0.3,0,0,0,0,0,0,0,0,0,0,0,0,0
2007,6,18,7,0,,17.7,14.7,80,100420,0,0,335,180,488,64,39885,50337,9562,0,0,0.4,0,0,0,0,0,0,0,0,0,0,0,0,0
2007,6,18,8,0,,20,14.2,67,100420,0,0,345,361,611,100,61595,63312,13909,0,20,0.5,0,0,0,0,0,0,0,0,0,0,0,0,0
2007,6,18,9,0,,22,13.8,59,100420,0,0,355,549,689,134,79340,71218,17441,0,20,0.8,0,0,0,0,0,0,0,0,0,0,0,0,0
2007,6,18,10,0,,24.2,14,48,100380,0,0,366,708,707,175,90167,72655,21701,0,0,0.4,0,0,0,0,0,0,0,0,0,0,0,0,0
2007,6,18,11,0,,27.2,14.2,41,100340,0,0,381,846,742,200,97672,75863,24249,0,270,1.2,0,0,0,0,0,0,0,0,0,0,0,0,0
2007,6,18,12,0,,29.2,14.4,40,100300,0,0,392,927,746,223,99203,73874,29476,0,320,1.2,0,0,0,0,0,0,0,0,0,0,0,0,0
2007,6,18,13,0,,31.2,12.2,32,100240,0,0,400,966,767,222,95366,76012,29079,0,320,1.7,0,0,0,0,0,0,0,0,0,0,0,0,0
2007,6,18,14,0,,32.2,9.9,28,100180,0,0,402,923,731,231,84027,71648,29767,0,250,1.7,0,0,0,0,0,0,0,0,0,0,0,0,0
2007,6,18,15,0,,33.5,7.7,20,100120,0,0,406,844,727,208,69498,70018,26965,0,270,1.3,0,0,0,0,0,0,0,0,0,0,0,0,0
2007,6,18,16,0,,34.2,7.1,19,100100,0,0,411,727,739,166,51127,67361,21979,0,250,1.4,0,0,0,0,0,0,0,0,0,0,0,0,0
2007,6,18,17,0,,34.2,6.4,18,100070,0,0,413,569,728,125,29259,54592,15885,0,320,1.3,1,0,0,0,0,0,0,0,0,0,0,0,0
2007,6,18,18,0,,34,5.8,17,100050,0,0,413,390,698,87,10492,18210,9453,0,250,1.4,1,0,0,0,0,0,0,0,0,0,0,0,0
2007,6,18,19,0,,32,9.3,30,100100,0,0,406,200,580,57,0,0,0,0,250,1.2,1,0,0,0,0,0,0,0,0,0,0,0,0
2007,6,18,20,0,,27.7,12.9,52,100150,0,0,385,46,20,26,0,0,0,0,20,0.5,0,0,0,0,0,0,0,0,0,0,0,0,0
2007,6,18,21,0,,24.5,16.4,60,100200,0,0,370,0,0,0,0,0,0,0,0,0.2,0,0,0,0,0,0,0,0,0,0,0,0,0
2007,6,18,22,0,,22.5,15.7,63,100240,0,0,359,0,0,0,0,0,0,0,0,0,0,0,0,0,0,0,0,0,0,0,0,0,0
2007,6,18,23,0,,20.8,15.1,67,100280,0,0,350,0,0,0,0,0,0,0,20,1,0,0,0,0,0,0,0,0,0,0,0,0,0
2007,6,18,24,0,,19.6,14.4,71,100320,0,0,344,0,0,0,0,0,0,0,360,1,0,0,0,0,0,0,0,0,0,0,0,0,0
2007,6,19,1,0,,18.7,14.4,73,100350,0,0,344,0,0,0,0,0,0,0,0,0.1,1,0,0,0,0,0,0,0,0,0,0,0,0
2007,6,19,2,0,,17.8,14.3,79,100390,0,0,343,0,0,0,0,0,0,0,340,0.9,1,0,0,0,0,0,0,0,0,0,0,0,0
2007,6,19,3,0,,16.8,14.3,84,100420,0,0,342,0,0,0,0,0,0,0,0,0.3,2,0,0,0,0,0,0,0,0,0,0,0,0
2007,6,19,4,0,,16.3,14.3,87,100460,0,0,336,0,0,0,0,0,0,0,360,1.5,1,0,0,0,0,0,0,0,0,0,0,0,0
2007,6,19,5,0,,15.3,14.4,93,100510,0,0,328,0,0,0,0,0,0,0,360,0.8,1,0,0,0,0,0,0,0,0,0,0,0,0
2007,6,19,6,0,,16.2,14.4,88,100550,0,0,328,44,20,24,4075,1804,3306,0,20,1,0,0,0,0,0,0,0,0,0,0,0,0,0
2007,6,19,7,0,,17.5,13.5,79,100560,0,0,333,184,518,61,41309,53485,9114,0,0,0.3,0,0,0,0,0,0,0,0,0,0,0,0,0
2007,6,19,8,0,,19.7,12.5,66,100560,0,0,342,364,624,98,62190,64617,13546,0,360,0.9,0,0,0,0,0,0,0,0,0,0,0,0,0
2007,6,19,9,0,,22,11.6,51,100570,0,0,352,561,726,124,81423,75085,16183,0,320,0.6,0,0,0,0,0,0,0,0,0,0,0,0,0
2007,6,19,10,0,,24.2,12,43,100520,0,0,366,723,743,162,92220,76469,20168,0,340,1.1,0,0,0,0,0,0,0,0,0,0,0,0,0
2007,6,19,11,0,,26.6,12.3,39,100470,0,0,381,854,760,192,98503,77690,23307,0,320,1.4,1,0,0,0,0,0,0,0,0,0,0,0,0
2007,6,19,12,0,,28.6,12.7,37,100420,0,0,394,915,720,236,97872,71383,30479,0,270,1.5,1,0,0,0,0,0,0,0,0,0,0,0,0
2007,6,19,13,0,,30.5,11.7,33,100350,0,0,411,914,658,276,90567,64398,34381,0,290,0.9,3,0,0,0,0,0,0,0,0,0,0,0,0
2007,6,19,14,0,,32.2,10.7,27,100290,0,0,425,867,610,289,80535,58471,36220,0,250,1.3,4,0,0,0,0,0,0,0,0,0,0,0,0
2007,6,19,15,0,,33.4,9.7,23,100220,0,0,436,712,337,417,66373,31634,47134,0,270,1.3,6,0,0,0,0,0,0,0,0,0,0,0,0
2007,6,19,16,0,,34,11,20,100180,0,0,443,589,325,342,51009,28333,38726,0,270,0.8,6,0,0,0,0,0,0,0,0,0,0,0,0
2007,6,19,17,0,,33.2,12.2,25,100140,0,0,442,411,248,259,33372,17190,29147,0,270,2,7,0,0,0,0,0,0,0,0,0,0,0,0
2007,6,19,18,0,,32,13.5,32,100100,0,0,439,263,222,167,18017,3295,17827,0,250,1,7,0,0,0,0,0,0,0,0,0,0,0,0
2007,6,19,19,0,,30.7,14.4,34,100120,0,0,429,148,271,81,0,0,0,0,250,0.6,6,0,0,0,0,0,0,0,0,0,0,0,0
2007,6,19,20,0,,27.8,15.3,53,100150,0,0,411,34,11,23,0,0,0,0,0,0.4,6,0,0,0,0,0,0,0,0,0,0,0,0
2007,6,19,21,0,,25.7,16.2,55,100170,0,0,398,0,0,0,0,0,0,0,180,0.6,5,0,0,0,0,0,0,0,0,0,0,0,0
2007,6,19,22,0,,24,16.5,63,100210,0,0,389,0,0,0,0,0,0,0,0,0.1,5,0,0,0,0,0,0,0,0,0,0,0,0
2007,6,19,23,0,,22.7,16.7,67,100260,0,0,383,0,0,0,0,0,0,0,320,0.9,5,0,0,0,0,0,0,0,0,0,0,0,0
2007,6,19,24,0,,21.7,17,74,100300,0,0,378,0,0,0,0,0,0,0,340,1.4,5,0,0,0,0,0,0,0,0,0,0,0,0
2007,6,20,1,0,,20.8,16.9,75,100310,0,0,373,0,0,0,0,0,0,0,320,1.1,5,0,0,0,0,0,0,0,0,0,0,0,0
2007,6,20,2,0,,20,16.9,80,100310,0,0,369,0,0,0,0,0,0,0,340,1,5,0,0,0,0,0,0,0,0,0,0,0,0
2007,6,20,3,0,,19.2,16.8,85,100320,0,0,365,0,0,0,0,0,0,0,360,1.1,5,0,0,0,0,0,0,0,0,0,0,0,0
2007,6,20,4,0,,18.8,16.7,84,100350,0,0,364,0,0,0,0,0,0,0,360,1.7,5,0,0,0,0,0,0,0,0,0,0,0,0
2007,6,20,5,0,,18.2,16.6,88,100390,0,0,362,0,0,0,0,0,0,0,340,0.7,6,0,0,0,0,0,0,0,0,0,0,0,0
2007,6,20,6,0,,18.3,16.5,88,100420,0,0,363,32,10,22,3047,824,2696,0,360,1.1,6,0,0,0,0,0,0,0,0,0,0,0,0
2007,6,20,7,0,,19.2,16.4,83,100410,0,0,367,140,267,77,28448,26399,12571,0,340,1.7,6,0,0,0,0,0,0,0,0,0,0,0,0
2007,6,20,8,0,,21.1,16.3,71,100410,0,0,375,302,368,145,48560,36461,21127,0,20,0.7,5,0,0,0,0,0,0,0,0,0,0,0,0
2007,6,20,9,0,,23.2,16.2,64,100400,0,0,385,468,442,201,65367,43688,27420,0,340,0.7,5,0,0,0,0,0,0,0,0,0,0,0,0
2007,6,20,10,0,,25.2,16.6,59,100320,0,0,397,601,434,274,74496,40462,36377,0,20,0.8,5,0,0,0,0,0,0,0,0,0,0,0,0
2007,6,20,11,0,,27.2,16.9,53,100250,0,0,410,673,288,423,76654,26179,51314,0,340,1,6,0,0,0,0,0,0,0,0,0,0,0,0
2007,6,20,12,0,,29.3,17.3,48,100170,0,0,423,743,284,475,81284,25525,57180,0,180,1.8,6,0,0,0,0,0,0,0,0,0,0,0,0
2007,6,20,13,0,,30.1,17.3,45,100130,0,0,433,688,205,490,73487,18468,57368,0,200,1.8,7,0,0,0,0,0,0,0,0,0,0,0,0
2007,6,20,14,0,,30.7,17.4,44,100090,0,0,443,572,133,446,60467,12337,51110,0,230,2.1,8,0,0,0,0,0,0,0,0,0,0,0,0
2007,6,20,15,0,,30.1,17.4,46,100050,0,0,449,406,68,346,43468,6223,39679,0,250,2.2,9,0,0,0,0,0,0,0,0,0,0,0,0
2007,6,20,16,0,,29.2,17.4,49,100060,0,0,448,335,64,286,35047,5736,32556,0,250,2,9,0,0,0,0,0,0,0,0,0,0,0,0
2007,6,20,17,0,,28.3,17.3,52,100060,0,0,446,188,27,171,18327,1745,17897,0,250,2.2,10,0,0,0,0,0,0,0,0,0,0,0,0
2007,6,20,18,0,,27.6,17.3,53,100070,0,0,447,128,29,116,11089,2013,10971,0,270,2.1,10,0,0,0,0,0,0,0,0,0,0,0,0
2007,6,20,19,0,,26.7,17.7,56,100070,0,0,442,62,22,57,0,0,0,0,250,1,10,0,0,0,0,0,0,0,0,0,0,0,0
2007,6,20,20,0,,25.8,18.2,58,100070,0,0,437,12,1,11,0,0,0,0,270,1,10,0,0,0,0,0,0,0,0,0,0,0,0
2007,6,20,21,0,,24.7,18.6,68,100070,0,0,431,0,0,0,0,0,0,0,290,0.7,10,0,0,0,0,0,0,0,0,0,0,0,0
2007,6,20,22,0,,23.6,18.3,70,100090,0,0,424,0,0,0,0,0,0,0,0,0.1,10,0,0,0,0,0,0,0,0,0,0,0,0
2007,6,20,23,0,,23.1,18.1,74,100100,0,0,421,0,0,0,0,0,0,0,0,0,10,0,0,0,0,0,0,0,0,0,0,0,0
2007,6,20,24,0,,22.7,17.8,73,100120,0,0,418,0,0,0,0,0,0,0,0,0.1,10,0,0,0,0,0,0,0,0,0,0,0,0
2007,6,21,1,0,,22.1,18,80,100100,0,0,415,0,0,0,0,0,0,0,0,0.2,10,0,0,0,0,0,0,0,0,0,0,0,0
2007,6,21,2,0,,21.8,18.1,77,100070,0,0,414,0,0,0,0,0,0,0,320,0.8,10,0,0,0,0,0,0,0,0,0,0,0,0
2007,6,21,3,0,,21.5,18.3,81,100050,0,0,412,0,0,0,0,0,0,0,0,0,10,0,0,0,0,0,0,0,0,0,0,0,0
2007,6,21,4,0,,21.1,18.4,83,100050,0,0,410,0,0,0,0,0,0,0,360,0.7,10,0,0,0,0,0,0,0,0,0,0,0,0
2007,6,21,5,0,,20.8,18.5,84,100040,0,0,409,0,0,0,0,0,0,0,0,0,10,0,0,0,0,0,0,0,0,0,0,0,0
2007,6,21,6,0,,20.7,18.6,87,100040,0,0,408,9,0,8,1139,6,1136,0,360,0.7,10,0,0,0,0,0,0,0,0,0,0,0,0
2007,6,21,7,0,,20.7,18.6,89,100030,0,0,408,51,15,48,6634,1270,5871,0,110,0.6,10,0,0,0,0,0,0,0,0,0,0,0,0
2007,6,21,8,0,,21.1,18.7,85,100030,0,0,411,111,20,102,13617,1788,12273,0,0,0.1,10,0,0,0,0,0,0,0,0,0,0,0,0
2007,6,21,9,0,,22,18.7,81,100020,0,0,416,180,26,165,21594,2267,19625,0,0,0.3,10,0,0,0,0,0,0,0,0,0,0,0,0
2007,6,21,10,0,,23,18.7,75,100010,0,0,421,244,28,223,28807,2514,26439,0,270,1,10,0,0,0,0,0,0,0,0,0,0,0,0
2007,6,21,11,0,,23.2,18.6,73,100010,0,0,422,290,28,266,33796,2499,31377,0,290,0.8,10,0,0,0,0,0,0,0,0,0,0,0,0
2007,6,21,12,0,,22.7,18.6,77,100000,0,0,419,274,18,257,31825,1618,30297,0,0,0.3,10,0,0,0,0,0,0,0,0,0,0,0,0
2007,6,21,13,0,,22.2,18.9,87,99950,0,0,417,261,14,247,30409,946,29583,0,340,1,10,0,0,0,0,0,0,0,0,0,0,0,0
2007,6,21,14,0,,22.7,19.3,78,99900,0,0,420,252,14,238,28752,955,28027,0,50,0.8,10,0,0,0,0,0,0,0,0,0,0,0,0
2007,6,21,15,0,,22.5,19.6,83,99850,0,0,420,242,16,228,26690,1147,25991,0,20,0.9,10,0,0,0,0,0,0,0,0,0,0,0,0
2007,6,21,16,0,,21.8,19.6,83,99800,0,0,416,184,12,174,19768,770,19433,0,340,0.7,10,0,0,0,0,0,0,0,0,0,0,0,0
2007,6,21,17,0,,22.2,19.6,80,99750,0,0,418,152,15,143,15373,789,15178,0,50,0.6,10,0,0,0,0,0,0,0,0,0,0,0,0
2007,6,21,18,0,,21.7,19.6,87,99700,0,0,415,104,16,97,9390,707,9348,0,20,1,10,0,0,0,0,0,0,0,0,0,0,0,0
2007,6,21,19,0,,21.2,19.6,90,99700,0,0,412,56,16,52,0,0,0,0,360,1.1,10,0,0,0,0,0,0,0,0,0,0,0,0
2007,6,21,20,0,,20.7,19.5,92,99690,0,0,410,9,0,9,0,0,0,0,340,1.1,10,0,0,0,0,0,0,0,0,0,0,0,0
2007,6,21,21,0,,20.2,19.5,95,99690,0,0,407,0,0,0,0,0,0,0,340,1.2,10,0,0,0,0,0,0,0,0,0,0,0,0
2007,6,21,22,0,,20,19.5,97,99660,0,0,406,0,0,0,0,0,0,0,340,1.5,10,0,0,0,0,0,0,0,0,0,0,0,0
2007,6,21,23,0,,19.8,19.4,97,99630,0,0,405,0,0,0,0,0,0,0,0,0,10,0,0,0,0,0,0,0,0,0,0,0,0
2007,6,21,24,0,,19.7,19.4,97,99600,0,0,404,0,0,0,0,0,0,0,0,0.1,10,0,0,0,0,0,0,0,0,0,0,0,0
2007,6,22,1,0,,19.7,19.1,97,99540,0,0,404,0,0,0,0,0,0,0,0,0.2,10,0,0,0,0,0,0,0,0,0,0,0,0
2007,6,22,2,0,,19.6,18.8,96,99480,0,0,403,0,0,0,0,0,0,0,320,0.5,10,0,0,0,0,0,0,0,0,0,0,0,0
2007,6,22,3,0,,19.2,18.5,95,99420,0,0,400,0,0,0,0,0,0,0,340,1.1,10,0,0,0,0,0,0,0,0,0,0,0,0
2007,6,22,4,0,,19.2,18.5,96,99450,0,0,386,0,0,0,0,0,0,0,0,0.2,9,0,0,0,0,0,0,0,0,0,0,0,0
2007,6,22,5,0,,18.8,18.4,98,99470,0,0,375,0,0,0,0,0,0,0,340,0.9,7,0,0,0,0,0,0,0,0,0,0,0,0
2007,6,22,6,0,,18.6,18.4,98,99500,0,0,367,29,8,21,2924,652,2647,0,0,0.1,6,0,0,0,0,0,0,0,0,0,0,0,0
2007,6,22,7,0,,20,18.2,87,99510,0,0,375,136,242,78,25778,21860,12657,0,340,2.1,6,0,0,0,0,0,0,0,0,0,0,0,0
2007,6,22,8,0,,20.6,18.1,85,99510,0,0,380,237,177,162,33842,15863,21922,0,340,2.3,7,0,0,0,0,0,0,0,0,0,0,0,0
2007,6,22,9,0,,21.7,17.9,78,99520,0,0,387,367,187,254,47493,16922,32806,0,340,2.3,7,0,0,0,0,0,0,0,0,0,0,0,0
2007,6,22,10,0,,23.7,17.9,68,99500,0,0,393,529,241,347,63917,21786,43400,0,340,1.9,6,0,0,0,0,0,0,0,0,0,0,0,0
2007,6,22,11,0,,26,18,55,99490,0,0,402,699,326,416,79351,29271,51018,0,340,1.6,5,0,0,0,0,0,0,0,0,0,0,0,0
2007,6,22,12,0,,27.7,18,55,99470,0,0,408,819,511,336,87928,46814,43704,0,360,1.5,4,0,0,0,0,0,0,0,0,0,0,0,0
2007,6,22,13,0,,28.8,17.3,47,99430,0,0,414,828,473,369,84624,43361,46747,0,360,0.9,4,0,0,0,0,0,0,0,0,0,0,0,0
2007,6,22,14,0,,30.6,16.6,45,99390,0,0,423,821,509,339,78554,46514,43232,0,360,2,4,0,0,0,0,0,0,0,0,0,0,0,0
2007,6,22,15,0,,31.8,15.9,38,99350,0,0,429,753,517,300,66831,46605,38403,0,320,1.7,4,0,0,0,0,0,0,0,0,0,0,0,0
2007,6,22,16,0,,32,15.3,35,99360,0,0,429,651,540,239,49432,45196,29748,0,340,1.1,4,0,0,0,0,0,0,0,0,0,0,0,0
2007,6,22,17,0,,32.5,14.8,35,99360,0,0,431,516,560,173,31576,38940,21923,0,320,1.9,4,0,0,0,0,0,0,0,0,0,0,0,0
2007,6,22,18,0,,32.9,14.2,32,99370,0,0,433,355,547,116,13451,11274,12776,0,270,1.6,4,0,0,0,0,0,0,0,0,0,0,0,0
2007,6,22,19,0,,31.3,15.9,47,99440,0,0,428,172,375,79,0,0,0,0,320,0.9,5,0,0,0,0,0,0,0,0,0,0,0,0
2007,6,22,20,0,,27.1,17.6,62,99500,0,0,409,38,14,24,0,0,0,0,0,0.3,5,0,0,0,0,0,0,0,0,0,0,0,0
2007,6,22,21,0,,24.5,19.3,72,99570,0,0,399,0,0,0,0,0,0,0,320,0.7,6,0,0,0,0,0,0,0,0,0,0,0,0
2007,6,22,22,0,,22.5,18.7,78,99630,0,0,388,0,0,0,0,0,0,0,340,1,6,0,0,0,0,0,0,0,0,0,0,0,0
2007,6,22,23,0,,21.7,18.2,78,99690,0,0,383,0,0,0,0,0,0,0,340,1.1,6,0,0,0,0,0,0,0,0,0,0,0,0
2007,6,22,24,0,,20.8,17.6,81,99750,0,0,377,0,0,0,0,0,0,0,320,1,6,0,0,0,0,0,0,0,0,0,0,0,0
2007,6,23,1,0,,20.3,17.5,81,99780,0,0,372,0,0,0,0,0,0,0,320,1.1,5,0,0,0,0,0,0,0,0,0,0,0,0
2007,6,23,2,0,,19.7,17.4,85,99820,0,0,367,0,0,0,0,0,0,0,0,0.1,5,0,0,0,0,0,0,0,0,0,0,0,0
2007,6,23,3,0,,19,17.3,89,99850,0,0,362,0,0,0,0,0,0,0,340,1.1,4,0,0,0,0,0,0,0,0,0,0,0,0
2007,6,23,4,0,,18.8,17.2,88,99850,0,0,365,0,0,0,0,0,0,0,50,0.5,5,0,0,0,0,0,0,0,0,0,0,0,0
2007,6,23,5,0,,18.5,17,91,99850,0,0,368,0,0,0,0,0,0,0,360,1.5,7,0,0,0,0,0,0,0,0,0,0,0,0
2007,6,23,6,0,,18.6,16.9,89,99850,0,0,376,23,4,19,2472,318,2338,0,360,1.6,8,0,0,0,0,0,0,0,0,0,0,0,0
2007,6,23,7,0,,19.2,16.6,86,99870,0,0,368,137,251,78,26211,23074,12376,0,50,0.5,6,0,0,0,0,0,0,0,0,0,0,0,0
2007,6,23,8,0,,21.2,16.4,74,99880,0,0,372,319,446,130,52642,44327,19358,0,0,0.4,4,0,0,0,0,0,0,0,0,0,0,0,0
2007,6,23,9,0,,22.8,16.1,65,99900,0,0,373,514,588,161,73759,58640,22889,0,50,0.5,2,0,0,0,0,0,0,0,0,0,0,0,0
2007,6,23,10,0,,25.2,17.1,60,99870,0,0,394,627,503,248,78834,49305,32413,0,360,0.8,4,0,0,0,0,0,0,0,0,0,0,0,0
2007,6,23,11,0,,27.1,18,58,99830,0,0,412,661,273,424,75614,24423,51976,0,290,1.1,6,0,0,0,0,0,0,0,0,0,0,0,0
2007,6,23,12,0,,28.8,19,55,99800,0,0,434,589,146,452,66077,12996,53799,0,270,0.9,8,0,0,0,0,0,0,0,0,0,0,0,0
2007,6,23,13,0,,29.3,18.5,50,99730,0,0,430,667,187,485,71810,16674,57240,0,320,1.4,7,0,0,0,0,0,0,0,0,0,0,0,0
2007,6,23,14,0,,31,18,48,99670,0,0,434,709,243,479,72490,21529,56133,0,270,1.6,6,0,0,0,0,0,0,0,0,0,0,0,0
2007,6,23,15,0,,31.8,17.5,42,99600,0,0,434,694,307,424,65942,26722,49629,0,230,1.3,5,0,0,0,0,0,0,0,0,0,0,0,0
2007,6,23,16,0,,32.2,17.5,41,99580,0,0,440,564,280,351,50852,22781,40918,0,250,1.9,6,0,0,0,0,0,0,0,0,0,0,0,0
2007,6,23,17,0,,32,17.5,40,99570,0,0,444,393,214,262,33669,13847,30229,0,250,2.1,7,0,0,0,0,0,0,0,0,0,0,0,0
2007,6,23,18,0,,30.2,17.5,46,99550,0,0,441,221,128,164,18358,7980,17876,0,180,2.5,8,0,0,0,0,0,0,0,0,0,0,0,0
2007,6,23,19,0,,28.6,17.7,47,99570,0,0,437,88,56,74,0,0,0,0,180,2.4,9,0,0,0,0,0,0,0,0,0,0,0,0
2007,6,23,20,0,,27.7,17.8,52,99580,0,0,439,19,2,17,0,0,0,0,180,1.6,9,0,0,0,0,0,0,0,0,0,0,0,0
2007,6,23,21,0,,26.8,18,58,99600,0,0,443,0,0,0,0,0,0,0,180,1.4,10,0,0,0,0,0,0,0,0,0,0,0,0
2007,6,23,22,0,,25.7,18.1,67,99630,0,0,436,0,0,0,0,0,0,0,180,2.1,10,0,0,0,0,0,0,0,0,0,0,0,0
2007,6,23,23,0,,24.8,18.2,70,99660,0,0,431,0,0,0,0,0,0,0,180,2.3,10,0,0,0,0,0,0,0,0,0,0,0,0
2007,6,23,24,0,,23.7,18.3,71,99690,0,0,425,0,0,0,0,0,0,0,200,1.9,10,0,0,0,0,0,0,0,0,0,0,0,0
2007,6,24,1,0,,22,18.3,74,99620,0,0,415,0,0,0,0,0,0,0,180,2.1,10,0,0,0,0,0,0,0,0,0,0,0,0
2007,6,24,2,0,,20.7,18.2,80,99540,0,0,408,0,0,0,0,0,0,0,230,1.5,10,0,0,0,0,0,0,0,0,0,0,0,0
2007,6,24,3,0,,19.7,18.2,90,99470,0,0,402,0,0,0,0,0,0,0,160,0.5,10,0,0,0,0,0,0,0,0,0,0,0,0
2007,6,24,4,0,,19.2,18.1,90,99420,0,0,399,0,0,0,0,0,0,0,270,0.7,10,0,0,0,0,0,0,0,0,0,0,0,0
2007,6,24,5,0,,18.7,17.9,95,99370,0,0,397,0,0,0,0,0,0,0,320,0.8,10,0,0,0,0,0,0,0,0,0,0,0,0
2007,6,24,6,0,,18.8,17.8,93,99320,0,0,397,9,0,8,1152,6,1149,0,320,0.8,10,0,0,0,0,0,0,0,0,0,0,0,0
2007,6,24,7,0,,18.7,17.6,96,99280,0,0,392,51,15,47,6561,1272,5799,0,0,0.4,10,0,0,0,0,0,0,0,0,0,0,0,0
2007,6,24,8,0,,19.5,17.5,91,99240,0,0,393,149,48,129,19862,4461,16515,0,290,0.7,9,0,0,0,0,0,0,0,0,0,0,0,0
2007,6,24,9,0,,20.7,17.3,80,99200,0,0,395,238,56,204,29908,5202,25398,0,270,0.6,9,0,0,0,0,0,0,0,0,0,0,0,0
2007,6,24,10,0,,22.2,17.8,78,99150,0,0,408,334,67,284,38973,6045,33283,0,320,1,9,0,0,0,0,0,0,0,0,0,0,0,0
2007,6,24,11,0,,23.3,18.4,75,99100,0,0,418,313,34,283,36309,3105,33304,0,230,0.5,10,0,0,0,0,0,0,0,0,0,0,0,0
2007,6,24,12,0,,24.1,18.9,72,99050,0,0,428,329,30,300,37790,2691,35247,0,290,0.6,10,0,0,0,0,0,0,0,0,0,0,0,0
2007,6,24,13,0,,24.8,19.3,70,99020,0,0,433,339,30,310,38643,2670,36309,0,160,0.8,10,0,0,0,0,0,0,0,0,0,0,0,0
2007,6,24,14,0,,25.5,19.7,70,98980,0,0,437,322,28,295,36358,2489,34466,0,160,0.9,10,0,0,0,0,0,0,0,0,0,0,0,0
2007,6,24,15,0,,25.2,20.1,73,98950,0,0,436,273,23,253,29641,1662,28626,0,270,0.9,10,0,0,0,0,0,0,0,0,0,0,0,0
2007,6,24,16,0,,25.1,19.7,73,98950,0,0,435,223,21,207,23398,1459,22761,0,340,0.7,10,0,0,0,0,0,0,0,0,0,0,0,0
2007,6,24,17,0,,24.5,19.2,71,98950,0,0,431,174,22,161,17248,1291,16927,0,70,2.1,10,0,0,0,0,0,0,0,0,0,0,0,0
2007,6,24,18,0,,23.6,18.8,74,98950,0,0,425,110,18,102,9832,906,9777,0,50,1.5,10,0,0,0,0,0,0,0,0,0,0,0,0
2007,6,24,19,0,,23.2,18.8,76,99000,0,0,423,60,19,55,0,0,0,0,70,1,10,0,0,0,0,0,0,0,0,0,0,0,0
2007,6,24,20,0,,22.7,18.8,78,99050,0,0,420,11,0,10,0,0,0,0,0,0,10,0,0,0,0,0,0,0,0,0,0,0,0
2007,6,24,21,0,,22.7,18.8,78,99100,0,0,420,0,0,0,0,0,0,0,20,0.5,10,0,0,0,0,0,0,0,0,0,0,0,0
2007,6,24,22,0,,22.2,19.1,87,99140,0,0,417,0,0,0,0,0,0,0,360,0.6,10,0,0,0,0,0,0,0,0,0,0,0,0
2007,6,24,23,0,,21.7,19.4,89,99180,0,0,415,0,0,0,0,0,0,0,0,0.3,10,0,0,0,0,0,0,0,0,0,0,0,0
2007,6,24,24,0,,20.6,19.7,94,99220,0,0,409,0,0,0,0,0,0,0,20,0.6,10,0,0,0,0,0,0,0,0,0,0,0,0
2007,6,25,1,0,,20.2,19.8,97,99220,0,0,407,0,0,0,0,0,0,0,0,0.4,10,0,0,0,0,0,0,0,0,0,0,0,0
2007,6,25,2,0,,20.1,19.8,98,99220,0,0,407,0,0,0,0,0,0,0,0,0,10,0,0,0,0,0,0,0,0,0,0,0,0
2007,6,25,3,0,,20.1,19.9,98,99220,0,0,407,0,0,0,0,0,0,0,0,0.1,10,0,0,0,0,0,0,0,0,0,0,0,0
2007,6,25,4,0,,20.1,19.9,98,99240,0,0,407,0,0,0,0,0,0,0,0,0,10,0,0,0,0,0,0,0,0,0,0,0,0
2007,6,25,5,0,,20.1,19.9,98,99250,0,0,407,0,0,0,0,0,0,0,0,0.4,10,0,0,0,0,0,0,0,0,0,0,0,0
2007,6,25,6,0,,20.1,19.9,98,99270,0,0,407,8,0,8,1071,6,1069,0,0,0.1,10,0,0,0,0,0,0,0,0,0,0,0,0
2007,6,25,7,0,,20.3,19.9,97,99310,0,0,408,52,16,49,6793,1372,5972,0,0,0.1,10,0,0,0,0,0,0,0,0,0,0,0,0
2007,6,25,8,0,,21,19.8,91,99350,0,0,412,111,21,102,13695,1818,12332,0,0,0,10,0,0,0,0,0,0,0,0,0,0,0,0
2007,6,25,9,0,,21.7,19.8,88,99390,0,0,415,171,23,158,20605,1976,18892,0,290,0.9,10,0,0,0,0,0,0,0,0,0,0,0,0
2007,6,25,10,0,,22.1,19.6,84,99390,0,0,417,224,22,208,26562,1974,24705,0,90,0.9,10,0,0,0,0,0,0,0,0,0,0,0,0
2007,6,25,11,0,,22.7,19.3,81,99390,0,0,420,261,21,243,30603,1861,28802,0,0,0.3,10,0,0,0,0,0,0,0,0,0,0,0,0
2007,6,25,12,0,,23.2,19.1,77,99390,0,0,423,299,23,277,34562,2062,32614,0,0,0.8,10,0,0,0,0,0,0,0,0,0,0,0,0
2007,6,25,13,0,,23.1,19.2,78,99370,0,0,422,297,21,277,34104,1848,32489,0,200,1.1,10,0,0,0,0,0,0,0,0,0,0,0,0
2007,6,25,14,0,,23.5,19.2,78,99340,0,0,425,281,19,263,31692,1348,30667,0,230,1.2,10,0,0,0,0,0,0,0,0,0,0,0,0
2007,6,25,15,0,,24.5,19.3,72,99320,0,0,431,274,23,253,29755,1700,28716,0,230,1.1,10,0,0,0,0,0,0,0,0,0,0,0,0
2007,6,25,16,0,,24,19.6,76,99300,0,0,420,293,44,259,31405,3829,29731,0,250,0.7,9,0,0,0,0,0,0,0,0,0,0,0,0
2007,6,25,17,0,,24.1,20,74,99290,0,0,414,231,48,201,23812,3705,22888,0,0,0.2,9,0,0,0,0,0,0,0,0,0,0,0,0
2007,6,25,18,0,,24,20.3,79,99270,0,0,409,192,86,154,17231,5074,16920,0,340,1,8,0,0,0,0,0,0,0,0,0,0,0,0
2007,6,25,19,0,,23.3,20.4,81,99290,0,0,405,107,97,82,0,0,0,0,340,1,8,0,0,0,0,0,0,0,0,0,0,0,0
2007,6,25,20,0,,22.7,20.6,86,99300,0,0,402,25,4,21,0,0,0,0,360,1.2,8,0,0,0,0,0,0,0,0,0,0,0,0
2007,6,25,21,0,,21.8,20.7,93,99320,0,0,397,0,0,0,0,0,0,0,340,0.8,8,0,0,0,0,0,0,0,0,0,0,0,0
2007,6,25,22,0,,21.7,20.6,93,99360,0,0,397,0,0,0,0,0,0,0,360,1.1,8,0,0,0,0,0,0,0,0,0,0,0,0
2007,6,25,23,0,,21.6,20.4,93,99410,0,0,396,0,0,0,0,0,0,0,360,0.6,8,0,0,0,0,0,0,0,0,0,0,0,0
2007,6,25,24,0,,21.2,20.3,94,99450,0,0,394,0,0,0,0,0,0,0,340,1.2,8,0,0,0,0,0,0,0,0,0,0,0,0
2007,6,26,1,0,,21.2,20.2,94,99450,0,0,391,0,0,0,0,0,0,0,0,0.3,8,0,0,0,0,0,0,0,0,0,0,0,0
2007,6,26,2,0,,20.8,20.1,94,99450,0,0,387,0,0,0,0,0,0,0,360,0.9,7,0,0,0,0,0,0,0,0,0,0,0,0
2007,6,26,3,0,,20.7,20,95,99450,0,0,384,0,0,0,0,0,0,0,0,0.1,7,0,0,0,0,0,0,0,0,0,0,0,0
2007,6,26,4,0,,20.6,19.9,96,99470,0,0,379,0,0,0,0,0,0,0,360,1.1,6,0,0,0,0,0,0,0,0,0,0,0,0
2007,6,26,5,0,,20.2,19.9,96,99500,0,0,374,0,0,0,0,0,0,0,0,0,5,0,0,0,0,0,0,0,0,0,0,0,0
2007,6,26,6,0,,20.3,19.8,96,99520,0,0,372,38,18,20,3454,1481,2830,0,110,0.5,4,0,0,0,0,0,0,0,0,0,0,0,0
2007,6,26,7,0,,21.8,19.3,83,99550,0,0,377,165,407,70,35679,39976,11801,0,50,0.6,3,0,0,0,0,0,0,0,0,0,0,0,0
2007,6,26,8,0,,22.5,18.9,79,99590,0,0,377,328,491,121,54921,48619,18506,0,340,1.1,3,0,0,0,0,0,0,0,0,0,0,0,0
2007,6,26,9,0,,23.6,18.4,72,99620,0,0,380,487,512,181,69240,50504,25499,0,320,1.1,2,0,0,0,0,0,0,0,0,0,0,0,0
2007,6,26,10,0,,25.6,18.4,62,99610,0,0,390,643,549,231,81512,53837,30870,0,200,1,2,0,0,0,0,0,0,0,0,0,0,0,0
2007,6,26,11,0,,27.1,18.3,56,99600,0,0,398,765,562,277,88420,54643,35551,0,230,1,2,0,0,0,0,0,0,0,0,0,0,0,0
2007,6,26,12,0,,28,18.3,55,99590,0,0,403,840,560,312,89607,51144,41278,0,290,1.7,2,0,0,0,0,0,0,0,0,0,0,0,0
2007,6,26,13,0,,29.1,18.6,53,99540,0,0,411,844,507,352,85746,45938,45577,0,230,1.2,2,0,0,0,0,0,0,0,0,0,0,0,0
2007,6,26,14,0,,30.8,18.8,48,99500,0,0,422,812,489,349,78539,43711,45285,0,250,1.2,3,0,0,0,0,0,0,0,0,0,0,0,0
2007,6,26,15,0,,31.7,19.1,47,99450,0,0,429,773,559,282,67627,48973,37671,0,250,2,3,0,0,0,0,0,0,0,0,0,0,0,0
2007,6,26,16,0,,32.2,18.9,45,99450,0,0,432,664,570,228,51269,47048,30691,0,250,1.5,3,0,0,0,0,0,0,0,0,0,0,0,0
2007,6,26,17,0,,32,18.8,43,99450,0,0,430,513,547,177,31012,33671,22604,0,230,1.8,3,0,0,0,0,0,0,0,0,0,0,0,0
2007,6,26,18,0,,31.1,18.6,47,99450,0,0,425,348,510,123,14760,3937,14519,0,230,2,3,0,0,0,0,0,0,0,0,0,0,0,0
2007,6,26,19,0,,30.3,19.8,51,99520,0,0,422,186,457,71,0,0,0,0,250,1.8,3,0,0,0,0,0,0,0,0,0,0,0,0
2007,6,26,20,0,,28.3,20.9,59,99580,0,0,412,46,26,20,0,0,0,0,290,1.1,3,0,0,0,0,0,0,0,0,0,0,0,0
2007,6,26,21,0,,25.7,22.1,80,99650,0,0,399,0,0,0,0,0,0,0,0,0.3,3,0,0,0,0,0,0,0,0,0,0,0,0
2007,6,26,22,0,,24.2,21.6,84,99700,0,0,394,0,0,0,0,0,0,0,0,0.3,4,0,0,0,0,0,0,0,0,0,0,0,0
2007,6,26,23,0,,23.2,21.1,86,99750,0,0,391,0,0,0,0,0,0,0,0,0.1,5,0,0,0,0,0,0,0,0,0,0,0,0
2007,6,26,24,0,,22.2,20.6,90,99800,0,0,388,0,0,0,0,0,0,0,360,1.1,6,0,0,0,0,0,0,0,0,0,0,0,0
2007,6,27,1,0,,21.8,20.4,92,99810,0,0,384,0,0,0,0,0,0,0,0,0.4,5,0,0,0,0,0,0,0,0,0,0,0,0
2007,6,27,2,0,,21.5,20.2,92,99830,0,0,380,0,0,0,0,0,0,0,0,0.1,5,0,0,0,0,0,0,0,0,0,0,0,0
2007,6,27,3,0,,20.7,20,95,99840,0,0,374,0,0,0,0,0,0,0,360,0.9,4,0,0,0,0,0,0,0,0,0,0,0,0
2007,6,27,4,0,,20.3,19.9,97,99860,0,0,368,0,0,0,0,0,0,0,0,0,3,0,0,0,0,0,0,0,0,0,0,0,0
2007,6,27,5,0,,20.1,19.8,97,99870,0,0,361,0,0,0,0,0,0,0,0,0,1,0,0,0,0,0,0,0,0,0,0,0,0
2007,6,27,6,0,,20,19.7,97,99890,0,0,352,40,22,18,3327,1859,2546,0,0,0.2,0,0,0,0,0,0,0,0,0,0,0,0,0
2007,6,27,7,0,,20.8,19.7,93,99890,0,0,362,164,405,70,35542,39775,11817,0,360,0.8,1,0,0,0,0,0,0,0,0,0,0,0,0
2007,6,27,8,0,,22.6,19.7,82,99890,0,0,376,329,497,119,55168,49096,18429,0,0,0,2,0,0,0,0,0,0,0,0,0,0,0,0
2007,6,27,9,0,,24.3,19.7,75,99890,0,0,389,488,517,179,69522,50838,25517,0,360,0.5,3,0,0,0,0,0,0,0,0,0,0,0,0
2007,6,27,10,0,,26.2,19.8,68,99870,0,0,403,616,481,255,77644,46673,33757,0,340,0.6,4,0,0,0,0,0,0,0,0,0,0,0,0
2007,6,27,11,0,,27.7,20,64,99840,0,0,416,635,243,424,73495,21089,53094,0,320,1.1,6,0,0,0,0,0,0,0,0,0,0,0,0
2007,6,27,12,0,,29.1,20.1,58,99820,0,0,431,623,171,462,69546,15028,55345,0,340,0.9,7,0,0,0,0,0,0,0,0,0,0,0,0
2007,6,27,13,0,,30.3,20.3,56,99800,0,0,440,657,180,483,71254,15598,57613,0,250,1.7,7,0,0,0,0,0,0,0,0,0,0,0,0
2007,6,27,14,0,,31.5,20.5,52,99770,0,0,450,565,128,444,60013,11557,51218,0,250,1.8,8,0,0,0,0,0,0,0,0,0,0,0,0
2007,6,27,15,0,,31.7,20.7,52,99750,0,0,454,504,122,398,52406,10912,45728,0,250,1.8,8,0,0,0,0,0,0,0,0,0,0,0,0
2007,6,27,16,0,,31.3,20.9,56,99740,0,0,458,338,65,288,35574,5624,33112,0,250,1.6,9,0,0,0,0,0,0,0,0,0,0,0,0
2007,6,27,17,0,,30.3,21,60,99730,0,0,459,251,60,214,25525,4601,24375,0,230,2.1,9,0,0,0,0,0,0,0,0,0,0,0,0
2007,6,27,18,0,,29.7,21.2,60,99720,0,0,465,121,24,111,10615,1350,10532,0,200,1.7,10,0,0,0,0,0,0,0,0,0,0,0,0
2007,6,27,19,0,,29.2,21.7,60,99740,0,0,462,65,24,59,0,0,0,0,200,1.2,10,0,0,0,0,0,0,0,0,0,0,0,0
2007,6,27,20,0,,28,22.3,71,99750,0,0,456,11,0,10,0,0,0,0,0,0.4,10,0,0,0,0,0,0,0,0,0,0,0,0
2007,6,27,21,0,,26.7,22.8,79,99770,0,0,449,0,0,0,0,0,0,0,0,0,10,0,0,0,0,0,0,0,0,0,0,0,0
2007,6,27,22,0,,25.5,22.7,87,99800,0,0,441,0,0,0,0,0,0,0,340,0.8,10,0,0,0,0,0,0,0,0,0,0,0,0
2007,6,27,23,0,,25.1,22.7,89,99820,0,0,439,0,0,0,0,0,0,0,0,0.2,10,0,0,0,0,0,0,0,0,0,0,0,0
2007,6,27,24,0,,24.3,22.6,90,99850,0,0,434,0,0,0,0,0,0,0,0,0,10,0,0,0,0,0,0,0,0,0,0,0,0
2007,6,28,1,0,,24.1,22.4,90,99790,0,0,433,0,0,0,0,0,0,0,320,0.9,10,0,0,0,0,0,0,0,0,0,0,0,0
2007,6,28,2,0,,24.1,22.2,90,99730,0,0,432,0,0,0,0,0,0,0,110,0.5,10,0,0,0,0,0,0,0,0,0,0,0,0
2007,6,28,3,0,,23.1,22,93,99670,0,0,426,0,0,0,0,0,0,0,360,0.9,10,0,0,0,0,0,0,0,0,0,0,0,0
2007,6,28,4,0,,22.2,21.8,96,99640,0,0,421,0,0,0,0,0,0,0,20,1,10,0,0,0,0,0,0,0,0,0,0,0,0
2007,6,28,5,0,,22,21.7,97,99620,0,0,420,0,0,0,0,0,0,0,270,0.6,10,0,0,0,0,0,0,0,0,0,0,0,0
2007,6,28,6,0,,21.7,21.5,98,99590,0,0,418,5,0,5,766,3,765,0,0,0,10,0,0,0,0,0,0,0,0,0,0,0,0
2007,6,28,7,0,,21.7,21.6,98,99560,0,0,418,46,11,43,5885,934,5329,0,320,0.5,10,0,0,0,0,0,0,0,0,0,0,0,0
2007,6,28,8,0,,21.7,21.7,98,99530,0,0,418,90,12,85,11128,1001,10380,0,360,0.7,10,0,0,0,0,0,0,0,0,0,0,0,0
2007,6,28,9,0,,22,21.8,98,99500,0,0,420,147,15,138,17813,1274,16711,0,0,0,10,0,0,0,0,0,0,0,0,0,0,0,0
2007,6,28,10,0,,22.5,22.4,98,99470,0,0,424,197,16,185,23544,1331,22293,0,360,0.5,10,0,0,0,0,0,0,0,0,0,0,0,0
2007,6,28,11,0,,23.2,23,98,99450,0,0,428,239,16,225,28351,1395,27003,0,0,0.3,10,0,0,0,0,0,0,0,0,0,0,0,0
2007,6,28,12,0,,24,23.6,97,99420,0,0,434,246,14,234,29053,768,28328,0,0,0.1,10,0,0,0,0,0,0,0,0,0,0,0,0
2007,6,28,13,0,,24.8,23.6,91,99390,0,0,438,290,19,271,33176,1201,32126,0,340,1,10,0,0,0,0,0,0,0,0,0,0,0,0
2007,6,28,14,0,,26.1,23.7,87,99370,0,0,446,298,22,276,33106,1481,31978,0,360,0.5,10,0,0,0,0,0,0,0,0,0,0,0,0
2007,6,28,15,0,,26.6,23.7,84,99340,0,0,449,281,25,259,30222,1699,29182,0,320,0.5,10,0,0,0,0,0,0,0,0,0,0,0,0
2007,6,28,16,0,,26.7,24.1,84,99310,0,0,450,230,23,212,23835,1464,23194,0,180,1.6,10,0,0,0,0,0,0,0,0,0,0,0,0
2007,6,28,17,0,,26.2,24.5,90,99270,0,0,448,153,15,144,15337,689,15165,0,0,0.3,10,0,0,0,0,0,0,0,0,0,0,0,0
2007,6,28,18,0,,26.1,24.9,93,99240,0,0,448,101,14,95,9104,453,9076,0,0,0,10,0,0,0,0,0,0,0,0,0,0,0,0
2007,6,28,19,0,,25.8,24.7,95,99260,0,0,446,49,11,46,0,0,0,0,0,0,10,0,0,0,0,0,0,0,0,0,0,0,0
2007,6,28,20,0,,25.6,24.5,94,99270,0,0,444,11,0,10,0,0,0,0,360,1,10,0,0,0,0,0,0,0,0,0,0,0,0
2007,6,28,21,0,,25.3,24.3,94,99290,0,0,442,0,0,0,0,0,0,0,0,0.4,10,0,0,0,0,0,0,0,0,0,0,0,0
2007,6,28,22,0,,25.2,24.2,94,99310,0,0,442,0,0,0,0,0,0,0,0,0.3,10,0,0,0,0,0,0,0,0,0,0,0,0
2007,6,28,23,0,,25.5,24,90,99330,0,0,443,0,0,0,0,0,0,0,180,0.9,10,0,0,0,0,0,0,0,0,0,0,0,0
2007,6,28,24,0,,25.2,23.9,92,99350,0,0,441,0,0,0,0,0,0,0,0,0.3,10,0,0,0,0,0,0,0,0,0,0,0,0
2007,6,29,1,0,,25.6,23.7,85,99340,0,0,443,0,0,0,0,0,0,0,180,1.6,10,0,0,0,0,0,0,0,0,0,0,0,0
2007,6,29,2,0,,24.7,23.4,92,99330,0,0,438,0,0,0,0,0,0,0,180,1.1,10,0,0,0,0,0,0,0,0,0,0,0,0
2007,6,29,3,0,,24.3,23.2,93,99320,0,0,435,0,0,0,0,0,0,0,230,1.3,10,0,0,0,0,0,0,0,0,0,0,0,0
2007,6,29,4,0,,24.2,22.5,89,99330,0,0,429,0,0,0,0,0,0,0,180,0.9,10,0,0,0,0,0,0,0,0,0,0,0,0
2007,6,29,5,0,,23.8,21.8,88,99340,0,0,422,0,0,0,0,0,0,0,180,1.5,9,0,0,0,0,0,0,0,0,0,0,0,0
2007,6,29,6,0,,23.7,21.1,85,99350,0,0,417,17,2,15,1985,48,1965,0,200,1.8,9,0,0,0,0,0,0,0,0,0,0,0,0
2007,6,29,7,0,,23.6,20.9,81,99370,0,0,419,74,45,64,10976,3947,8629,0,180,1.5,9,0,0,0,0,0,0,0,0,0,0,0,0
2007,6,29,8,0,,23.7,20.6,81,99380,0,0,424,111,22,102,13745,1864,12353,0,200,1.1,10,0,0,0,0,0,0,0,0,0,0,0,0
2007,6,29,9,0,,24.1,20.4,79,99400,0,0,430,159,18,148,19120,1604,17733,0,0,0.4,10,0,0,0,0,0,0,0,0,0,0,0,0
2007,6,29,10,0,,24.2,20.5,79,99410,0,0,431,230,24,212,27198,2114,25212,0,200,1.7,10,0,0,0,0,0,0,0,0,0,0,0,0
2007,6,29,11,0,,24.1,20.6,81,99410,0,0,430,243,17,228,28564,1500,27113,0,230,1.3,10,0,0,0,0,0,0,0,0,0,0,0,0
2007,6,29,12,0,,23.6,20.7,83,99420,0,0,427,253,15,240,29967,901,29116,0,270,2.3,10,0,0,0,0,0,0,0,0,0,0,0,0
2007,6,29,13,0,,24.3,20.4,76,99440,0,0,431,280,18,263,32368,1162,31351,0,230,1.8,10,0,0,0,0,0,0,0,0,0,0,0,0
2007,6,29,14,0,,23.2,20,80,99470,0,0,424,268,17,252,30361,1141,29492,0,230,2.7,10,0,0,0,0,0,0,0,0,0,0,0,0
2007,6,29,15,0,,23.2,19.7,80,99490,0,0,424,263,21,245,28756,1488,27844,0,200,2.7,10,0,0,0,0,0,0,0,0,0,0,0,0
2007,6,29,16,0,,23.1,19.7,81,99510,0,0,423,205,16,192,21769,1094,21289,0,200,1.5,10,0,0,0,0,0,0,0,0,0,0,0,0
2007,6,29,17,0,,23.2,19.8,80,99520,0,0,424,176,22,162,17360,1305,17033,0,180,1.5,10,0,0,0,0,0,0,0,0,0,0,0,0
2007,6,29,18,0,,23.1,19.8,81,99540,0,0,423,123,25,113,10788,1509,10695,0,230,1.6,10,0,0,0,0,0,0,0,0,0,0,0,0
2007,6,29,19,0,,23,19.9,82,99580,0,0,423,56,16,52,0,0,0,0,0,0.1,10,0,0,0,0,0,0,0,0,0,0,0,0
2007,6,29,20,0,,22.8,19.9,82,99610,0,0,422,13,1,12,0,0,0,0,180,0.8,10,0,0,0,0,0,0,0,0,0,0,0,0
2007,6,29,21,0,,22.7,20,84,99650,0,0,421,0,0,0,0,0,0,0,0,0.1,10,0,0,0,0,0,0,0,0,0,0,0,0
2007,6,29,22,0,,22,20.3,93,99710,0,0,418,0,0,0,0,0,0,0,0,0.1,10,0,0,0,0,0,0,0,0,0,0,0,0
2007,6,29,23,0,,21.8,20.5,93,99760,0,0,417,0,0,0,0,0,0,0,0,0,10,0,0,0,0,0,0,0,0,0,0,0,0
2007,6,29,24,0,,21.7,20.8,94,99820,0,0,417,0,0,0,0,0,0,0,0,0,10,0,0,0,0,0,0,0,0,0,0,0,0
2007,6,30,1,0,,21.3,20.6,96,99830,0,0,414,0,0,0,0,0,0,0,0,0.3,10,0,0,0,0,0,0,0,0,0,0,0,0
2007,6,30,2,0,,20.7,20.3,97,99830,0,0,411,0,0,0,0,0,0,0,90,1.4,10,0,0,0,0,0,0,0,0,0,0,0,0
2007,6,30,3,0,,20.6,20.1,96,99840,0,0,410,0,0,0,0,0,0,0,0,0.4,10,0,0,0,0,0,0,0,0,0,0,0,0
2007,6,30,4,0,,20.5,19.9,97,99890,0,0,409,0,0,0,0,0,0,0,20,0.9,10,0,0,0,0,0,0,0,0,0,0,0,0
2007,6,30,5,0,,20.2,19.8,96,99940,0,0,407,0,0,0,0,0,0,0,340,1.9,10,0,0,0,0,0,0,0,0,0,0,0,0
2007,6,30,6,0,,20.3,19.6,95,99990,0,0,407,9,0,8,1149,9,1146,0,340,1.1,10,0,0,0,0,0,0,0,0,0,0,0,0
2007,6,30,7,0,,20.7,19.6,93,100020,0,0,406,52,17,48,6759,1436,5906,0,360,1.4,10,0,0,0,0,0,0,0,0,0,0,0,0
2007,6,30,8,0,,21.2,19.5,89,100040,0,0,404,156,57,133,20922,5108,17112,0,360,1.4,9,0,0,0,0,0,0,0,0,0,0,0,0
2007,6,30,9,0,,21.8,19.5,86,100070,0,0,404,230,52,199,27555,4605,23577,0,360,1.5,9,0,0,0,0,0,0,0,0,0,0,0,0
2007,6,30,10,0,,22.7,19.5,80,100040,0,0,409,312,56,270,36526,5016,31815,0,340,1.8,9,0,0,0,0,0,0,0,0,0,0,0,0
2007,6,30,11,0,,24.2,19.4,74,100020,0,0,417,393,65,337,45140,5815,39519,0,340,1.8,9,0,0,0,0,0,0,0,0,0,0,0,0
2007,6,30,12,0,,25.1,19.4,70,99990,0,0,422,435,65,375,49203,5843,43684,0,340,1.7,9,0,0,0,0,0,0,0,0,0,0,0,0
2007,6,30,13,0,,26,19.7,67,99950,0,0,428,452,65,389,50308,5862,45180,0,20,0.8,9,0,0,0,0,0,0,0,0,0,0,0,0
2007,6,30,14,0,,26.8,20.1,65,99910,0,0,433,428,61,371,47149,5459,42993,0,340,2,9,0,0,0,0,0,0,0,0,0,0,0,0
2007,6,30,15,0,,26.7,20.4,68,99870,0,0,433,392,62,338,42427,5494,39061,0,320,2.7,9,0,0,0,0,0,0,0,0,0,0,0,0
2007,6,30,16,0,,27,19.9,63,99860,0,0,434,330,61,283,34798,5323,32465,0,90,1.6,9,0,0,0,0,0,0,0,0,0,0,0,0
2007,6,30,17,0,,25.7,19.3,68,99850,0,0,426,239,52,207,24458,4080,23437,0,70,2,9,0,0,0,0,0,0,0,0,0,0,0,0
2007,6,30,18,0,,25.2,18.8,67,99840,0,0,422,164,54,140,15512,3176,15316,0,70,2.1,9,0,0,0,0,0,0,0,0,0,0,0,0
2007,6,30,19,0,,24.6,18.3,68,99870,0,0,418,82,45,71,0,0,0,0,50,1.4,9,0,0,0,0,0,0,0,0,0,0,0,0
2007,6,30,20,0,,23.7,17.9,69,99890,0,0,413,21,2,18,0,0,0,0,70,1.8,9,0,0,0,0,0,0,0,0,0,0,0,0
2007,6,30,21,0,,23.2,17.4,69,99920,0,0,409,0,0,0,0,0,0,0,70,2.1,9,0,0,0,0,0,0,0,0,0,0,0,0
2007,6,30,22,0,,22.7,17.2,69,99900,0,0,400,0,0,0,0,0,0,0,70,2.4,8,0,0,0,0,0,0,0,0,0,0,0,0
2007,6,30,23,0,,22.5,16.9,69,99890,0,0,394,0,0,0,0,0,0,0,70,2.1,8,0,0,0,0,0,0,0,0,0,0,0,0
2007,6,30,24,0,,22.2,16.7,70,99870,0,0,388,0,0,0,0,0,0,0,50,1.7,7,0,0,0,0,0,0,0,0,0,0,0,0
2005,7,1,1,0,,21.5,20.2,92,99710,0,0,415,0,0,0,0,0,0,0,50,1.2,10,0,0,0,0,0,0,0,0,0,0,0,0
2005,7,1,2,0,,21.3,20.2,93,99660,0,0,414,0,0,0,0,0,0,0,90,1,10,0,0,0,0,0,0,0,0,0,0,0,0
2005,7,1,3,0,,21.2,20.2,93,99600,0,0,413,0,0,0,0,0,0,0,90,0.5,10,0,0,0,0,0,0,0,0,0,0,0,0
2005,7,1,4,0,,21.2,20.2,93,99590,0,0,413,0,0,0,0,0,0,0,290,1.2,10,0,0,0,0,0,0,0,0,0,0,0,0
2005,7,1,5,0,,21.2,20.3,93,99590,0,0,413,0,0,0,0,0,0,0,20,0.9,10,0,0,0,0,0,0,0,0,0,0,0,0
2005,7,1,6,0,,21.3,20.3,93,99580,0,0,414,8,0,8,1095,6,1092,0,110,0.3,10,0,0,0,0,0,0,0,0,0,0,0,0
2005,7,1,7,0,,21.5,20.4,93,99590,0,0,415,53,18,49,6859,1491,5976,0,0,0,10,0,0,0,0,0,0,0,0,0,0,0,0
2005,7,1,8,0,,21.7,20.5,92,99610,0,0,416,102,17,94,12549,1466,11457,0,270,0.7,10,0,0,0,0,0,0,0,0,0,0,0,0
2005,7,1,9,0,,21.8,20.6,92,99620,0,0,417,148,15,139,17906,1337,16752,0,20,0.5,10,0,0,0,0,0,0,0,0,0,0,0,0
2005,7,1,10,0,,21.9,20.6,93,99640,0,0,418,189,14,179,22557,1230,21403,0,90,1.4,10,0,0,0,0,0,0,0,0,0,0,0,0
2005,7,1,11,0,,22.2,20.6,91,99650,0,0,419,229,15,217,27077,1288,25833,0,20,0.4,10,0,0,0,0,0,0,0,0,0,0,0,0
2005,7,1,12,0,,22.6,20.6,88,99670,0,0,422,263,16,247,30930,1015,29972,0,0,0.1,10,0,0,0,0,0,0,0,0,0,0,0,0
2005,7,1,13,0,,23.1,20.8,86,99590,0,0,417,384,42,344,43493,3735,40226,0,20,1.1,9,0,0,0,0,0,0,0,0,0,0,0,0
2005,7,1,14,0,,24.1,20.9,85,99520,0,0,416,386,46,342,42965,4059,39874,0,360,1.5,9,0,0,0,0,0,0,0,0,0,0,0,0
2005,7,1,15,0,,25.3,21.1,77,99440,0,0,417,460,95,377,48649,8487,43450,0,230,1.2,8,0,0,0,0,0,0,0,0,0,0,0,0
2005,7,1,16,0,,25.7,20.9,74,99440,0,0,419,395,100,319,40287,8695,36476,0,200,1.3,8,0,0,0,0,0,0,0,0,0,0,0,0
2005,7,1,17,0,,27.2,20.8,66,99450,0,0,427,338,136,254,31428,10803,28724,0,270,1.8,8,0,0,0,0,0,0,0,0,0,0,0,0
2005,7,1,18,0,,26.2,20.6,71,99450,0,0,421,212,113,162,18218,6740,17804,0,180,1.2,8,0,0,0,0,0,0,0,0,0,0,0,0
2005,7,1,19,0,,25.4,20.4,65,99470,0,0,416,119,131,86,0,0,0,0,180,2.4,8,0,0,0,0,0,0,0,0,0,0,0,0
2005,7,1,20,0,,24.7,20.1,72,99490,0,0,412,24,4,20,0,0,0,0,200,0.6,8,0,0,0,0,0,0,0,0,0,0,0,0
2005,7,1,21,0,,24,19.9,77,99510,0,0,408,0,0,0,0,0,0,0,270,1.6,8,0,0,0,0,0,0,0,0,0,0,0,0
2005,7,1,22,0,,23.5,20.2,83,99510,0,0,406,0,0,0,0,0,0,0,0,0,8,0,0,0,0,0,0,0,0,0,0,0,0
2005,7,1,23,0,,23.4,20.6,86,99500,0,0,406,0,0,0,0,0,0,0,0,0,8,0,0,0,0,0,0,0,0,0,0,0,0
2005,7,1,24,0,,23.1,20.9,87,99500,0,0,404,0,0,0,0,0,0,0,0,0,8,0,0,0,0,0,0,0,0,0,0,0,0
2005,7,2,1,0,,22.9,20.9,87,99450,0,0,409,0,0,0,0,0,0,0,0,0,9,0,0,0,0,0,0,0,0,0,0,0,0
2005,7,2,2,0,,22.8,20.8,88,99390,0,0,415,0,0,0,0,0,0,0,0,0,9,0,0,0,0,0,0,0,0,0,0,0,0
2005,7,2,3,0,,22.6,20.8,89,99340,0,0,422,0,0,0,0,0,0,0,0,0,10,0,0,0,0,0,0,0,0,0,0,0,0
2005,7,2,4,0,,22.5,20.8,89,99340,0,0,421,0,0,0,0,0,0,0,0,0,10,0,0,0,0,0,0,0,0,0,0,0,0
2005,7,2,5,0,,22.5,20.8,90,99340,0,0,421,0,0,0,0,0,0,0,0,0,10,0,0,0,0,0,0,0,0,0,0,0,0
2005,7,2,6,0,,22.6,20.8,89,99340,0,0,422,9,0,9,1172,8,1169,0,0,0,10,0,0,0,0,0,0,0,0,0,0,0,0
2005,7,2,7,0,,22.7,20.8,87,99340,0,0,422,52,17,48,6789,1468,5921,0,0,0,10,0,0,0,0,0,0,0,0,0,0,0,0
2005,7,2,8,0,,23.2,20.7,86,99350,0,0,425,108,20,99,13308,1740,12013,0,0,0,10,0,0,0,0,0,0,0,0,0,0,0,0
2005,7,2,9,0,,23.8,20.7,82,99350,0,0,429,167,22,154,20126,1888,18498,0,0,0,10,0,0,0,0,0,0,0,0,0,0,0,0
2005,7,2,10,0,,25,20.8,79,99330,0,0,436,233,25,214,27549,2203,25483,0,0,0,10,0,0,0,0,0,0,0,0,0,0,0,0
2005,7,2,11,0,,25.7,21,77,99310,0,0,440,278,25,256,32558,2209,30425,0,0,0,10,0,0,0,0,0,0,0,0,0,0,0,0
2005,7,2,12,0,,26.7,21.1,71,99290,0,0,446,319,28,293,36951,2452,34636,0,0,0,10,0,0,0,0,0,0,0,0,0,0,0,0
2005,7,2,13,0,,27.9,21.4,69,99250,0,0,441,443,62,383,49555,5478,44764,0,290,1.5,9,0,0,0,0,0,0,0,0,0,0,0,0
2005,7,2,14,0,,28.7,21.7,67,99200,0,0,437,533,110,429,57185,9771,49745,0,250,2.2,8,0,0,0,0,0,0,0,0,0,0,0,0
2005,7,2,15,0,,29.7,22,63,99160,0,0,437,561,163,418,56962,14480,48093,0,270,2.6,7,0,0,0,0,0,0,0,0,0,0,0,0
2005,7,2,16,0,,30.1,22.2,64,99160,0,0,441,476,167,348,46183,14421,39864,0,230,2.2,7,0,0,0,0,0,0,0,0,0,0,0,0
2005,7,2,17,0,,29.2,22.5,67,99170,0,0,439,315,112,246,30154,8619,27999,0,230,2.4,8,0,0,0,0,0,0,0,0,0,0,0,0
2005,7,2,18,0,,28.6,22.7,70,99170,0,0,438,201,98,158,17846,5560,17506,0,200,2.3,8,0,0,0,0,0,0,0,0,0,0,0,0
2005,7,2,19,0,,27.8,22.6,75,99240,0,0,439,83,47,71,0,0,0,0,230,1.7,9,0,0,0,0,0,0,0,0,0,0,0,0
2005,7,2,20,0,,26.3,22.5,79,99300,0,0,437,17,1,16,0,0,0,0,180,1.6,9,0,0,0,0,0,0,0,0,0,0,0,0
2005,7,2,21,0,,26,22.4,80,99370,0,0,444,0,0,0,0,0,0,0,230,0.6,10,0,0,0,0,0,0,0,0,0,0,0,0
2005,7,2,22,0,,25.4,22.4,84,99380,0,0,440,0,0,0,0,0,0,0,0,0,10,0,0,0,0,0,0,0,0,0,0,0,0
2005,7,2,23,0,,25.2,22.3,85,99400,0,0,439,0,0,0,0,0,0,0,0,0.2,10,0,0,0,0,0,0,0,0,0,0,0,0
2005,7,2,24,0,,25.1,22.3,84,99410,0,0,438,0,0,0,0,0,0,0,230,0.3,10,0,0,0,0,0,0,0,0,0,0,0,0
2005,7,3,1,0,,24.4,22.2,87,99360,0,0,434,0,0,0,0,0,0,0,250,0.3,10,0,0,0,0,0,0,0,0,0,0,0,0
2005,7,3,2,0,,24.2,22.1,89,99320,0,0,433,0,0,0,0,0,0,0,0,0.2,10,0,0,0,0,0,0,0,0,0,0,0,0
2005,7,3,3,0,,23.8,22,89,99270,0,0,430,0,0,0,0,0,0,0,320,1.1,10,0,0,0,0,0,0,0,0,0,0,0,0
2005,7,3,4,0,,23.5,22,90,99290,0,0,429,0,0,0,0,0,0,0,320,0.4,10,0,0,0,0,0,0,0,0,0,0,0,0
2005,7,3,5,0,,23.6,21.9,90,99300,0,0,429,0,0,0,0,0,0,0,0,0.2,10,0,0,0,0,0,0,0,0,0,0,0,0
2005,7,3,6,0,,23.4,21.9,91,99320,0,0,428,8,0,8,1041,5,1038,0,340,0.4,10,0,0,0,0,0,0,0,0,0,0,0,0
2005,7,3,7,0,,23.6,21.6,91,99300,0,0,429,50,16,46,6471,1294,5707,0,0,0,10,0,0,0,0,0,0,0,0,0,0,0,0
2005,7,3,8,0,,23.8,21.3,91,99270,0,0,429,106,19,98,13088,1660,11855,0,0,0.1,10,0,0,0,0,0,0,0,0,0,0,0,0
2005,7,3,9,0,,22.8,21,89,99250,0,0,423,144,14,135,17389,1236,16324,0,180,0.8,10,0,0,0,0,0,0,0,0,0,0,0,0
2005,7,3,10,0,,22.4,20.6,87,99240,0,0,420,177,12,168,21169,1028,20205,0,200,1,10,0,0,0,0,0,0,0,0,0,0,0,0
2005,7,3,11,0,,21.9,20.2,89,99220,0,0,417,188,9,181,22970,481,22506,0,320,0.8,10,0,0,0,0,0,0,0,0,0,0,0,0
2005,7,3,12,0,,21.6,19.8,89,99210,0,0,415,229,11,219,27426,676,26787,0,360,1.6,10,0,0,0,0,0,0,0,0,0,0,0,0
2005,7,3,13,0,,21.4,19.8,90,99120,0,0,414,250,13,238,29299,829,28574,0,360,2.1,10,0,0,0,0,0,0,0,0,0,0,0,0
2005,7,3,14,0,,21.5,19.8,90,99030,0,0,414,256,15,242,29138,992,28382,0,360,2,10,0,0,0,0,0,0,0,0,0,0,0,0
2005,7,3,15,0,,21.2,19.8,91,98940,0,0,413,237,15,224,26244,1064,25592,0,320,2.9,10,0,0,0,0,0,0,0,0,0,0,0,0
2005,7,3,16,0,,21.2,19.8,90,98900,0,0,413,198,15,187,21123,976,20696,0,340,2.3,10,0,0,0,0,0,0,0,0,0,0,0,0
2005,7,3,17,0,,21.3,19.9,89,98870,0,0,413,142,12,135,14536,606,14385,0,20,0.3,10,0,0,0,0,0,0,0,0,0,0,0,0
2005,7,3,18,0,,21.8,19.9,88,98830,0,0,416,112,19,104,9965,967,9906,0,360,0.7,10,0,0,0,0,0,0,0,0,0,0,0,0
2005,7,3,19,0,,21.9,19.9,86,98840,0,0,417,59,18,55,0,0,0,0,0,0.1,10,0,0,0,0,0,0,0,0,0,0,0,0
2005,7,3,20,0,,21.9,20,88,98850,0,0,417,13,1,13,0,0,0,0,340,1.4,10,0,0,0,0,0,0,0,0,0,0,0,0
2005,7,3,21,0,,21.6,20,90,98860,0,0,415,0,0,0,0,0,0,0,140,0.4,10,0,0,0,0,0,0,0,0,0,0,0,0
2005,7,3,22,0,,21.3,19.8,91,98860,0,0,399,0,0,0,0,0,0,0,20,0.3,9,0,0,0,0,0,0,0,0,0,0,0,0
2005,7,3,23,0,,20.6,19.5,91,98870,0,0,385,0,0,0,0,0,0,0,50,0.3,7,0,0,0,0,0,0,0,0,0,0,0,0
2005,7,3,24,0,,20.3,19.3,93,98870,0,0,377,0,0,0,0,0,0,0,0,0,6,0,0,0,0,0,0,0,0,0,0,0,0
2005,7,4,1,0,,20,19.1,93,98850,0,0,373,0,0,0,0,0,0,0,0,0,5,0,0,0,0,0,0,0,0,0,0,0,0
2005,7,4,2,0,,19.8,19,94,98820,0,0,370,0,0,0,0,0,0,0,70,0.4,5,0,0,0,0,0,0,0,0,0,0,0,0
2005,7,4,3,0,,19.8,18.8,93,98800,0,0,368,0,0,0,0,0,0,0,0,0.1,4,0,0,0,0,0,0,0,0,0,0,0,0
2005,7,4,4,0,,20,18.9,93,98830,0,0,373,0,0,0,0,0,0,0,0,0.1,5,0,0,0,0,0,0,0,0,0,0,0,0
2005,7,4,5,0,,20.1,19.1,93,98850,0,0,379,0,0,0,0,0,0,0,110,0.5,7,0,0,0,0,0,0,0,0,0,0,0,0
2005,7,4,6,0,,20.2,19.2,93,98880,0,0,387,19,3,16,2170,82,2137,0,0,0.2,8,0,0,0,0,0,0,0,0,0,0,0,0
2005,7,4,7,0,,21.1,19.2,86,98910,0,0,384,114,167,76,21198,14885,12431,0,250,0.3,7,0,0,0,0,0,0,0,0,0,0,0,0
2005,7,4,8,0,,22.3,19.1,83,98930,0,0,385,281,334,143,44006,30350,21485,0,140,0.4,5,0,0,0,0,0,0,0,0,0,0,0,0
2005,7,4,9,0,,23.9,19.1,74,98960,0,0,389,460,448,195,65004,43905,27216,0,340,0.8,4,0,0,0,0,0,0,0,0,0,0,0,0
2005,7,4,10,0,,25.8,19,64,98940,0,0,402,567,313,334,68362,27768,42350,0,270,1.2,5,0,0,0,0,0,0,0,0,0,0,0,0
2005,7,4,11,0,,27.1,18.8,58,98920,0,0,413,643,257,421,73994,22725,52062,0,250,1.8,6,0,0,0,0,0,0,0,0,0,0,0,0
2005,7,4,12,0,,28.5,18.7,55,98900,0,0,425,650,194,467,71791,17365,55402,0,270,3.3,7,0,0,0,0,0,0,0,0,0,0,0,0
2005,7,4,13,0,,29.6,18.7,54,98870,0,0,428,715,230,492,75927,20449,58050,0,230,2,6,0,0,0,0,0,0,0,0,0,0,0,0
2005,7,4,14,0,,29.7,18.7,53,98850,0,0,426,679,215,476,70331,18851,55982,0,230,2.9,6,0,0,0,0,0,0,0,0,0,0,0,0
2005,7,4,15,0,,30.5,18.7,49,98820,0,0,428,685,293,427,65640,25181,50221,0,250,3,5,0,0,0,0,0,0,0,0,0,0,0,0
2005,7,4,16,0,,29.9,18.8,52,98840,0,0,424,565,278,352,51099,22337,41319,0,230,2.8,5,0,0,0,0,0,0,0,0,0,0,0,0
2005,7,4,17,0,,29.8,18.9,52,98850,0,0,422,480,443,207,32716,27111,25951,0,230,2.5,4,0,0,0,0,0,0,0,0,0,0,0,0
2005,7,4,18,0,,28.8,19,55,98870,0,0,416,322,406,144,16771,2382,16628,0,250,3.1,4,0,0,0,0,0,0,0,0,0,0,0,0
2005,7,4,19,0,,27.9,18.9,62,98940,0,0,415,163,354,74,0,0,0,0,250,2.6,5,0,0,0,0,0,0,0,0,0,0,0,0
2005,7,4,20,0,,26.9,18.8,60,99010,0,0,415,33,9,24,0,0,0,0,200,2.7,7,0,0,0,0,0,0,0,0,0,0,0,0
2005,7,4,21,0,,26.1,18.7,63,99080,0,0,418,0,0,0,0,0,0,0,180,1.9,8,0,0,0,0,0,0,0,0,0,0,0,0
2005,7,4,22,0,,25.5,18.1,61,99080,0,0,408,0,0,0,0,0,0,0,180,2.1,7,0,0,0,0,0,0,0,0,0,0,0,0
2005,7,4,23,0,,25.1,17.5,62,99090,0,0,400,0,0,0,0,0,0,0,180,2.4,6,0,0,0,0,0,0,0,0,0,0,0,0
2005,7,4,24,0,,24.7,16.9,61,99090,0,0,394,0,0,0,0,0,0,0,180,2.8,5,0,0,0,0,0,0,0,0,0,0,0,0
2005,7,5,1,0,,24.1,17.4,66,99080,0,0,391,0,0,0,0,0,0,0,180,2,5,0,0,0,0,0,0,0,0,0,0,0,0
2005,7,5,2,0,,23.7,17.8,70,99080,0,0,389,0,0,0,0,0,0,0,180,1.4,5,0,0,0,0,0,0,0,0,0,0,0,0
2005,7,5,3,0,,23.2,18.3,73,99070,0,0,387,0,0,0,0,0,0,0,180,1.2,5,0,0,0,0,0,0,0,0,0,0,0,0
2005,7,5,4,0,,22.9,18.3,73,99070,0,0,388,0,0,0,0,0,0,0,180,1.1,6,0,0,0,0,0,0,0,0,0,0,0,0
2005,7,5,5,0,,22.7,18.3,74,99070,0,0,390,0,0,0,0,0,0,0,200,1.4,6,0,0,0,0,0,0,0,0,0,0,0,0
2005,7,5,6,0,,22.4,18.3,77,99070,0,0,391,25,6,19,2581,526,2365,0,180,1.3,7,0,0,0,0,0,0,0,0,0,0,0,0
2005,7,5,7,0,,22.5,18.3,76,99090,0,0,398,101,120,74,16916,10490,10751,0,160,1.6,8,0,0,0,0,0,0,0,0,0,0,0,0
2005,7,5,8,0,,22.7,18.4,76,99110,0,0,408,155,58,131,20688,5272,16781,0,160,1.5,9,0,0,0,0,0,0,0,0,0,0,0,0
2005,7,5,9,0,,23.1,18.4,74,99130,0,0,421,188,31,170,22587,2748,20224,0,180,1.9,10,0,0,0,0,0,0,0,0,0,0,0,0
2005,7,5,10,0,,23.5,18.5,73,99130,0,0,424,225,23,208,26576,2076,24633,0,180,1.2,10,0,0,0,0,0,0,0,0,0,0,0,0
2005,7,5,11,0,,23.8,18.6,73,99120,0,0,426,276,25,255,32183,2227,30035,0,180,1.2,10,0,0,0,0,0,0,0,0,0,0,0,0
2005,7,5,12,0,,25.1,18.7,67,99120,0,0,433,325,29,297,37397,2650,34898,0,200,2.1,10,0,0,0,0,0,0,0,0,0,0,0,0
2005,7,5,13,0,,25.2,18.9,65,99100,0,0,434,328,27,301,37406,2460,35256,0,230,1.9,10,0,0,0,0,0,0,0,0,0,0,0,0
2005,7,5,14,0,,25.2,19.2,67,99070,0,0,435,307,25,284,34268,1792,32905,0,250,1.3,10,0,0,0,0,0,0,0,0,0,0,0,0
2005,7,5,15,0,,25.4,19.4,69,99050,0,0,436,277,24,256,30091,1769,29009,0,290,1,10,0,0,0,0,0,0,0,0,0,0,0,0
2005,7,5,16,0,,25.7,19.5,67,99020,0,0,438,245,27,224,25363,1983,24495,0,160,1.8,10,0,0,0,0,0,0,0,0,0,0,0,0
2005,7,5,17,0,,26.1,19.5,67,99000,0,0,441,196,30,178,18978,1944,18494,0,160,0.6,10,0,0,0,0,0,0,0,0,0,0,0,0
2005,7,5,18,0,,26.3,19.6,66,98970,0,0,442,135,32,121,11542,2380,11400,0,180,1.2,10,0,0,0,0,0,0,0,0,0,0,0,0
2005,7,5,19,0,,25.8,19.8,69,99010,0,0,439,71,31,64,0,0,0,0,180,1.9,10,0,0,0,0,0,0,0,0,0,0,0,0
2005,7,5,20,0,,25.2,20.1,73,99050,0,0,436,13,1,12,0,0,0,0,200,0.9,10,0,0,0,0,0,0,0,0,0,0,0,0
2005,7,5,21,0,,24.9,20.3,75,99090,0,0,434,0,0,0,0,0,0,0,180,1.7,10,0,0,0,0,0,0,0,0,0,0,0,0
2005,7,5,22,0,,24.8,20.1,75,99090,0,0,434,0,0,0,0,0,0,0,180,2.6,10,0,0,0,0,0,0,0,0,0,0,0,0
2005,7,5,23,0,,24.6,19.9,75,99100,0,0,432,0,0,0,0,0,0,0,180,2.4,10,0,0,0,0,0,0,0,0,0,0,0,0
2005,7,5,24,0,,24.3,19.7,75,99100,0,0,430,0,0,0,0,0,0,0,180,2.3,10,0,0,0,0,0,0,0,0,0,0,0,0
2005,7,6,1,0,,23.7,19.5,77,99090,0,0,426,0,0,0,0,0,0,0,230,0.9,10,0,0,0,0,0,0,0,0,0,0,0,0
2005,7,6,2,0,,23.4,19.4,77,99090,0,0,424,0,0,0,0,0,0,0,200,1.4,10,0,0,0,0,0,0,0,0,0,0,0,0
2005,7,6,3,0,,23.3,19.2,77,99080,0,0,424,0,0,0,0,0,0,0,180,2.4,10,0,0,0,0,0,0,0,0,0,0,0,0
2005,7,6,4,0,,23.1,19.3,78,99110,0,0,423,0,0,0,0,0,0,0,180,1.8,10,0,0,0,0,0,0,0,0,0,0,0,0
2005,7,6,5,0,,22,19.4,85,99140,0,0,417,0,0,0,0,0,0,0,290,1,10,0,0,0,0,0,0,0,0,0,0,0,0
2005,7,6,6,0,,21.6,19.5,87,99170,0,0,414,6,0,6,884,3,883,0,160,0.7,10,0,0,0,0,0,0,0,0,0,0,0,0
2005,7,6,7,0,,22.2,19.5,86,99190,0,0,418,48,15,45,6277,1291,5520,0,340,1,10,0,0,0,0,0,0,0,0,0,0,0,0
2005,7,6,8,0,,23.4,19.4,75,99200,0,0,425,121,29,109,14986,2546,13102,0,180,0.9,10,0,0,0,0,0,0,0,0,0,0,0,0
2005,7,6,9,0,,24.6,19.4,72,99220,0,0,431,200,37,178,23979,3228,21207,0,230,1,10,0,0,0,0,0,0,0,0,0,0,0,0
2005,7,6,10,0,,25.3,19.3,69,99210,0,0,431,271,39,242,31925,3500,28650,0,250,1.2,10,0,0,0,0,0,0,0,0,0,0,0,0
2005,7,6,11,0,,26.4,19.3,66,99200,0,0,433,413,75,348,47209,6735,40715,0,250,2.1,9,0,0,0,0,0,0,0,0,0,0,0,0
2005,7,6,12,0,,26.7,19.2,63,99190,0,0,431,426,62,368,48211,5574,42955,0,250,1.8,9,0,0,0,0,0,0,0,0,0,0,0,0
2005,7,6,13,0,,28.3,18.8,54,99170,0,0,429,551,112,443,60074,10229,51137,0,230,1.8,8,0,0,0,0,0,0,0,0,0,0,0,0
2005,7,6,14,0,,28.5,18.3,55,99150,0,0,421,661,199,473,68859,17595,55474,0,250,2.8,6,0,0,0,0,0,0,0,0,0,0,0,0
2005,7,6,15,0,,29.2,17.9,50,99130,0,0,420,682,290,427,65393,25222,49961,0,250,1.9,5,0,0,0,0,0,0,0,0,0,0,0,0
2005,7,6,16,0,,29.1,18.3,50,99150,0,0,423,519,216,354,49034,17433,41413,0,200,2.7,6,0,0,0,0,0,0,0,0,0,0,0,0
2005,7,6,17,0,,29.4,18.7,49,99180,0,0,431,383,197,263,33452,15923,29493,0,250,2.2,7,0,0,0,0,0,0,0,0,0,0,0,0
2005,7,6,18,0,,28.6,19.1,56,99200,0,0,433,211,112,162,18074,6809,17672,0,250,1.8,8,0,0,0,0,0,0,0,0,0,0,0,0
2005,7,6,19,0,,27.6,18.6,64,99300,0,0,427,119,132,86,0,0,0,0,320,1.8,8,0,0,0,0,0,0,0,0,0,0,0,0
2005,7,6,20,0,,24.1,18.2,68,99410,0,0,406,22,3,19,0,0,0,0,50,2.3,8,0,0,0,0,0,0,0,0,0,0,0,0
2005,7,6,21,0,,23.1,17.7,71,99510,0,0,400,0,0,0,0,0,0,0,50,2.4,8,0,0,0,0,0,0,0,0,0,0,0,0
2005,7,6,22,0,,22.6,17.9,72,99550,0,0,396,0,0,0,0,0,0,0,70,2.5,8,0,0,0,0,0,0,0,0,0,0,0,0
2005,7,6,23,0,,22.1,18.2,75,99590,0,0,391,0,0,0,0,0,0,0,20,1.6,7,0,0,0,0,0,0,0,0,0,0,0,0
2005,7,6,24,0,,21.6,18.4,81,99630,0,0,387,0,0,0,0,0,0,0,360,1.6,7,0,0,0,0,0,0,0,0,0,0,0,0
2005,7,7,1,0,,21.4,18.2,81,99630,0,0,388,0,0,0,0,0,0,0,360,1.3,7,0,0,0,0,0,0,0,0,0,0,0,0
2005,7,7,2,0,,21.2,18.1,81,99630,0,0,388,0,0,0,0,0,0,0,360,1.8,8,0,0,0,0,0,0,0,0,0,0,0,0
2005,7,7,3,0,,21.3,17.9,80,99630,0,0,391,0,0,0,0,0,0,0,360,0.7,8,0,0,0,0,0,0,0,0,0,0,0,0
2005,7,7,4,0,,21.2,17.6,78,99670,0,0,395,0,0,0,0,0,0,0,340,1.5,9,0,0,0,0,0,0,0,0,0,0,0,0
2005,7,7,5,0,,21,17.2,79,99700,0,0,400,0,0,0,0,0,0,0,340,1.8,9,0,0,0,0,0,0,0,0,0,0,0,0
2005,7,7,6,0,,21.1,16.9,76,99740,0,0,408,10,1,10,1306,16,1299,0,340,1.4,10,0,0,0,0,0,0,0,0,0,0,0,0
2005,7,7,7,0,,20.2,17.2,84,99800,0,0,404,51,18,47,6683,1591,5751,0,340,2.4,10,0,0,0,0,0,0,0,0,0,0,0,0
2005,7,7,8,0,,19.6,17.4,87,99860,0,0,401,91,13,86,11257,1190,10378,0,340,1.6,10,0,0,0,0,0,0,0,0,0,0,0,0
2005,7,7,9,0,,19.8,17.7,87,99920,0,0,402,145,15,136,17476,1350,16318,0,360,1.7,10,0,0,0,0,0,0,0,0,0,0,0,0
2005,7,7,10,0,,20.8,17.6,81,99950,0,0,407,210,19,196,24850,1748,23217,0,20,1.4,10,0,0,0,0,0,0,0,0,0,0,0,0
2005,7,7,11,0,,21.4,17.5,78,99980,0,0,411,282,27,259,32774,2405,30456,0,20,1.2,10,0,0,0,0,0,0,0,0,0,0,0,0
2005,7,7,12,0,,21.6,17.4,76,100010,0,0,412,308,26,284,35494,2324,33303,0,340,2.3,10,0,0,0,0,0,0,0,0,0,0,0,0
2005,7,7,13,0,,23.3,17.1,65,99970,0,0,413,453,66,389,50313,6130,44959,0,50,2,9,0,0,0,0,0,0,0,0,0,0,0,0
2005,7,7,14,0,,24.5,16.7,60,99940,0,0,412,464,76,392,50365,7030,45019,0,50,3.4,9,0,0,0,0,0,0,0,0,0,0,0,0
2005,7,7,15,0,,25.1,16.4,58,99900,0,0,410,512,128,401,52828,11929,45534,0,50,3.1,8,0,0,0,0,0,0,0,0,0,0,0,0
2005,7,7,16,0,,25,16.6,59,99890,0,0,409,421,119,330,42039,10834,37307,0,70,3.2,8,0,0,0,0,0,0,0,0,0,0,0,0
2005,7,7,17,0,,24.8,16.9,61,99890,0,0,409,328,126,251,30641,10366,28069,0,70,3.5,8,0,0,0,0,0,0,0,0,0,0,0,0
2005,7,7,18,0,,24.4,17.1,63,99880,0,0,407,217,121,164,18201,7616,17756,0,70,2.6,8,0,0,0,0,0,0,0,0,0,0,0,0
2005,7,7,19,0,,23.6,16.8,65,99910,0,0,402,111,109,84,0,0,0,0,50,1.7,8,0,0,0,0,0,0,0,0,0,0,0,0
2005,7,7,20,0,,22.9,16.4,66,99940,0,0,398,27,5,22,0,0,0,0,50,1.8,8,0,0,0,0,0,0,0,0,0,0,0,0
2005,7,7,21,0,,22.6,16.1,66,99970,0,0,396,0,0,0,0,0,0,0,50,1,8,0,0,0,0,0,0,0,0,0,0,0,0
2005,7,7,22,0,,22.3,15.9,67,99980,0,0,394,0,0,0,0,0,0,0,50,2,8,0,0,0,0,0,0,0,0,0,0,0,0
2005,7,7,23,0,,21.8,15.8,69,99990,0,0,391,0,0,0,0,0,0,0,50,1.4,8,0,0,0,0,0,0,0,0,0,0,0,0
2005,7,7,24,0,,21.8,15.6,67,100000,0,0,391,0,0,0,0,0,0,0,50,1.7,8,0,0,0,0,0,0,0,0,0,0,0,0
2005,7,8,1,0,,21.3,15.9,74,100010,0,0,394,0,0,0,0,0,0,0,50,0.9,9,0,0,0,0,0,0,0,0,0,0,0,0
2005,7,8,2,0,,21.1,16.2,74,100010,0,0,399,0,0,0,0,0,0,0,20,1,9,0,0,0,0,0,0,0,0,0,0,0,0
2005,7,8,3,0,,21.1,16.5,74,100020,0,0,408,0,0,0,0,0,0,0,50,0.9,10,0,0,0,0,0,0,0,0,0,0,0,0
2005,7,8,4,0,,20.8,16.9,81,100020,0,0,406,0,0,0,0,0,0,0,340,1.5,10,0,0,0,0,0,0,0,0,0,0,0,0
2005,7,8,5,0,,20.5,17.2,84,100010,0,0,405,0,0,0,0,0,0,0,70,0.7,10,0,0,0,0,0,0,0,0,0,0,0,0
2005,7,8,6,0,,20.2,17.6,84,100010,0,0,404,7,0,7,952,6,950,0,50,0.8,10,0,0,0,0,0,0,0,0,0,0,0,0
2005,7,8,7,0,,20.6,17.6,81,100020,0,0,406,55,23,50,8018,2127,6776,0,20,1.3,10,0,0,0,0,0,0,0,0,0,0,0,0
2005,7,8,8,0,,21,17.7,79,100040,0,0,409,114,25,104,14104,2249,12444,0,20,1,10,0,0,0,0,0,0,0,0,0,0,0,0
2005,7,8,9,0,,22,17.7,76,100050,0,0,414,195,35,175,23390,3118,20717,0,50,0.8,10,0,0,0,0,0,0,0,0,0,0,0,0
2005,7,8,10,0,,22.7,17.9,71,100000,0,0,401,381,101,307,45871,9250,37229,0,340,1.1,8,0,0,0,0,0,0,0,0,0,0,0,0
2005,7,8,11,0,,25,18,64,99940,0,0,403,556,171,409,63764,15569,48768,0,290,1.6,7,0,0,0,0,0,0,0,0,0,0,0,0
2005,7,8,12,0,,26.1,18.2,61,99890,0,0,403,721,266,472,79466,23698,57135,0,340,1.2,5,0,0,0,0,0,0,0,0,0,0,0,0
2005,7,8,13,0,,27.6,18.4,58,99820,0,0,409,824,473,367,84458,42998,46919,0,290,2,4,0,0,0,0,0,0,0,0,0,0,0,0
2005,7,8,14,0,,28.2,18.5,57,99760,0,0,411,782,332,468,78916,29060,56829,0,320,2.4,4,0,0,0,0,0,0,0,0,0,0,0,0
2005,7,8,15,0,,29.1,18.7,53,99690,0,0,414,737,479,317,65143,41042,40063,0,360,1.4,3,0,0,0,0,0,0,0,0,0,0,0,0
2005,7,8,16,0,,29.5,19.1,53,99660,0,0,424,569,286,351,51166,22843,41201,0,290,1.6,5,0,0,0,0,0,0,0,0,0,0,0,0
2005,7,8,17,0,,29.1,19.6,56,99640,0,0,434,317,114,247,30047,9093,27797,0,290,1,8,0,0,0,0,0,0,0,0,0,0,0,0
2005,7,8,18,0,,28.7,20,59,99610,0,0,457,137,34,122,11612,2609,11461,0,110,0.8,10,0,0,0,0,0,0,0,0,0,0,0,0
2005,7,8,19,0,,28.1,20.7,62,99620,0,0,454,67,26,60,0,0,0,0,110,0.6,10,0,0,0,0,0,0,0,0,0,0,0,0
2005,7,8,20,0,,26.8,21.5,75,99630,0,0,447,12,1,11,0,0,0,0,290,0.8,10,0,0,0,0,0,0,0,0,0,0,0,0
2005,7,8,21,0,,26,22.2,79,99640,0,0,444,0,0,0,0,0,0,0,0,0.2,10,0,0,0,0,0,0,0,0,0,0,0,0
2005,7,8,22,0,,25.7,21.2,71,99610,0,0,440,0,0,0,0,0,0,0,70,0.8,10,0,0,0,0,0,0,0,0,0,0,0,0
2005,7,8,23,0,,25.2,20.2,67,99580,0,0,436,0,0,0,0,0,0,0,70,3.8,10,0,0,0,0,0,0,0,0,0,0,0,0
2005,7,8,24,0,,24,19.2,74,99550,0,0,428,0,0,0,0,0,0,0,70,1.8,10,0,0,0,0,0,0,0,0,0,0,0,0
2005,7,9,1,0,,22.2,19.4,87,99490,0,0,418,0,0,0,0,0,0,0,70,1,10,0,0,0,0,0,0,0,0,0,0,0,0
2005,7,9,2,0,,21.8,19.5,87,99430,0,0,416,0,0,0,0,0,0,0,20,1.6,10,0,0,0,0,0,0,0,0,0,0,0,0
2005,7,9,3,0,,21.4,19.7,89,99370,0,0,414,0,0,0,0,0,0,0,360,0.9,10,0,0,0,0,0,0,0,0,0,0,0,0
2005,7,9,4,0,,21.5,19.8,90,99360,0,0,414,0,0,0,0,0,0,0,20,0.7,10,0,0,0,0,0,0,0,0,0,0,0,0
2005,7,9,5,0,,21.3,19.9,90,99360,0,0,413,0,0,0,0,0,0,0,340,1.3,10,0,0,0,0,0,0,0,0,0,0,0,0
2005,7,9,6,0,,21.2,20,92,99350,0,0,413,6,0,6,883,3,882,0,20,1,10,0,0,0,0,0,0,0,0,0,0,0,0
2005,7,9,7,0,,21.4,20.1,91,99320,0,0,414,51,19,47,6645,1570,5730,0,360,1.8,10,0,0,0,0,0,0,0,0,0,0,0,0
2005,7,9,8,0,,21.9,20.2,89,99300,0,0,417,105,20,96,12941,1731,11666,0,360,1.1,10,0,0,0,0,0,0,0,0,0,0,0,0
2005,7,9,9,0,,21.9,20.3,90,99270,0,0,417,154,18,143,18597,1578,17245,0,320,0.9,10,0,0,0,0,0,0,0,0,0,0,0,0
2005,7,9,10,0,,21.9,20.4,91,99200,0,0,417,187,14,176,22284,1232,21134,0,360,1.5,10,0,0,0,0,0,0,0,0,0,0,0,0
2005,7,9,11,0,,22.2,20.6,90,99140,0,0,419,237,17,223,27923,1447,26530,0,360,1.6,10,0,0,0,0,0,0,0,0,0,0,0,0
2005,7,9,12,0,,22.3,20.7,90,99070,0,0,420,253,15,239,29911,920,29044,0,340,1.2,10,0,0,0,0,0,0,0,0,0,0,0,0
2005,7,9,13,0,,22.5,20.8,89,99050,0,0,421,284,18,266,32687,1212,31629,0,340,1.7,10,0,0,0,0,0,0,0,0,0,0,0,0
2005,7,9,14,0,,22.9,21,87,99030,0,0,424,259,15,245,29407,1023,28630,0,360,1.3,10,0,0,0,0,0,0,0,0,0,0,0,0
2005,7,9,15,0,,22.9,21.1,89,99010,0,0,424,239,16,226,26382,1078,25723,0,340,1.6,10,0,0,0,0,0,0,0,0,0,0,0,0
2005,7,9,16,0,,23.1,21,86,99020,0,0,425,219,20,204,23020,1356,22429,0,340,2,10,0,0,0,0,0,0,0,0,0,0,0,0
2005,7,9,17,0,,22.9,20.9,87,99020,0,0,424,160,17,149,15937,900,15715,0,340,1.8,10,0,0,0,0,0,0,0,0,0,0,0,0
2005,7,9,18,0,,23.3,20.8,85,99030,0,0,426,120,23,110,10474,1453,10392,0,340,1.3,10,0,0,0,0,0,0,0,0,0,0,0,0
2005,7,9,19,0,,23.5,20.5,84,99090,0,0,418,86,53,72,0,0,0,0,320,0.5,9,0,0,0,0,0,0,0,0,0,0,0,0
2005,7,9,20,0,,22.9,20.3,88,99140,0,0,408,19,2,17,0,0,0,0,340,0.5,9,0,0,0,0,0,0,0,0,0,0,0,0
2005,7,9,21,0,,22.5,20,85,99200,0,0,400,0,0,0,0,0,0,0,360,1.3,8,0,0,0,0,0,0,0,0,0,0,0,0
2005,7,9,22,0,,22.3,19.8,82,99280,0,0,399,0,0,0,0,0,0,0,20,0.7,8,0,0,0,0,0,0,0,0,0,0,0,0
2005,7,9,23,0,,22.1,19.6,80,99350,0,0,397,0,0,0,0,0,0,0,340,1.4,8,0,0,0,0,0,0,0,0,0,0,0,0
2005,7,9,24,0,,21.9,19.4,85,99430,0,0,396,0,0,0,0,0,0,0,360,0.3,8,0,0,0,0,0,0,0,0,0,0,0,0
2005,7,10,1,0,,21.3,18.9,86,99460,0,0,398,0,0,0,0,0,0,0,340,1.3,9,0,0,0,0,0,0,0,0,0,0,0,0
2005,7,10,2,0,,21.2,18.4,79,99500,0,0,403,0,0,0,0,0,0,0,340,1.7,9,0,0,0,0,0,0,0,0,0,0,0,0
2005,7,10,3,0,,20.9,17.9,82,99530,0,0,408,0,0,0,0,0,0,0,340,1.6,10,0,0,0,0,0,0,0,0,0,0,0,0
2005,7,10,4,0,,20.7,17.8,84,99570,0,0,407,0,0,0,0,0,0,0,320,0.6,10,0,0,0,0,0,0,0,0,0,0,0,0
2005,7,10,5,0,,20.5,17.7,84,99620,0,0,406,0,0,0,0,0,0,0,360,0.5,10,0,0,0,0,0,0,0,0,0,0,0,0
2005,7,10,6,0,,20.6,17.6,82,99660,0,0,406,8,0,8,1042,6,1040,0,340,1,10,0,0,0,0,0,0,0,0,0,0,0,0
2005,7,10,7,0,,20.9,17.5,82,99680,0,0,400,78,64,64,12618,5636,9341,0,360,1.7,9,0,0,0,0,0,0,0,0,0,0,0,0
2005,7,10,8,0,,21.4,17.4,76,99700,0,0,396,163,70,134,21882,6509,17092,0,340,2.3,9,0,0,0,0,0,0,0,0,0,0,0,0
2005,7,10,9,0,,23.1,17.3,69,99720,0,0,400,313,131,236,39470,12156,29069,0,340,1.5,8,0,0,0,0,0,0,0,0,0,0,0,0
2005,7,10,10,0,,24.5,17.7,61,99740,0,0,414,342,76,286,41411,6960,34919,0,250,1.2,9,0,0,0,0,0,0,0,0,0,0,0,0
2005,7,10,11,0,,24.8,18.1,64,99750,0,0,423,400,70,340,45854,6361,39735,0,230,0.6,9,0,0,0,0,0,0,0,0,0,0,0,0
2005,7,10,12,0,,25.9,18.5,63,99770,0,0,438,353,37,318,40433,3384,37248,0,250,1.4,10,0,0,0,0,0,0,0,0,0,0,0,0
2005,7,10,13,0,,26.2,18.8,60,99760,0,0,440,338,30,309,38470,2699,36116,0,270,1.8,10,0,0,0,0,0,0,0,0,0,0,0,0
2005,7,10,14,0,,26.4,19.1,62,99740,0,0,442,341,33,310,38296,2967,36043,0,250,2,10,0,0,0,0,0,0,0,0,0,0,0,0
2005,7,10,15,0,,26.9,19.4,63,99730,0,0,445,276,24,256,29997,1766,28920,0,270,0.7,10,0,0,0,0,0,0,0,0,0,0,0,0
2005,7,10,16,0,,27.8,19.4,61,99710,0,0,442,346,70,293,36103,6135,33435,0,250,1.8,9,0,0,0,0,0,0,0,0,0,0,0,0
2005,7,10,17,0,,28.4,19.4,60,99700,0,0,438,277,79,229,27367,6267,25826,0,250,1.5,9,0,0,0,0,0,0,0,0,0,0,0,0
2005,7,10,18,0,,27.7,19.4,60,99680,0,0,428,229,143,166,18590,8727,18105,0,230,1.3,8,0,0,0,0,0,0,0,0,0,0,0,0
2005,7,10,19,0,,26.7,20.2,68,99720,0,0,417,129,173,86,0,0,0,0,250,0.9,7,0,0,0,0,0,0,0,0,0,0,0,0
2005,7,10,20,0,,25.6,21,81,99750,0,0,407,34,11,24,0,0,0,0,290,0.6,6,0,0,0,0,0,0,0,0,0,0,0,0
2005,7,10,21,0,,24.4,21.8,85,99790,0,0,398,0,0,0,0,0,0,0,250,0.5,5,0,0,0,0,0,0,0,0,0,0,0,0
2005,7,10,22,0,,23.1,21.3,88,99800,0,0,397,0,0,0,0,0,0,0,0,0.1,7,0,0,0,0,0,0,0,0,0,0,0,0
2005,7,10,23,0,,22.4,20.9,89,99800,0,0,403,0,0,0,0,0,0,0,0,0.2,8,0,0,0,0,0,0,0,0,0,0,0,0
2005,7,10,24,0,,22,20.4,90,99810,0,0,418,0,0,0,0,0,0,0,0,0,10,0,0,0,0,0,0,0,0,0,0,0,0
2005,7,11,1,0,,21.9,19.3,81,99800,0,0,416,0,0,0,0,0,0,0,70,1,10,0,0,0,0,0,0,0,0,0,0,0,0
2005,7,11,2,0,,22,18.3,76,99780,0,0,415,0,0,0,0,0,0,0,70,1.9,10,0,0,0,0,0,0,0,0,0,0,0,0
2005,7,11,3,0,,21.6,17.2,75,99770,0,0,411,0,0,0,0,0,0,0,70,1.5,10,0,0,0,0,0,0,0,0,0,0,0,0
2005,7,11,4,0,,21.6,16.9,73,99740,0,0,411,0,0,0,0,0,0,0,70,1.7,10,0,0,0,0,0,0,0,0,0,0,0,0
2005,7,11,5,0,,21.4,16.7,73,99710,0,0,410,0,0,0,0,0,0,0,50,2.2,10,0,0,0,0,0,0,0,0,0,0,0,0
2005,7,11,6,0,,21,16.4,74,99680,0,0,407,10,1,9,1279,15,1272,0,90,3.3,10,0,0,0,0,0,0,0,0,0,0,0,0
2005,7,11,7,0,,20.1,16.6,81,99660,0,0,402,47,16,44,6179,1404,5365,0,50,1.7,10,0,0,0,0,0,0,0,0,0,0,0,0
2005,7,11,8,0,,19.3,16.9,85,99630,0,0,398,92,14,86,11317,1267,10386,0,90,2.3,10,0,0,0,0,0,0,0,0,0,0,0,0
2005,7,11,9,0,,19.3,17.1,86,99610,0,0,399,139,14,131,16709,1230,15658,0,360,1.3,10,0,0,0,0,0,0,0,0,0,0,0,0
2005,7,11,10,0,,19.8,17.1,84,99610,0,0,401,197,17,185,23342,1490,21953,0,0,0.2,10,0,0,0,0,0,0,0,0,0,0,0,0
2005,7,11,11,0,,20.9,17.2,79,99610,0,0,407,277,26,255,32270,2338,30022,0,20,1.6,10,0,0,0,0,0,0,0,0,0,0,0,0
2005,7,11,12,0,,21.4,17.2,76,99610,0,0,410,324,30,297,37231,2715,34677,0,70,1.9,10,0,0,0,0,0,0,0,0,0,0,0,0
2005,7,11,13,0,,21,17.2,81,99570,0,0,408,299,22,279,34256,1964,32544,0,50,1.2,10,0,0,0,0,0,0,0,0,0,0,0,0
2005,7,11,14,0,,21.4,17.1,80,99530,0,0,410,292,22,272,32872,1592,31664,0,20,1.5,10,0,0,0,0,0,0,0,0,0,0,0,0
2005,7,11,15,0,,21.5,17.1,75,99490,0,0,411,262,21,244,28687,1541,27748,0,50,1.8,10,0,0,0,0,0,0,0,0,0,0,0,0
2005,7,11,16,0,,20.9,17.6,86,99460,0,0,408,215,19,200,22708,1341,22126,0,20,1.3,10,0,0,0,0,0,0,0,0,0,0,0,0
2005,7,11,17,0,,20.9,18.2,86,99440,0,0,409,168,20,156,16734,1168,16448,0,340,1.9,10,0,0,0,0,0,0,0,0,0,0,0,0
2005,7,11,18,0,,20.8,18.7,87,99410,0,0,409,102,15,96,9207,723,9167,0,360,1.5,10,0,0,0,0,0,0,0,0,0,0,0,0
2005,7,11,19,0,,20.8,18.6,86,99470,0,0,409,54,15,50,0,0,0,0,360,0.4,10,0,0,0,0,0,0,0,0,0,0,0,0
2005,7,11,20,0,,20.4,18.4,85,99540,0,0,406,11,0,11,0,0,0,0,50,0.5,10,0,0,0,0,0,0,0,0,0,0,0,0
2005,7,11,21,0,,20.2,18.3,88,99600,0,0,405,0,0,0,0,0,0,0,110,0.4,10,0,0,0,0,0,0,0,0,0,0,0,0
2005,7,11,22,0,,19.8,18.2,89,99630,0,0,392,0,0,0,0,0,0,0,70,0.4,9,0,0,0,0,0,0,0,0,0,0,0,0
2005,7,11,23,0,,19.7,18.1,90,99660,0,0,383,0,0,0,0,0,0,0,0,0,8,0,0,0,0,0,0,0,0,0,0,0,0
2005,7,11,24,0,,19.7,18,89,99690,0,0,377,0,0,0,0,0,0,0,0,0.1,7,0,0,0,0,0,0,0,0,0,0,0,0
2005,7,12,1,0,,19.5,18.1,90,99710,0,0,374,0,0,0,0,0,0,0,340,0.5,7,0,0,0,0,0,0,0,0,0,0,0,0
2005,7,12,2,0,,19.4,18.1,90,99740,0,0,372,0,0,0,0,0,0,0,0,0,6,0,0,0,0,0,0,0,0,0,0,0,0
2005,7,12,3,0,,19.4,18.2,92,99760,0,0,371,0,0,0,0,0,0,0,0,0.2,6,0,0,0,0,0,0,0,0,0,0,0,0
2005,7,12,4,0,,19.2,17.9,92,99790,0,0,366,0,0,0,0,0,0,0,110,0.3,5,0,0,0,0,0,0,0,0,0,0,0,0
2005,7,12,5,0,,18.6,17.6,93,99820,0,0,360,0,0,0,0,0,0,0,0,0.2,4,0,0,0,0,0,0,0,0,0,0,0,0
2005,7,12,6,0,,18.3,17.3,93,99850,0,0,356,31,14,17,2868,1198,2388,0,110,0.6,3,0,0,0,0,0,0,0,0,0,0,0,0
2005,7,12,7,0,,19.2,17.5,91,99900,0,0,364,136,302,72,29145,29670,11973,0,50,0.7,4,0,0,0,0,0,0,0,0,0,0,0,0
2005,7,12,8,0,,20.9,17.6,83,99940,0,0,377,260,284,145,40652,26211,21427,0,110,1.3,6,0,0,0,0,0,0,0,0,0,0,0,0
2005,7,12,9,0,,22.1,17.8,76,99990,0,0,389,352,188,243,46013,16998,31502,0,360,0.4,7,0,0,0,0,0,0,0,0,0,0,0,0
2005,7,12,10,0,,24,17.3,63,99970,0,0,400,475,191,335,57911,17365,41740,0,140,0.9,7,0,0,0,0,0,0,0,0,0,0,0,0
2005,7,12,11,0,,25.4,16.9,60,99960,0,0,410,511,137,394,58930,12659,46769,0,250,1.5,8,0,0,0,0,0,0,0,0,0,0,0,0
2005,7,12,12,0,,26.6,16.4,53,99940,0,0,418,563,133,439,63073,12254,51551,0,250,1.8,8,0,0,0,0,0,0,0,0,0,0,0,0
2005,7,12,13,0,,25.8,16.9,59,99930,0,0,420,428,57,373,47751,5294,43139,0,270,0.7,9,0,0,0,0,0,0,0,0,0,0,0,0
2005,7,12,14,0,,26.5,17.5,58,99910,0,0,432,427,61,370,46867,5634,42596,0,250,2.1,9,0,0,0,0,0,0,0,0,0,0,0,0
2005,7,12,15,0,,26.2,18,60,99900,0,0,439,280,25,259,30414,1890,29263,0,230,2,10,0,0,0,0,0,0,0,0,0,0,0,0
2005,7,12,16,0,,25.7,18.2,62,99890,0,0,428,315,54,274,33313,4802,31231,0,230,1.6,9,0,0,0,0,0,0,0,0,0,0,0,0
2005,7,12,17,0,,26.2,18.4,61,99880,0,0,424,242,55,209,24619,4349,23558,0,250,1.1,9,0,0,0,0,0,0,0,0,0,0,0,0
2005,7,12,18,0,,26.3,18.6,62,99870,0,0,419,214,119,162,17995,7325,17604,0,180,1.3,8,0,0,0,0,0,0,0,0,0,0,0,0
2005,7,12,19,0,,25.9,19.4,66,99910,0,0,416,118,136,84,0,0,0,0,250,0.4,8,0,0,0,0,0,0,0,0,0,0,0,0
2005,7,12,20,0,,24.6,20.1,82,99960,0,0,407,30,7,23,0,0,0,0,340,0.5,7,0,0,0,0,0,0,0,0,0,0,0,0
2005,7,12,21,0,,23.6,20.9,84,100000,0,0,401,0,0,0,0,0,0,0,0,0.1,7,0,0,0,0,0,0,0,0,0,0,0,0
2005,7,12,22,0,,23.1,20.8,86,100010,0,0,398,0,0,0,0,0,0,0,290,0.3,7,0,0,0,0,0,0,0,0,0,0,0,0
2005,7,12,23,0,,22.2,20.6,88,100020,0,0,393,0,0,0,0,0,0,0,20,1,7,0,0,0,0,0,0,0,0,0,0,0,0
2005,7,12,24,0,,21.7,20.5,92,100030,0,0,390,0,0,0,0,0,0,0,320,0.3,7,0,0,0,0,0,0,0,0,0,0,0,0
2005,7,13,1,0,,21.4,20.2,91,100010,0,0,388,0,0,0,0,0,0,0,50,0.4,7,0,0,0,0,0,0,0,0,0,0,0,0
2005,7,13,2,0,,21,20,92,99980,0,0,386,0,0,0,0,0,0,0,340,0.9,7,0,0,0,0,0,0,0,0,0,0,0,0
2005,7,13,3,0,,20.9,19.7,92,99960,0,0,385,0,0,0,0,0,0,0,0,0.1,7,0,0,0,0,0,0,0,0,0,0,0,0
2005,7,13,4,0,,21,19.8,92,99970,0,0,392,0,0,0,0,0,0,0,0,0,8,0,0,0,0,0,0,0,0,0,0,0,0
2005,7,13,5,0,,21,19.8,92,99980,0,0,400,0,0,0,0,0,0,0,230,0.8,9,0,0,0,0,0,0,0,0,0,0,0,0
2005,7,13,6,0,,20.9,19.9,93,99990,0,0,411,7,0,7,935,5,933,0,340,1.4,10,0,0,0,0,0,0,0,0,0,0,0,0
2005,7,13,7,0,,21.1,20,93,100010,0,0,412,46,16,43,6022,1314,5263,0,290,1.1,10,0,0,0,0,0,0,0,0,0,0,0,0
2005,7,13,8,0,,21.6,20.2,91,100030,0,0,415,99,18,92,12233,1548,11100,0,0,0.1,10,0,0,0,0,0,0,0,0,0,0,0,0
2005,7,13,9,0,,22.8,20.3,85,100050,0,0,422,166,23,153,20083,2026,18355,0,320,0.7,10,0,0,0,0,0,0,0,0,0,0,0,0
2005,7,13,10,0,,23.5,20.5,81,100050,0,0,427,226,24,208,26763,2140,24772,0,320,1.2,10,0,0,0,0,0,0,0,0,0,0,0,0
2005,7,13,11,0,,23.8,20.7,81,100050,0,0,429,271,24,250,31690,2127,29648,0,320,1,10,0,0,0,0,0,0,0,0,0,0,0,0
2005,7,13,12,0,,23.6,20.9,84,100050,0,0,428,257,16,242,30261,966,29353,0,340,0.6,10,0,0,0,0,0,0,0,0,0,0,0,0
2005,7,13,13,0,,23.2,21,87,100040,0,0,426,264,15,249,30631,974,29783,0,340,1.6,10,0,0,0,0,0,0,0,0,0,0,0,0
2005,7,13,14,0,,23,21,88,100040,0,0,424,230,11,219,26412,705,25878,0,360,1.5,10,0,0,0,0,0,0,0,0,0,0,0,0
2005,7,13,15,0,,24,21.1,83,100030,0,0,430,249,18,233,27265,1229,26518,0,70,0.8,10,0,0,0,0,0,0,0,0,0,0,0,0
2005,7,13,16,0,,23.6,21,85,100030,0,0,428,199,15,187,21147,991,20718,0,250,0.3,10,0,0,0,0,0,0,0,0,0,0,0,0
2005,7,13,17,0,,23.2,20.9,87,100040,0,0,425,168,20,156,16622,1107,16353,0,140,0.9,10,0,0,0,0,0,0,0,0,0,0,0,0
2005,7,13,18,0,,23.9,20.8,82,100040,0,0,429,111,19,103,9790,1119,9732,0,0,0.1,10,0,0,0,0,0,0,0,0,0,0,0,0
2005,7,13,19,0,,23.6,21,86,100100,0,0,428,57,18,53,0,0,0,0,0,0.2,10,0,0,0,0,0,0,0,0,0,0,0,0
2005,7,13,20,0,,23.1,21.1,90,100160,0,0,425,12,1,12,0,0,0,0,270,1.3,10,0,0,0,0,0,0,0,0,0,0,0,0
2005,7,13,21,0,,22.4,21.3,93,100220,0,0,421,0,0,0,0,0,0,0,0,0.1,10,0,0,0,0,0,0,0,0,0,0,0,0
2005,7,13,22,0,,22.2,21.1,93,100250,0,0,420,0,0,0,0,0,0,0,0,0.2,10,0,0,0,0,0,0,0,0,0,0,0,0
2005,7,13,23,0,,22,20.9,93,100290,0,0,419,0,0,0,0,0,0,0,0,0.1,10,0,0,0,0,0,0,0,0,0,0,0,0
2005,7,13,24,0,,21.8,20.7,93,100320,0,0,417,0,0,0,0,0,0,0,360,0.4,10,0,0,0,0,0,0,0,0,0,0,0,0
2005,7,14,1,0,,21.8,20.7,93,100320,0,0,417,0,0,0,0,0,0,0,0,0,10,0,0,0,0,0,0,0,0,0,0,0,0
2005,7,14,2,0,,21.8,20.7,93,100310,0,0,417,0,0,0,0,0,0,0,0,0,10,0,0,0,0,0,0,0,0,0,0,0,0
2005,7,14,3,0,,21.8,20.7,93,100310,0,0,417,0,0,0,0,0,0,0,0,0.2,10,0,0,0,0,0,0,0,0,0,0,0,0
2005,7,14,4,0,,21.7,20.7,93,100350,0,0,417,0,0,0,0,0,0,0,0,0,10,0,0,0,0,0,0,0,0,0,0,0,0
2005,7,14,5,0,,21.6,20.6,93,100400,0,0,416,0,0,0,0,0,0,0,90,0.5,10,0,0,0,0,0,0,0,0,0,0,0,0
2005,7,14,6,0,,21.5,20.6,94,100440,0,0,415,6,0,6,789,2,788,0,320,0.9,10,0,0,0,0,0,0,0,0,0,0,0,0
2005,7,14,7,0,,21.5,20.7,94,100460,0,0,416,43,13,40,5629,1119,4984,0,0,0.1,10,0,0,0,0,0,0,0,0,0,0,0,0
2005,7,14,8,0,,21.8,20.7,93,100490,0,0,417,93,15,87,11494,1305,10540,0,340,0.5,10,0,0,0,0,0,0,0,0,0,0,0,0
2005,7,14,9,0,,23.3,20.8,85,100510,0,0,426,170,25,156,20497,2146,18669,0,200,0.9,10,0,0,0,0,0,0,0,0,0,0,0,0
2005,7,14,10,0,,24.9,20.5,76,100520,0,0,435,256,35,231,30277,3078,27417,0,250,1.2,10,0,0,0,0,0,0,0,0,0,0,0,0
2005,7,14,11,0,,25.2,20.2,75,100520,0,0,436,300,32,273,34950,2861,32205,0,200,0.8,10,0,0,0,0,0,0,0,0,0,0,0,0
2005,7,14,12,0,,26.9,19.9,65,100530,0,0,446,350,37,316,40199,3302,37099,0,250,2.2,10,0,0,0,0,0,0,0,0,0,0,0,0
2005,7,14,13,0,,27.4,20,67,100470,0,0,433,444,64,383,49545,5713,44576,0,270,1.9,9,0,0,0,0,0,0,0,0,0,0,0,0
2005,7,14,14,0,,28.2,20.2,62,100420,0,0,427,601,155,455,64283,13389,54151,0,230,0.9,7,0,0,0,0,0,0,0,0,0,0,0,0
2005,7,14,15,0,,29.3,20.3,58,100360,0,0,427,621,222,427,61981,18673,50642,0,290,1.9,6,0,0,0,0,0,0,0,0,0,0,0,0
2005,7,14,16,0,,29.9,20.4,54,100360,0,0,428,580,310,345,51311,24218,40858,0,250,2.1,5,0,0,0,0,0,0,0,0,0,0,0,0
2005,7,14,17,0,,29.7,20.6,58,100350,0,0,425,439,306,252,34056,18565,29567,0,250,1.5,5,0,0,0,0,0,0,0,0,0,0,0,0
2005,7,14,18,0,,29.1,20.7,60,100350,0,0,419,313,383,146,16955,0,16955,0,250,1.4,4,0,0,0,0,0,0,0,0,0,0,0,0
2005,7,14,19,0,,28.3,21.3,68,100390,0,0,415,163,335,81,0,0,0,0,250,0.7,4,0,0,0,0,0,0,0,0,0,0,0,0
2005,7,14,20,0,,26.5,22,80,100430,0,0,404,42,22,20,0,0,0,0,290,0.6,3,0,0,0,0,0,0,0,0,0,0,0,0
2005,7,14,21,0,,25.2,22.6,85,100470,0,0,397,0,0,0,0,0,0,0,70,0.3,3,0,0,0,0,0,0,0,0,0,0,0,0
2005,7,14,22,0,,23.9,22.2,87,100490,0,0,392,0,0,0,0,0,0,0,20,0.7,4,0,0,0,0,0,0,0,0,0,0,0,0
2005,7,14,23,0,,23.9,21.9,88,100500,0,0,393,0,0,0,0,0,0,0,320,0.4,4,0,0,0,0,0,0,0,0,0,0,0,0
2005,7,14,24,0,,23.1,21.5,90,100520,0,0,391,0,0,0,0,0,0,0,0,0.1,5,0,0,0,0,0,0,0,0,0,0,0,0
2005,7,15,1,0,,22.3,21.3,93,100530,0,0,388,0,0,0,0,0,0,0,320,1.2,5,0,0,0,0,0,0,0,0,0,0,0,0
2005,7,15,2,0,,22.2,21.2,93,100550,0,0,388,0,0,0,0,0,0,0,0,0,6,0,0,0,0,0,0,0,0,0,0,0,0
2005,7,15,3,0,,22.1,21,93,100560,0,0,388,0,0,0,0,0,0,0,360,0.4,6,0,0,0,0,0,0,0,0,0,0,0,0
2005,7,15,4,0,,22,21,93,100560,0,0,388,0,0,0,0,0,0,0,0,0,6,0,0,0,0,0,0,0,0,0,0,0,0
2005,7,15,5,0,,22.1,21,93,100570,0,0,388,0,0,0,0,0,0,0,320,0.7,6,0,0,0,0,0,0,0,0,0,0,0,0
2005,7,15,6,0,,22.1,21,93,100570,0,0,388,23,7,17,2290,514,2087,0,0,0.2,6,0,0,0,0,0,0,0,0,0,0,0,0
2005,7,15,7,0,,22.5,21,92,100600,0,0,388,124,294,63,27384,28654,10924,0,0,0.2,5,0,0,0,0,0,0,0,0,0,0,0,0
2005,7,15,8,0,,23.2,20.9,87,100630,0,0,390,257,290,142,40543,25716,21776,0,140,0.6,5,0,0,0,0,0,0,0,0,0,0,0,0
2005,7,15,9,0,,24.7,20.9,79,100660,0,0,396,421,338,226,57927,30145,32286,0,290,1.1,4,0,0,0,0,0,0,0,0,0,0,0,0
2005,7,15,10,0,,26.8,20.7,67,100650,0,0,411,550,304,328,66778,26148,42497,0,200,1.1,5,0,0,0,0,0,0,0,0,0,0,0,0
2005,7,15,11,0,,27.7,20.6,65,100630,0,0,421,554,174,406,63786,15259,49160,0,110,0.9,7,0,0,0,0,0,0,0,0,0,0,0,0
2005,7,15,12,0,,28.5,20.4,61,100620,0,0,434,533,115,425,60771,10128,51269,0,270,0.8,8,0,0,0,0,0,0,0,0,0,0,0,0
2005,7,15,13,0,,30.1,20.5,55,100560,0,0,432,686,209,485,73624,18113,57882,0,320,0.8,6,0,0,0,0,0,0,0,0,0,0,0,0
2005,7,15,14,0,,30.6,20.6,56,100500,0,0,428,766,316,469,76268,27037,55831,0,320,2.1,4,0,0,0,0,0,0,0,0,0,0,0,0
2005,7,15,15,0,,31.6,20.7,52,100440,0,0,426,768,559,280,67174,48076,38024,0,250,2.2,2,0,0,0,0,0,0,0,0,0,0,0,0
2005,7,15,16,0,,31.9,21,49,100440,0,0,435,602,423,281,50083,31970,36318,0,250,2,4,0,0,0,0,0,0,0,0,0,0,0,0
2005,7,15,17,0,,31,21.4,55,100440,0,0,436,441,314,250,34009,18611,29533,0,250,2.3,5,0,0,0,0,0,0,0,0,0,0,0,0
2005,7,15,18,0,,30.2,21.7,60,100440,0,0,439,236,161,166,18611,9531,18142,0,250,1.5,7,0,0,0,0,0,0,0,0,0,0,0,0
2005,7,15,19,0,,29.8,22.4,60,100470,0,0,436,127,178,84,0,0,0,0,230,1.4,7,0,0,0,0,0,0,0,0,0,0,0,0
2005,7,15,20,0,,28.7,23,69,100490,0,0,429,35,12,23,0,0,0,0,250,1.6,6,0,0,0,0,0,0,0,0,0,0,0,0
2005,7,15,21,0,,26.2,23.7,86,100520,0,0,414,0,0,0,0,0,0,0,20,1.1,6,0,0,0,0,0,0,0,0,0,0,0,0
2005,7,15,22,0,,25.5,23.2,87,100560,0,0,408,0,0,0,0,0,0,0,0,0.2,6,0,0,0,0,0,0,0,0,0,0,0,0
2005,7,15,23,0,,24.9,22.8,88,100600,0,0,403,0,0,0,0,0,0,0,320,0.9,5,0,0,0,0,0,0,0,0,0,0,0,0
2005,7,15,24,0,,24.1,22.3,89,100640,0,0,397,0,0,0,0,0,0,0,50,0.3,5,0,0,0,0,0,0,0,0,0,0,0,0
2005,7,16,1,0,,23.3,22.2,92,100640,0,0,395,0,0,0,0,0,0,0,360,1.2,6,0,0,0,0,0,0,0,0,0,0,0,0
2005,7,16,2,0,,23.5,22,92,100640,0,0,398,0,0,0,0,0,0,0,340,0.4,6,0,0,0,0,0,0,0,0,0,0,0,0
2005,7,16,3,0,,23.2,21.9,92,100640,0,0,400,0,0,0,0,0,0,0,340,0.3,7,0,0,0,0,0,0,0,0,0,0,0,0
2005,7,16,4,0,,23.3,21.9,91,100670,0,0,400,0,0,0,0,0,0,0,50,0.6,7,0,0,0,0,0,0,0,0,0,0,0,0
2005,7,16,5,0,,23.1,21.9,92,100700,0,0,399,0,0,0,0,0,0,0,360,0.6,7,0,0,0,0,0,0,0,0,0,0,0,0
2005,7,16,6,0,,23.2,21.9,92,100730,0,0,400,19,4,15,2055,312,1932,0,340,0.5,7,0,0,0,0,0,0,0,0,0,0,0,0
2005,7,16,7,0,,23.5,22.1,90,100740,0,0,402,98,145,68,18738,12428,11617,0,90,0.7,7,0,0,0,0,0,0,0,0,0,0,0,0
2005,7,16,8,0,,24.5,22.3,86,100740,0,0,407,209,155,148,30420,12830,21073,0,360,0.4,7,0,0,0,0,0,0,0,0,0,0,0,0
2005,7,16,9,0,,25.5,22.5,83,100750,0,0,413,326,156,237,43429,12944,32433,0,70,1.1,7,0,0,0,0,0,0,0,0,0,0,0,0
2005,7,16,10,0,,27.3,21.8,72,100720,0,0,422,453,170,329,54394,14768,40694,0,140,0.7,7,0,0,0,0,0,0,0,0,0,0,0,0
2005,7,16,11,0,,28.9,21,61,100690,0,0,431,566,186,408,65079,16167,49596,0,250,1.9,7,0,0,0,0,0,0,0,0,0,0,0,0
2005,7,16,12,0,,30.2,20.3,55,100660,0,0,437,637,190,460,70740,16581,55196,0,230,2.6,7,0,0,0,0,0,0,0,0,0,0,0,0
2005,7,16,13,0,,30.8,20.4,56,100630,0,0,441,636,169,473,69318,14679,56572,0,250,2.2,7,0,0,0,0,0,0,0,0,0,0,0,0
2005,7,16,14,0,,30.4,20.5,54,100590,0,0,439,604,158,456,64566,13517,54360,0,250,3,7,0,0,0,0,0,0,0,0,0,0,0,0
2005,7,16,15,0,,30.5,20.6,55,100560,0,0,439,545,154,411,55508,13847,47126,0,230,3.5,7,0,0,0,0,0,0,0,0,0,0,0,0
2005,7,16,16,0,,30.3,20.9,57,100510,0,0,446,404,109,322,40835,9462,36772,0,230,2.9,8,0,0,0,0,0,0,0,0,0,0,0,0
2005,7,16,17,0,,30.2,21.2,57,100450,0,0,455,252,62,214,25459,4761,24320,0,230,2.3,9,0,0,0,0,0,0,0,0,0,0,0,0
2005,7,16,18,0,,29.7,21.5,61,100400,0,0,465,127,29,115,10772,2278,10664,0,230,2.3,10,0,0,0,0,0,0,0,0,0,0,0,0
2005,7,16,19,0,,29,22.1,65,100420,0,0,462,62,23,57,0,0,0,0,230,1.5,10,0,0,0,0,0,0,0,0,0,0,0,0
2005,7,16,20,0,,28.3,22.8,68,100450,0,0,458,12,1,11,0,0,0,0,230,1.8,10,0,0,0,0,0,0,0,0,0,0,0,0
2005,7,16,21,0,,26.9,23.4,81,100470,0,0,451,0,0,0,0,0,0,0,340,0.5,10,0,0,0,0,0,0,0,0,0,0,0,0
2005,7,16,22,0,,25.6,23.1,86,100500,0,0,442,0,0,0,0,0,0,0,320,0.8,10,0,0,0,0,0,0,0,0,0,0,0,0
2005,7,16,23,0,,25.1,22.9,87,100520,0,0,439,0,0,0,0,0,0,0,0,0.2,10,0,0,0,0,0,0,0,0,0,0,0,0
2005,7,16,24,0,,24.8,22.6,87,100550,0,0,437,0,0,0,0,0,0,0,20,0.3,10,0,0,0,0,0,0,0,0,0,0,0,0
2005,7,17,1,0,,24.6,22.5,88,100530,0,0,436,0,0,0,0,0,0,0,320,0.5,10,0,0,0,0,0,0,0,0,0,0,0,0
2005,7,17,2,0,,24.1,22.5,90,100510,0,0,433,0,0,0,0,0,0,0,20,0.8,10,0,0,0,0,0,0,0,0,0,0,0,0
2005,7,17,3,0,,23.9,22.4,91,100490,0,0,432,0,0,0,0,0,0,0,360,0.3,10,0,0,0,0,0,0,0,0,0,0,0,0
2005,7,17,4,0,,23.7,22.3,92,100490,0,0,422,0,0,0,0,0,0,0,0,0.1,9,0,0,0,0,0,0,0,0,0,0,0,0
2005,7,17,5,0,,23.2,22.1,92,100480,0,0,412,0,0,0,0,0,0,0,50,0.3,9,0,0,0,0,0,0,0,0,0,0,0,0
2005,7,17,6,0,,23.1,22,93,100480,0,0,406,14,2,12,1656,41,1640,0,0,0.2,8,0,0,0,0,0,0,0,0,0,0,0,0
2005,7,17,7,0,,23.4,22,92,100500,0,0,413,62,41,54,9420,3494,7424,0,360,0.5,9,0,0,0,0,0,0,0,0,0,0,0,0
2005,7,17,8,0,,24,22.1,88,100530,0,0,423,134,45,117,18260,3912,15415,0,0,0.1,9,0,0,0,0,0,0,0,0,0,0,0,0
2005,7,17,9,0,,25.3,22.1,82,100550,0,0,439,182,31,165,22047,2656,19794,0,230,1.1,10,0,0,0,0,0,0,0,0,0,0,0,0
2005,7,17,10,0,,26.7,21.5,66,100530,0,0,447,264,38,236,31129,3339,28035,0,160,1.3,10,0,0,0,0,0,0,0,0,0,0,0,0
2005,7,17,11,0,,27.5,21,62,100510,0,0,451,334,44,297,38719,3855,35031,0,200,2,10,0,0,0,0,0,0,0,0,0,0,0,0
2005,7,17,12,0,,28.2,20.4,62,100490,0,0,454,348,37,314,39922,3238,36889,0,230,1.7,10,0,0,0,0,0,0,0,0,0,0,0,0
2005,7,17,13,0,,27.3,20.8,68,100460,0,0,449,308,24,285,35377,2073,33579,0,180,1.5,10,0,0,0,0,0,0,0,0,0,0,0,0
2005,7,17,14,0,,26.4,21.3,76,100430,0,0,445,265,17,249,29948,1115,29107,0,180,1.6,10,0,0,0,0,0,0,0,0,0,0,0,0
2005,7,17,15,0,,26.6,21.7,74,100400,0,0,446,233,15,220,25682,996,25080,0,200,1.9,10,0,0,0,0,0,0,0,0,0,0,0,0
2005,7,17,16,0,,25.9,21.8,78,100390,0,0,442,211,18,197,22146,1197,21634,0,160,2.2,10,0,0,0,0,0,0,0,0,0,0,0,0
2005,7,17,17,0,,26.8,21.8,73,100370,0,0,448,176,23,162,17197,1306,16886,0,230,1.5,10,0,0,0,0,0,0,0,0,0,0,0,0
2005,7,17,18,0,,26.8,21.9,74,100360,0,0,448,123,26,111,10433,1998,10341,0,200,1.6,10,0,0,0,0,0,0,0,0,0,0,0,0
2005,7,17,19,0,,26.3,21.8,77,100400,0,0,445,64,26,58,0,0,0,0,230,2,10,0,0,0,0,0,0,0,0,0,0,0,0
2005,7,17,20,0,,26.1,21.8,77,100430,0,0,444,12,1,12,0,0,0,0,250,1.1,10,0,0,0,0,0,0,0,0,0,0,0,0
2005,7,17,21,0,,25.9,21.7,77,100470,0,0,442,0,0,0,0,0,0,0,180,0.8,10,0,0,0,0,0,0,0,0,0,0,0,0
2005,7,17,22,0,,25,21.9,87,100470,0,0,422,0,0,0,0,0,0,0,320,0.5,9,0,0,0,0,0,0,0,0,0,0,0,0
2005,7,17,23,0,,24.2,22,90,100470,0,0,407,0,0,0,0,0,0,0,0,0.1,7,0,0,0,0,0,0,0,0,0,0,0,0
2005,7,17,24,0,,23.5,22.2,92,100470,0,0,397,0,0,0,0,0,0,0,0,0,6,0,0,0,0,0,0,0,0,0,0,0,0
2005,7,18,1,0,,22.7,22.1,93,100470,0,0,399,0,0,0,0,0,0,0,0,0,7,0,0,0,0,0,0,0,0,0,0,0,0
2005,7,18,2,0,,22.9,22,94,100470,0,0,410,0,0,0,0,0,0,0,0,0.2,9,0,0,0,0,0,0,0,0,0,0,0,0
2005,7,18,3,0,,22.8,21.9,94,100470,0,0,425,0,0,0,0,0,0,0,0,0,10,0,0,0,0,0,0,0,0,0,0,0,0
2005,7,18,4,0,,22.9,21.8,93,100480,0,0,425,0,0,0,0,0,0,0,0,0.2,10,0,0,0,0,0,0,0,0,0,0,0,0
2005,7,18,5,0,,23,21.6,93,100500,0,0,425,0,0,0,0,0,0,0,160,0.7,10,0,0,0,0,0,0,0,0,0,0,0,0
2005,7,18,6,0,,22.6,21.5,93,100510,0,0,423,5,0,5,708,2,707,0,360,0.8,10,0,0,0,0,0,0,0,0,0,0,0,0
2005,7,18,7,0,,23.3,21.3,92,100520,0,0,415,67,53,57,10345,4561,7746,0,200,0.5,9,0,0,0,0,0,0,0,0,0,0,0,0
2005,7,18,8,0,,24.6,21.2,85,100530,0,0,413,185,113,141,26886,9580,19932,0,340,0.3,8,0,0,0,0,0,0,0,0,0,0,0,0
2005,7,18,9,0,,26.6,21,71,100540,0,0,417,356,204,239,46919,17489,32102,0,230,1.1,7,0,0,0,0,0,0,0,0,0,0,0,0
2005,7,18,10,0,,27.6,20.5,68,100520,0,0,424,472,194,331,58231,16732,42742,0,250,0.8,7,0,0,0,0,0,0,0,0,0,0,0,0
2005,7,18,11,0,,28.8,20,61,100500,0,0,433,502,134,388,58364,11842,47044,0,230,1.4,8,0,0,0,0,0,0,0,0,0,0,0,0
2005,7,18,12,0,,30,19.5,53,100480,0,0,442,543,123,429,61624,10888,51435,0,270,1.4,8,0,0,0,0,0,0,0,0,0,0,0,0
2005,7,18,13,0,,30.7,19.7,55,100410,0,0,439,632,167,471,68806,14637,56121,0,250,1.9,7,0,0,0,0,0,0,0,0,0,0,0,0
2005,7,18,14,0,,31.7,20,48,100350,0,0,441,678,220,472,70211,18913,55966,0,270,1.6,6,0,0,0,0,0,0,0,0,0,0,0,0
2005,7,18,15,0,,31.8,20.2,50,100280,0,0,438,659,269,425,64027,22522,50441,0,290,2.3,5,0,0,0,0,0,0,0,0,0,0,0,0
2005,7,18,16,0,,32.1,20.4,48,100250,0,0,435,602,428,278,49643,32654,35702,0,180,1.5,4,0,0,0,0,0,0,0,0,0,0,0,0
2005,7,18,17,0,,32.6,20.6,47,100230,0,0,433,513,566,169,31059,35500,22672,0,230,2.3,2,0,0,0,0,0,0,0,0,0,0,0,0
2005,7,18,18,0,,32.1,20.8,51,100200,0,0,423,360,593,105,12431,4573,12229,0,250,2.1,1,0,0,0,0,0,0,0,0,0,0,0,0
2005,7,18,19,0,,30.8,21.7,57,100240,0,0,417,180,480,65,0,0,0,0,250,1.8,1,0,0,0,0,0,0,0,0,0,0,0,0
2005,7,18,20,0,,28.9,22.5,75,100270,0,0,408,42,24,18,0,0,0,0,0,0.2,1,0,0,0,0,0,0,0,0,0,0,0,0
2005,7,18,21,0,,26.9,23.4,81,100310,0,0,398,0,0,0,0,0,0,0,50,0.5,1,0,0,0,0,0,0,0,0,0,0,0,0
2005,7,18,22,0,,25.6,23.1,87,100340,0,0,394,0,0,0,0,0,0,0,360,0.5,2,0,0,0,0,0,0,0,0,0,0,0,0
2005,7,18,23,0,,24.8,22.7,88,100360,0,0,393,0,0,0,0,0,0,0,360,0.4,2,0,0,0,0,0,0,0,0,0,0,0,0
2005,7,18,24,0,,24.2,22.4,89,100390,0,0,392,0,0,0,0,0,0,0,340,0.7,3,0,0,0,0,0,0,0,0,0,0,0,0
2005,7,19,1,0,,23.7,22.3,92,100370,0,0,390,0,0,0,0,0,0,0,20,0.4,3,0,0,0,0,0,0,0,0,0,0,0,0
2005,7,19,2,0,,23.7,22.2,92,100350,0,0,391,0,0,0,0,0,0,0,320,0.9,4,0,0,0,0,0,0,0,0,0,0,0,0
2005,7,19,3,0,,23.4,22.1,92,100330,0,0,390,0,0,0,0,0,0,0,0,0.2,4,0,0,0,0,0,0,0,0,0,0,0,0
2005,7,19,4,0,,23.2,22.2,92,100330,0,0,389,0,0,0,0,0,0,0,320,0.9,4,0,0,0,0,0,0,0,0,0,0,0,0
2005,7,19,5,0,,23.3,22.2,92,100330,0,0,390,0,0,0,0,0,0,0,0,0.2,4,0,0,0,0,0,0,0,0,0,0,0,0
2005,7,19,6,0,,23.6,22.3,92,100330,0,0,392,25,10,15,2538,793,2230,0,340,0.3,4,0,0,0,0,0,0,0,0,0,0,0,0
2005,7,19,7,0,,23.9,22.5,91,100340,0,0,396,119,294,60,26801,28498,10605,0,0,0,5,0,0,0,0,0,0,0,0,0,0,0,0
2005,7,19,8,0,,24.5,22.6,89,100350,0,0,403,226,205,146,35555,17767,22682,0,0,0.2,6,0,0,0,0,0,0,0,0,0,0,0,0
2005,7,19,9,0,,25.2,22.8,86,100360,0,0,412,310,138,231,41505,11400,31859,0,50,0.4,7,0,0,0,0,0,0,0,0,0,0,0,0
2005,7,19,10,0,,26.4,22.2,78,100330,0,0,414,477,202,330,59203,16878,43595,0,180,0.6,6,0,0,0,0,0,0,0,0,0,0,0,0
2005,7,19,11,0,,28,21.6,69,100290,0,0,420,587,209,410,67146,18010,49947,0,270,1.4,6,0,0,0,0,0,0,0,0,0,0,0,0
2005,7,19,12,0,,29.5,21,60,100260,0,0,425,730,287,464,80977,24346,58216,0,270,1.6,5,0,0,0,0,0,0,0,0,0,0,0,0
2005,7,19,13,0,,31,21.1,53,100190,0,0,431,805,449,374,83501,39415,49379,0,290,1.8,4,0,0,0,0,0,0,0,0,0,0,0,0
2005,7,19,14,0,,32,21.1,51,100130,0,0,433,827,541,319,78627,47144,43166,0,250,1.8,3,0,0,0,0,0,0,0,0,0,0,0,0
2005,7,19,15,0,,32.6,21.2,51,100060,0,0,433,769,568,275,66834,48444,37667,0,250,2.2,2,0,0,0,0,0,0,0,0,0,0,0,0
2005,7,19,16,0,,33,21.5,52,100030,0,0,437,647,547,234,48403,40798,31042,0,270,2.4,2,0,0,0,0,0,0,0,0,0,0,0,0
2005,7,19,17,0,,32.7,21.9,54,100010,0,0,437,485,484,191,31112,26145,24977,0,250,2.2,3,0,0,0,0,0,0,0,0,0,0,0,0
2005,7,19,18,0,,32.3,22.2,55,99980,0,0,436,329,470,127,15211,0,15211,0,250,1.8,3,0,0,0,0,0,0,0,0,0,0,0,0
2005,7,19,19,0,,31.2,23.1,60,100020,0,0,427,177,463,66,0,0,0,0,250,1.7,2,0,0,0,0,0,0,0,0,0,0,0,0
2005,7,19,20,0,,30.1,24,65,100060,0,0,416,44,20,24,0,0,0,0,180,1.1,1,0,0,0,0,0,0,0,0,0,0,0,0
2005,7,19,21,0,,27.6,24.9,85,100100,0,0,396,0,0,0,0,0,0,0,360,1.1,0,0,0,0,0,0,0,0,0,0,0,0,0
2005,7,19,22,0,,26.7,24.5,88,100110,0,0,391,0,0,0,0,0,0,0,0,0.2,0,0,0,0,0,0,0,0,0,0,0,0,0
2005,7,19,23,0,,26.2,24.2,87,100120,0,0,388,0,0,0,0,0,0,0,320,0.3,0,0,0,0,0,0,0,0,0,0,0,0,0
2005,7,19,24,0,,25.5,23.8,90,100130,0,0,384,0,0,0,0,0,0,0,0,0,0,0,0,0,0,0,0,0,0,0,0,0,0
2005,7,20,1,0,,24.9,23.5,92,100110,0,0,380,0,0,0,0,0,0,0,20,0.7,0,0,0,0,0,0,0,0,0,0,0,0,0
2005,7,20,2,0,,24.5,23.1,92,100080,0,0,378,0,0,0,0,0,0,0,0,0,0,0,0,0,0,0,0,0,0,0,0,0,0
2005,7,20,3,0,,23.9,22.8,93,100060,0,0,374,0,0,0,0,0,0,0,340,0.6,0,0,0,0,0,0,0,0,0,0,0,0,0
2005,7,20,4,0,,24.2,22.9,93,100050,0,0,393,0,0,0,0,0,0,0,140,0.5,3,0,0,0,0,0,0,0,0,0,0,0,0
2005,7,20,5,0,,24.4,22.9,92,100040,0,0,406,0,0,0,0,0,0,0,0,0,7,0,0,0,0,0,0,0,0,0,0,0,0
2005,7,20,6,0,,24.5,23,91,100030,0,0,436,5,0,5,640,2,639,0,0,0.1,10,0,0,0,0,0,0,0,0,0,0,0,0
2005,7,20,7,0,,24.9,22.9,89,100030,0,0,415,81,96,62,13971,7646,9638,0,0,0.2,8,0,0,0,0,0,0,0,0,0,0,0,0
2005,7,20,8,0,,25.5,22.9,86,100020,0,0,406,254,303,136,40387,26150,21476,0,340,0.6,5,0,0,0,0,0,0,0,0,0,0,0,0
2005,7,20,9,0,,26.7,22.8,79,100020,0,0,405,438,436,189,62964,42213,27297,0,320,0.9,3,0,0,0,0,0,0,0,0,0,0,0,0
2005,7,20,10,0,,27.7,22.5,76,99960,0,0,411,578,440,259,72444,38406,36970,0,320,1,3,0,0,0,0,0,0,0,0,0,0,0,0
2005,7,20,11,0,,30,22.3,62,99900,0,0,423,724,514,288,83243,44865,40440,0,250,1.6,3,0,0,0,0,0,0,0,0,0,0,0,0
2005,7,20,12,0,,31.1,22,58,99840,0,0,429,811,532,318,87140,46478,43733,0,250,2.8,3,0,0,0,0,0,0,0,0,0,0,0,0
2005,7,20,13,0,,32.3,21.9,54,99790,0,0,433,869,590,305,86555,51368,42136,0,270,2.8,2,0,0,0,0,0,0,0,0,0,0,0,0
2005,7,20,14,0,,33.2,21.7,51,99730,0,0,435,829,547,316,78658,47239,43178,0,230,2.2,2,0,0,0,0,0,0,0,0,0,0,0,0
2005,7,20,15,0,,33.7,21.6,49,99680,0,0,434,775,584,267,66790,49497,37052,0,250,2.7,1,0,0,0,0,0,0,0,0,0,0,0,0
2005,7,20,16,0,,33.9,21.6,46,99670,0,0,435,657,574,224,50225,45299,31014,0,250,2.8,1,0,0,0,0,0,0,0,0,0,0,0,0
2005,7,20,17,0,,33.7,21.6,47,99650,0,0,434,512,571,167,30803,34858,22683,0,230,2.8,1,0,0,0,0,0,0,0,0,0,0,0,0
2005,7,20,18,0,,33,21.6,51,99640,0,0,430,344,535,115,13242,2034,13160,0,230,1.9,1,0,0,0,0,0,0,0,0,0,0,0,0
2005,7,20,19,0,,31.6,22.6,56,99680,0,0,425,178,480,64,0,0,0,0,230,2,1,0,0,0,0,0,0,0,0,0,0,0,0
2005,7,20,20,0,,30.3,23.6,68,99730,0,0,421,41,24,17,0,0,0,0,180,0.3,2,0,0,0,0,0,0,0,0,0,0,0,0
2005,7,20,21,0,,27.9,24.6,82,99770,0,0,410,0,0,0,0,0,0,0,90,0.4,2,0,0,0,0,0,0,0,0,0,0,0,0
2005,7,20,22,0,,26.6,24.1,86,99810,0,0,403,0,0,0,0,0,0,0,340,1.1,2,0,0,0,0,0,0,0,0,0,0,0,0
2005,7,20,23,0,,25.7,23.7,87,99850,0,0,397,0,0,0,0,0,0,0,20,0.6,2,0,0,0,0,0,0,0,0,0,0,0,0
2005,7,20,24,0,,25.1,23.2,89,99890,0,0,394,0,0,0,0,0,0,0,340,0.4,2,0,0,0,0,0,0,0,0,0,0,0,0
2005,7,21,1,0,,24.6,23,92,99890,0,0,392,0,0,0,0,0,0,0,340,0.6,2,0,0,0,0,0,0,0,0,0,0,0,0
2005,7,21,2,0,,24.1,22.7,92,99880,0,0,390,0,0,0,0,0,0,0,290,0.7,3,0,0,0,0,0,0,0,0,0,0,0,0
2005,7,21,3,0,,23.8,22.5,92,99880,0,0,390,0,0,0,0,0,0,0,0,0,3,0,0,0,0,0,0,0,0,0,0,0,0
2005,7,21,4,0,,23.7,22.6,92,99890,0,0,392,0,0,0,0,0,0,0,320,0.6,4,0,0,0,0,0,0,0,0,0,0,0,0
2005,7,21,5,0,,23.9,22.7,92,99900,0,0,397,0,0,0,0,0,0,0,0,0.2,5,0,0,0,0,0,0,0,0,0,0,0,0
2005,7,21,6,0,,24.1,22.8,92,99910,0,0,401,19,5,14,1955,368,1813,0,340,0.3,6,0,0,0,0,0,0,0,0,0,0,0,0
2005,7,21,7,0,,24.4,22.8,91,99920,0,0,406,95,159,65,18776,13469,11165,0,20,0.9,7,0,0,0,0,0,0,0,0,0,0,0,0
2005,7,21,8,0,,25.3,22.9,87,99940,0,0,415,209,169,144,30727,13807,20762,0,0,0.1,7,0,0,0,0,0,0,0,0,0,0,0,0
2005,7,21,9,0,,27,22.9,78,99950,0,0,429,303,132,228,38670,11298,29138,0,250,1.4,8,0,0,0,0,0,0,0,0,0,0,0,0
2005,7,21,10,0,,28.4,22.6,71,99920,0,0,422,543,304,322,66108,25162,42894,0,250,1.2,5,0,0,0,0,0,0,0,0,0,0,0,0
2005,7,21,11,0,,30.1,22.2,62,99880,0,0,422,723,514,288,83140,44915,40334,0,320,1.8,3,0,0,0,0,0,0,0,0,0,0,0,0
2005,7,21,12,0,,31.4,21.9,57,99850,0,0,413,840,597,287,90830,56988,37664,0,270,2.1,0,0,0,0,0,0,0,0,0,0,0,0,0
2005,7,21,13,0,,32.8,22.3,51,99810,0,0,421,867,586,306,86343,50754,42509,0,290,1.6,0,0,0,0,0,0,0,0,0,0,0,0,0
2005,7,21,14,0,,33.4,22.6,54,99760,0,0,425,833,559,310,78734,47674,42982,0,270,2,0,0,0,0,0,0,0,0,0,0,0,0,0
2005,7,21,15,0,,34.2,23,52,99720,0,0,430,771,578,270,66742,47908,38022,0,250,2.6,0,0,0,0,0,0,0,0,0,0,0,0,0
2005,7,21,16,0,,34.6,23.2,51,99720,0,0,447,641,536,237,48238,38204,32095,0,250,2.2,2,0,0,0,0,0,0,0,0,0,0,0,0
2005,7,21,17,0,,34.2,23.3,52,99730,0,0,453,472,452,199,31688,22770,26424,0,250,2.3,4,0,0,0,0,0,0,0,0,0,0,0,0
2005,7,21,18,0,,33.1,23.5,57,99730,0,0,454,270,260,159,17878,0,17878,0,250,2.5,6,0,0,0,0,0,0,0,0,0,0,0,0
2005,7,21,19,0,,32.3,24.1,63,99780,0,0,444,148,332,70,0,0,0,0,250,1.7,5,0,0,0,0,0,0,0,0,0,0,0,0
2005,7,21,20,0,,31,24.7,68,99840,0,0,433,40,21,18,0,0,0,0,110,1.1,3,0,0,0,0,0,0,0,0,0,0,0,0
2005,7,21,21,0,,28.9,25.3,81,99890,0,0,417,0,0,0,0,0,0,0,340,0.5,2,0,0,0,0,0,0,0,0,0,0,0,0
2005,7,21,22,0,,27.9,25,82,99940,0,0,411,0,0,0,0,0,0,0,360,0.7,2,0,0,0,0,0,0,0,0,0,0,0,0
2005,7,21,23,0,,27.1,24.6,86,99980,0,0,406,0,0,0,0,0,0,0,50,0.6,2,0,0,0,0,0,0,0,0,0,0,0,0
2005,7,21,24,0,,26.4,24.3,88,100030,0,0,402,0,0,0,0,0,0,0,320,1.4,2,0,0,0,0,0,0,0,0,0,0,0,0
2005,7,22,1,0,,25.8,24,89,100030,0,0,397,0,0,0,0,0,0,0,0,0.2,2,0,0,0,0,0,0,0,0,0,0,0,0
2005,7,22,2,0,,25.3,23.8,90,100020,0,0,392,0,0,0,0,0,0,0,360,0.9,1,0,0,0,0,0,0,0,0,0,0,0,0
2005,7,22,3,0,,24.8,23.5,92,100020,0,0,387,0,0,0,0,0,0,0,340,1.4,1,0,0,0,0,0,0,0,0,0,0,0,0
2005,7,22,4,0,,24.7,23.6,92,100040,0,0,392,0,0,0,0,0,0,0,70,0.3,2,0,0,0,0,0,0,0,0,0,0,0,0
2005,7,22,5,0,,24.8,23.6,92,100060,0,0,396,0,0,0,0,0,0,0,20,0.4,3,0,0,0,0,0,0,0,0,0,0,0,0
2005,7,22,6,0,,25,23.7,92,100080,0,0,401,23,9,14,2377,699,2110,0,290,0.6,4,0,0,0,0,0,0,0,0,0,0,0,0
2005,7,22,7,0,,25.4,23.8,91,100100,0,0,405,118,321,56,27454,30902,10042,0,20,0.6,5,0,0,0,0,0,0,0,0,0,0,0,0
2005,7,22,8,0,,25.7,23.8,89,100130,0,0,409,241,265,139,38338,22513,22120,0,340,0.7,5,0,0,0,0,0,0,0,0,0,0,0,0
2005,7,22,9,0,,26.4,23.9,86,100150,0,0,415,352,206,235,46777,16529,32851,0,340,1,6,0,0,0,0,0,0,0,0,0,0,0,0
2005,7,22,10,0,,27.4,23.8,79,100130,0,0,419,448,172,324,53985,14344,40767,0,20,0.7,6,0,0,0,0,0,0,0,0,0,0,0,0
2005,7,22,11,0,,28.6,23.7,75,100100,0,0,425,601,227,409,71246,18249,53873,0,340,0.3,5,0,0,0,0,0,0,0,0,0,0,0,0
2005,7,22,12,0,,30.1,23.6,68,100080,0,0,432,689,244,463,78481,19580,60234,0,270,1.3,5,0,0,0,0,0,0,0,0,0,0,0,0
2005,7,22,13,0,,31.6,22.9,61,100010,0,0,434,825,498,349,84536,42734,47675,0,230,1.4,3,0,0,0,0,0,0,0,0,0,0,0,0
2005,7,22,14,0,,32.9,22.1,55,99950,0,0,434,841,579,300,78798,49790,41519,0,250,1.9,2,0,0,0,0,0,0,0,0,0,0,0,0
2005,7,22,15,0,,33.9,21.4,48,99880,0,0,426,783,607,257,66564,51564,35725,0,250,1.8,0,0,0,0,0,0,0,0,0,0,0,0,0
2005,7,22,16,0,,34.7,22.4,49,99860,0,0,440,664,598,214,49798,46484,30231,0,270,1.8,1,0,0,0,0,0,0,0,0,0,0,0,0
2005,7,22,17,0,,34.4,23.5,55,99850,0,0,446,510,572,166,30703,33266,23074,0,250,2.1,2,0,0,0,0,0,0,0,0,0,0,0,0
2005,7,22,18,0,,33.9,24.5,58,99830,0,0,449,328,481,124,15212,0,15212,0,250,1.5,3,0,0,0,0,0,0,0,0,0,0,0,0
2005,7,22,19,0,,33.1,25.3,62,99860,0,0,441,173,465,65,0,0,0,0,230,1.2,2,0,0,0,0,0,0,0,0,0,0,0,0
2005,7,22,20,0,,31,26,80,99900,0,0,424,40,23,17,0,0,0,0,340,0.9,1,0,0,0,0,0,0,0,0,0,0,0,0
2005,7,22,21,0,,29.6,26.8,85,99930,0,0,409,0,0,0,0,0,0,0,320,0.9,0,0,0,0,0,0,0,0,0,0,0,0,0
2005,7,22,22,0,,28.7,26.3,88,99970,0,0,417,0,0,0,0,0,0,0,340,0.3,2,0,0,0,0,0,0,0,0,0,0,0,0
2005,7,22,23,0,,27.7,25.8,89,100000,0,0,418,0,0,0,0,0,0,0,340,1.1,4,0,0,0,0,0,0,0,0,0,0,0,0
2005,7,22,24,0,,27.2,25.3,89,100040,0,0,421,0,0,0,0,0,0,0,340,1.2,6,0,0,0,0,0,0,0,0,0,0,0,0
2005,7,23,1,0,,26.7,25.1,90,100030,0,0,417,0,0,0,0,0,0,0,20,1.2,6,0,0,0,0,0,0,0,0,0,0,0,0
2005,7,23,2,0,,26.4,25,90,100030,0,0,414,0,0,0,0,0,0,0,320,2.2,5,0,0,0,0,0,0,0,0,0,0,0,0
2005,7,23,3,0,,26.2,24.8,92,100020,0,0,412,0,0,0,0,0,0,0,50,0.3,5,0,0,0,0,0,0,0,0,0,0,0,0
2005,7,23,4,0,,25.9,24.7,93,100040,0,0,405,0,0,0,0,0,0,0,20,0.4,3,0,0,0,0,0,0,0,0,0,0,0,0
2005,7,23,5,0,,25.8,24.6,93,100050,0,0,397,0,0,0,0,0,0,0,20,0.3,2,0,0,0,0,0,0,0,0,0,0,0,0
2005,7,23,6,0,,25.8,24.5,92,100070,0,0,386,25,12,13,2287,916,1938,0,360,1.5,0,0,0,0,0,0,0,0,0,0,0,0,0
2005,7,23,7,0,,26.6,24.4,88,100070,0,0,398,138,449,53,34865,47117,8396,0,360,1.3,1,0,0,0,0,0,0,0,0,0,0,0,0
2005,7,23,8,0,,27.5,24.3,83,100070,0,0,408,301,516,104,52955,50080,16953,0,360,1.4,2,0,0,0,0,0,0,0,0,0,0,0,0
2005,7,23,9,0,,28.8,24.2,76,100070,0,0,419,451,495,172,65772,47721,25629,0,320,1.4,3,0,0,0,0,0,0,0,0,0,0,0,0
2005,7,23,10,0,,30,24.1,70,100040,0,0,421,606,525,227,78231,50283,31954,0,320,1.5,2,0,0,0,0,0,0,0,0,0,0,0,0
2005,7,23,11,0,,31.6,24,64,100000,0,0,424,733,543,274,86102,51590,37045,0,50,1,1,0,0,0,0,0,0,0,0,0,0,0,0
2005,7,23,12,0,,32.6,23.9,60,99970,0,0,422,822,562,302,87491,47735,43059,0,290,2,0,0,0,0,0,0,0,0,0,0,0,0,0
2005,7,23,13,0,,33.7,23.7,57,99910,0,0,434,857,570,313,85756,48284,44164,0,270,1.9,1,0,0,0,0,0,0,0,0,0,0,0,0
2005,7,23,14,0,,34.6,23.4,53,99840,0,0,443,831,557,310,78522,46922,43452,0,290,2.4,1,0,0,0,0,0,0,0,0,0,0,0,0
2005,7,23,15,0,,34.1,23.2,53,99780,0,0,444,719,462,319,63990,35807,42628,0,270,1.7,2,0,0,0,0,0,0,0,0,0,0,0,0
2005,7,23,16,0,,34.9,24.5,52,99760,0,0,453,611,463,262,49059,31605,35810,0,290,2.2,3,0,0,0,0,0,0,0,0,0,0,0,0
2005,7,23,17,0,,33.8,25.9,60,99750,0,0,451,456,411,210,32758,18290,28599,0,290,2,3,0,0,0,0,0,0,0,0,0,0,0,0
2005,7,23,18,0,,32,27.2,76,99730,0,0,444,284,314,151,17489,0,17489,0,360,1,4,0,0,0,0,0,0,0,0,0,0,0,0
2005,7,23,19,0,,31.8,26.2,76,99770,0,0,442,145,323,70,0,0,0,0,320,1.3,4,0,0,0,0,0,0,0,0,0,0,0,0
2005,7,23,20,0,,30.4,25.3,79,99800,0,0,433,35,15,20,0,0,0,0,360,0.7,4,0,0,0,0,0,0,0,0,0,0,0,0
2005,7,23,21,0,,29.6,24.3,73,99840,0,0,427,0,0,0,0,0,0,0,20,2.1,4,0,0,0,0,0,0,0,0,0,0,0,0
2005,7,23,22,0,,29.2,23.6,69,99860,0,0,425,0,0,0,0,0,0,0,50,2.2,4,0,0,0,0,0,0,0,0,0,0,0,0
2005,7,23,23,0,,28.7,22.8,69,99890,0,0,422,0,0,0,0,0,0,0,70,3,5,0,0,0,0,0,0,0,0,0,0,0,0
2005,7,23,24,0,,28,22.1,70,99910,0,0,418,0,0,0,0,0,0,0,70,3,5,0,0,0,0,0,0,0,0,0,0,0,0
2005,7,24,1,0,,27.6,22.1,70,99920,0,0,415,0,0,0,0,0,0,0,70,2.1,5,0,0,0,0,0,0,0,0,0,0,0,0
2005,7,24,2,0,,26.9,22,74,99940,0,0,410,0,0,0,0,0,0,0,50,1.4,4,0,0,0,0,0,0,0,0,0,0,0,0
2005,7,24,3,0,,26.7,22,75,99950,0,0,408,0,0,0,0,0,0,0,50,1.1,4,0,0,0,0,0,0,0,0,0,0,0,0
2005,7,24,4,0,,26.2,22.3,79,99970,0,0,407,0,0,0,0,0,0,0,20,1.2,5,0,0,0,0,0,0,0,0,0,0,0,0
2005,7,24,5,0,,26.3,22.6,82,100000,0,0,410,0,0,0,0,0,0,0,360,1.1,5,0,0,0,0,0,0,0,0,0,0,0,0
2005,7,24,6,0,,26.1,22.9,82,100020,0,0,412,18,5,13,1826,359,1690,0,360,1.1,6,0,0,0,0,0,0,0,0,0,0,0,0
2005,7,24,7,0,,26.4,22.9,83,100020,0,0,415,108,263,59,24582,25364,10375,0,20,1,6,0,0,0,0,0,0,0,0,0,0,0,0
2005,7,24,8,0,,26.7,22.9,81,100010,0,0,419,202,160,141,29764,13106,20361,0,340,0.7,7,0,0,0,0,0,0,0,0,0,0,0,0
2005,7,24,9,0,,27.7,22.9,75,100010,0,0,426,323,164,231,43209,13489,31879,0,360,1.3,7,0,0,0,0,0,0,0,0,0,0,0,0
2005,7,24,10,0,,28.6,22.9,69,99990,0,0,429,423,148,316,51177,12586,39609,0,320,1.4,7,0,0,0,0,0,0,0,0,0,0,0,0
2005,7,24,11,0,,29.4,22.8,65,99980,0,0,432,578,206,405,66387,17356,49902,0,320,1.7,6,0,0,0,0,0,0,0,0,0,0,0,0
2005,7,24,12,0,,30.6,22.8,63,99960,0,0,438,630,190,455,70322,15914,55527,0,340,0.6,6,0,0,0,0,0,0,0,0,0,0,0,0
2005,7,24,13,0,,31.7,22.7,58,99890,0,0,439,722,250,483,76550,20862,58605,0,320,0.7,5,0,0,0,0,0,0,0,0,0,0,0,0
2005,7,24,14,0,,33.3,22.6,52,99810,0,0,444,805,504,334,77786,42973,45726,0,270,1.4,3,0,0,0,0,0,0,0,0,0,0,0,0
2005,7,24,15,0,,33.6,22.5,52,99740,0,0,440,751,538,285,66244,44897,39529,0,290,1.9,2,0,0,0,0,0,0,0,0,0,0,0,0
2005,7,24,16,0,,34.2,23.3,53,99710,0,0,450,637,534,236,47785,37871,31977,0,250,1.9,3,0,0,0,0,0,0,0,0,0,0,0,0
2005,7,24,17,0,,33.6,24,55,99680,0,0,452,421,290,248,33255,15159,29839,0,290,2.1,5,0,0,0,0,0,0,0,0,0,0,0,0
2005,7,24,18,0,,32.7,24.8,63,99650,0,0,453,262,246,158,17825,0,17825,0,250,1.4,6,0,0,0,0,0,0,0,0,0,0,0,0
2005,7,24,19,0,,30.7,23.7,76,99700,0,0,440,121,189,78,0,0,0,0,340,1,6,0,0,0,0,0,0,0,0,0,0,0,0
2005,7,24,20,0,,29.5,22.7,82,99750,0,0,431,28,8,20,0,0,0,0,20,1.1,6,0,0,0,0,0,0,0,0,0,0,0,0
2005,7,24,21,0,,28.7,21.6,65,99800,0,0,425,0,0,0,0,0,0,0,50,1.7,6,0,0,0,0,0,0,0,0,0,0,0,0
2005,7,24,22,0,,26.7,21.9,74,99820,0,0,412,0,0,0,0,0,0,0,70,0.9,5,0,0,0,0,0,0,0,0,0,0,0,0
2005,7,24,23,0,,26.2,22.3,78,99850,0,0,407,0,0,0,0,0,0,0,50,1.7,5,0,0,0,0,0,0,0,0,0,0,0,0
2005,7,24,24,0,,25.2,22.6,85,99870,0,0,400,0,0,0,0,0,0,0,20,1.8,4,0,0,0,0,0,0,0,0,0,0,0,0
2005,7,25,1,0,,25.1,22.4,85,99850,0,0,401,0,0,0,0,0,0,0,20,0.8,4,0,0,0,0,0,0,0,0,0,0,0,0
2005,7,25,2,0,,24.8,22.3,86,99830,0,0,400,0,0,0,0,0,0,0,20,1.4,5,0,0,0,0,0,0,0,0,0,0,0,0
2005,7,25,3,0,,24.5,22.1,86,99810,0,0,399,0,0,0,0,0,0,0,20,1.9,5,0,0,0,0,0,0,0,0,0,0,0,0
2005,7,25,4,0,,24.3,22.1,86,99830,0,0,398,0,0,0,0,0,0,0,340,1.5,5,0,0,0,0,0,0,0,0,0,0,0,0
2005,7,25,5,0,,23.9,22,88,99840,0,0,396,0,0,0,0,0,0,0,20,1.6,5,0,0,0,0,0,0,0,0,0,0,0,0
2005,7,25,6,0,,24,22,88,99860,0,0,396,19,6,13,1836,433,1673,0,360,1,5,0,0,0,0,0,0,0,0,0,0,0,0
2005,7,25,7,0,,24.7,21.9,83,99850,0,0,401,113,318,54,26855,30910,9596,0,360,1.6,5,0,0,0,0,0,0,0,0,0,0,0,0
2005,7,25,8,0,,25.7,21.9,79,99840,0,0,407,234,255,137,37346,22354,21342,0,20,0.6,6,0,0,0,0,0,0,0,0,0,0,0,0
2005,7,25,9,0,,27.2,21.8,72,99830,0,0,417,379,269,229,52779,23632,32961,0,90,1.2,6,0,0,0,0,0,0,0,0,0,0,0,0
2005,7,25,10,0,,27.8,21.9,70,99800,0,0,427,445,172,321,55654,14479,42363,0,340,1.1,7,0,0,0,0,0,0,0,0,0,0,0,0
2005,7,25,11,0,,28.8,22,65,99770,0,0,444,392,71,333,45067,6153,39230,0,340,1.1,9,0,0,0,0,0,0,0,0,0,0,0,0
2005,7,25,12,0,,29.8,22.1,63,99740,0,0,467,342,36,309,39448,3138,36535,0,290,1.4,10,0,0,0,0,0,0,0,0,0,0,0,0
2005,7,25,13,0,,30.1,22.3,61,99690,0,0,464,345,33,314,39450,2886,36972,0,320,1.5,10,0,0,0,0,0,0,0,0,0,0,0,0
2005,7,25,14,0,,31.7,22.4,55,99630,0,0,470,446,71,379,48877,6237,44233,0,270,1.5,9,0,0,0,0,0,0,0,0,0,0,0,0
2005,7,25,15,0,,31.8,22.6,58,99580,0,0,467,393,65,336,42436,5656,39080,0,250,1.6,9,0,0,0,0,0,0,0,0,0,0,0,0
2005,7,25,16,0,,31.5,22.5,60,99560,0,0,469,340,71,287,35506,5942,33037,0,340,1.5,9,0,0,0,0,0,0,0,0,0,0,0,0
2005,7,25,17,0,,30.9,22.5,63,99550,0,0,469,185,28,168,17677,1621,17315,0,360,1.8,10,0,0,0,0,0,0,0,0,0,0,0,0
2005,7,25,18,0,,28.3,22.4,70,99530,0,0,458,108,20,99,9118,1731,9068,0,20,3.7,10,0,0,0,0,0,0,0,0,0,0,0,0
2005,7,25,19,0,,23.9,22.3,86,99580,0,0,431,23,2,22,0,0,0,0,70,2.5,10,0,0,0,0,0,0,0,0,0,0,0,0
2005,7,25,20,0,,23.9,22.2,87,99620,0,0,431,1,0,1,0,0,0,0,320,1.9,10,0,0,0,0,0,0,0,0,0,0,0,0
2005,7,25,21,0,,23.9,22.1,89,99670,0,0,431,0,0,0,0,0,0,0,360,0.5,10,0,0,0,0,0,0,0,0,0,0,0,0
2005,7,25,22,0,,23.7,22,89,99650,0,0,415,0,0,0,0,0,0,0,320,0.9,9,0,0,0,0,0,0,0,0,0,0,0,0
2005,7,25,23,0,,23.7,22,89,99640,0,0,405,0,0,0,0,0,0,0,70,0.7,7,0,0,0,0,0,0,0,0,0,0,0,0
2005,7,25,24,0,,23.3,21.9,91,99620,0,0,396,0,0,0,0,0,0,0,360,1.3,6,0,0,0,0,0,0,0,0,0,0,0,0
2005,7,26,1,0,,23.1,21.6,90,99610,0,0,393,0,0,0,0,0,0,0,360,1.6,6,0,0,0,0,0,0,0,0,0,0,0,0
2005,7,26,2,0,,22.7,21.4,91,99590,0,0,390,0,0,0,0,0,0,0,50,0.4,5,0,0,0,0,0,0,0,0,0,0,0,0
2005,7,26,3,0,,22.7,21.1,90,99580,0,0,388,0,0,0,0,0,0,0,20,0.3,5,0,0,0,0,0,0,0,0,0,0,0,0
2005,7,26,4,0,,22.4,21.1,90,99570,0,0,385,0,0,0,0,0,0,0,360,0.5,4,0,0,0,0,0,0,0,0,0,0,0,0
2005,7,26,5,0,,22.2,21,92,99570,0,0,382,0,0,0,0,0,0,0,50,0.5,4,0,0,0,0,0,0,0,0,0,0,0,0
2005,7,26,6,0,,22.1,21,93,99560,0,0,379,21,8,13,2111,653,1866,0,0,0,3,0,0,0,0,0,0,0,0,0,0,0,0
2005,7,26,7,0,,22.7,20.9,90,99560,0,0,383,123,354,58,29313,34446,10138,0,0,0.2,3,0,0,0,0,0,0,0,0,0,0,0,0
2005,7,26,8,0,,24.6,20.9,79,99560,0,0,394,274,412,118,47274,40390,18418,0,70,1.3,4,0,0,0,0,0,0,0,0,0,0,0,0
2005,7,26,9,0,,25.9,20.8,73,99560,0,0,402,438,466,177,63642,45548,25507,0,20,1.1,4,0,0,0,0,0,0,0,0,0,0,0,0
2005,7,26,10,0,,26.4,20.7,71,99520,0,0,401,599,519,227,77222,50409,31012,0,320,2.1,3,0,0,0,0,0,0,0,0,0,0,0,0
2005,7,26,11,0,,27.2,20.6,67,99480,0,0,402,709,496,292,81953,44307,39976,0,340,2.4,2,0,0,0,0,0,0,0,0,0,0,0,0
2005,7,26,12,0,,28.4,20.5,62,99440,0,0,403,783,486,336,84987,43246,44887,0,320,1.9,1,0,0,0,0,0,0,0,0,0,0,0,0
2005,7,26,13,0,,29.9,20.9,57,99370,0,0,413,832,524,334,84413,46222,44774,0,180,1.1,1,0,0,0,0,0,0,0,0,0,0,0,0
2005,7,26,14,0,,31.1,21.2,53,99310,0,0,422,812,525,324,77553,45651,43628,0,320,0.6,2,0,0,0,0,0,0,0,0,0,0,0,0
2005,7,26,15,0,,31.7,21.6,55,99240,0,0,428,749,539,284,65793,45630,38794,0,290,1.7,2,0,0,0,0,0,0,0,0,0,0,0,0
2005,7,26,16,0,,32.4,21.8,50,99220,0,0,435,621,500,247,47818,36665,32654,0,230,1.3,3,0,0,0,0,0,0,0,0,0,0,0,0
2005,7,26,17,0,,32.4,22.1,52,99210,0,0,438,474,479,189,30020,24557,24595,0,340,1,3,0,0,0,0,0,0,0,0,0,0,0,0
2005,7,26,18,0,,30.6,22.3,61,99190,0,0,430,298,376,140,16112,0,16112,0,50,1.5,4,0,0,0,0,0,0,0,0,0,0,0,0
2005,7,26,19,0,,29.6,22.4,62,99240,0,0,425,146,303,77,0,0,0,0,50,1.1,4,0,0,0,0,0,0,0,0,0,0,0,0
2005,7,26,20,0,,27.9,22.4,71,99300,0,0,417,29,10,20,0,0,0,0,50,1.4,5,0,0,0,0,0,0,0,0,0,0,0,0
2005,7,26,21,0,,26.8,22.5,77,99350,0,0,412,0,0,0,0,0,0,0,50,1.2,5,0,0,0,0,0,0,0,0,0,0,0,0
2005,7,26,22,0,,26,22.1,80,99390,0,0,407,0,0,0,0,0,0,0,70,1.1,5,0,0,0,0,0,0,0,0,0,0,0,0
2005,7,26,23,0,,26,21.8,77,99440,0,0,407,0,0,0,0,0,0,0,90,1.1,5,0,0,0,0,0,0,0,0,0,0,0,0
2005,7,26,24,0,,25.6,21.4,77,99480,0,0,404,0,0,0,0,0,0,0,70,0.6,5,0,0,0,0,0,0,0,0,0,0,0,0
2005,7,27,1,0,,25.2,21.7,80,99480,0,0,403,0,0,0,0,0,0,0,50,2.1,5,0,0,0,0,0,0,0,0,0,0,0,0
2005,7,27,2,0,,24.9,21.9,86,99470,0,0,403,0,0,0,0,0,0,0,340,0.9,6,0,0,0,0,0,0,0,0,0,0,0,0
2005,7,27,3,0,,24.8,22.2,85,99470,0,0,404,0,0,0,0,0,0,0,0,0.2,6,0,0,0,0,0,0,0,0,0,0,0,0
2005,7,27,4,0,,24.2,22.1,87,99500,0,0,408,0,0,0,0,0,0,0,360,0.5,7,0,0,0,0,0,0,0,0,0,0,0,0
2005,7,27,5,0,,24.4,22,86,99540,0,0,419,0,0,0,0,0,0,0,140,0.7,9,0,0,0,0,0,0,0,0,0,0,0,0
2005,7,27,6,0,,24.1,21.9,87,99570,0,0,432,2,0,2,256,0,256,0,320,1.6,10,0,0,0,0,0,0,0,0,0,0,0,0
2005,7,27,7,0,,24.5,22,83,99600,0,0,434,40,17,37,5401,1402,4623,0,50,0.3,10,0,0,0,0,0,0,0,0,0,0,0,0
2005,7,27,8,0,,25.1,22.2,83,99620,0,0,438,97,22,89,12183,1816,10889,0,0,0.1,10,0,0,0,0,0,0,0,0,0,0,0,0
2005,7,27,9,0,,25.5,22.3,82,99650,0,0,441,164,26,150,19931,2184,18106,0,20,0.5,10,0,0,0,0,0,0,0,0,0,0,0,0
2005,7,27,10,0,,26.4,22,77,99640,0,0,446,235,30,213,27849,2571,25496,0,290,1.2,10,0,0,0,0,0,0,0,0,0,0,0,0
2005,7,27,11,0,,27.9,21.6,67,99620,0,0,454,302,35,272,35189,3040,32312,0,250,1.7,10,0,0,0,0,0,0,0,0,0,0,0,0
2005,7,27,12,0,,29.5,21.3,61,99610,0,0,464,371,45,329,42434,3992,38737,0,250,2.3,10,0,0,0,0,0,0,0,0,0,0,0,0
2005,7,27,13,0,,30.6,21.5,60,99570,0,0,471,383,45,341,43353,3913,40003,0,230,1.4,10,0,0,0,0,0,0,0,0,0,0,0,0
2005,7,27,14,0,,30.4,21.7,59,99520,0,0,470,356,39,320,39950,3420,37413,0,230,1.5,10,0,0,0,0,0,0,0,0,0,0,0,0
2005,7,27,15,0,,26.6,21.9,75,99480,0,0,447,226,14,214,24906,944,24349,0,180,3.8,10,0,0,0,0,0,0,0,0,0,0,0,0
2005,7,27,16,0,,25.6,22.2,86,99460,0,0,441,141,6,137,15525,326,15391,0,360,2.1,10,0,0,0,0,0,0,0,0,0,0,0,0
2005,7,27,17,0,,26.1,22.4,84,99450,0,0,444,113,7,109,11672,248,11618,0,20,0.7,10,0,0,0,0,0,0,0,0,0,0,0,0
2005,7,27,18,0,,26.3,22.7,80,99430,0,0,446,106,19,98,8880,1857,8835,0,340,1,10,0,0,0,0,0,0,0,0,0,0,0,0
2005,7,27,19,0,,25.9,22.9,86,99430,0,0,444,57,24,52,0,0,0,0,360,0.9,10,0,0,0,0,0,0,0,0,0,0,0,0
2005,7,27,20,0,,25.5,23.2,88,99440,0,0,442,7,0,7,0,0,0,0,360,0.5,10,0,0,0,0,0,0,0,0,0,0,0,0
2005,7,27,21,0,,25.1,23.4,90,99440,0,0,440,0,0,0,0,0,0,0,290,0.6,10,0,0,0,0,0,0,0,0,0,0,0,0
2005,7,27,22,0,,25,23.3,89,99410,0,0,439,0,0,0,0,0,0,0,90,0.7,10,0,0,0,0,0,0,0,0,0,0,0,0
2005,7,27,23,0,,24.9,23.1,90,99370,0,0,438,0,0,0,0,0,0,0,290,0.9,10,0,0,0,0,0,0,0,0,0,0,0,0
2005,7,27,24,0,,24.7,23,90,99340,0,0,437,0,0,0,0,0,0,0,20,0.6,10,0,0,0,0,0,0,0,0,0,0,0,0
2005,7,28,1,0,,25.1,23.1,89,99310,0,0,440,0,0,0,0,0,0,0,200,3,10,0,0,0,0,0,0,0,0,0,0,0,0
2005,7,28,2,0,,25.1,23.3,88,99290,0,0,440,0,0,0,0,0,0,0,140,0.8,10,0,0,0,0,0,0,0,0,0,0,0,0
2005,7,28,3,0,,24.7,23.4,92,99260,0,0,438,0,0,0,0,0,0,0,90,0.6,10,0,0,0,0,0,0,0,0,0,0,0,0
2005,7,28,4,0,,24.4,23.2,92,99240,0,0,436,0,0,0,0,0,0,0,180,2.4,10,0,0,0,0,0,0,0,0,0,0,0,0
2005,7,28,5,0,,24.1,22.9,92,99230,0,0,433,0,0,0,0,0,0,0,180,1.8,10,0,0,0,0,0,0,0,0,0,0,0,0
2005,7,28,6,0,,24,22.7,92,99210,0,0,433,1,0,1,140,0,140,0,360,0.6,10,0,0,0,0,0,0,0,0,0,0,0,0
2005,7,28,7,0,,23.8,22.5,93,99200,0,0,431,36,13,34,4791,1055,4207,0,20,0.3,10,0,0,0,0,0,0,0,0,0,0,0,0
2005,7,28,8,0,,23.7,22.4,93,99190,0,0,430,91,18,84,11388,1522,10305,0,340,1,10,0,0,0,0,0,0,0,0,0,0,0,0
2005,7,28,9,0,,23.3,22.2,93,99180,0,0,428,139,16,130,16885,1370,15741,0,320,2.5,10,0,0,0,0,0,0,0,0,0,0,0,0
2005,7,28,10,0,,23.2,22.2,94,99170,0,0,427,173,13,164,20753,1094,19753,0,320,0.4,10,0,0,0,0,0,0,0,0,0,0,0,0
2005,7,28,11,0,,23.4,22.1,94,99150,0,0,428,217,14,205,25718,1203,24581,0,160,2.3,10,0,0,0,0,0,0,0,0,0,0,0,0
2005,7,28,12,0,,23.4,22.1,92,99140,0,0,428,242,14,229,28572,836,27799,0,200,1.5,10,0,0,0,0,0,0,0,0,0,0,0,0
2005,7,28,13,0,,23.5,22,90,99090,0,0,429,251,14,238,29102,859,28367,0,200,1.4,10,0,0,0,0,0,0,0,0,0,0,0,0
2005,7,28,14,0,,23.3,22,90,99050,0,0,428,241,13,228,27360,847,26733,0,250,1.1,10,0,0,0,0,0,0,0,0,0,0,0,0
2005,7,28,15,0,,23.3,21.9,91,99000,0,0,427,218,13,207,24109,845,23612,0,50,0.4,10,0,0,0,0,0,0,0,0,0,0,0,0
2005,7,28,16,0,,23.4,22,91,99010,0,0,428,188,14,178,19902,860,19550,0,140,0.3,10,0,0,0,0,0,0,0,0,0,0,0,0
2005,7,28,17,0,,23.5,22,92,99010,0,0,429,151,16,141,14886,782,14717,0,290,1.1,10,0,0,0,0,0,0,0,0,0,0,0,0
2005,7,28,18,0,,23.6,22.1,91,99020,0,0,429,99,16,92,8383,1508,8350,0,250,1.1,10,0,0,0,0,0,0,0,0,0,0,0,0
2005,7,28,19,0,,23.6,22.1,91,99050,0,0,429,48,16,45,0,0,0,0,290,0.9,10,0,0,0,0,0,0,0,0,0,0,0,0
2005,7,28,20,0,,23.5,22.1,92,99090,0,0,429,7,0,7,0,0,0,0,0,0.1,10,0,0,0,0,0,0,0,0,0,0,0,0
2005,7,28,21,0,,23.2,22.1,93,99120,0,0,427,0,0,0,0,0,0,0,0,0.1,10,0,0,0,0,0,0,0,0,0,0,0,0
2005,7,28,22,0,,22.9,22,93,99120,0,0,425,0,0,0,0,0,0,0,290,0.7,10,0,0,0,0,0,0,0,0,0,0,0,0
2005,7,28,23,0,,22.8,22,94,99130,0,0,425,0,0,0,0,0,0,0,0,0,10,0,0,0,0,0,0,0,0,0,0,0,0
2005,7,28,24,0,,22.8,21.9,94,99130,0,0,425,0,0,0,0,0,0,0,290,0.5,10,0,0,0,0,0,0,0,0,0,0,0,0
2005,7,29,1,0,,22.8,21.7,94,99160,0,0,424,0,0,0,0,0,0,0,0,0,10,0,0,0,0,0,0,0,0,0,0,0,0
2005,7,29,2,0,,22.5,21.6,94,99180,0,0,422,0,0,0,0,0,0,0,0,0.2,10,0,0,0,0,0,0,0,0,0,0,0,0
2005,7,29,3,0,,22.3,21.4,94,99210,0,0,421,0,0,0,0,0,0,0,0,0.1,10,0,0,0,0,0,0,0,0,0,0,0,0
2005,7,29,4,0,,22.1,21.4,94,99250,0,0,420,0,0,0,0,0,0,0,180,0.3,10,0,0,0,0,0,0,0,0,0,0,0,0
2005,7,29,5,0,,22.2,21.4,94,99290,0,0,421,0,0,0,0,0,0,0,160,1.3,10,0,0,0,0,0,0,0,0,0,0,0,0
2005,7,29,6,0,,22.3,21.4,94,99330,0,0,421,1,0,1,170,0,170,0,340,0.7,10,0,0,0,0,0,0,0,0,0,0,0,0
2005,7,29,7,0,,22.6,21,92,99360,0,0,402,74,103,56,13195,8493,8512,0,160,1.9,8,0,0,0,0,0,0,0,0,0,0,0,0
2005,7,29,8,0,,23.2,20.6,87,99400,0,0,394,224,242,135,35983,21573,20672,0,160,1,6,0,0,0,0,0,0,0,0,0,0,0,0
2005,7,29,9,0,,25,20.2,74,99430,0,0,396,423,432,183,61301,42257,26101,0,230,2.3,4,0,0,0,0,0,0,0,0,0,0,0,0
2005,7,29,10,0,,26.7,19.8,64,99420,0,0,405,577,472,241,74111,45808,32300,0,250,2.3,4,0,0,0,0,0,0,0,0,0,0,0,0
2005,7,29,11,0,,27.3,19.4,61,99420,0,0,408,693,467,302,80422,42285,40525,0,230,2.9,4,0,0,0,0,0,0,0,0,0,0,0,0
2005,7,29,12,0,,28.5,19,56,99410,0,0,414,762,448,352,83190,40485,45814,0,250,3.2,4,0,0,0,0,0,0,0,0,0,0,0,0
2005,7,29,13,0,,29.5,19,53,99410,0,0,422,741,278,478,77445,24554,56497,0,250,3,5,0,0,0,0,0,0,0,0,0,0,0,0
2005,7,29,14,0,,29.3,18.9,54,99400,0,0,423,715,270,464,72175,23647,54718,0,230,3.2,5,0,0,0,0,0,0,0,0,0,0,0,0
2005,7,29,15,0,,29.7,18.9,52,99400,0,0,428,602,217,416,59760,18479,48930,0,230,3.6,6,0,0,0,0,0,0,0,0,0,0,0,0
2005,7,29,16,0,,30.2,19,50,99400,0,0,427,549,285,337,48670,22353,39568,0,250,2.6,5,0,0,0,0,0,0,0,0,0,0,0,0
2005,7,29,17,0,,29.9,19.2,52,99390,0,0,422,463,459,192,29382,25073,24023,0,250,2.9,4,0,0,0,0,0,0,0,0,0,0,0,0
2005,7,29,18,0,,29.4,19.3,54,99390,0,0,416,329,533,110,11395,0,11395,0,230,3.4,3,0,0,0,0,0,0,0,0,0,0,0,0
2005,7,29,19,0,,28.3,19.7,61,99450,0,0,413,151,381,68,0,0,0,0,250,1.9,4,0,0,0,0,0,0,0,0,0,0,0,0
2005,7,29,20,0,,27.6,20,65,99500,0,0,411,34,18,16,0,0,0,0,180,2.1,4,0,0,0,0,0,0,0,0,0,0,0,0
2005,7,29,21,0,,26.9,20.4,67,99560,0,0,410,0,0,0,0,0,0,0,200,1.6,5,0,0,0,0,0,0,0,0,0,0,0,0
2005,7,29,22,0,,26.2,20.7,69,99590,0,0,406,0,0,0,0,0,0,0,180,1.3,5,0,0,0,0,0,0,0,0,0,0,0,0
2005,7,29,23,0,,24.6,21.1,80,99630,0,0,398,0,0,0,0,0,0,0,230,0.6,5,0,0,0,0,0,0,0,0,0,0,0,0
2005,7,29,24,0,,23.4,21.4,88,99660,0,0,392,0,0,0,0,0,0,0,0,0.1,5,0,0,0,0,0,0,0,0,0,0,0,0
2005,7,30,1,0,,23,21.3,90,99670,0,0,392,0,0,0,0,0,0,0,0,0,6,0,0,0,0,0,0,0,0,0,0,0,0
2005,7,30,2,0,,22.6,21.1,91,99680,0,0,393,0,0,0,0,0,0,0,320,0.4,6,0,0,0,0,0,0,0,0,0,0,0,0
2005,7,30,3,0,,22.2,21,92,99690,0,0,393,0,0,0,0,0,0,0,340,0.3,7,0,0,0,0,0,0,0,0,0,0,0,0
2005,7,30,4,0,,21.9,20.8,92,99720,0,0,398,0,0,0,0,0,0,0,340,0.7,8,0,0,0,0,0,0,0,0,0,0,0,0
2005,7,30,5,0,,21.8,20.7,93,99740,0,0,406,0,0,0,0,0,0,0,0,0.1,9,0,0,0,0,0,0,0,0,0,0,0,0
2005,7,30,6,0,,21.5,20.5,93,99770,0,0,415,1,0,1,140,0,140,0,360,0.8,10,0,0,0,0,0,0,0,0,0,0,0,0
2005,7,30,7,0,,21.8,20.9,93,99780,0,0,397,67,81,53,11772,6681,8100,0,340,0.3,8,0,0,0,0,0,0,0,0,0,0,0,0
2005,7,30,8,0,,23.2,21.2,88,99790,0,0,394,222,238,134,35624,21039,20726,0,360,0.5,6,0,0,0,0,0,0,0,0,0,0,0,0
2005,7,30,9,0,,25.4,21.6,79,99800,0,0,400,421,431,183,61171,41898,26331,0,20,0.6,4,0,0,0,0,0,0,0,0,0,0,0,0
2005,7,30,10,0,,27.6,21,65,99780,0,0,416,569,454,246,71696,40407,34871,0,250,1.5,5,0,0,0,0,0,0,0,0,0,0,0,0
2005,7,30,11,0,,29.2,20.5,59,99750,0,0,430,590,227,401,69214,19478,50863,0,230,2,7,0,0,0,0,0,0,0,0,0,0,0,0
2005,7,30,12,0,,30.1,19.9,54,99730,0,0,443,558,140,430,63039,12285,51715,0,250,2.2,8,0,0,0,0,0,0,0,0,0,0,0,0
2005,7,30,13,0,,30.7,20.4,53,99700,0,0,453,474,80,398,52412,7179,46298,0,250,3,9,0,0,0,0,0,0,0,0,0,0,0,0
2005,7,30,14,0,,30.6,20.8,53,99660,0,0,461,430,66,369,47138,5883,42805,0,230,2.5,9,0,0,0,0,0,0,0,0,0,0,0,0
2005,7,30,15,0,,29.8,21.3,60,99630,0,0,466,283,27,259,30224,1996,29058,0,250,2.2,10,0,0,0,0,0,0,0,0,0,0,0,0
2005,7,30,16,0,,28.7,21,60,99630,0,0,458,220,22,203,22737,1502,22129,0,250,2.5,10,0,0,0,0,0,0,0,0,0,0,0,0
2005,7,30,17,0,,27.9,20.6,64,99640,0,0,453,152,17,142,14940,843,14762,0,180,1.4,10,0,0,0,0,0,0,0,0,0,0,0,0
2005,7,30,18,0,,27.6,20.3,64,99640,0,0,451,112,24,102,9123,3201,9072,0,200,1.9,10,0,0,0,0,0,0,0,0,0,0,0,0
2005,7,30,19,0,,27,20.7,67,99690,0,0,447,54,22,49,0,0,0,0,160,1.4,10,0,0,0,0,0,0,0,0,0,0,0,0
2005,7,30,20,0,,26.4,21.1,71,99750,0,0,444,8,0,7,0,0,0,0,200,0.6,10,0,0,0,0,0,0,0,0,0,0,0,0
2005,7,30,21,0,,25.7,21.5,77,99800,0,0,441,0,0,0,0,0,0,0,230,0.9,10,0,0,0,0,0,0,0,0,0,0,0,0
2005,7,30,22,0,,24.7,21.5,85,99840,0,0,435,0,0,0,0,0,0,0,50,0.5,10,0,0,0,0,0,0,0,0,0,0,0,0
2005,7,30,23,0,,23.7,21.5,90,99870,0,0,429,0,0,0,0,0,0,0,320,0.6,10,0,0,0,0,0,0,0,0,0,0,0,0
2005,7,30,24,0,,22.9,21.5,91,99910,0,0,425,0,0,0,0,0,0,0,0,0.2,10,0,0,0,0,0,0,0,0,0,0,0,0
2005,7,31,1,0,,22.4,21.2,92,99910,0,0,401,0,0,0,0,0,0,0,340,1,8,0,0,0,0,0,0,0,0,0,0,0,0
2005,7,31,2,0,,22.2,21,92,99920,0,0,389,0,0,0,0,0,0,0,90,0.5,6,0,0,0,0,0,0,0,0,0,0,0,0
2005,7,31,3,0,,21.8,20.7,93,99920,0,0,380,0,0,0,0,0,0,0,0,0.1,4,0,0,0,0,0,0,0,0,0,0,0,0
2005,7,31,4,0,,22.1,20.8,93,99920,0,0,384,0,0,0,0,0,0,0,0,0.2,5,0,0,0,0,0,0,0,0,0,0,0,0
2005,7,31,5,0,,22.3,21,92,99910,0,0,387,0,0,0,0,0,0,0,20,0.8,5,0,0,0,0,0,0,0,0,0,0,0,0
2005,7,31,6,0,,22.3,21.1,92,99910,0,0,390,13,3,10,1345,194,1274,0,20,0.3,6,0,0,0,0,0,0,0,0,0,0,0,0
2005,7,31,7,0,,22.4,21.1,92,99920,0,0,397,80,144,56,16486,12474,9655,0,340,1.8,7,0,0,0,0,0,0,0,0,0,0,0,0
2005,7,31,8,0,,22.9,21,88,99930,0,0,409,132,54,112,18097,4766,14730,0,340,1.9,9,0,0,0,0,0,0,0,0,0,0,0,0
2005,7,31,9,0,,23.9,21,83,99940,0,0,430,167,28,152,20241,2435,18220,0,360,1.6,10,0,0,0,0,0,0,0,0,0,0,0,0
2005,7,31,10,0,,25.4,21,76,99930,0,0,413,434,168,315,52300,14792,38840,0,360,1.3,7,0,0,0,0,0,0,0,0,0,0,0,0
2005,7,31,11,0,,27,21,68,99930,0,0,410,643,297,396,74342,25361,50484,0,270,1.9,5,0,0,0,0,0,0,0,0,0,0,0,0
2005,7,31,12,0,,28.3,21,64,99920,0,0,408,800,538,308,85932,47721,42016,0,250,2,2,0,0,0,0,0,0,0,0,0,0,0,0
2005,7,31,13,0,,29.7,20.5,54,99830,0,0,425,737,276,476,77140,23883,56840,0,290,2.1,5,0,0,0,0,0,0,0,0,0,0,0,0
2005,7,31,14,0,,30.2,20.1,48,99750,0,0,439,599,164,448,63649,14125,53273,0,270,1.6,7,0,0,0,0,0,0,0,0,0,0,0,0
2005,7,31,15,0,,30.1,19.6,53,99660,0,0,465,311,36,281,34331,3170,32486,0,290,0.9,10,0,0,0,0,0,0,0,0,0,0,0,0
2005,7,31,16,0,,30.6,20.3,53,99620,0,0,469,259,35,233,26151,2647,25086,0,250,0.8,10,0,0,0,0,0,0,0,0,0,0,0,0
2005,7,31,17,0,,30.5,21,55,99570,0,0,470,191,33,171,17945,1995,17529,0,230,0.5,10,0,0,0,0,0,0,0,0,0,0,0,0
2005,7,31,18,0,,29.9,21.7,61,99530,0,0,467,124,32,111,9773,5413,9702,0,110,0.7,10,0,0,0,0,0,0,0,0,0,0,0,0
2005,7,31,19,0,,28.4,22.2,72,99560,0,0,458,49,18,45,0,0,0,0,290,1.2,10,0,0,0,0,0,0,0,0,0,0,0,0
2005,7,31,20,0,,26.9,22.7,82,99580,0,0,450,4,0,4,0,0,0,0,20,0.9,10,0,0,0,0,0,0,0,0,0,0,0,0
2005,7,31,21,0,,26,23.2,84,99610,0,0,445,0,0,0,0,0,0,0,320,1.8,10,0,0,0,0,0,0,0,0,0,0,0,0
2005,7,31,22,0,,25.2,22.8,86,99600,0,0,440,0,0,0,0,0,0,0,20,0.5,10,0,0,0,0,0,0,0,0,0,0,0,0
2005,7,31,23,0,,24.4,22.4,85,99590,0,0,434,0,0,0,0,0,0,0,360,1.3,10,0,0,0,0,0,0,0,0,0,0,0,0
2005,7,31,24,0,,24.6,22,85,99580,0,0,435,0,0,0,0,0,0,0,160,1,10,0,0,0,0,0,0,0,0,0,0,0,0
1997,8,1,1,0,,26.9,25.8,94,99930,0,0,438,0,0,0,0,0,0,0,0,0,9,0,0,0,0,0,0,0,0,0,0,0,0
1997,8,1,2,0,,26.6,25.7,94,99920,0,0,444,0,0,0,0,0,0,0,20,1.3,9,0,0,0,0,0,0,0,0,0,0,0,0
1997,8,1,3,0,,26.4,25.6,95,99910,0,0,451,0,0,0,0,0,0,0,0,0,10,0,0,0,0,0,0,0,0,0,0,0,0
1997,8,1,4,0,,26.4,25.7,95,99940,0,0,451,0,0,0,0,0,0,0,0,0,10,0,0,0,0,0,0,0,0,0,0,0,0
1997,8,1,5,0,,26.5,25.7,96,99970,0,0,451,0,0,0,0,0,0,0,0,0,10,0,0,0,0,0,0,0,0,0,0,0,0
1997,8,1,6,0,,26.5,25.8,96,100000,0,0,452,0,0,0,0,0,0,0,0,0,10,0,0,0,0,0,0,0,0,0,0,0,0
1997,8,1,7,0,,26.5,25.7,93,100020,0,0,451,33,12,31,4441,932,3932,0,0,0.2,10,0,0,0,0,0,0,0,0,0,0,0,0
1997,8,1,8,0,,26.9,25.7,90,100050,0,0,454,87,17,81,11014,1392,10033,0,270,1.3,10,0,0,0,0,0,0,0,0,0,0,0,0
1997,8,1,9,0,,28,25.6,87,100070,0,0,460,158,24,145,19331,1981,17690,0,230,2.3,10,0,0,0,0,0,0,0,0,0,0,0,0
1997,8,1,10,0,,28.9,26.1,84,100040,0,0,462,219,26,201,26334,2091,24434,0,290,0.8,10,0,0,0,0,0,0,0,0,0,0,0,0
1997,8,1,11,0,,30.7,26.7,80,100020,0,0,469,368,62,316,42700,5029,37976,0,180,0.3,9,0,0,0,0,0,0,0,0,0,0,0,0
1997,8,1,12,0,,31.6,27.2,77,99990,0,0,472,419,65,360,47884,5244,43066,0,290,1.3,9,0,0,0,0,0,0,0,0,0,0,0,0
1997,8,1,13,0,,32.5,27.3,74,99960,0,0,474,455,72,386,51029,5884,46037,0,250,2.7,9,0,0,0,0,0,0,0,0,0,0,0,0
1997,8,1,14,0,,33.9,27.5,70,99930,0,0,479,513,108,414,55417,8804,48966,0,250,2.3,8,0,0,0,0,0,0,0,0,0,0,0,0
1997,8,1,15,0,,34.6,27.6,67,99900,0,0,481,489,123,384,50966,9984,45176,0,250,4,8,0,0,0,0,0,0,0,0,0,0,0,0
1997,8,1,16,0,,34.6,27.5,68,99870,0,0,484,398,116,313,40226,8991,36628,0,250,3.3,8,0,0,0,0,0,0,0,0,0,0,0,0
1997,8,1,17,0,,34.5,27.5,70,99850,0,0,487,252,72,210,25305,4721,24333,0,230,3,9,0,0,0,0,0,0,0,0,0,0,0,0
1997,8,1,18,0,,33.4,27.4,71,99820,0,0,483,154,61,130,14330,3128,14298,0,230,3,9,0,0,0,0,0,0,0,0,0,0,0,0
1997,8,1,19,0,,32.6,27.1,74,99860,0,0,465,92,110,69,0,0,0,0,250,3,8,0,0,0,0,0,0,0,0,0,0,0,0
1997,8,1,20,0,,31.4,26.8,77,99890,0,0,449,24,7,17,0,0,0,0,230,2.8,6,0,0,0,0,0,0,0,0,0,0,0,0
1997,8,1,21,0,,30.5,26.5,80,99930,0,0,438,0,0,0,0,0,0,0,200,1.2,5,0,0,0,0,0,0,0,0,0,0,0,0
1997,8,1,22,0,,29.5,26.2,84,99940,0,0,426,0,0,0,0,0,0,0,250,2.5,3,0,0,0,0,0,0,0,0,0,0,0,0
1997,8,1,23,0,,27.5,26,88,99960,0,0,408,0,0,0,0,0,0,0,340,0.7,2,0,0,0,0,0,0,0,0,0,0,0,0
1997,8,1,24,0,,27.1,25.7,92,99970,0,0,394,0,0,0,0,0,0,0,20,0.5,0,0,0,0,0,0,0,0,0,0,0,0,0
1997,8,2,1,0,,26.7,25.5,93,99970,0,0,392,0,0,0,0,0,0,0,0,0.2,0,0,0,0,0,0,0,0,0,0,0,0,0
1997,8,2,2,0,,26.3,25.3,94,99970,0,0,390,0,0,0,0,0,0,0,0,0,0,0,0,0,0,0,0,0,0,0,0,0,0
1997,8,2,3,0,,25.9,25.1,95,99970,0,0,387,0,0,0,0,0,0,0,0,0,0,0,0,0,0,0,0,0,0,0,0,0,0
1997,8,2,4,0,,25.5,24.7,93,99980,0,0,403,0,0,0,0,0,0,0,290,0.3,3,0,0,0,0,0,0,0,0,0,0,0,0
1997,8,2,5,0,,25.2,24.4,91,99990,0,0,412,0,0,0,0,0,0,0,0,0,7,0,0,0,0,0,0,0,0,0,0,0,0
1997,8,2,6,0,,26.1,24,89,100000,0,0,447,0,0,0,34,0,34,0,0,0,10,0,0,0,0,0,0,0,0,0,0,0,0
1997,8,2,7,0,,25.7,24.2,89,100010,0,0,445,34,14,32,4569,1076,3983,0,0,0,10,0,0,0,0,0,0,0,0,0,0,0,0
1997,8,2,8,0,,26.2,24.3,89,100010,0,0,448,94,22,86,11881,1800,10615,0,250,0.5,10,0,0,0,0,0,0,0,0,0,0,0,0
1997,8,2,9,0,,26.5,24.5,89,100020,0,0,450,150,21,138,18260,1742,16819,0,250,1.7,10,0,0,0,0,0,0,0,0,0,0,0,0
1997,8,2,10,0,,25.6,24.6,88,100050,0,0,426,306,65,260,38369,5376,33492,0,180,1.7,8,0,0,0,0,0,0,0,0,0,0,0,0
1997,8,2,11,0,,25.4,24.6,87,100080,0,0,414,411,84,341,49596,6883,43141,0,160,0.8,7,0,0,0,0,0,0,0,0,0,0,0,0
1997,8,2,12,0,,27.3,24.7,86,100110,0,0,418,599,173,442,67649,13980,54827,0,90,1.7,5,0,0,0,0,0,0,0,0,0,0,0,0
1997,8,2,13,0,,29.2,24.7,79,100040,0,0,428,704,244,475,75061,19559,58503,0,90,1.3,5,0,0,0,0,0,0,0,0,0,0,0,0
1997,8,2,14,0,,30.2,24.8,73,99960,0,0,434,704,264,460,71875,20883,56614,0,90,2,5,0,0,0,0,0,0,0,0,0,0,0,0
1997,8,2,15,0,,31.9,24.8,66,99890,0,0,444,657,292,409,63160,22290,50284,0,180,2,5,0,0,0,0,0,0,0,0,0,0,0,0
1997,8,2,16,0,,32.2,24.7,66,99850,0,0,448,513,241,336,47772,16738,41116,0,230,2.7,6,0,0,0,0,0,0,0,0,0,0,0,0
1997,8,2,17,0,,32.3,24.6,67,99810,0,0,452,405,285,239,31515,13574,28759,0,230,3.7,6,0,0,0,0,0,0,0,0,0,0,0,0
1997,8,2,18,0,,31.2,24.5,67,99770,0,0,449,226,185,152,16500,0,16500,0,200,3,7,0,0,0,0,0,0,0,0,0,0,0,0
1997,8,2,19,0,,30.2,24.6,71,99810,0,0,450,88,101,67,0,0,0,0,200,3,8,0,0,0,0,0,0,0,0,0,0,0,0
1997,8,2,20,0,,29.3,24.6,75,99860,0,0,454,11,1,10,0,0,0,0,200,2,9,0,0,0,0,0,0,0,0,0,0,0,0
1997,8,2,21,0,,28.8,24.7,79,99900,0,0,464,0,0,0,0,0,0,0,230,2,10,0,0,0,0,0,0,0,0,0,0,0,0
1997,8,2,22,0,,27.7,24.3,80,99930,0,0,426,0,0,0,0,0,0,0,200,2,7,0,0,0,0,0,0,0,0,0,0,0,0
1997,8,2,23,0,,27.3,23.8,80,99950,0,0,411,0,0,0,0,0,0,0,200,1.7,3,0,0,0,0,0,0,0,0,0,0,0,0
1997,8,2,24,0,,26.8,23.4,81,99980,0,0,390,0,0,0,0,0,0,0,200,2,0,0,0,0,0,0,0,0,0,0,0,0,0
1997,8,3,1,0,,26.5,23.3,82,99970,0,0,403,0,0,0,0,0,0,0,180,2,2,0,0,0,0,0,0,0,0,0,0,0,0
1997,8,3,2,0,,26.3,23.2,83,99960,0,0,409,0,0,0,0,0,0,0,180,1.7,5,0,0,0,0,0,0,0,0,0,0,0,0
1997,8,3,3,0,,26,23.1,84,99950,0,0,417,0,0,0,0,0,0,0,200,2,7,0,0,0,0,0,0,0,0,0,0,0,0
1997,8,3,4,0,,25.9,23.1,85,99910,0,0,423,0,0,0,0,0,0,0,160,2,8,0,0,0,0,0,0,0,0,0,0,0,0
1997,8,3,5,0,,25.8,23.2,86,99880,0,0,431,0,0,0,0,0,0,0,180,2,9,0,0,0,0,0,0,0,0,0,0,0,0
1997,8,3,6,0,,25.5,23.2,87,99840,0,0,442,0,0,0,17,0,17,0,160,2,10,0,0,0,0,0,0,0,0,0,0,0,0
1997,8,3,7,0,,25.1,23.4,90,99830,0,0,440,30,9,28,3922,757,3511,0,0,0,10,0,0,0,0,0,0,0,0,0,0,0,0
1997,8,3,8,0,,24.5,23.6,93,99830,0,0,437,73,11,70,9215,907,8579,0,0,0,10,0,0,0,0,0,0,0,0,0,0,0,0
1997,8,3,9,0,,24.5,23.8,96,99820,0,0,437,118,11,112,14493,913,13739,0,50,0.3,10,0,0,0,0,0,0,0,0,0,0,0,0
1997,8,3,10,0,,22,23.1,96,99810,0,0,422,165,12,156,19857,984,18966,0,50,5.7,10,0,0,0,0,0,0,0,0,0,0,0,0
1997,8,3,11,0,,22,22.5,96,99810,0,0,421,161,6,156,19748,323,19446,0,180,0.5,10,0,0,0,0,0,0,0,0,0,0,0,0
1997,8,3,12,0,,22.5,21.8,96,99800,0,0,423,203,9,195,24318,496,23863,0,140,1.7,10,0,0,0,0,0,0,0,0,0,0,0,0
1997,8,3,13,0,,23.4,21.6,95,99790,0,0,428,267,17,251,30768,1093,29844,0,230,1.3,10,0,0,0,0,0,0,0,0,0,0,0,0
1997,8,3,14,0,,23.4,21.5,93,99770,0,0,427,275,20,257,30746,1354,29760,0,200,3,10,0,0,0,0,0,0,0,0,0,0,0,0
1997,8,3,15,0,,22.7,21.3,92,99760,0,0,423,236,17,222,25755,1151,25093,0,200,3,10,0,0,0,0,0,0,0,0,0,0,0,0
1997,8,3,16,0,,24.1,21.5,91,99730,0,0,431,201,18,188,20970,1145,20518,0,200,1,10,0,0,0,0,0,0,0,0,0,0,0,0
1997,8,3,17,0,,24.7,21.7,89,99710,0,0,435,167,23,153,15986,1227,15740,0,250,1.8,10,0,0,0,0,0,0,0,0,0,0,0,0
1997,8,3,18,0,,24,21.9,88,99680,0,0,431,114,27,103,8953,5133,8934,0,250,2.2,10,0,0,0,0,0,0,0,0,0,0,0,0
1997,8,3,19,0,,23.7,22.1,91,99700,0,0,430,44,15,41,0,0,0,0,0,0,10,0,0,0,0,0,0,0,0,0,0,0,0
1997,8,3,20,0,,23.4,22.2,93,99710,0,0,428,3,0,3,0,0,0,0,0,0,10,0,0,0,0,0,0,0,0,0,0,0,0
1997,8,3,21,0,,23.1,22.4,96,99730,0,0,427,0,0,0,0,0,0,0,0,0.2,10,0,0,0,0,0,0,0,0,0,0,0,0
1997,8,3,22,0,,22.9,22.3,96,99710,0,0,426,0,0,0,0,0,0,0,0,0,10,0,0,0,0,0,0,0,0,0,0,0,0
1997,8,3,23,0,,22.8,22.1,96,99700,0,0,425,0,0,0,0,0,0,0,110,0.7,10,0,0,0,0,0,0,0,0,0,0,0,0
1997,8,3,24,0,,22.7,22,96,99680,0,0,424,0,0,0,0,0,0,0,320,0.7,10,0,0,0,0,0,0,0,0,0,0,0,0
1997,8,4,1,0,,22.6,21.9,96,99660,0,0,424,0,0,0,0,0,0,0,0,0.2,10,0,0,0,0,0,0,0,0,0,0,0,0
1997,8,4,2,0,,22.6,21.9,96,99640,0,0,423,0,0,0,0,0,0,0,50,1,10,0,0,0,0,0,0,0,0,0,0,0,0
1997,8,4,3,0,,22.5,21.8,96,99620,0,0,423,0,0,0,0,0,0,0,0,0.2,10,0,0,0,0,0,0,0,0,0,0,0,0
1997,8,4,4,0,,22.1,21.4,96,99600,0,0,420,0,0,0,0,0,0,0,140,2.7,10,0,0,0,0,0,0,0,0,0,0,0,0
1997,8,4,5,0,,21.7,21.1,96,99590,0,0,417,0,0,0,0,0,0,0,90,2.3,10,0,0,0,0,0,0,0,0,0,0,0,0
1997,8,4,6,0,,21.4,20.7,96,99570,0,0,415,0,0,0,0,0,0,0,0,0.2,10,0,0,0,0,0,0,0,0,0,0,0,0
1997,8,4,7,0,,21.5,20.9,95,99530,0,0,416,30,10,28,3936,831,3486,0,0,0.2,10,0,0,0,0,0,0,0,0,0,0,0,0
1997,8,4,8,0,,21.8,21.1,95,99500,0,0,418,80,15,75,10061,1244,9191,0,0,0.2,10,0,0,0,0,0,0,0,0,0,0,0,0
1997,8,4,9,0,,22.3,21.3,94,99460,0,0,421,133,15,124,16120,1324,15029,0,0,0,10,0,0,0,0,0,0,0,0,0,0,0,0
1997,8,4,10,0,,22.7,21.4,94,99460,0,0,423,187,17,175,22294,1452,20981,0,0,0,10,0,0,0,0,0,0,0,0,0,0,0,0
1997,8,4,11,0,,22.6,21.5,94,99470,0,0,423,221,16,208,26166,1343,24911,0,0,0.2,10,0,0,0,0,0,0,0,0,0,0,0,0
1997,8,4,12,0,,22.6,21.6,94,99470,0,0,423,238,14,225,28089,830,27331,0,50,0.3,10,0,0,0,0,0,0,0,0,0,0,0,0
1997,8,4,13,0,,22.6,21.7,94,99440,0,0,423,225,11,215,26333,636,25797,0,0,0,10,0,0,0,0,0,0,0,0,0,0,0,0
1997,8,4,14,0,,22.5,21.8,95,99410,0,0,423,220,11,210,25159,661,24679,0,0,0.2,10,0,0,0,0,0,0,0,0,0,0,0,0
1997,8,4,15,0,,22.7,21.9,95,99380,0,0,424,211,13,201,23317,796,22861,0,360,1,10,0,0,0,0,0,0,0,0,0,0,0,0
1997,8,4,16,0,,22.6,21.8,95,99320,0,0,423,174,12,165,18470,705,18194,0,0,0.2,10,0,0,0,0,0,0,0,0,0,0,0,0
1997,8,4,17,0,,22.5,21.6,95,99260,0,0,423,143,16,135,14097,694,13960,0,110,0.5,10,0,0,0,0,0,0,0,0,0,0,0,0
1997,8,4,18,0,,22.4,21.5,95,99200,0,0,422,91,15,85,7483,2181,7482,0,110,0.8,10,0,0,0,0,0,0,0,0,0,0,0,0
1997,8,4,19,0,,21.8,21.1,95,99200,0,0,410,58,34,51,0,0,0,0,290,0.3,9,0,0,0,0,0,0,0,0,0,0,0,0
1997,8,4,20,0,,21.5,20.6,95,99200,0,0,401,8,0,8,0,0,0,0,110,0.3,9,0,0,0,0,0,0,0,0,0,0,0,0
1997,8,4,21,0,,21.1,20.2,95,99200,0,0,393,0,0,0,0,0,0,0,110,0.7,8,0,0,0,0,0,0,0,0,0,0,0,0
1997,8,4,22,0,,20.7,20.1,95,99210,0,0,385,0,0,0,0,0,0,0,0,0,7,0,0,0,0,0,0,0,0,0,0,0,0
1997,8,4,23,0,,20.7,20,96,99220,0,0,380,0,0,0,0,0,0,0,360,0.3,6,0,0,0,0,0,0,0,0,0,0,0,0
1997,8,4,24,0,,20.5,19.9,96,99230,0,0,376,0,0,0,0,0,0,0,0,0,5,0,0,0,0,0,0,0,0,0,0,0,0
1997,8,5,1,0,,20.4,19.8,96,99230,0,0,378,0,0,0,0,0,0,0,110,1.2,6,0,0,0,0,0,0,0,0,0,0,0,0
1997,8,5,2,0,,20.2,19.8,97,99220,0,0,382,0,0,0,0,0,0,0,0,0,7,0,0,0,0,0,0,0,0,0,0,0,0
1997,8,5,3,0,,20.1,19.7,97,99220,0,0,387,0,0,0,0,0,0,0,0,0,8,0,0,0,0,0,0,0,0,0,0,0,0
1997,8,5,4,0,,20.1,19.5,97,99240,0,0,385,0,0,0,0,0,0,0,0,0,8,0,0,0,0,0,0,0,0,0,0,0,0
1997,8,5,5,0,,20,19.4,96,99260,0,0,382,0,0,0,0,0,0,0,0,0,7,0,0,0,0,0,0,0,0,0,0,0,0
1997,8,5,6,0,,19.8,19.2,96,99280,0,0,379,7,1,6,824,13,820,0,340,1.2,7,0,0,0,0,0,0,0,0,0,0,0,0
1997,8,5,7,0,,19.7,19.3,92,99310,0,0,375,81,189,51,18953,18436,9028,0,360,1.5,6,0,0,0,0,0,0,0,0,0,0,0,0
1997,8,5,8,0,,20.5,19.3,89,99330,0,0,377,209,226,129,33864,20371,19643,0,340,2,6,0,0,0,0,0,0,0,0,0,0,0,0
1997,8,5,9,0,,22.1,19.4,85,99360,0,0,383,372,294,213,52156,26632,30258,0,320,1.2,5,0,0,0,0,0,0,0,0,0,0,0,0
1997,8,5,10,0,,23,19.7,80,99340,0,0,386,521,307,306,63772,26939,39463,0,0,0.2,4,0,0,0,0,0,0,0,0,0,0,0,0
1997,8,5,11,0,,24.5,19.9,76,99330,0,0,392,649,319,386,74682,27803,48742,0,290,1.8,4,0,0,0,0,0,0,0,0,0,0,0,0
1997,8,5,12,0,,25.9,20.2,71,99310,0,0,398,746,436,352,81850,38954,46323,0,320,0.7,3,0,0,0,0,0,0,0,0,0,0,0,0
1997,8,5,13,0,,27.6,21.5,69,99280,0,0,408,789,462,356,81514,40501,47458,0,70,0.7,3,0,0,0,0,0,0,0,0,0,0,0,0
1997,8,5,14,0,,29.7,22.7,67,99260,0,0,419,796,523,317,75927,44618,43608,0,290,0.7,2,0,0,0,0,0,0,0,0,0,0,0,0
1997,8,5,15,0,,31.3,24,65,99230,0,0,429,754,590,255,63933,48066,36515,0,270,3.3,2,0,0,0,0,0,0,0,0,0,0,0,0
1997,8,5,16,0,,31.3,23.7,65,99220,0,0,436,585,451,256,46396,30812,34394,0,230,2.3,4,0,0,0,0,0,0,0,0,0,0,0,0
1997,8,5,17,0,,31,23.5,65,99210,0,0,441,391,269,237,30666,12856,28171,0,230,3,6,0,0,0,0,0,0,0,0,0,0,0,0
1997,8,5,18,0,,30.4,23.2,65,99200,0,0,449,190,119,143,0,0,0,0,230,2.3,8,0,0,0,0,0,0,0,0,0,0,0,0
1997,8,5,19,0,,28.7,23.1,73,99270,0,0,432,97,154,66,0,0,0,0,230,1.3,7,0,0,0,0,0,0,0,0,0,0,0,0
1997,8,5,20,0,,26.3,23,82,99330,0,0,413,17,3,14,0,0,0,0,340,1.2,6,0,0,0,0,0,0,0,0,0,0,0,0
1997,8,5,21,0,,24.7,22.9,90,99400,0,0,401,0,0,0,0,0,0,0,0,0,5,0,0,0,0,0,0,0,0,0,0,0,0
1997,8,5,22,0,,23.5,22.3,91,99410,0,0,391,0,0,0,0,0,0,0,20,0.5,4,0,0,0,0,0,0,0,0,0,0,0,0
1997,8,5,23,0,,22.8,21.6,92,99410,0,0,383,0,0,0,0,0,0,0,20,1,3,0,0,0,0,0,0,0,0,0,0,0,0
1997,8,5,24,0,,22.1,21,93,99420,0,0,375,0,0,0,0,0,0,0,360,1.5,2,0,0,0,0,0,0,0,0,0,0,0,0
1997,8,6,1,0,,21.8,20.7,94,99420,0,0,381,0,0,0,0,0,0,0,360,0.7,4,0,0,0,0,0,0,0,0,0,0,0,0
1997,8,6,2,0,,21.4,20.5,94,99420,0,0,387,0,0,0,0,0,0,0,0,0,7,0,0,0,0,0,0,0,0,0,0,0,0
1997,8,6,3,0,,21.1,20.2,95,99420,0,0,401,0,0,0,0,0,0,0,0,0,9,0,0,0,0,0,0,0,0,0,0,0,0
1997,8,6,4,0,,21.1,20.2,95,99450,0,0,405,0,0,0,0,0,0,0,340,1.3,9,0,0,0,0,0,0,0,0,0,0,0,0
1997,8,6,5,0,,21,20.2,95,99470,0,0,408,0,0,0,0,0,0,0,340,0.8,10,0,0,0,0,0,0,0,0,0,0,0,0
1997,8,6,6,0,,21,20.2,95,99500,0,0,412,0,0,0,0,0,0,0,340,1.8,10,0,0,0,0,0,0,0,0,0,0,0,0
1997,8,6,7,0,,21,20.5,93,99500,0,0,413,32,13,30,4271,1111,3675,0,340,0.8,10,0,0,0,0,0,0,0,0,0,0,0,0
1997,8,6,8,0,,21.3,20.7,92,99490,0,0,415,80,15,74,9967,1266,9086,0,340,1.2,10,0,0,0,0,0,0,0,0,0,0,0,0
1997,8,6,9,0,,22.7,21,90,99490,0,0,423,149,22,137,18023,1876,16484,0,290,0.3,10,0,0,0,0,0,0,0,0,0,0,0,0
1997,8,6,10,0,,23.4,21.6,86,99470,0,0,405,334,86,274,41068,7477,34333,0,160,1,8,0,0,0,0,0,0,0,0,0,0,0,0
1997,8,6,11,0,,25.3,22.1,83,99460,0,0,404,608,261,393,71184,21795,50887,0,270,1.2,5,0,0,0,0,0,0,0,0,0,0,0,0
1997,8,6,12,0,,26.7,22.7,79,99440,0,0,405,728,317,442,80581,26030,56889,0,290,1,3,0,0,0,0,0,0,0,0,0,0,0,0
1997,8,6,13,0,,29,22.8,73,99410,0,0,423,774,336,459,81976,27361,59025,0,290,1.5,4,0,0,0,0,0,0,0,0,0,0,0,0
1997,8,6,14,0,,30.5,23,67,99370,0,0,436,666,230,455,68834,18868,55210,0,270,0.8,6,0,0,0,0,0,0,0,0,0,0,0,0
1997,8,6,15,0,,31.6,23.1,61,99340,0,0,449,563,190,403,57381,15028,48847,0,270,1,7,0,0,0,0,0,0,0,0,0,0,0,0
1997,8,6,16,0,,31.9,23.5,63,99320,0,0,448,505,240,331,46601,16958,40044,0,230,1.7,6,0,0,0,0,0,0,0,0,0,0,0,0
1997,8,6,17,0,,32,23.9,65,99300,0,0,446,387,264,236,30505,12230,28171,0,250,2,6,0,0,0,0,0,0,0,0,0,0,0,0
1997,8,6,18,0,,31,24.3,67,99280,0,0,438,259,312,136,0,0,0,0,270,1,5,0,0,0,0,0,0,0,0,0,0,0,0
1997,8,6,19,0,,30.1,24.3,75,99310,0,0,427,133,363,62,0,0,0,0,0,0,3,0,0,0,0,0,0,0,0,0,0,0,0
1997,8,6,20,0,,27.6,24.3,83,99330,0,0,407,24,9,15,0,0,0,0,50,0.7,2,0,0,0,0,0,0,0,0,0,0,0,0
1997,8,6,21,0,,25.9,24.3,91,99360,0,0,386,0,0,0,0,0,0,0,0,0,0,0,0,0,0,0,0,0,0,0,0,0,0
1997,8,6,22,0,,24.7,23.6,92,99370,0,0,379,0,0,0,0,0,0,0,0,0.2,0,0,0,0,0,0,0,0,0,0,0,0,0
1997,8,6,23,0,,23.9,23,93,99390,0,0,375,0,0,0,0,0,0,0,50,0.7,0,0,0,0,0,0,0,0,0,0,0,0,0
1997,8,6,24,0,,23.3,22.3,94,99400,0,0,371,0,0,0,0,0,0,0,0,0.2,0,0,0,0,0,0,0,0,0,0,0,0,0
1997,8,7,1,0,,23,22,94,99390,0,0,380,0,0,0,0,0,0,0,0,0,2,0,0,0,0,0,0,0,0,0,0,0,0
1997,8,7,2,0,,22.6,21.8,95,99380,0,0,384,0,0,0,0,0,0,0,0,0,3,0,0,0,0,0,0,0,0,0,0,0,0
1997,8,7,3,0,,22.3,21.5,95,99370,0,0,387,0,0,0,0,0,0,0,0,0,5,0,0,0,0,0,0,0,0,0,0,0,0
1997,8,7,4,0,,22.2,21.5,95,99380,0,0,392,0,0,0,0,0,0,0,0,0.2,7,0,0,0,0,0,0,0,0,0,0,0,0
1997,8,7,5,0,,22.4,21.5,95,99390,0,0,404,0,0,0,0,0,0,0,0,0.2,8,0,0,0,0,0,0,0,0,0,0,0,0
1997,8,7,6,0,,22.4,21.5,95,99400,0,0,422,0,0,0,0,0,0,0,0,0,10,0,0,0,0,0,0,0,0,0,0,0,0
1997,8,7,7,0,,22.6,21.8,94,99430,0,0,423,31,13,29,4157,1060,3590,0,0,0,10,0,0,0,0,0,0,0,0,0,0,0,0
1997,8,7,8,0,,22.8,22.1,94,99460,0,0,425,82,16,76,10244,1363,9297,0,0,0.2,10,0,0,0,0,0,0,0,0,0,0,0,0
1997,8,7,9,0,,23.5,22.4,93,99490,0,0,429,136,17,127,16543,1451,15355,0,0,0,10,0,0,0,0,0,0,0,0,0,0,0,0
1997,8,7,10,0,,23.9,22.6,91,99470,0,0,432,192,19,179,22920,1584,21496,0,360,0.8,10,0,0,0,0,0,0,0,0,0,0,0,0
1997,8,7,11,0,,24.5,22.9,88,99440,0,0,436,229,18,215,27111,1492,25725,0,0,0.2,10,0,0,0,0,0,0,0,0,0,0,0,0
1997,8,7,12,0,,25.6,23.1,86,99420,0,0,442,272,21,254,31858,1769,30251,0,90,0.3,10,0,0,0,0,0,0,0,0,0,0,0,0
1997,8,7,13,0,,26.7,23.3,83,99400,0,0,445,300,24,278,34644,2064,32918,0,340,0.5,10,0,0,0,0,0,0,0,0,0,0,0,0
1997,8,7,14,0,,27.1,23.4,81,99390,0,0,443,388,53,340,43132,4540,39864,0,20,0.3,9,0,0,0,0,0,0,0,0,0,0,0,0
1997,8,7,15,0,,27.8,23.6,78,99370,0,0,444,357,55,311,38916,4695,36262,0,20,1.2,9,0,0,0,0,0,0,0,0,0,0,0,0
1997,8,7,16,0,,28.1,23.8,80,99370,0,0,450,300,56,259,31728,4572,29974,0,360,1.2,9,0,0,0,0,0,0,0,0,0,0,0,0
1997,8,7,17,0,,27.3,23.9,83,99360,0,0,449,153,20,142,14721,874,14557,0,340,0.8,10,0,0,0,0,0,0,0,0,0,0,0,0
1997,8,7,18,0,,26.8,24.1,85,99360,0,0,451,88,15,83,0,0,0,0,20,0.5,10,0,0,0,0,0,0,0,0,0,0,0,0
1997,8,7,19,0,,26.2,24,88,99390,0,0,447,36,10,34,0,0,0,0,340,0.3,10,0,0,0,0,0,0,0,0,0,0,0,0
1997,8,7,20,0,,25.3,23.9,91,99410,0,0,442,2,0,2,0,0,0,0,0,0,10,0,0,0,0,0,0,0,0,0,0,0,0
1997,8,7,21,0,,24.9,23.8,94,99440,0,0,439,0,0,0,0,0,0,0,0,0.2,10,0,0,0,0,0,0,0,0,0,0,0,0
1997,8,7,22,0,,24.7,23.6,94,99440,0,0,409,0,0,0,0,0,0,0,0,0.2,7,0,0,0,0,0,0,0,0,0,0,0,0
1997,8,7,23,0,,24.5,23.4,95,99440,0,0,396,0,0,0,0,0,0,0,0,0,3,0,0,0,0,0,0,0,0,0,0,0,0
1997,8,7,24,0,,24.1,23.2,95,99440,0,0,376,0,0,0,0,0,0,0,0,0,0,0,0,0,0,0,0,0,0,0,0,0,0
1997,8,8,1,0,,24,23.2,95,99430,0,0,393,0,0,0,0,0,0,0,0,0,3,0,0,0,0,0,0,0,0,0,0,0,0
1997,8,8,2,0,,23.9,23.1,96,99410,0,0,404,0,0,0,0,0,0,0,0,0,7,0,0,0,0,0,0,0,0,0,0,0,0
1997,8,8,3,0,,23.8,23.1,96,99400,0,0,432,0,0,0,0,0,0,0,0,0,10,0,0,0,0,0,0,0,0,0,0,0,0
1997,8,8,4,0,,23.8,23.1,96,99390,0,0,432,0,0,0,0,0,0,0,290,0.5,10,0,0,0,0,0,0,0,0,0,0,0,0
1997,8,8,5,0,,23.7,23.2,96,99390,0,0,431,0,0,0,0,0,0,0,0,0,10,0,0,0,0,0,0,0,0,0,0,0,0
1997,8,8,6,0,,23.9,23.2,96,99380,0,0,433,0,0,0,0,0,0,0,0,0,10,0,0,0,0,0,0,0,0,0,0,0,0
1997,8,8,7,0,,24,23.8,95,99380,0,0,434,27,2,26,3414,49,3388,0,0,0,10,0,0,0,0,0,0,0,0,0,0,0,0
1997,8,8,8,0,,24.3,24.4,94,99370,0,0,437,79,15,74,9936,1220,9091,0,0,0,10,0,0,0,0,0,0,0,0,0,0,0,0
1997,8,8,9,0,,26.2,25,93,99370,0,0,449,150,23,138,18297,1866,16772,0,20,0.5,10,0,0,0,0,0,0,0,0,0,0,0,0
1997,8,8,10,0,,27.8,25.1,88,99320,0,0,458,231,32,209,27536,2602,25202,0,0,0,10,0,0,0,0,0,0,0,0,0,0,0,0
1997,8,8,11,0,,28.4,25.1,82,99280,0,0,462,278,30,253,32774,2504,30451,0,160,0.7,10,0,0,0,0,0,0,0,0,0,0,0,0
1997,8,8,12,0,,29.6,25.2,77,99230,0,0,470,323,33,293,37504,2764,34999,0,250,2.3,10,0,0,0,0,0,0,0,0,0,0,0,0
1997,8,8,13,0,,30.3,25.2,74,99180,0,0,469,317,28,290,36561,2341,34607,0,180,0.5,10,0,0,0,0,0,0,0,0,0,0,0,0
1997,8,8,14,0,,31.2,25.2,71,99120,0,0,471,417,64,359,46109,5424,42218,0,250,2.3,9,0,0,0,0,0,0,0,0,0,0,0,0
1997,8,8,15,0,,31.9,25.2,68,99070,0,0,471,375,63,322,40651,5259,37693,0,180,1.5,9,0,0,0,0,0,0,0,0,0,0,0,0
1997,8,8,16,0,,31.8,25.5,70,99040,0,0,456,425,149,318,41309,11995,36742,0,250,2.7,7,0,0,0,0,0,0,0,0,0,0,0,0
1997,8,8,17,0,,31.6,25.9,72,99000,0,0,446,360,218,236,30281,9032,28617,0,270,2,6,0,0,0,0,0,0,0,0,0,0,0,0
1997,8,8,18,0,,31.5,26.2,74,98970,0,0,440,270,362,130,0,0,0,0,140,0.7,4,0,0,0,0,0,0,0,0,0,0,0,0
1997,8,8,19,0,,27.3,25.6,81,99000,0,0,422,94,166,63,0,0,0,0,160,4.7,6,0,0,0,0,0,0,0,0,0,0,0,0
1997,8,8,20,0,,26.3,25,87,99040,0,0,428,6,0,6,0,0,0,0,340,0.8,8,0,0,0,0,0,0,0,0,0,0,0,0
1997,8,8,21,0,,25.6,24.4,94,99070,0,0,444,0,0,0,0,0,0,0,290,0.5,10,0,0,0,0,0,0,0,0,0,0,0,0
1997,8,8,22,0,,25.5,24.3,94,99050,0,0,444,0,0,0,0,0,0,0,200,0.7,10,0,0,0,0,0,0,0,0,0,0,0,0
1997,8,8,23,0,,25.4,24.3,94,99020,0,0,443,0,0,0,0,0,0,0,110,0.8,10,0,0,0,0,0,0,0,0,0,0,0,0
1997,8,8,24,0,,25.2,24.2,94,99000,0,0,442,0,0,0,0,0,0,0,0,0,10,0,0,0,0,0,0,0,0,0,0,0,0
1997,8,9,1,0,,25.1,24.2,94,98900,0,0,441,0,0,0,0,0,0,0,340,0.7,10,0,0,0,0,0,0,0,0,0,0,0,0
1997,8,9,2,0,,25.1,24.2,95,98810,0,0,441,0,0,0,0,0,0,0,0,0,10,0,0,0,0,0,0,0,0,0,0,0,0
1997,8,9,3,0,,25,24.2,95,98710,0,0,440,0,0,0,0,0,0,0,0,0,10,0,0,0,0,0,0,0,0,0,0,0,0
1997,8,9,4,0,,25,24.1,95,98700,0,0,440,0,0,0,0,0,0,0,0,0,10,0,0,0,0,0,0,0,0,0,0,0,0
1997,8,9,5,0,,24.8,24.1,95,98700,0,0,439,0,0,0,0,0,0,0,0,0,10,0,0,0,0,0,0,0,0,0,0,0,0
1997,8,9,6,0,,24.8,24,95,98690,0,0,439,0,0,0,0,0,0,0,320,0.8,10,0,0,0,0,0,0,0,0,0,0,0,0
1997,8,9,7,0,,24.6,23.8,95,98670,0,0,438,28,2,27,3490,56,3460,0,360,1,10,0,0,0,0,0,0,0,0,0,0,0,0
1997,8,9,8,0,,24.6,23.5,94,98640,0,0,437,81,17,75,10222,1370,9275,0,320,2.3,10,0,0,0,0,0,0,0,0,0,0,0,0
1997,8,9,9,0,,24.3,23.3,94,98620,0,0,435,131,16,123,16022,1332,14936,0,340,1.3,10,0,0,0,0,0,0,0,0,0,0,0,0
1997,8,9,10,0,,25,24,90,98590,0,0,428,247,39,220,29366,3235,26469,0,340,1.5,9,0,0,0,0,0,0,0,0,0,0,0,0
1997,8,9,11,0,,26.9,24.6,87,98560,0,0,431,394,79,330,45369,6670,39193,0,320,0.7,8,0,0,0,0,0,0,0,0,0,0,0,0
1997,8,9,12,0,,28.5,25.3,83,98530,0,0,434,537,133,417,61888,10675,52234,0,340,0.7,7,0,0,0,0,0,0,0,0,0,0,0,0
1997,8,9,13,0,,29.8,25.5,78,98510,0,0,442,594,157,448,66115,12387,55804,0,110,1,7,0,0,0,0,0,0,0,0,0,0,0,0
1997,8,9,14,0,,31.2,25.7,74,98500,0,0,450,585,163,437,63365,12582,54371,0,250,2,7,0,0,0,0,0,0,0,0,0,0,0,0
1997,8,9,15,0,,32.2,25.9,69,98480,0,0,456,543,176,395,54339,14708,46107,0,250,2.7,7,0,0,0,0,0,0,0,0,0,0,0,0
1997,8,9,16,0,,32.3,25.2,69,98540,0,0,458,459,188,324,43141,15178,37411,0,230,4,7,0,0,0,0,0,0,0,0,0,0,0,0
1997,8,9,17,0,,31.7,24.6,68,98590,0,0,456,298,129,226,27253,8897,25644,0,250,4,8,0,0,0,0,0,0,0,0,0,0,0,0
1997,8,9,18,0,,30.4,23.9,68,98650,0,0,450,184,120,138,0,0,0,0,250,4.7,8,0,0,0,0,0,0,0,0,0,0,0,0
1997,8,9,19,0,,28.6,24.1,74,98750,0,0,429,94,174,62,0,0,0,0,200,1.7,6,0,0,0,0,0,0,0,0,0,0,0,0
1997,8,9,20,0,,28.1,24.4,80,98860,0,0,421,18,5,13,0,0,0,0,230,2.7,5,0,0,0,0,0,0,0,0,0,0,0,0
1997,8,9,21,0,,27.1,24.6,86,98960,0,0,410,0,0,0,0,0,0,0,200,0.7,3,0,0,0,0,0,0,0,0,0,0,0,0
1997,8,9,22,0,,27.2,24,88,99000,0,0,406,0,0,0,0,0,0,0,200,0.7,2,0,0,0,0,0,0,0,0,0,0,0,0
1997,8,9,23,0,,25,23.3,90,99030,0,0,388,0,0,0,0,0,0,0,20,0.5,1,0,0,0,0,0,0,0,0,0,0,0,0
1997,8,9,24,0,,24.1,22.7,92,99070,0,0,375,0,0,0,0,0,0,0,0,0.2,0,0,0,0,0,0,0,0,0,0,0,0,0
1997,8,10,1,0,,23.7,22.4,92,99110,0,0,388,0,0,0,0,0,0,0,360,0.5,3,0,0,0,0,0,0,0,0,0,0,0,0
1997,8,10,2,0,,23.3,22.2,93,99140,0,0,394,0,0,0,0,0,0,0,0,0,5,0,0,0,0,0,0,0,0,0,0,0,0
1997,8,10,3,0,,23,21.9,93,99180,0,0,405,0,0,0,0,0,0,0,50,0.7,8,0,0,0,0,0,0,0,0,0,0,0,0
1997,8,10,4,0,,22.7,21.9,94,99190,0,0,409,0,0,0,0,0,0,0,340,1.2,9,0,0,0,0,0,0,0,0,0,0,0,0
1997,8,10,5,0,,22.7,21.8,96,99210,0,0,416,0,0,0,0,0,0,0,360,0.7,9,0,0,0,0,0,0,0,0,0,0,0,0
1997,8,10,6,0,,22.4,21.8,97,99220,0,0,422,0,0,0,0,0,0,0,360,0.7,10,0,0,0,0,0,0,0,0,0,0,0,0
1997,8,10,7,0,,22.7,21.7,94,99220,0,0,424,30,2,28,3701,75,3662,0,340,2,10,0,0,0,0,0,0,0,0,0,0,0,0
1997,8,10,8,0,,23,21.7,91,99220,0,0,425,84,19,77,10526,1566,9447,0,340,2.3,10,0,0,0,0,0,0,0,0,0,0,0,0
1997,8,10,9,0,,23.7,21.6,88,99220,0,0,429,156,26,142,18912,2242,17088,0,340,1.8,10,0,0,0,0,0,0,0,0,0,0,0,0
1997,8,10,10,0,,24.7,21.9,85,99220,0,0,435,197,21,183,23509,1781,21917,0,0,0.2,10,0,0,0,0,0,0,0,0,0,0,0,0
1997,8,10,11,0,,24.8,22.2,83,99220,0,0,436,248,23,230,29259,1939,27467,0,0,0,10,0,0,0,0,0,0,0,0,0,0,0,0
1997,8,10,12,0,,26.3,22.5,80,99220,0,0,446,283,23,262,32938,2018,31118,0,0,0,10,0,0,0,0,0,0,0,0,0,0,0,0
1997,8,10,13,0,,27.5,23,77,99210,0,0,438,409,58,356,45950,4991,41807,0,290,0.5,9,0,0,0,0,0,0,0,0,0,0,0,0
1997,8,10,14,0,,28.8,23.5,74,99210,0,0,435,565,149,430,61161,12155,52504,0,340,1,7,0,0,0,0,0,0,0,0,0,0,0,0
1997,8,10,15,0,,29.8,24,71,99200,0,0,435,580,215,400,58114,16652,48842,0,70,1,6,0,0,0,0,0,0,0,0,0,0,0,0
1997,8,10,16,0,,30,23.9,71,99210,0,0,439,433,161,318,41464,13254,36502,0,90,1.7,7,0,0,0,0,0,0,0,0,0,0,0,0
1997,8,10,17,0,,29.6,23.7,72,99220,0,0,440,317,156,229,27890,10906,25956,0,90,1,7,0,0,0,0,0,0,0,0,0,0,0,0
1997,8,10,18,0,,29,23.6,72,99230,0,0,441,169,97,132,0,0,0,0,90,1.3,8,0,0,0,0,0,0,0,0,0,0,0,0
1997,8,10,19,0,,28.7,23.5,77,99290,0,0,426,101,229,59,0,0,0,0,110,0.3,6,0,0,0,0,0,0,0,0,0,0,0,0
1997,8,10,20,0,,26.8,23.3,82,99350,0,0,408,19,6,13,0,0,0,0,0,0,3,0,0,0,0,0,0,0,0,0,0,0,0
1997,8,10,21,0,,25.5,23.2,87,99410,0,0,390,0,0,0,0,0,0,0,360,1.7,1,0,0,0,0,0,0,0,0,0,0,0,0
1997,8,10,22,0,,24.7,22.9,89,99460,0,0,389,0,0,0,0,0,0,0,360,0.3,2,0,0,0,0,0,0,0,0,0,0,0,0
1997,8,10,23,0,,23.9,22.5,91,99520,0,0,388,0,0,0,0,0,0,0,0,0,2,0,0,0,0,0,0,0,0,0,0,0,0
1997,8,10,24,0,,23.5,22.2,93,99570,0,0,388,0,0,0,0,0,0,0,360,0.3,3,0,0,0,0,0,0,0,0,0,0,0,0
1997,8,11,1,0,,23.3,22.1,93,99590,0,0,391,0,0,0,0,0,0,0,0,0.2,4,0,0,0,0,0,0,0,0,0,0,0,0
1997,8,11,2,0,,23.1,22,94,99620,0,0,394,0,0,0,0,0,0,0,0,0.2,6,0,0,0,0,0,0,0,0,0,0,0,0
1997,8,11,3,0,,22.9,21.9,94,99640,0,0,398,0,0,0,0,0,0,0,0,0,7,0,0,0,0,0,0,0,0,0,0,0,0
1997,8,11,4,0,,22.9,21.7,94,99680,0,0,396,0,0,0,0,0,0,0,0,0,7,0,0,0,0,0,0,0,0,0,0,0,0
1997,8,11,5,0,,22.6,21.5,94,99730,0,0,393,0,0,0,0,0,0,0,0,0,6,0,0,0,0,0,0,0,0,0,0,0,0
1997,8,11,6,0,,22.3,21.3,94,99770,0,0,390,3,0,3,420,2,419,0,0,0,6,0,0,0,0,0,0,0,0,0,0,0,0
1997,8,11,7,0,,22.4,21.7,92,99800,0,0,396,62,17,45,6278,1392,5546,0,0,0,7,0,0,0,0,0,0,0,0,0,0,0,0
1997,8,11,8,0,,23.3,22.2,91,99820,0,0,407,149,96,116,22419,7974,16941,0,340,2,8,0,0,0,0,0,0,0,0,0,0,0,0
1997,8,11,9,0,,24.5,22.6,89,99850,0,0,423,210,61,178,27308,5255,23043,0,320,2.2,9,0,0,0,0,0,0,0,0,0,0,0,0
1997,8,11,10,0,,25.4,22.2,82,99850,0,0,428,303,69,255,37552,5919,32274,0,360,2.3,9,0,0,0,0,0,0,0,0,0,0,0,0
1997,8,11,11,0,,26.7,21.9,75,99860,0,0,435,367,66,313,42272,5767,36955,0,50,1.7,9,0,0,0,0,0,0,0,0,0,0,0,0
1997,8,11,12,0,,27.8,21.5,68,99860,0,0,441,440,79,369,49518,6943,43268,0,50,4,9,0,0,0,0,0,0,0,0,0,0,0,0
1997,8,11,13,0,,28.5,21.5,67,99840,0,0,438,537,121,425,59976,10332,51424,0,50,4.7,8,0,0,0,0,0,0,0,0,0,0,0,0
1997,8,11,14,0,,28.9,21.4,66,99830,0,0,435,515,117,410,54779,10408,47394,0,70,4,8,0,0,0,0,0,0,0,0,0,0,0,0
1997,8,11,15,0,,28.7,21.4,65,99810,0,0,430,519,158,387,52251,14051,44469,0,70,4,7,0,0,0,0,0,0,0,0,0,0,0,0
1997,8,11,16,0,,28.1,21.4,66,99800,0,0,425,425,155,315,40750,13152,35870,0,50,4.3,7,0,0,0,0,0,0,0,0,0,0,0,0
1997,8,11,17,0,,27.8,21.4,66,99780,0,0,421,352,216,231,28675,10061,26927,0,50,4.3,6,0,0,0,0,0,0,0,0,0,0,0,0
1997,8,11,18,0,,28,21.4,67,99770,0,0,421,234,262,136,0,0,0,0,50,4,6,0,0,0,0,0,0,0,0,0,0,0,0
1997,8,11,19,0,,27.1,21,70,99820,0,0,413,112,350,49,0,0,0,0,70,1.7,5,0,0,0,0,0,0,0,0,0,0,0,0
1997,8,11,20,0,,25.9,20.6,74,99860,0,0,404,17,5,12,0,0,0,0,70,1,5,0,0,0,0,0,0,0,0,0,0,0,0
1997,8,11,21,0,,24.5,20.2,77,99910,0,0,394,0,0,0,0,0,0,0,0,0.2,4,0,0,0,0,0,0,0,0,0,0,0,0
1997,8,11,22,0,,23.2,20.6,82,99950,0,0,392,0,0,0,0,0,0,0,0,0,6,0,0,0,0,0,0,0,0,0,0,0,0
1997,8,11,23,0,,22.9,20.9,86,99980,0,0,399,0,0,0,0,0,0,0,0,0,7,0,0,0,0,0,0,0,0,0,0,0,0
1997,8,11,24,0,,22.8,21.3,91,100020,0,0,412,0,0,0,0,0,0,0,0,0,9,0,0,0,0,0,0,0,0,0,0,0,0
1997,8,12,1,0,,22.7,21.1,92,100030,0,0,396,0,0,0,0,0,0,0,0,0,7,0,0,0,0,0,0,0,0,0,0,0,0
1997,8,12,2,0,,22.5,20.9,92,100030,0,0,387,0,0,0,0,0,0,0,0,0,5,0,0,0,0,0,0,0,0,0,0,0,0
1997,8,12,3,0,,21.8,20.7,93,100040,0,0,377,0,0,0,0,0,0,0,0,0,3,0,0,0,0,0,0,0,0,0,0,0,0
1997,8,12,4,0,,21.3,20.2,92,100090,0,0,379,0,0,0,0,0,0,0,360,0.8,5,0,0,0,0,0,0,0,0,0,0,0,0
1997,8,12,5,0,,21.3,19.7,90,100130,0,0,384,0,0,0,0,0,0,0,360,1.3,6,0,0,0,0,0,0,0,0,0,0,0,0
1997,8,12,6,0,,21.1,19.2,89,100180,0,0,392,0,0,0,0,0,0,0,360,0.5,8,0,0,0,0,0,0,0,0,0,0,0,0
1997,8,12,7,0,,21.6,19.2,83,100180,0,0,381,82,42,40,8038,3578,6162,0,0,0,5,0,0,0,0,0,0,0,0,0,0,0,0
1997,8,12,8,0,,23,19.2,77,100180,0,0,380,247,428,102,45123,42289,16152,0,0,0,3,0,0,0,0,0,0,0,0,0,0,0,0
1997,8,12,9,0,,24.7,19.2,71,100180,0,0,374,433,554,143,65567,54726,21251,0,270,0.3,0,0,0,0,0,0,0,0,0,0,0,0,0
1997,8,12,10,0,,26.7,19.5,68,100190,0,0,399,607,620,181,80062,61019,25759,0,70,2.3,2,0,0,0,0,0,0,0,0,0,0,0,0
1997,8,12,11,0,,28,19.9,66,100210,0,0,414,644,333,374,74110,28997,47433,0,50,2.3,5,0,0,0,0,0,0,0,0,0,0,0,0
1997,8,12,12,0,,28,20.2,63,100220,0,0,424,585,173,430,65374,15193,51732,0,70,3.3,7,0,0,0,0,0,0,0,0,0,0,0,0
1997,8,12,13,0,,28.4,20.3,61,100210,0,0,418,677,233,462,71842,20287,55101,0,70,2.3,5,0,0,0,0,0,0,0,0,0,0,0,0
1997,8,12,14,0,,28.8,20.4,60,100190,0,0,414,734,328,438,72071,28109,52202,0,70,3,3,0,0,0,0,0,0,0,0,0,0,0,0
1997,8,12,15,0,,29.5,20.5,58,100180,0,0,409,706,515,279,59508,42146,36294,0,70,2.7,1,0,0,0,0,0,0,0,0,0,0,0,0
1997,8,12,16,0,,29.7,20.5,58,100180,0,0,407,593,516,226,43153,37577,29335,0,50,2.3,1,0,0,0,0,0,0,0,0,0,0,0,0
1997,8,12,17,0,,29.5,20.4,59,100170,0,0,404,460,548,155,23863,23931,19792,0,50,2,0,0,0,0,0,0,0,0,0,0,0,0,0
1997,8,12,18,0,,29.2,20.4,59,100170,0,0,399,303,565,93,0,0,0,0,50,2.5,0,0,0,0,0,0,0,0,0,0,0,0,0
1997,8,12,19,0,,27.9,20,65,100210,0,0,392,130,470,47,0,0,0,0,50,2.3,0,0,0,0,0,0,0,0,0,0,0,0,0
1997,8,12,20,0,,25.6,19.6,72,100250,0,0,379,18,7,11,0,0,0,0,70,1.7,0,0,0,0,0,0,0,0,0,0,0,0,0
1997,8,12,21,0,,23.3,19.2,78,100290,0,0,367,0,0,0,0,0,0,0,320,0.5,0,0,0,0,0,0,0,0,0,0,0,0,0
1997,8,12,22,0,,21.7,19,82,100330,0,0,359,0,0,0,0,0,0,0,50,1,0,0,0,0,0,0,0,0,0,0,0,0,0
1997,8,12,23,0,,21.7,18.8,85,100380,0,0,359,0,0,0,0,0,0,0,20,1.3,0,0,0,0,0,0,0,0,0,0,0,0,0
1997,8,12,24,0,,20.4,18.6,89,100420,0,0,352,0,0,0,0,0,0,0,360,1.3,0,0,0,0,0,0,0,0,0,0,0,0,0
1997,8,13,1,0,,19.8,18.3,90,100410,0,0,349,0,0,0,0,0,0,0,0,0.2,0,0,0,0,0,0,0,0,0,0,0,0,0
1997,8,13,2,0,,19.2,18.1,92,100410,0,0,346,0,0,0,0,0,0,0,360,2.3,0,0,0,0,0,0,0,0,0,0,0,0,0
1997,8,13,3,0,,19,17.8,93,100400,0,0,345,0,0,0,0,0,0,0,360,1.7,0,0,0,0,0,0,0,0,0,0,0,0,0
1997,8,13,4,0,,18.7,17.5,93,100410,0,0,343,0,0,0,0,0,0,0,360,1,0,0,0,0,0,0,0,0,0,0,0,0,0
1997,8,13,5,0,,18.4,17.2,92,100430,0,0,341,0,0,0,0,0,0,0,20,1.7,0,0,0,0,0,0,0,0,0,0,0,0,0
1997,8,13,6,0,,18.1,16.9,92,100440,0,0,340,0,0,0,0,0,0,0,20,1.7,0,0,0,0,0,0,0,0,0,0,0,0,0
1997,8,13,7,0,,18.8,17.5,88,100450,0,0,344,95,54,40,8607,4739,6132,0,360,1.7,0,0,0,0,0,0,0,0,0,0,0,0,0
1997,8,13,8,0,,20.4,18.2,84,100460,0,0,352,264,529,87,50144,54975,12591,0,340,2.3,0,0,0,0,0,0,0,0,0,0,0,0,0
1997,8,13,9,0,,22.5,18.8,80,100470,0,0,363,446,604,131,68251,62698,17599,0,340,2.3,0,0,0,0,0,0,0,0,0,0,0,0,0
1997,8,13,10,0,,24.7,19.5,75,100440,0,0,377,603,616,182,79638,60631,25799,0,340,1.5,0,0,0,0,0,0,0,0,0,0,0,0,0
1997,8,13,11,0,,26.6,20.3,71,100420,0,0,390,729,618,229,86313,60154,31095,0,230,1,1,0,0,0,0,0,0,0,0,0,0,0,0
1997,8,13,12,0,,27.9,21,66,100390,0,0,400,786,558,289,84133,49555,39746,0,290,0.7,1,0,0,0,0,0,0,0,0,0,0,0,0
1997,8,13,13,0,,29.4,21.6,64,100350,0,0,415,816,556,304,81783,48690,41724,0,250,1.7,2,0,0,0,0,0,0,0,0,0,0,0,0
1997,8,13,14,0,,30.7,22.1,62,100300,0,0,427,763,487,325,73548,41701,44189,0,250,1.7,3,0,0,0,0,0,0,0,0,0,0,0,0
1997,8,13,15,0,,31.4,22.7,60,100260,0,0,435,678,452,304,59492,35166,40232,0,230,1.7,4,0,0,0,0,0,0,0,0,0,0,0,0
1997,8,13,16,0,,31.9,22.4,60,100230,0,0,437,561,436,252,44078,29970,33160,0,320,2,4,0,0,0,0,0,0,0,0,0,0,0,0
1997,8,13,17,0,,31.7,22.2,59,100190,0,0,434,439,489,169,24982,19248,21779,0,360,1.5,3,0,0,0,0,0,0,0,0,0,0,0,0
1997,8,13,18,0,,30.7,21.9,59,100160,0,0,427,270,423,114,0,0,0,0,360,0.5,3,0,0,0,0,0,0,0,0,0,0,0,0
1997,8,13,19,0,,28.9,21.9,68,100200,0,0,415,114,339,55,0,0,0,0,360,0.7,3,0,0,0,0,0,0,0,0,0,0,0,0
1997,8,13,20,0,,26.4,21.9,77,100230,0,0,400,15,4,11,0,0,0,0,0,0,2,0,0,0,0,0,0,0,0,0,0,0,0
1997,8,13,21,0,,24.4,21.9,86,100270,0,0,388,0,0,0,0,0,0,0,0,0,2,0,0,0,0,0,0,0,0,0,0,0,0
1997,8,13,22,0,,23.2,21.4,88,100290,0,0,381,0,0,0,0,0,0,0,20,1.3,2,0,0,0,0,0,0,0,0,0,0,0,0
1997,8,13,23,0,,21.9,20.9,91,100310,0,0,374,0,0,0,0,0,0,0,0,0.2,2,0,0,0,0,0,0,0,0,0,0,0,0
1997,8,13,24,0,,21.5,20.4,93,100330,0,0,372,0,0,0,0,0,0,0,360,2.3,2,0,0,0,0,0,0,0,0,0,0,0,0
1997,8,14,1,0,,21,19.9,93,100330,0,0,366,0,0,0,0,0,0,0,360,2,1,0,0,0,0,0,0,0,0,0,0,0,0
1997,8,14,2,0,,20.5,19.5,93,100330,0,0,359,0,0,0,0,0,0,0,20,2,1,0,0,0,0,0,0,0,0,0,0,0,0
1997,8,14,3,0,,20.1,19,93,100330,0,0,351,0,0,0,0,0,0,0,360,2,0,0,0,0,0,0,0,0,0,0,0,0,0
1997,8,14,4,0,,19.6,18.6,93,100360,0,0,351,0,0,0,0,0,0,0,360,2.2,0,0,0,0,0,0,0,0,0,0,0,0,0
1997,8,14,5,0,,19.3,18.3,94,100400,0,0,351,0,0,0,0,0,0,0,0,0.2,1,0,0,0,0,0,0,0,0,0,0,0,0
1997,8,14,6,0,,19,17.9,94,100430,0,0,352,0,0,0,0,0,0,0,360,1.2,1,0,0,0,0,0,0,0,0,0,0,0,0
1997,8,14,7,0,,19.3,18.4,89,100470,0,0,354,92,52,40,8462,4449,6148,0,360,2,1,0,0,0,0,0,0,0,0,0,0,0,0
1997,8,14,8,0,,21,18.8,83,100520,0,0,362,259,512,89,49121,53279,12832,0,340,2,1,0,0,0,0,0,0,0,0,0,0,0,0
1997,8,14,9,0,,23.4,19.3,78,100560,0,0,375,445,607,129,68334,63129,17457,0,340,2,1,0,0,0,0,0,0,0,0,0,0,0,0
1997,8,14,10,0,,25,20.2,74,100540,0,0,384,603,621,180,79709,60998,25665,0,360,2,1,0,0,0,0,0,0,0,0,0,0,0,0
1997,8,14,11,0,,27.5,21,69,100530,0,0,398,748,668,208,88660,65067,29070,0,70,2,1,0,0,0,0,0,0,0,0,0,0,0,0
1997,8,14,12,0,,29.1,21.9,65,100510,0,0,408,803,603,268,87232,57676,35705,0,50,2,1,0,0,0,0,0,0,0,0,0,0,0,0
1997,8,14,13,0,,29.5,22.3,64,100440,0,0,411,795,515,322,80753,44612,44163,0,0,0,1,0,0,0,0,0,0,0,0,0,0,0,0
1997,8,14,14,0,,30.9,22.6,62,100370,0,0,419,782,534,303,73792,45464,41914,0,250,1.3,1,0,0,0,0,0,0,0,0,0,0,0,0
1997,8,14,15,0,,31.5,23,61,100300,0,0,423,713,542,266,61364,44421,37177,0,230,1.7,1,0,0,0,0,0,0,0,0,0,0,0,0
1997,8,14,16,0,,31.3,22.4,59,100300,0,0,418,591,525,221,42442,36129,29407,0,20,1.3,1,0,0,0,0,0,0,0,0,0,0,0,0
1997,8,14,17,0,,31.5,21.9,58,100290,0,0,416,455,551,152,23254,21615,19740,0,70,2,0,0,0,0,0,0,0,0,0,0,0,0,0
1997,8,14,18,0,,30.9,21.3,56,100290,0,0,409,296,556,92,0,0,0,0,70,2.7,0,0,0,0,0,0,0,0,0,0,0,0,0
1997,8,14,19,0,,28.7,20.3,59,100380,0,0,396,124,466,45,0,0,0,0,70,2.7,0,0,0,0,0,0,0,0,0,0,0,0,0
1997,8,14,20,0,,26,19.3,63,100480,0,0,381,15,5,10,0,0,0,0,50,1.5,0,0,0,0,0,0,0,0,0,0,0,0,0
1997,8,14,21,0,,25.2,18.3,66,100570,0,0,376,0,0,0,0,0,0,0,70,2,0,0,0,0,0,0,0,0,0,0,0,0,0
1997,8,14,22,0,,24.6,17.9,68,100580,0,0,372,0,0,0,0,0,0,0,70,1.3,0,0,0,0,0,0,0,0,0,0,0,0,0
1997,8,14,23,0,,23.6,17.6,69,100600,0,0,367,0,0,0,0,0,0,0,70,1.8,0,0,0,0,0,0,0,0,0,0,0,0,0
1997,8,14,24,0,,22.7,17.2,71,100610,0,0,362,0,0,0,0,0,0,0,50,1.8,0,0,0,0,0,0,0,0,0,0,0,0,0
1997,8,15,1,0,,21.3,17.4,78,100620,0,0,355,0,0,0,0,0,0,0,360,0.8,0,0,0,0,0,0,0,0,0,0,0,0,0
1997,8,15,2,0,,19.8,17.5,84,100640,0,0,348,0,0,0,0,0,0,0,360,1.7,0,0,0,0,0,0,0,0,0,0,0,0,0
1997,8,15,3,0,,19.3,17.7,91,100650,0,0,346,0,0,0,0,0,0,0,360,2.7,0,0,0,0,0,0,0,0,0,0,0,0,0
1997,8,15,4,0,,18.8,17.7,92,100680,0,0,344,0,0,0,0,0,0,0,360,1.7,0,0,0,0,0,0,0,0,0,0,0,0,0
1997,8,15,5,0,,18.5,17.7,94,100710,0,0,342,0,0,0,0,0,0,0,360,1.3,0,0,0,0,0,0,0,0,0,0,0,0,0
1997,8,15,6,0,,18.4,17.7,95,100740,0,0,342,0,0,0,0,0,0,0,20,1.2,0,0,0,0,0,0,0,0,0,0,0,0,0
1997,8,15,7,0,,18.7,18,88,100750,0,0,344,89,49,40,8290,4254,6087,0,340,1.7,0,0,0,0,0,0,0,0,0,0,0,0,0
1997,8,15,8,0,,21,18.3,82,100770,0,0,355,262,538,84,50301,56047,12240,0,340,1.8,0,0,0,0,0,0,0,0,0,0,0,0,0
1997,8,15,9,0,,23.2,18.6,75,100780,0,0,366,452,640,121,69957,66569,16440,0,340,2,0,0,0,0,0,0,0,0,0,0,0,0,0
1997,8,15,10,0,,25.1,19.2,71,100710,0,0,376,614,658,167,81654,68021,21526,0,340,2.3,0,0,0,0,0,0,0,0,0,0,0,0,0
1997,8,15,11,0,,27,19.9,67,100640,0,0,387,743,663,210,88178,64836,28940,0,50,2.5,0,0,0,0,0,0,0,0,0,0,0,0,0
1997,8,15,12,0,,28.3,20.5,63,100570,0,0,394,796,592,272,86357,56846,35707,0,50,1.3,0,0,0,0,0,0,0,0,0,0,0,0,0
1997,8,15,13,0,,29.6,21,62,100500,0,0,405,829,595,284,82067,52500,39146,0,70,2.5,0,0,0,0,0,0,0,0,0,0,0,0,0
1997,8,15,14,0,,30.4,21.5,60,100440,0,0,412,788,554,292,73610,47975,40112,0,70,2.3,1,0,0,0,0,0,0,0,0,0,0,0,0
1997,8,15,15,0,,31,22,59,100370,0,0,419,720,565,255,60907,47016,35460,0,70,2.7,1,0,0,0,0,0,0,0,0,0,0,0,0
1997,8,15,16,0,,31.4,21.6,59,100360,0,0,423,603,565,206,43504,42354,28375,0,50,1.7,1,0,0,0,0,0,0,0,0,0,0,0,0
1997,8,15,17,0,,31.1,21.3,59,100360,0,0,422,448,536,155,23177,20996,19845,0,70,2,2,0,0,0,0,0,0,0,0,0,0,0,0
1997,8,15,18,0,,29.9,20.9,59,100350,0,0,417,281,501,100,0,0,0,0,70,2.3,2,0,0,0,0,0,0,0,0,0,0,0,0
1997,8,15,19,0,,27.3,19.8,61,100410,0,0,398,113,387,50,0,0,0,0,50,3,1,0,0,0,0,0,0,0,0,0,0,0,0
1997,8,15,20,0,,25.1,18.7,64,100480,0,0,381,13,4,9,0,0,0,0,50,2.3,1,0,0,0,0,0,0,0,0,0,0,0,0
1997,8,15,21,0,,24.3,17.6,66,100540,0,0,370,0,0,0,0,0,0,0,70,3.7,0,0,0,0,0,0,0,0,0,0,0,0,0
1997,8,15,22,0,,23.4,17.5,68,100570,0,0,366,0,0,0,0,0,0,0,70,4.3,0,0,0,0,0,0,0,0,0,0,0,0,0
1997,8,15,23,0,,22.6,17.4,71,100610,0,0,362,0,0,0,0,0,0,0,50,3,0,0,0,0,0,0,0,0,0,0,0,0,0
1997,8,15,24,0,,22.3,17.3,73,100640,0,0,360,0,0,0,0,0,0,0,50,2,0,0,0,0,0,0,0,0,0,0,0,0,0
1997,8,16,1,0,,21.2,17.3,78,100620,0,0,355,0,0,0,0,0,0,0,0,0.2,0,0,0,0,0,0,0,0,0,0,0,0,0
1997,8,16,2,0,,20.2,17.3,84,100600,0,0,350,0,0,0,0,0,0,0,340,3,0,0,0,0,0,0,0,0,0,0,0,0,0
1997,8,16,3,0,,19.1,17.3,89,100580,0,0,345,0,0,0,0,0,0,0,0,0.2,0,0,0,0,0,0,0,0,0,0,0,0,0
1997,8,16,4,0,,18.8,17.1,90,100580,0,0,343,0,0,0,0,0,0,0,360,2,0,0,0,0,0,0,0,0,0,0,0,0,0
1997,8,16,5,0,,18.4,16.9,91,100580,0,0,341,0,0,0,0,0,0,0,360,0.5,0,0,0,0,0,0,0,0,0,0,0,0,0
1997,8,16,6,0,,18.1,16.7,92,100580,0,0,339,0,0,0,0,0,0,0,360,1.7,0,0,0,0,0,0,0,0,0,0,0,0,0
1997,8,16,7,0,,19.8,17.3,86,100550,0,0,348,92,56,36,8012,4869,5501,0,20,1,0,0,0,0,0,0,0,0,0,0,0,0,0
1997,8,16,8,0,,21.6,17.8,80,100530,0,0,357,269,585,77,52603,61036,11280,0,360,1.3,0,0,0,0,0,0,0,0,0,0,0,0,0
1997,8,16,9,0,,23.3,18.4,74,100500,0,0,366,453,650,118,70322,67650,16071,0,340,2.7,0,0,0,0,0,0,0,0,0,0,0,0,0
1997,8,16,10,0,,24.9,19,70,100460,0,0,380,600,623,177,79406,61455,25210,0,20,1.7,1,0,0,0,0,0,0,0,0,0,0,0,0
1997,8,16,11,0,,26.5,19.5,66,100430,0,0,393,725,622,225,85840,60717,30500,0,50,2.7,1,0,0,0,0,0,0,0,0,0,0,0,0
1997,8,16,12,0,,28.1,20.1,62,100390,0,0,406,804,614,261,87065,59135,34519,0,20,3,2,0,0,0,0,0,0,0,0,0,0,0,0
1997,8,16,13,0,,28.6,20,60,100310,0,0,407,799,532,312,80483,47431,41835,0,70,3,2,0,0,0,0,0,0,0,0,0,0,0,0
1997,8,16,14,0,,29.1,20,58,100240,0,0,408,774,526,304,72879,46392,40626,0,50,3,1,0,0,0,0,0,0,0,0,0,0,0,0
1997,8,16,15,0,,29.6,19.9,56,100160,0,0,408,689,498,281,58300,40997,36248,0,20,2.3,1,0,0,0,0,0,0,0,0,0,0,0,0
1997,8,16,16,0,,29.5,20.2,57,100130,0,0,408,591,540,213,41450,38995,27663,0,70,2.7,1,0,0,0,0,0,0,0,0,0,0,0,0
1997,8,16,17,0,,29.3,20.4,59,100110,0,0,408,449,550,150,22446,21831,19068,0,70,2.2,1,0,0,0,0,0,0,0,0,0,0,0,0
1997,8,16,18,0,,29.2,20.7,60,100080,0,0,407,286,537,93,0,0,0,0,70,1.7,1,0,0,0,0,0,0,0,0,0,0,0,0
1997,8,16,19,0,,27.5,19.9,63,100110,0,0,397,117,463,43,0,0,0,0,70,2.3,1,0,0,0,0,0,0,0,0,0,0,0,0
1997,8,16,20,0,,25.8,19.2,67,100150,0,0,387,13,4,9,0,0,0,0,70,2.3,1,0,0,0,0,0,0,0,0,0,0,0,0
1997,8,16,21,0,,24.1,18.4,70,100180,0,0,377,0,0,0,0,0,0,0,70,1.3,1,0,0,0,0,0,0,0,0,0,0,0,0
1997,8,16,22,0,,23.3,18,72,100170,0,0,371,0,0,0,0,0,0,0,50,3,1,0,0,0,0,0,0,0,0,0,0,0,0
1997,8,16,23,0,,22.5,17.7,74,100170,0,0,364,0,0,0,0,0,0,0,50,2.2,0,0,0,0,0,0,0,0,0,0,0,0,0
1997,8,16,24,0,,21.7,17.3,76,100160,0,0,357,0,0,0,0,0,0,0,50,1,0,0,0,0,0,0,0,0,0,0,0,0,0
1997,8,17,1,0,,20.7,17.6,82,100130,0,0,367,0,0,0,0,0,0,0,360,2.3,3,0,0,0,0,0,0,0,0,0,0,0,0
1997,8,17,2,0,,19.6,17.9,87,100110,0,0,369,0,0,0,0,0,0,0,50,1.2,5,0,0,0,0,0,0,0,0,0,0,0,0
1997,8,17,3,0,,19.4,18.2,93,100080,0,0,381,0,0,0,0,0,0,0,20,1.3,8,0,0,0,0,0,0,0,0,0,0,0,0
1997,8,17,4,0,,19.3,18.1,93,100090,0,0,368,0,0,0,0,0,0,0,360,1.7,5,0,0,0,0,0,0,0,0,0,0,0,0
1997,8,17,5,0,,19.4,18,93,100090,0,0,361,0,0,0,0,0,0,0,360,1.3,3,0,0,0,0,0,0,0,0,0,0,0,0
1997,8,17,6,0,,19.1,17.9,93,100100,0,0,345,0,0,0,0,0,0,0,360,0.8,0,0,0,0,0,0,0,0,0,0,0,0,0
1997,8,17,7,0,,19,18,88,100100,0,0,348,84,45,39,7975,3842,6002,0,360,1.8,0,0,0,0,0,0,0,0,0,0,0,0,0
1997,8,17,8,0,,20.3,18.2,82,100110,0,0,356,249,492,89,47312,48820,14360,0,360,2,1,0,0,0,0,0,0,0,0,0,0,0,0
1997,8,17,9,0,,22.4,18.3,77,100110,0,0,369,424,556,138,64702,55150,20589,0,320,0.8,1,0,0,0,0,0,0,0,0,0,0,0,0
1997,8,17,10,0,,24.3,19.4,74,100080,0,0,377,589,599,184,77851,58874,26056,0,320,0.3,1,0,0,0,0,0,0,0,0,0,0,0,0
1997,8,17,11,0,,25.8,20.4,72,100060,0,0,384,699,564,247,82691,54615,33037,0,270,1.5,0,0,0,0,0,0,0,0,0,0,0,0,0
1997,8,17,12,0,,27.7,21.5,69,100030,0,0,392,797,605,264,86541,57922,35217,0,290,2.7,0,0,0,0,0,0,0,0,0,0,0,0,0
1997,8,17,13,0,,28.8,21.3,67,99990,0,0,403,799,539,308,80412,47334,41974,0,230,0.3,1,0,0,0,0,0,0,0,0,0,0,0,0
1997,8,17,14,0,,29.5,21.2,66,99950,0,0,411,781,549,293,72943,47705,39924,0,290,1.2,1,0,0,0,0,0,0,0,0,0,0,0,0
1997,8,17,15,0,,30.5,21,64,99910,0,0,420,698,526,269,57877,42337,35249,0,270,1.5,2,0,0,0,0,0,0,0,0,0,0,0,0
1997,8,17,16,0,,30.9,21.5,64,99880,0,0,422,592,550,208,40962,38264,27577,0,270,1.5,2,0,0,0,0,0,0,0,0,0,0,0,0
1997,8,17,17,0,,30.5,22.1,65,99850,0,0,418,441,534,153,22593,19094,19716,0,340,1.2,1,0,0,0,0,0,0,0,0,0,0,0,0
1997,8,17,18,0,,29.9,22.6,65,99820,0,0,413,271,483,100,0,0,0,0,0,0.2,1,0,0,0,0,0,0,0,0,0,0,0,0
1997,8,17,19,0,,27.5,22.2,70,99860,0,0,397,105,363,49,0,0,0,0,340,1.8,1,0,0,0,0,0,0,0,0,0,0,0,0
1997,8,17,20,0,,25.7,21.7,74,99890,0,0,385,10,2,8,0,0,0,0,340,0.8,0,0,0,0,0,0,0,0,0,0,0,0,0
1997,8,17,21,0,,25.3,21.3,79,99930,0,0,380,0,0,0,0,0,0,0,50,1.8,0,0,0,0,0,0,0,0,0,0,0,0,0
1997,8,17,22,0,,25.3,21,80,99990,0,0,396,0,0,0,0,0,0,0,70,1.2,3,0,0,0,0,0,0,0,0,0,0,0,0
1997,8,17,23,0,,24.4,20.6,81,100050,0,0,400,0,0,0,0,0,0,0,20,3,6,0,0,0,0,0,0,0,0,0,0,0,0
1997,8,17,24,0,,23.4,20.3,82,100110,0,0,414,0,0,0,0,0,0,0,50,2,9,0,0,0,0,0,0,0,0,0,0,0,0
1997,8,18,1,0,,22.9,20.3,85,100100,0,0,408,0,0,0,0,0,0,0,360,3.7,9,0,0,0,0,0,0,0,0,0,0,0,0
1997,8,18,2,0,,22.4,20.4,89,100080,0,0,403,0,0,0,0,0,0,0,360,1.7,8,0,0,0,0,0,0,0,0,0,0,0,0
1997,8,18,3,0,,21.9,20.4,92,100070,0,0,397,0,0,0,0,0,0,0,360,1.7,8,0,0,0,0,0,0,0,0,0,0,0,0
1997,8,18,4,0,,21.9,20.4,92,100110,0,0,403,0,0,0,0,0,0,0,360,2.2,9,0,0,0,0,0,0,0,0,0,0,0,0
1997,8,18,5,0,,21.9,20.4,91,100140,0,0,409,0,0,0,0,0,0,0,360,1.7,9,0,0,0,0,0,0,0,0,0,0,0,0
1997,8,18,6,0,,22,20.4,91,100180,0,0,418,0,0,0,0,0,0,0,360,1.3,10,0,0,0,0,0,0,0,0,0,0,0,0
1997,8,18,7,0,,21.8,20.6,89,100200,0,0,409,37,5,32,4195,440,3970,0,340,3.2,9,0,0,0,0,0,0,0,0,0,0,0,0
1997,8,18,8,0,,22.2,20.8,87,100230,0,0,405,116,56,98,16293,4963,12954,0,360,2,9,0,0,0,0,0,0,0,0,0,0,0,0
1997,8,18,9,0,,23.7,21,85,100250,0,0,408,248,107,193,32094,9438,24565,0,340,1.3,8,0,0,0,0,0,0,0,0,0,0,0,0
1997,8,18,10,0,,24.8,21.7,80,100230,0,0,415,343,104,273,42119,9072,34157,0,360,0.5,8,0,0,0,0,0,0,0,0,0,0,0,0
1997,8,18,11,0,,27.1,22.3,76,100220,0,0,429,450,123,352,53100,10518,43562,0,340,1,8,0,0,0,0,0,0,0,0,0,0,0,0
1997,8,18,12,0,,28.8,23,71,100200,0,0,439,503,120,398,57878,10063,48987,0,50,0.7,8,0,0,0,0,0,0,0,0,0,0,0,0
1997,8,18,13,0,,29.1,23.5,70,100160,0,0,439,499,105,404,54650,9100,47286,0,360,1.2,8,0,0,0,0,0,0,0,0,0,0,0,0
1997,8,18,14,0,,30.6,24.1,69,100120,0,0,447,555,152,420,59915,12193,51514,0,320,1,7,0,0,0,0,0,0,0,0,0,0,0,0
1997,8,18,15,0,,31.2,24.6,68,100080,0,0,449,497,152,374,50188,12884,43346,0,290,1.3,7,0,0,0,0,0,0,0,0,0,0,0,0
1997,8,18,16,0,,31.7,24.5,68,100080,0,0,450,429,176,307,40205,14190,35295,0,270,1,7,0,0,0,0,0,0,0,0,0,0,0,0
1997,8,18,17,0,,31.5,24.5,68,100070,0,0,447,345,236,218,27094,8238,25887,0,20,0.5,6,0,0,0,0,0,0,0,0,0,0,0,0
1997,8,18,18,0,,31,24.4,68,100070,0,0,442,214,252,125,0,0,0,0,200,0.7,6,0,0,0,0,0,0,0,0,0,0,0,0
1997,8,18,19,0,,30.3,24,72,100150,0,0,441,76,177,49,0,0,0,0,230,1.3,7,0,0,0,0,0,0,0,0,0,0,0,0
1997,8,18,20,0,,29.1,23.5,75,100220,0,0,437,4,0,4,0,0,0,0,50,0.5,7,0,0,0,0,0,0,0,0,0,0,0,0
1997,8,18,21,0,,27.1,23.1,79,100300,0,0,430,0,0,0,0,0,0,0,90,1,8,0,0,0,0,0,0,0,0,0,0,0,0
1997,8,18,22,0,,25.9,22.5,79,100370,0,0,428,0,0,0,0,0,0,0,70,2,9,0,0,0,0,0,0,0,0,0,0,0,0
1997,8,18,23,0,,25.7,22,80,100440,0,0,433,0,0,0,0,0,0,0,70,2,9,0,0,0,0,0,0,0,0,0,0,0,0
1997,8,18,24,0,,25.1,21.4,80,100510,0,0,437,0,0,0,0,0,0,0,70,2,10,0,0,0,0,0,0,0,0,0,0,0,0
1997,8,19,1,0,,24.4,21.5,84,100510,0,0,433,0,0,0,0,0,0,0,50,1.3,10,0,0,0,0,0,0,0,0,0,0,0,0
1997,8,19,2,0,,23.6,21.5,89,100510,0,0,429,0,0,0,0,0,0,0,50,1.7,10,0,0,0,0,0,0,0,0,0,0,0,0
1997,8,19,3,0,,22.9,21.6,93,100510,0,0,425,0,0,0,0,0,0,0,50,1.2,10,0,0,0,0,0,0,0,0,0,0,0,0
1997,8,19,4,0,,22.8,21.7,93,100520,0,0,424,0,0,0,0,0,0,0,360,2,10,0,0,0,0,0,0,0,0,0,0,0,0
1997,8,19,5,0,,22.8,21.7,94,100530,0,0,424,0,0,0,0,0,0,0,20,1.7,10,0,0,0,0,0,0,0,0,0,0,0,0
1997,8,19,6,0,,22.8,21.8,94,100540,0,0,424,0,0,0,0,0,0,0,20,2.3,10,0,0,0,0,0,0,0,0,0,0,0,0
1997,8,19,7,0,,22.6,22,94,100570,0,0,424,23,1,22,2864,47,2840,0,360,1.7,10,0,0,0,0,0,0,0,0,0,0,0,0
1997,8,19,8,0,,22.9,22.1,94,100610,0,0,425,76,17,70,9602,1460,8622,0,50,1.7,10,0,0,0,0,0,0,0,0,0,0,0,0
1997,8,19,9,0,,23.3,22.3,94,100640,0,0,428,131,19,122,16044,1570,14795,0,50,1.3,10,0,0,0,0,0,0,0,0,0,0,0,0
1997,8,19,10,0,,24.2,22.6,93,100650,0,0,433,195,22,180,23305,1885,21655,0,50,0.5,10,0,0,0,0,0,0,0,0,0,0,0,0
1997,8,19,11,0,,24.6,22.8,92,100660,0,0,436,234,21,218,27625,1750,26042,0,340,1.7,10,0,0,0,0,0,0,0,0,0,0,0,0
1997,8,19,12,0,,24.6,23.1,91,100670,0,0,437,249,18,233,29176,1500,27855,0,340,1.3,10,0,0,0,0,0,0,0,0,0,0,0,0
1997,8,19,13,0,,25,23.1,91,100670,0,0,439,251,16,237,28782,993,27981,0,20,2,10,0,0,0,0,0,0,0,0,0,0,0,0
1997,8,19,14,0,,25.3,23,91,100670,0,0,441,267,21,248,29474,1374,28532,0,340,2.5,10,0,0,0,0,0,0,0,0,0,0,0,0
1997,8,19,15,0,,24.5,23,91,100670,0,0,436,213,15,201,23066,932,22574,0,340,1.7,10,0,0,0,0,0,0,0,0,0,0,0,0
1997,8,19,16,0,,24.5,23.1,91,100650,0,0,436,173,14,163,17982,806,17706,0,340,1.7,10,0,0,0,0,0,0,0,0,0,0,0,0
1997,8,19,17,0,,24.6,23.2,91,100640,0,0,437,134,17,125,12680,638,12589,0,340,3,10,0,0,0,0,0,0,0,0,0,0,0,0
1997,8,19,18,0,,24.8,23.3,91,100620,0,0,438,91,22,83,0,0,0,0,340,2.2,10,0,0,0,0,0,0,0,0,0,0,0,0
1997,8,19,19,0,,24.6,23.1,92,100650,0,0,432,32,2,30,0,0,0,0,340,2.3,10,0,0,0,0,0,0,0,0,0,0,0,0
1997,8,19,20,0,,24.3,22.9,93,100670,0,0,426,0,0,0,0,0,0,0,360,2,9,0,0,0,0,0,0,0,0,0,0,0,0
1997,8,19,21,0,,23.7,22.7,94,100700,0,0,419,0,0,0,0,0,0,0,360,2,9,0,0,0,0,0,0,0,0,0,0,0,0
1997,8,19,22,0,,23.6,22.6,94,100710,0,0,418,0,0,0,0,0,0,0,360,1.2,9,0,0,0,0,0,0,0,0,0,0,0,0
1997,8,19,23,0,,23.4,22.5,94,100720,0,0,417,0,0,0,0,0,0,0,20,0.5,9,0,0,0,0,0,0,0,0,0,0,0,0
1997,8,19,24,0,,23.4,22.4,94,100730,0,0,417,0,0,0,0,0,0,0,360,0.7,9,0,0,0,0,0,0,0,0,0,0,0,0
1997,8,20,1,0,,23.3,22.3,94,100710,0,0,410,0,0,0,0,0,0,0,360,1.3,8,0,0,0,0,0,0,0,0,0,0,0,0
1997,8,20,2,0,,23.1,22.1,95,100680,0,0,404,0,0,0,0,0,0,0,0,0,8,0,0,0,0,0,0,0,0,0,0,0,0
1997,8,20,3,0,,22.9,22,95,100660,0,0,399,0,0,0,0,0,0,0,90,0.7,7,0,0,0,0,0,0,0,0,0,0,0,0
1997,8,20,4,0,,22.4,21.7,95,100660,0,0,402,0,0,0,0,0,0,0,0,0,8,0,0,0,0,0,0,0,0,0,0,0,0
1997,8,20,5,0,,22.3,21.5,95,100660,0,0,410,0,0,0,0,0,0,0,50,0.7,9,0,0,0,0,0,0,0,0,0,0,0,0
1997,8,20,6,0,,22.1,21.2,95,100660,0,0,420,0,0,0,0,0,0,0,0,0.2,10,0,0,0,0,0,0,0,0,0,0,0,0
1997,8,20,7,0,,22.3,21.8,92,100640,0,0,401,42,8,34,4535,662,4199,0,0,0,8,0,0,0,0,0,0,0,0,0,0,0,0
1997,8,20,8,0,,23.5,22.3,88,100620,0,0,397,181,214,113,30544,18522,18160,0,20,0.7,6,0,0,0,0,0,0,0,0,0,0,0,0
1997,8,20,9,0,,25.7,22.9,85,100600,0,0,403,369,383,175,53002,33161,26689,0,0,0,4,0,0,0,0,0,0,0,0,0,0,0,0
1997,8,20,10,0,,27.2,23.4,81,100580,0,0,416,496,316,285,64159,27114,40486,0,360,0.7,5,0,0,0,0,0,0,0,0,0,0,0,0
1997,8,20,11,0,,28.1,23.9,78,100550,0,0,428,498,166,366,58184,13790,45744,0,0,0.2,7,0,0,0,0,0,0,0,0,0,0,0,0
1997,8,20,12,0,,29.5,24.4,74,100530,0,0,445,480,107,386,55924,8777,48215,0,180,1,8,0,0,0,0,0,0,0,0,0,0,0,0
1997,8,20,13,0,,30.1,24.9,73,100460,0,0,441,542,133,421,60899,10680,52319,0,290,0.5,7,0,0,0,0,0,0,0,0,0,0,0,0
1997,8,20,14,0,,31.1,25.3,71,100400,0,0,441,646,241,434,66464,18688,53710,0,270,1.7,5,0,0,0,0,0,0,0,0,0,0,0,0
1997,8,20,15,0,,31.9,25.8,70,100330,0,0,442,616,293,379,58340,21491,47083,0,340,1.3,4,0,0,0,0,0,0,0,0,0,0,0,0
1997,8,20,16,0,,32.1,25.9,71,100300,0,0,445,487,267,304,43195,16805,37512,0,0,0,5,0,0,0,0,0,0,0,0,0,0,0,0
1997,8,20,17,0,,32,26,71,100270,0,0,447,362,291,208,26265,8732,25059,0,0,0,5,0,0,0,0,0,0,0,0,0,0,0,0
1997,8,20,18,0,,31.9,26.1,72,100240,0,0,450,206,243,123,0,0,0,0,270,0.5,6,0,0,0,0,0,0,0,0,0,0,0,0
1997,8,20,19,0,,30.7,25.9,79,100250,0,0,436,88,49,39,0,0,0,0,0,0.2,4,0,0,0,0,0,0,0,0,0,0,0,0
1997,8,20,20,0,,29,25.8,85,100260,0,0,421,5,1,5,0,0,0,0,0,0,3,0,0,0,0,0,0,0,0,0,0,0,0
1997,8,20,21,0,,27.1,25.6,92,100270,0,0,402,0,0,0,0,0,0,0,320,0.3,1,0,0,0,0,0,0,0,0,0,0,0,0
1997,8,20,22,0,,26.4,25.1,93,100250,0,0,395,0,0,0,0,0,0,0,0,0,1,0,0,0,0,0,0,0,0,0,0,0,0
1997,8,20,23,0,,25.9,24.6,93,100230,0,0,389,0,0,0,0,0,0,0,0,0,0,0,0,0,0,0,0,0,0,0,0,0,0
1997,8,20,24,0,,25.2,24.1,94,100210,0,0,383,0,0,0,0,0,0,0,0,0,0,0,0,0,0,0,0,0,0,0,0,0,0
1997,8,21,1,0,,24.8,23.7,94,100200,0,0,385,0,0,0,0,0,0,0,0,0,1,0,0,0,0,0,0,0,0,0,0,0,0
1997,8,21,2,0,,24.4,23.4,94,100190,0,0,387,0,0,0,0,0,0,0,0,0,1,0,0,0,0,0,0,0,0,0,0,0,0
1997,8,21,3,0,,24,23,94,100180,0,0,388,0,0,0,0,0,0,0,0,0.2,2,0,0,0,0,0,0,0,0,0,0,0,0
1997,8,21,4,0,,23.9,23,94,100140,0,0,395,0,0,0,0,0,0,0,110,0.3,4,0,0,0,0,0,0,0,0,0,0,0,0
1997,8,21,5,0,,23.7,23,94,100110,0,0,402,0,0,0,0,0,0,0,0,0,7,0,0,0,0,0,0,0,0,0,0,0,0
1997,8,21,6,0,,24,23,94,100070,0,0,421,0,0,0,0,0,0,0,0,0.2,9,0,0,0,0,0,0,0,0,0,0,0,0
1997,8,21,7,0,,24,23.2,93,100040,0,0,425,31,4,27,3585,115,3527,0,0,0,9,0,0,0,0,0,0,0,0,0,0,0,0
1997,8,21,8,0,,24,23.4,93,100020,0,0,429,70,15,65,8853,1195,8057,0,0,0,10,0,0,0,0,0,0,0,0,0,0,0,0
1997,8,21,9,0,,25,23.6,92,99990,0,0,440,134,20,124,16389,1677,15063,0,360,0.3,10,0,0,0,0,0,0,0,0,0,0,0,0
1997,8,21,10,0,,26,23.5,86,99940,0,0,445,212,29,193,25346,2423,23235,0,200,1.7,10,0,0,0,0,0,0,0,0,0,0,0,0
1997,8,21,11,0,,27.5,23.3,81,99890,0,0,454,300,42,267,35027,3567,31818,0,200,3,10,0,0,0,0,0,0,0,0,0,0,0,0
1997,8,21,12,0,,28,23.2,75,99840,0,0,457,305,32,278,35330,2697,32969,0,180,2.3,10,0,0,0,0,0,0,0,0,0,0,0,0
1997,8,21,13,0,,28.4,23.6,76,99730,0,0,460,320,32,291,36681,2757,34474,0,230,3.7,10,0,0,0,0,0,0,0,0,0,0,0,0
1997,8,21,14,0,,29.1,24.1,76,99620,0,0,465,298,29,272,33800,2427,32151,0,200,4,10,0,0,0,0,0,0,0,0,0,0,0,0
1997,8,21,15,0,,29,24.5,77,99510,0,0,465,272,30,247,28356,2068,27280,0,180,4,10,0,0,0,0,0,0,0,0,0,0,0,0
1997,8,21,16,0,,26.7,23.7,82,99540,0,0,450,188,19,175,19184,1093,18819,0,230,4.7,10,0,0,0,0,0,0,0,0,0,0,0,0
1997,8,21,17,0,,24.7,22.8,87,99560,0,0,437,113,11,107,10960,311,10919,0,230,5.7,10,0,0,0,0,0,0,0,0,0,0,0,0
1997,8,21,18,0,,23.5,22,92,99590,0,0,429,50,4,48,0,0,0,0,230,1.7,10,0,0,0,0,0,0,0,0,0,0,0,0
1997,8,21,19,0,,23.4,21.2,88,99620,0,0,406,48,9,40,0,0,0,0,180,2.3,8,0,0,0,0,0,0,0,0,0,0,0,0
1997,8,21,20,0,,23.1,20.3,84,99640,0,0,393,0,0,0,0,0,0,0,180,2.7,6,0,0,0,0,0,0,0,0,0,0,0,0
1997,8,21,21,0,,23.1,19.5,80,99670,0,0,385,0,0,0,0,0,0,0,230,4.3,4,0,0,0,0,0,0,0,0,0,0,0,0
1997,8,21,22,0,,22.6,19.2,80,99710,0,0,386,0,0,0,0,0,0,0,200,3.3,5,0,0,0,0,0,0,0,0,0,0,0,0
1997,8,21,23,0,,22.4,19,80,99740,0,0,390,0,0,0,0,0,0,0,200,3,7,0,0,0,0,0,0,0,0,0,0,0,0
1997,8,21,24,0,,22.3,18.7,80,99780,0,0,397,0,0,0,0,0,0,0,200,3,8,0,0,0,0,0,0,0,0,0,0,0,0
1997,8,22,1,0,,22.3,18.5,80,99790,0,0,390,0,0,0,0,0,0,0,230,2,7,0,0,0,0,0,0,0,0,0,0,0,0
1997,8,22,2,0,,22.2,18.2,80,99810,0,0,385,0,0,0,0,0,0,0,180,2,6,0,0,0,0,0,0,0,0,0,0,0,0
1997,8,22,3,0,,21.6,18,80,99820,0,0,379,0,0,0,0,0,0,0,200,1.7,5,0,0,0,0,0,0,0,0,0,0,0,0
1997,8,22,4,0,,21.4,17.9,84,99850,0,0,376,0,0,0,0,0,0,0,200,2,4,0,0,0,0,0,0,0,0,0,0,0,0
1997,8,22,5,0,,21.2,17.8,88,99880,0,0,373,0,0,0,0,0,0,0,230,2,4,0,0,0,0,0,0,0,0,0,0,0,0
1997,8,22,6,0,,19,17.7,92,99910,0,0,360,0,0,0,0,0,0,0,0,0,3,0,0,0,0,0,0,0,0,0,0,0,0
1997,8,22,7,0,,18.7,18.1,88,99920,0,0,358,64,31,32,5863,2769,4472,0,0,0.2,3,0,0,0,0,0,0,0,0,0,0,0,0
1997,8,22,8,0,,20.5,18.5,84,99930,0,0,366,220,385,99,40963,38013,15716,0,0,0,2,0,0,0,0,0,0,0,0,0,0,0,0
1997,8,22,9,0,,22.5,18.9,80,99940,0,0,375,408,536,139,62567,53044,20714,0,0,0,2,0,0,0,0,0,0,0,0,0,0,0,0
1997,8,22,10,0,,25.1,19.1,74,99920,0,0,389,589,631,170,78460,62205,24439,0,230,1.7,2,0,0,0,0,0,0,0,0,0,0,0,0
1997,8,22,11,0,,26.7,19.4,68,99890,0,0,397,716,634,215,85025,61979,29431,0,250,2,2,0,0,0,0,0,0,0,0,0,0,0,0
1997,8,22,12,0,,27.5,19.6,62,99870,0,0,402,772,575,272,83757,55232,35556,0,140,1.5,2,0,0,0,0,0,0,0,0,0,0,0,0
1997,8,22,13,0,,28.6,20.1,62,99850,0,0,411,752,461,337,77247,40959,44593,0,270,1.3,3,0,0,0,0,0,0,0,0,0,0,0,0
1997,8,22,14,0,,29.2,20.6,61,99830,0,0,418,736,476,319,68264,40032,41216,0,290,2.7,3,0,0,0,0,0,0,0,0,0,0,0,0
1997,8,22,15,0,,29.4,21.1,61,99810,0,0,422,643,425,301,56503,33886,39006,0,290,4,4,0,0,0,0,0,0,0,0,0,0,0,0
1997,8,22,16,0,,30,20.9,62,99790,0,0,423,563,512,214,39521,35187,27907,0,250,3,3,0,0,0,0,0,0,0,0,0,0,0,0
1997,8,22,17,0,,30,20.7,62,99780,0,0,420,418,511,152,21102,16146,19010,0,250,3.3,3,0,0,0,0,0,0,0,0,0,0,0,0
1997,8,22,18,0,,28.1,20.5,63,99760,0,0,406,261,512,90,0,0,0,0,230,3.7,2,0,0,0,0,0,0,0,0,0,0,0,0
1997,8,22,19,0,,26.8,20.6,70,99790,0,0,396,93,53,40,0,0,0,0,230,3,1,0,0,0,0,0,0,0,0,0,0,0,0
1997,8,22,20,0,,24.7,20.7,77,99810,0,0,381,0,0,0,0,0,0,0,180,0.3,1,0,0,0,0,0,0,0,0,0,0,0,0
1997,8,22,21,0,,23.6,20.8,84,99840,0,0,371,0,0,0,0,0,0,0,20,1.2,0,0,0,0,0,0,0,0,0,0,0,0,0
1997,8,22,22,0,,21.7,20.3,87,99870,0,0,361,0,0,0,0,0,0,0,360,0.7,0,0,0,0,0,0,0,0,0,0,0,0,0
1997,8,22,23,0,,21.1,19.7,91,99900,0,0,357,0,0,0,0,0,0,0,0,0,0,0,0,0,0,0,0,0,0,0,0,0,0
1997,8,22,24,0,,20.2,19.2,94,99930,0,0,352,0,0,0,0,0,0,0,0,0,0,0,0,0,0,0,0,0,0,0,0,0,0
1997,8,23,1,0,,19.8,18.8,94,99950,0,0,350,0,0,0,0,0,0,0,0,0,0,0,0,0,0,0,0,0,0,0,0,0,0
1997,8,23,2,0,,19.3,18.4,94,99970,0,0,347,0,0,0,0,0,0,0,0,0,0,0,0,0,0,0,0,0,0,0,0,0,0
1997,8,23,3,0,,18.9,18,94,99990,0,0,345,0,0,0,0,0,0,0,0,0,0,0,0,0,0,0,0,0,0,0,0,0,0
1997,8,23,4,0,,18.3,17.9,95,100020,0,0,358,0,0,0,0,0,0,0,0,0,3,0,0,0,0,0,0,0,0,0,0,0,0
1997,8,23,5,0,,18.2,17.8,95,100050,0,0,367,0,0,0,0,0,0,0,0,0,7,0,0,0,0,0,0,0,0,0,0,0,0
1997,8,23,6,0,,18.3,17.7,96,100080,0,0,394,0,0,0,0,0,0,0,0,0,10,0,0,0,0,0,0,0,0,0,0,0,0
1997,8,23,7,0,,18.4,18.1,95,100100,0,0,395,17,1,17,2249,30,2234,0,0,0,10,0,0,0,0,0,0,0,0,0,0,0,0
1997,8,23,8,0,,19.1,18.4,94,100120,0,0,399,70,16,66,8885,1361,7984,0,20,0.3,10,0,0,0,0,0,0,0,0,0,0,0,0
1997,8,23,9,0,,20,18.8,93,100140,0,0,405,133,20,123,16173,1800,14757,0,360,0.5,10,0,0,0,0,0,0,0,0,0,0,0,0
1997,8,23,10,0,,21.8,19.3,86,100120,0,0,398,333,102,266,40739,9187,32782,0,340,0.7,8,0,0,0,0,0,0,0,0,0,0,0,0
1997,8,23,11,0,,24.1,19.8,78,100090,0,0,400,494,168,362,57266,14916,43926,0,360,0.5,7,0,0,0,0,0,0,0,0,0,0,0,0
1997,8,23,12,0,,26,20.3,71,100070,0,0,405,680,300,420,75193,25888,52675,0,230,0.7,5,0,0,0,0,0,0,0,0,0,0,0,0
1997,8,23,13,0,,27.6,21.2,69,100000,0,0,412,756,475,329,77385,41728,44251,0,320,1,4,0,0,0,0,0,0,0,0,0,0,0,0
1997,8,23,14,0,,29.1,22,66,99920,0,0,418,744,503,305,70642,43050,41705,0,250,1,3,0,0,0,0,0,0,0,0,0,0,0,0
1997,8,23,15,0,,30.6,22.9,64,99850,0,0,423,696,564,245,58072,45931,34533,0,230,1.7,2,0,0,0,0,0,0,0,0,0,0,0,0
1997,8,23,16,0,,30.7,22.1,61,99840,0,0,419,584,581,191,40117,41777,26502,0,250,2,1,0,0,0,0,0,0,0,0,0,0,0,0
1997,8,23,17,0,,31.1,21.4,59,99820,0,0,416,451,636,122,19095,24681,16007,0,230,3,1,0,0,0,0,0,0,0,0,0,0,0,0
1997,8,23,18,0,,30.5,20.6,56,99810,0,0,406,270,575,79,0,0,0,0,250,2.7,0,0,0,0,0,0,0,0,0,0,0,0,0
1997,8,23,19,0,,28.2,20.9,67,99840,0,0,400,91,53,38,0,0,0,0,320,0.7,1,0,0,0,0,0,0,0,0,0,0,0,0
1997,8,23,20,0,,25.2,21.3,77,99880,0,0,388,0,0,0,0,0,0,0,340,0.7,1,0,0,0,0,0,0,0,0,0,0,0,0
1997,8,23,21,0,,23.7,21.6,88,99910,0,0,384,0,0,0,0,0,0,0,290,0.7,2,0,0,0,0,0,0,0,0,0,0,0,0
1997,8,23,22,0,,22.6,21.1,90,99930,0,0,375,0,0,0,0,0,0,0,0,0,1,0,0,0,0,0,0,0,0,0,0,0,0
1997,8,23,23,0,,21.8,20.7,91,99950,0,0,366,0,0,0,0,0,0,0,0,0.2,1,0,0,0,0,0,0,0,0,0,0,0,0
1997,8,23,24,0,,21.3,20.2,93,99970,0,0,359,0,0,0,0,0,0,0,0,0,0,0,0,0,0,0,0,0,0,0,0,0,0
1997,8,24,1,0,,21.2,20.2,94,99980,0,0,371,0,0,0,0,0,0,0,0,0,2,0,0,0,0,0,0,0,0,0,0,0,0
1997,8,24,2,0,,21.2,20.2,94,99980,0,0,378,0,0,0,0,0,0,0,0,0,5,0,0,0,0,0,0,0,0,0,0,0,0
1997,8,24,3,0,,21.1,20.2,95,99990,0,0,387,0,0,0,0,0,0,0,0,0,7,0,0,0,0,0,0,0,0,0,0,0,0
1997,8,24,4,0,,20.8,19.9,95,100000,0,0,376,0,0,0,0,0,0,0,360,0.5,5,0,0,0,0,0,0,0,0,0,0,0,0
1997,8,24,5,0,,20.6,19.7,94,100010,0,0,368,0,0,0,0,0,0,0,0,0,2,0,0,0,0,0,0,0,0,0,0,0,0
1997,8,24,6,0,,20.5,19.4,94,100020,0,0,354,0,0,0,0,0,0,0,0,0,0,0,0,0,0,0,0,0,0,0,0,0,0
1997,8,24,7,0,,20.7,20,93,100030,0,0,367,68,34,35,6259,2899,4816,0,360,0.5,2,0,0,0,0,0,0,0,0,0,0,0,0
1997,8,24,8,0,,21.6,20.6,92,100050,0,0,379,203,354,94,38185,34746,15265,0,0,0,4,0,0,0,0,0,0,0,0,0,0,0,0
1997,8,24,9,0,,22.7,21.2,91,100060,0,0,392,302,210,198,41165,17877,27141,0,360,0.3,6,0,0,0,0,0,0,0,0,0,0,0,0
1997,8,24,10,0,,24.5,21.6,85,100040,0,0,395,500,390,243,64356,34386,34660,0,270,0.7,4,0,0,0,0,0,0,0,0,0,0,0,0
1997,8,24,11,0,,26.2,22.1,78,100020,0,0,398,650,482,271,75929,42287,38221,0,0,0.2,2,0,0,0,0,0,0,0,0,0,0,0,0
1997,8,24,12,0,,27.9,22.5,72,100000,0,0,395,751,535,287,80632,46527,40297,0,360,0.7,0,0,0,0,0,0,0,0,0,0,0,0,0
1997,8,24,13,0,,29.3,22.7,68,99950,0,0,402,787,552,293,78628,47559,41018,0,230,0.7,0,0,0,0,0,0,0,0,0,0,0,0,0
1997,8,24,14,0,,30.2,22.8,65,99890,0,0,407,744,508,301,70457,42977,41724,0,0,0.2,0,0,0,0,0,0,0,0,0,0,0,0,0
1997,8,24,15,0,,31.5,23,61,99840,0,0,415,691,561,245,57712,45444,34600,0,0,0.2,0,0,0,0,0,0,0,0,0,0,0,0,0
1997,8,24,16,0,,31.8,23.3,63,99830,0,0,422,579,576,191,39879,40359,26896,0,250,3,1,0,0,0,0,0,0,0,0,0,0,0,0
1997,8,24,17,0,,31.6,23.5,65,99810,0,0,426,429,571,135,20239,19620,17873,0,250,2,1,0,0,0,0,0,0,0,0,0,0,0,0
1997,8,24,18,0,,30.6,23.8,67,99800,0,0,424,243,450,96,0,0,0,0,250,1.2,2,0,0,0,0,0,0,0,0,0,0,0,0
1997,8,24,19,0,,27.9,22.9,69,99860,0,0,414,72,36,37,0,0,0,0,360,0.8,4,0,0,0,0,0,0,0,0,0,0,0,0
1997,8,24,20,0,,26.7,22.1,70,99920,0,0,412,0,0,0,0,0,0,0,70,0.8,5,0,0,0,0,0,0,0,0,0,0,0,0
1997,8,24,21,0,,26.5,21.2,72,99980,0,0,417,0,0,0,0,0,0,0,70,2.3,7,0,0,0,0,0,0,0,0,0,0,0,0
1997,8,24,22,0,,25.2,21,76,100010,0,0,410,0,0,0,0,0,0,0,20,3,7,0,0,0,0,0,0,0,0,0,0,0,0
1997,8,24,23,0,,24.5,20.9,79,100050,0,0,406,0,0,0,0,0,0,0,50,2.7,7,0,0,0,0,0,0,0,0,0,0,0,0
1997,8,24,24,0,,23.7,20.7,83,100080,0,0,401,0,0,0,0,0,0,0,50,1.7,7,0,0,0,0,0,0,0,0,0,0,0,0
1997,8,25,1,0,,23.7,19.9,80,100100,0,0,394,0,0,0,0,0,0,0,50,2.3,6,0,0,0,0,0,0,0,0,0,0,0,0
1997,8,25,2,0,,23.6,19,76,100110,0,0,388,0,0,0,0,0,0,0,70,0.7,4,0,0,0,0,0,0,0,0,0,0,0,0
1997,8,25,3,0,,23.4,18.2,73,100130,0,0,382,0,0,0,0,0,0,0,70,1,3,0,0,0,0,0,0,0,0,0,0,0,0
1997,8,25,4,0,,22.6,18.6,78,100170,0,0,386,0,0,0,0,0,0,0,0,0.2,5,0,0,0,0,0,0,0,0,0,0,0,0
1997,8,25,5,0,,21.6,18.9,82,100200,0,0,392,0,0,0,0,0,0,0,0,0,8,0,0,0,0,0,0,0,0,0,0,0,0
1997,8,25,6,0,,21.5,19.3,87,100240,0,0,414,0,0,0,0,0,0,0,360,0.7,10,0,0,0,0,0,0,0,0,0,0,0,0
1997,8,25,7,0,,21.6,19.4,84,100250,0,0,414,18,1,17,2335,36,2318,0,20,1.3,10,0,0,0,0,0,0,0,0,0,0,0,0
1997,8,25,8,0,,22,19.6,82,100250,0,0,417,80,23,72,10121,2006,8802,0,340,1,10,0,0,0,0,0,0,0,0,0,0,0,0
1997,8,25,9,0,,23.6,19.7,79,100260,0,0,426,143,26,131,17447,2278,15665,0,0,0,10,0,0,0,0,0,0,0,0,0,0,0,0
1997,8,25,10,0,,25,19.8,75,100250,0,0,434,237,41,210,28086,3636,24955,0,360,1.7,10,0,0,0,0,0,0,0,0,0,0,0,0
1997,8,25,11,0,,25.7,19.8,70,100230,0,0,439,284,37,255,33017,3313,30072,0,360,1.7,10,0,0,0,0,0,0,0,0,0,0,0,0
1997,8,25,12,0,,26.8,19.9,66,100220,0,0,445,315,36,284,36167,3197,33405,0,50,1,10,0,0,0,0,0,0,0,0,0,0,0,0
1997,8,25,13,0,,27.8,20.5,65,100190,0,0,426,548,145,419,60189,12537,50316,0,70,0.7,7,0,0,0,0,0,0,0,0,0,0,0,0
1997,8,25,14,0,,28.7,21.2,64,100170,0,0,420,648,258,424,65202,21738,50747,0,270,0.5,5,0,0,0,0,0,0,0,0,0,0,0,0
1997,8,25,15,0,,29.6,21.8,63,100140,0,0,416,668,511,263,55004,40022,34809,0,290,1.7,2,0,0,0,0,0,0,0,0,0,0,0,0
1997,8,25,16,0,,29.6,21.6,64,100140,0,0,414,550,505,212,38417,33485,27789,0,250,1.5,2,0,0,0,0,0,0,0,0,0,0,0,0
1997,8,25,17,0,,29.7,21.4,64,100140,0,0,413,412,524,145,19782,13704,18192,0,70,1.3,1,0,0,0,0,0,0,0,0,0,0,0,0
1997,8,25,18,0,,28.2,21.2,65,100140,0,0,402,244,475,91,0,0,0,0,70,1.2,1,0,0,0,0,0,0,0,0,0,0,0,0
1997,8,25,19,0,,26.5,20.7,70,100180,0,0,392,82,44,37,0,0,0,0,70,1,1,0,0,0,0,0,0,0,0,0,0,0,0
1997,8,25,20,0,,25.2,20.1,74,100220,0,0,385,0,0,0,0,0,0,0,70,1.7,1,0,0,0,0,0,0,0,0,0,0,0,0
1997,8,25,21,0,,23.5,19.6,79,100260,0,0,376,0,0,0,0,0,0,0,70,0.7,1,0,0,0,0,0,0,0,0,0,0,0,0
1997,8,25,22,0,,22.5,19.6,83,100290,0,0,371,0,0,0,0,0,0,0,50,2.2,1,0,0,0,0,0,0,0,0,0,0,0,0
1997,8,25,23,0,,22.1,19.6,87,100310,0,0,369,0,0,0,0,0,0,0,0,0,1,0,0,0,0,0,0,0,0,0,0,0,0
1997,8,25,24,0,,21.1,19.6,91,100340,0,0,364,0,0,0,0,0,0,0,360,0.5,1,0,0,0,0,0,0,0,0,0,0,0,0
1997,8,26,1,0,,21,19.5,92,100340,0,0,369,0,0,0,0,0,0,0,360,1.3,2,0,0,0,0,0,0,0,0,0,0,0,0
1997,8,26,2,0,,20.8,19.5,92,100340,0,0,373,0,0,0,0,0,0,0,20,1.7,4,0,0,0,0,0,0,0,0,0,0,0,0
1997,8,26,3,0,,20.6,19.4,93,100340,0,0,375,0,0,0,0,0,0,0,0,0,5,0,0,0,0,0,0,0,0,0,0,0,0
1997,8,26,4,0,,20.4,19.3,92,100370,0,0,380,0,0,0,0,0,0,0,0,0.2,7,0,0,0,0,0,0,0,0,0,0,0,0
1997,8,26,5,0,,20.4,19.1,92,100410,0,0,390,0,0,0,0,0,0,0,0,0,8,0,0,0,0,0,0,0,0,0,0,0,0
1997,8,26,6,0,,20.5,19,91,100440,0,0,408,0,0,0,0,0,0,0,0,0,10,0,0,0,0,0,0,0,0,0,0,0,0
1997,8,26,7,0,,20.5,19.1,87,100440,0,0,386,36,7,29,3881,588,3591,0,0,0,8,0,0,0,0,0,0,0,0,0,0,0,0
1997,8,26,8,0,,21.3,19.1,82,100440,0,0,380,187,282,101,32619,25410,15976,0,0,0,5,0,0,0,0,0,0,0,0,0,0,0,0
1997,8,26,9,0,,23.1,19.2,78,100440,0,0,382,378,461,152,57658,45330,22316,0,0,0.2,3,0,0,0,0,0,0,0,0,0,0,0,0
1997,8,26,10,0,,24.1,19.5,74,100430,0,0,385,530,488,211,69858,47608,28985,0,230,0.5,2,0,0,0,0,0,0,0,0,0,0,0,0
1997,8,26,11,0,,25.3,19.7,69,100430,0,0,389,657,511,258,76558,46181,35629,0,0,0.2,2,0,0,0,0,0,0,0,0,0,0,0,0
1997,8,26,12,0,,27,20,65,100420,0,0,394,754,557,276,80789,49970,37771,0,250,2,1,0,0,0,0,0,0,0,0,0,0,0,0
1997,8,26,13,0,,27.3,20.5,64,100380,0,0,400,749,477,324,76426,42221,43319,0,290,0.7,2,0,0,0,0,0,0,0,0,0,0,0,0
1997,8,26,14,0,,29.1,21.1,62,100330,0,0,414,735,500,302,69439,43333,40785,0,50,1,2,0,0,0,0,0,0,0,0,0,0,0,0
1997,8,26,15,0,,30,21.6,61,100290,0,0,422,645,461,281,54891,36133,36803,0,180,0.7,3,0,0,0,0,0,0,0,0,0,0,0,0
1997,8,26,16,0,,30.3,21.8,61,100250,0,0,423,563,552,196,37254,36200,25922,0,250,2,3,0,0,0,0,0,0,0,0,0,0,0,0
1997,8,26,17,0,,30.5,22,62,100210,0,0,423,413,542,139,19095,12763,17673,0,250,1,2,0,0,0,0,0,0,0,0,0,0,0,0
1997,8,26,18,0,,30.2,22.2,62,100170,0,0,420,247,508,85,0,0,0,0,230,1.3,2,0,0,0,0,0,0,0,0,0,0,0,0
1997,8,26,19,0,,28.7,22.4,71,100240,0,0,408,82,48,34,0,0,0,0,250,1.7,1,0,0,0,0,0,0,0,0,0,0,0,0
1997,8,26,20,0,,26,22.7,81,100300,0,0,390,0,0,0,0,0,0,0,360,1,1,0,0,0,0,0,0,0,0,0,0,0,0
1997,8,26,21,0,,24.8,22.9,90,100370,0,0,379,0,0,0,0,0,0,0,0,0,0,0,0,0,0,0,0,0,0,0,0,0,0
1997,8,26,22,0,,23.7,22.3,91,100400,0,0,378,0,0,0,0,0,0,0,0,0,1,0,0,0,0,0,0,0,0,0,0,0,0
1997,8,26,23,0,,23.2,21.8,92,100430,0,0,379,0,0,0,0,0,0,0,0,0,1,0,0,0,0,0,0,0,0,0,0,0,0
1997,8,26,24,0,,22.3,21.2,93,100460,0,0,377,0,0,0,0,0,0,0,320,0.5,2,0,0,0,0,0,0,0,0,0,0,0,0
1997,8,27,1,0,,22,20.9,93,100450,0,0,382,0,0,0,0,0,0,0,0,0,4,0,0,0,0,0,0,0,0,0,0,0,0
1997,8,27,2,0,,21.7,20.7,94,100440,0,0,386,0,0,0,0,0,0,0,0,0,6,0,0,0,0,0,0,0,0,0,0,0,0
1997,8,27,3,0,,21.4,20.4,94,100430,0,0,395,0,0,0,0,0,0,0,0,0,8,0,0,0,0,0,0,0,0,0,0,0,0
1997,8,27,4,0,,21.4,20.5,94,100450,0,0,400,0,0,0,0,0,0,0,290,0.5,9,0,0,0,0,0,0,0,0,0,0,0,0
1997,8,27,5,0,,21.5,20.7,95,100460,0,0,408,0,0,0,0,0,0,0,0,0,9,0,0,0,0,0,0,0,0,0,0,0,0
1997,8,27,6,0,,21.6,20.8,95,100480,0,0,416,0,0,0,0,0,0,0,0,0,10,0,0,0,0,0,0,0,0,0,0,0,0
1997,8,27,7,0,,21.7,21,94,100500,0,0,417,17,1,16,2137,27,2124,0,140,0.5,10,0,0,0,0,0,0,0,0,0,0,0,0
1997,8,27,8,0,,22.3,21.1,93,100510,0,0,421,70,17,65,8844,1424,7914,0,0,0.2,10,0,0,0,0,0,0,0,0,0,0,0,0
1997,8,27,9,0,,22.8,21.3,92,100530,0,0,424,128,19,118,15559,1657,14271,0,0,0,10,0,0,0,0,0,0,0,0,0,0,0,0
1997,8,27,10,0,,23.8,21.8,87,100500,0,0,418,258,53,224,30526,4592,26595,0,290,0.5,9,0,0,0,0,0,0,0,0,0,0,0,0
1997,8,27,11,0,,25.3,22.2,82,100470,0,0,418,398,96,323,47455,8243,40172,0,200,0.7,8,0,0,0,0,0,0,0,0,0,0,0,0
1997,8,27,12,0,,26.9,22.7,77,100440,0,0,421,537,157,403,60725,13222,49383,0,270,2.5,7,0,0,0,0,0,0,0,0,0,0,0,0
1997,8,27,13,0,,28.5,22.8,72,100380,0,0,427,621,211,434,66603,17588,52872,0,270,0.8,6,0,0,0,0,0,0,0,0,0,0,0,0
1997,8,27,14,0,,29.7,22.8,68,100330,0,0,431,609,221,419,62657,18008,50817,0,270,1.7,6,0,0,0,0,0,0,0,0,0,0,0,0
1997,8,27,15,0,,30.8,22.9,63,100270,0,0,435,593,291,364,55329,22579,44119,0,250,0.7,5,0,0,0,0,0,0,0,0,0,0,0,0
1997,8,27,16,0,,31,23.1,65,100250,0,0,434,521,442,228,38770,27546,30269,0,270,0.8,4,0,0,0,0,0,0,0,0,0,0,0,0
1997,8,27,17,0,,30.8,23.4,68,100220,0,0,431,370,401,169,22147,7398,21357,0,200,1.2,4,0,0,0,0,0,0,0,0,0,0,0,0
1997,8,27,18,0,,29.6,23.6,70,100200,0,0,423,227,421,95,0,0,0,0,250,2,3,0,0,0,0,0,0,0,0,0,0,0,0
1997,8,27,19,0,,28.5,23.5,77,100230,0,0,417,68,39,29,0,0,0,0,0,0,3,0,0,0,0,0,0,0,0,0,0,0,0
1997,8,27,20,0,,27.5,23.4,83,100270,0,0,413,0,0,0,0,0,0,0,180,1,4,0,0,0,0,0,0,0,0,0,0,0,0
1997,8,27,21,0,,25.1,23.3,90,100300,0,0,401,0,0,0,0,0,0,0,0,0,4,0,0,0,0,0,0,0,0,0,0,0,0
1997,8,27,22,0,,23.7,22.6,91,100290,0,0,388,0,0,0,0,0,0,0,0,0,3,0,0,0,0,0,0,0,0,0,0,0,0
1997,8,27,23,0,,23.2,21.9,92,100270,0,0,379,0,0,0,0,0,0,0,0,0,1,0,0,0,0,0,0,0,0,0,0,0,0
1997,8,27,24,0,,22.5,21.2,93,100260,0,0,366,0,0,0,0,0,0,0,0,0,0,0,0,0,0,0,0,0,0,0,0,0,0
1997,8,28,1,0,,22,20.7,92,100250,0,0,373,0,0,0,0,0,0,0,0,0,2,0,0,0,0,0,0,0,0,0,0,0,0
1997,8,28,2,0,,21.6,20.1,92,100250,0,0,376,0,0,0,0,0,0,0,0,0,3,0,0,0,0,0,0,0,0,0,0,0,0
1997,8,28,3,0,,21.1,19.6,91,100240,0,0,378,0,0,0,0,0,0,0,0,0,5,0,0,0,0,0,0,0,0,0,0,0,0
1997,8,28,4,0,,21,19.5,91,100260,0,0,384,0,0,0,0,0,0,0,0,0,7,0,0,0,0,0,0,0,0,0,0,0,0
1997,8,28,5,0,,21.1,19.5,91,100270,0,0,394,0,0,0,0,0,0,0,0,0,8,0,0,0,0,0,0,0,0,0,0,0,0
1997,8,28,6,0,,20.9,19.4,91,100290,0,0,410,0,0,0,0,0,0,0,0,0,10,0,0,0,0,0,0,0,0,0,0,0,0
1997,8,28,7,0,,21.1,19.7,89,100290,0,0,408,17,1,16,2164,28,2151,0,0,0,10,0,0,0,0,0,0,0,0,0,0,0,0
1997,8,28,8,0,,21.8,19.9,87,100290,0,0,408,100,48,86,14116,4254,11350,0,0,0,9,0,0,0,0,0,0,0,0,0,0,0,0
1997,8,28,9,0,,22.8,20.2,85,100290,0,0,411,183,54,157,23850,4830,20108,0,0,0,9,0,0,0,0,0,0,0,0,0,0,0,0
1997,8,28,10,0,,24.3,20.3,78,100270,0,0,410,350,125,269,42842,11088,33380,0,200,2.7,8,0,0,0,0,0,0,0,0,0,0,0,0
1997,8,28,11,0,,26.2,20.5,71,100260,0,0,414,502,186,358,58058,16354,43658,0,230,2,7,0,0,0,0,0,0,0,0,0,0,0,0
1997,8,28,12,0,,28,20.6,64,100240,0,0,420,628,248,415,70586,21240,52435,0,250,2,6,0,0,0,0,0,0,0,0,0,0,0,0
1997,8,28,13,0,,29,21.2,65,100170,0,0,425,643,237,435,68013,20204,52310,0,270,2,6,0,0,0,0,0,0,0,0,0,0,0,0
1997,8,28,14,0,,30,21.9,65,100110,0,0,430,668,297,413,65930,24613,49842,0,250,2.3,5,0,0,0,0,0,0,0,0,0,0,0,0
1997,8,28,15,0,,29.7,22.5,66,100040,0,0,428,558,246,366,53602,19186,44157,0,290,1,5,0,0,0,0,0,0,0,0,0,0,0,0
1997,8,28,16,0,,29.7,22.2,66,100020,0,0,424,497,340,273,39608,22609,32731,0,230,3,4,0,0,0,0,0,0,0,0,0,0,0,0
1997,8,28,17,0,,29.4,21.8,65,100010,0,0,417,403,530,139,18551,10865,17442,0,230,5,2,0,0,0,0,0,0,0,0,0,0,0,0
1997,8,28,18,0,,28.8,21.5,65,99990,0,0,406,248,555,76,0,0,0,0,230,4.3,1,0,0,0,0,0,0,0,0,0,0,0,0
1997,8,28,19,0,,27.4,21.2,71,100060,0,0,396,75,43,31,0,0,0,0,250,3,1,0,0,0,0,0,0,0,0,0,0,0,0
1997,8,28,20,0,,25,20.9,78,100130,0,0,380,0,0,0,0,0,0,0,360,1.2,0,0,0,0,0,0,0,0,0,0,0,0,0
1997,8,28,21,0,,23.5,20.6,84,100200,0,0,370,0,0,0,0,0,0,0,110,0.5,0,0,0,0,0,0,0,0,0,0,0,0,0
1997,8,28,22,0,,22.1,20.1,87,100240,0,0,362,0,0,0,0,0,0,0,0,0,0,0,0,0,0,0,0,0,0,0,0,0,0
1997,8,28,23,0,,21.4,19.5,89,100270,0,0,358,0,0,0,0,0,0,0,0,0,0,0,0,0,0,0,0,0,0,0,0,0,0
1997,8,28,24,0,,20.3,19,92,100310,0,0,352,0,0,0,0,0,0,0,0,0.2,0,0,0,0,0,0,0,0,0,0,0,0,0
1997,8,29,1,0,,20.2,18.9,92,100320,0,0,352,0,0,0,0,0,0,0,110,0.5,0,0,0,0,0,0,0,0,0,0,0,0,0
1997,8,29,2,0,,20,18.8,93,100340,0,0,351,0,0,0,0,0,0,0,0,0,0,0,0,0,0,0,0,0,0,0,0,0,0
1997,8,29,3,0,,19.9,18.7,93,100350,0,0,350,0,0,0,0,0,0,0,0,0.2,0,0,0,0,0,0,0,0,0,0,0,0,0
1997,8,29,4,0,,19.9,18.7,93,100350,0,0,366,0,0,0,0,0,0,0,140,1.3,3,0,0,0,0,0,0,0,0,0,0,0,0
1997,8,29,5,0,,19.9,18.6,92,100340,0,0,377,0,0,0,0,0,0,0,20,0.8,7,0,0,0,0,0,0,0,0,0,0,0,0
1997,8,29,6,0,,19.9,18.6,92,100340,0,0,404,0,0,0,0,0,0,0,0,0.2,10,0,0,0,0,0,0,0,0,0,0,0,0
1997,8,29,7,0,,20,19.2,91,100370,0,0,405,17,1,16,2178,32,2163,0,50,1.7,10,0,0,0,0,0,0,0,0,0,0,0,0
1997,8,29,8,0,,20.9,19.8,89,100390,0,0,411,76,23,69,9676,1945,8416,0,20,0.5,10,0,0,0,0,0,0,0,0,0,0,0,0
1997,8,29,9,0,,22.5,20.4,88,100420,0,0,421,148,31,134,18109,2669,16048,0,320,0.5,10,0,0,0,0,0,0,0,0,0,0,0,0
1997,8,29,10,0,,23.8,20.7,81,100430,0,0,420,285,72,239,35341,6345,29944,0,70,0.8,9,0,0,0,0,0,0,0,0,0,0,0,0
1997,8,29,11,0,,25.7,20.9,75,100430,0,0,425,357,73,301,41053,6456,35387,0,110,0.3,9,0,0,0,0,0,0,0,0,0,0,0,0
1997,8,29,12,0,,27.5,21.2,68,100440,0,0,429,498,130,387,56743,11285,47135,0,230,1,8,0,0,0,0,0,0,0,0,0,0,0,0
1997,8,29,13,0,,29.3,21.8,67,100400,0,0,430,665,265,432,69557,22409,52220,0,250,2.7,6,0,0,0,0,0,0,0,0,0,0,0,0
1997,8,29,14,0,,30,22.3,66,100370,0,0,429,674,311,409,66075,25545,49478,0,250,2.7,5,0,0,0,0,0,0,0,0,0,0,0,0
1997,8,29,15,0,,30.2,22.9,65,100330,0,0,425,638,469,273,53707,35488,36387,0,270,3,3,0,0,0,0,0,0,0,0,0,0,0,0
1997,8,29,16,0,,30.8,22.8,65,100310,0,0,430,525,473,215,37325,29273,28554,0,250,3,3,0,0,0,0,0,0,0,0,0,0,0,0
1997,8,29,17,0,,30.6,22.8,66,100280,0,0,429,369,422,161,20764,6807,20102,0,250,2.7,4,0,0,0,0,0,0,0,0,0,0,0,0
1997,8,29,18,0,,29.7,22.7,66,100260,0,0,425,214,385,97,0,0,0,0,200,1.8,4,0,0,0,0,0,0,0,0,0,0,0,0
1997,8,29,19,0,,28.7,22.9,74,100320,0,0,422,59,30,29,0,0,0,0,200,1.8,5,0,0,0,0,0,0,0,0,0,0,0,0
1997,8,29,20,0,,27,23.2,81,100380,0,0,415,0,0,0,0,0,0,0,90,0.3,5,0,0,0,0,0,0,0,0,0,0,0,0
1997,8,29,21,0,,25.3,23.4,89,100440,0,0,409,0,0,0,0,0,0,0,320,1.2,6,0,0,0,0,0,0,0,0,0,0,0,0
1997,8,29,22,0,,24.7,23.1,90,100470,0,0,410,0,0,0,0,0,0,0,0,0,7,0,0,0,0,0,0,0,0,0,0,0,0
1997,8,29,23,0,,24.3,22.9,90,100510,0,0,414,0,0,0,0,0,0,0,20,0.7,8,0,0,0,0,0,0,0,0,0,0,0,0
1997,8,29,24,0,,24.1,22.6,91,100540,0,0,421,0,0,0,0,0,0,0,0,0,9,0,0,0,0,0,0,0,0,0,0,0,0
1997,8,30,1,0,,24.4,22.3,88,100540,0,0,422,0,0,0,0,0,0,0,200,1.5,9,0,0,0,0,0,0,0,0,0,0,0,0
1997,8,30,2,0,,24.6,22.1,86,100540,0,0,423,0,0,0,0,0,0,0,230,1.7,9,0,0,0,0,0,0,0,0,0,0,0,0
1997,8,30,3,0,,24.9,21.8,83,100540,0,0,424,0,0,0,0,0,0,0,0,0.2,9,0,0,0,0,0,0,0,0,0,0,0,0
1997,8,30,4,0,,24.2,21.5,86,100540,0,0,420,0,0,0,0,0,0,0,0,0.2,9,0,0,0,0,0,0,0,0,0,0,0,0
1997,8,30,5,0,,23,21.3,89,100530,0,0,413,0,0,0,0,0,0,0,0,0,9,0,0,0,0,0,0,0,0,0,0,0,0
1997,8,30,6,0,,22.4,21,92,100530,0,0,409,0,0,0,0,0,0,0,0,0,9,0,0,0,0,0,0,0,0,0,0,0,0
1997,8,30,7,0,,22.6,21.3,92,100550,0,0,411,22,2,20,2698,66,2666,0,0,0,9,0,0,0,0,0,0,0,0,0,0,0,0
1997,8,30,8,0,,22.9,21.7,92,100560,0,0,413,92,40,80,13082,3504,10821,0,0,0,9,0,0,0,0,0,0,0,0,0,0,0,0
1997,8,30,9,0,,23.4,22,92,100580,0,0,416,174,49,151,22897,4238,19636,0,20,0.7,9,0,0,0,0,0,0,0,0,0,0,0,0
1997,8,30,10,0,,24.6,22.3,86,100550,0,0,427,252,52,219,29875,4459,26094,0,20,1.2,9,0,0,0,0,0,0,0,0,0,0,0,0
1997,8,30,11,0,,25.9,22.5,79,100530,0,0,439,265,33,240,30987,2795,28542,0,50,1,10,0,0,0,0,0,0,0,0,0,0,0,0
1997,8,30,12,0,,28,22.8,73,100500,0,0,456,310,36,279,35701,3101,33071,0,340,0.3,10,0,0,0,0,0,0,0,0,0,0,0,0
1997,8,30,13,0,,27,23.3,73,100430,0,0,442,368,52,323,41386,4466,37947,0,0,0,9,0,0,0,0,0,0,0,0,0,0,0,0
1997,8,30,14,0,,29,23.8,72,100370,0,0,448,392,68,335,42879,5830,39114,0,250,3.2,9,0,0,0,0,0,0,0,0,0,0,0,0
1997,8,30,15,0,,29.8,24.3,72,100300,0,0,447,418,111,332,42981,9369,38449,0,250,2.8,8,0,0,0,0,0,0,0,0,0,0,0,0
1997,8,30,16,0,,29.1,24.6,75,100260,0,0,443,326,101,260,32162,7842,29848,0,290,1.7,8,0,0,0,0,0,0,0,0,0,0,0,0
1997,8,30,17,0,,28.9,24.8,77,100220,0,0,442,228,98,180,20720,5732,20190,0,50,1.7,8,0,0,0,0,0,0,0,0,0,0,0,0
1997,8,30,18,0,,28.8,25.1,80,100180,0,0,442,123,84,98,0,0,0,0,0,0.2,8,0,0,0,0,0,0,0,0,0,0,0,0
1997,8,30,19,0,,28.6,24.5,80,100190,0,0,427,53,22,31,0,0,0,0,180,2,6,0,0,0,0,0,0,0,0,0,0,0,0
1997,8,30,20,0,,27.6,23.9,80,100210,0,0,413,0,0,0,0,0,0,0,180,1.7,3,0,0,0,0,0,0,0,0,0,0,0,0
1997,8,30,21,0,,27,23.3,80,100220,0,0,398,0,0,0,0,0,0,0,230,3,1,0,0,0,0,0,0,0,0,0,0,0,0
1997,8,30,22,0,,26.4,22.9,81,100230,0,0,395,0,0,0,0,0,0,0,200,2,1,0,0,0,0,0,0,0,0,0,0,0,0
1997,8,30,23,0,,25.5,22.5,83,100230,0,0,389,0,0,0,0,0,0,0,160,2.3,1,0,0,0,0,0,0,0,0,0,0,0,0
1997,8,30,24,0,,24.9,22.1,84,100240,0,0,386,0,0,0,0,0,0,0,200,2,1,0,0,0,0,0,0,0,0,0,0,0,0
1997,8,31,1,0,,24.2,21.8,86,100210,0,0,392,0,0,0,0,0,0,0,0,0,3,0,0,0,0,0,0,0,0,0,0,0,0
1997,8,31,2,0,,23.6,21.5,88,100190,0,0,396,0,0,0,0,0,0,0,0,0,6,0,0,0,0,0,0,0,0,0,0,0,0
1997,8,31,3,0,,22.9,21.2,90,100160,0,0,404,0,0,0,0,0,0,0,0,0,8,0,0,0,0,0,0,0,0,0,0,0,0
1997,8,31,4,0,,22.8,21.3,91,100130,0,0,409,0,0,0,0,0,0,0,340,0.5,9,0,0,0,0,0,0,0,0,0,0,0,0
1997,8,31,5,0,,22.9,21.5,92,100090,0,0,416,0,0,0,0,0,0,0,0,0,9,0,0,0,0,0,0,0,0,0,0,0,0
1997,8,31,6,0,,22.9,21.6,93,100060,0,0,425,0,0,0,0,0,0,0,0,0,10,0,0,0,0,0,0,0,0,0,0,0,0
1997,8,31,7,0,,23.1,22.1,92,100050,0,0,418,26,3,23,3016,100,2968,0,0,0,9,0,0,0,0,0,0,0,0,0,0,0,0
1997,8,31,8,0,,23.4,22.7,92,100050,0,0,414,95,45,82,13511,3812,11060,0,0,0,9,0,0,0,0,0,0,0,0,0,0,0,0
1997,8,31,9,0,,24.7,23.2,91,100040,0,0,416,222,98,175,29140,8279,22790,0,230,0.8,8,0,0,0,0,0,0,0,0,0,0,0,0
1997,8,31,10,0,,26.7,23.8,85,100000,0,0,420,381,166,275,49007,13329,37743,0,180,1.7,7,0,0,0,0,0,0,0,0,0,0,0,0
1997,8,31,11,0,,28.6,24.3,78,99950,0,0,426,577,294,352,67794,23233,47544,0,230,1.7,5,0,0,0,0,0,0,0,0,0,0,0,0
1997,8,31,12,0,,30.5,24.9,72,99910,0,0,433,721,510,289,77883,42532,41955,0,230,3,4,0,0,0,0,0,0,0,0,0,0,0,0
1997,8,31,13,0,,31.3,24.8,71,99890,0,0,442,680,292,425,73877,22439,56681,0,230,3,5,0,0,0,0,0,0,0,0,0,0,0,0
1997,8,31,14,0,,31.2,24.8,70,99870,0,0,447,548,172,402,58297,13468,49654,0,230,4.3,7,0,0,0,0,0,0,0,0,0,0,0,0
1997,8,31,15,0,,31,24.7,69,99850,0,0,455,411,109,328,42415,9058,38073,0,230,4.7,8,0,0,0,0,0,0,0,0,0,0,0,0
1997,8,31,16,0,,30.9,24.8,71,99830,0,0,452,333,111,262,32591,8504,30121,0,230,4,8,0,0,0,0,0,0,0,0,0,0,0,0
1997,8,31,17,0,,30.9,24.9,73,99800,0,0,449,287,195,192,22635,2772,22392,0,230,4.7,7,0,0,0,0,0,0,0,0,0,0,0,0
1997,8,31,18,0,,29.8,25,75,99780,0,0,441,154,168,105,0,0,0,0,230,2,7,0,0,0,0,0,0,0,0,0,0,0,0
1997,8,31,19,0,,29.1,24.6,76,99800,0,0,430,49,19,30,0,0,0,0,230,3.3,6,0,0,0,0,0,0,0,0,0,0,0,0
1997,8,31,20,0,,28.4,24.3,77,99830,0,0,421,0,0,0,0,0,0,0,230,2.3,4,0,0,0,0,0,0,0,0,0,0,0,0
1997,8,31,21,0,,28,23.9,78,99850,0,0,414,0,0,0,0,0,0,0,200,1.7,3,0,0,0,0,0,0,0,0,0,0,0,0
1997,8,31,22,0,,27.5,24,82,99870,0,0,417,0,0,0,0,0,0,0,230,1.3,5,0,0,0,0,0,0,0,0,0,0,0,0
1997,8,31,23,0,,26.8,24.1,85,99880,0,0,419,0,0,0,0,0,0,0,180,1.3,6,0,0,0,0,0,0,0,0,0,0,0,0
1997,8,31,24,0,,26.1,24.2,89,99900,0,0,425,0,0,0,0,0,0,0,0,0,8,0,0,0,0,0,0,0,0,0,0,0,0
2014,9,1,1,0,,18.8,18.3,97,100590,0,0,363,0,0,0,0,0,0,0,340,1.5,4,0,0,0,0,0,0,0,0,0,0,0,0
2014,9,1,2,0,,18.6,17.9,96,100580,0,0,366,0,0,0,0,0,0,0,20,1,6,0,0,0,0,0,0,0,0,0,0,0,0
2014,9,1,3,0,,18.3,17.8,97,100590,0,0,369,0,0,0,0,0,0,0,360,0.7,7,0,0,0,0,0,0,0,0,0,0,0,0
2014,9,1,4,0,,18.2,17.8,98,100600,0,0,369,0,0,0,0,0,0,0,0,0.3,7,0,0,0,0,0,0,0,0,0,0,0,0
2014,9,1,5,0,,17.9,17.4,97,100630,0,0,360,0,0,0,0,0,0,0,70,0.5,5,0,0,0,0,0,0,0,0,0,0,0,0
2014,9,1,6,0,,17.4,17,98,100690,0,0,351,0,0,0,0,0,0,0,360,1.1,3,0,0,0,0,0,0,0,0,0,0,0,0
2014,9,1,7,0,,17.6,16.6,94,100710,0,0,360,44,14,29,4184,1233,3594,0,0,0,6,0,0,0,0,0,0,0,0,0,0,0,0
2014,9,1,8,0,,18.5,17.1,92,100740,0,0,365,160,209,100,27809,19163,15535,0,340,0.5,6,0,0,0,0,0,0,0,0,0,0,0,0
2014,9,1,9,0,,19.9,17.2,85,100760,0,0,377,268,171,187,36612,15533,24735,0,0,0.3,7,0,0,0,0,0,0,0,0,0,0,0,0
2014,9,1,10,0,,22,17.7,77,100730,0,0,377,507,461,212,66930,45139,28899,0,340,0.8,4,0,0,0,0,0,0,0,0,0,0,0,0
2014,9,1,11,0,,24.2,15.9,60,100680,0,0,384,673,591,221,80088,58184,29536,0,20,0.7,3,0,0,0,0,0,0,0,0,0,0,0,0
2014,9,1,12,0,,25.7,15.6,54,100580,0,0,401,646,286,405,70869,26340,48698,0,290,1.4,6,0,0,0,0,0,0,0,0,0,0,0,0
2014,9,1,13,0,,27.4,14.7,46,100490,0,0,390,808,656,237,79685,63686,31090,0,250,1.2,1,0,0,0,0,0,0,0,0,0,0,0,0
2014,9,1,14,0,,28.6,14.4,42,100420,0,0,402,769,626,239,68555,57964,31564,0,70,2,2,0,0,0,0,0,0,0,0,0,0,0,0
2014,9,1,15,0,,29.3,13,37,100360,0,0,404,704,664,195,54040,59424,25780,0,70,1.4,2,0,0,0,0,0,0,0,0,0,0,0,0
2014,9,1,16,0,,29.9,12.7,35,100340,0,0,401,585,680,148,34330,52126,19406,0,90,1.8,1,0,0,0,0,0,0,0,0,0,0,0,0
2014,9,1,17,0,,29.8,12.6,35,100350,0,0,410,407,603,118,15010,19378,13396,0,90,1.2,3,0,0,0,0,0,0,0,0,0,0,0,0
2014,9,1,18,0,,28.8,17.3,50,100380,0,0,410,223,499,78,0,0,0,0,320,1.3,3,0,0,0,0,0,0,0,0,0,0,0,0
2014,9,1,19,0,,26.7,17.7,58,100420,0,0,400,61,29,32,0,0,0,0,70,1.4,3,0,0,0,0,0,0,0,0,0,0,0,0
2014,9,1,20,0,,25,16.9,61,100490,0,0,391,0,0,0,0,0,0,0,90,1.8,4,0,0,0,0,0,0,0,0,0,0,0,0
2014,9,1,21,0,,23.3,17.7,71,100550,0,0,384,0,0,0,0,0,0,0,20,1.5,4,0,0,0,0,0,0,0,0,0,0,0,0
2014,9,1,22,0,,22.5,19.6,84,100600,0,0,384,0,0,0,0,0,0,0,360,0.8,5,0,0,0,0,0,0,0,0,0,0,0,0
2014,9,1,23,0,,21.2,19.8,92,100650,0,0,380,0,0,0,0,0,0,0,360,2.1,5,0,0,0,0,0,0,0,0,0,0,0,0
2014,9,1,24,0,,20.7,18.2,86,100650,0,0,378,0,0,0,0,0,0,0,340,0.8,6,0,0,0,0,0,0,0,0,0,0,0,0
2014,9,2,1,0,,20.1,18.9,93,100650,0,0,377,0,0,0,0,0,0,0,340,2,6,0,0,0,0,0,0,0,0,0,0,0,0
2014,9,2,2,0,,19.5,18.6,95,100610,0,0,375,0,0,0,0,0,0,0,360,1.7,7,0,0,0,0,0,0,0,0,0,0,0,0
2014,9,2,3,0,,19.3,18.6,96,100600,0,0,375,0,0,0,0,0,0,0,360,1.9,7,0,0,0,0,0,0,0,0,0,0,0,0
2014,9,2,4,0,,19.1,18.1,94,100580,0,0,374,0,0,0,0,0,0,0,360,0.5,7,0,0,0,0,0,0,0,0,0,0,0,0
2014,9,2,5,0,,18.5,17.6,95,100610,0,0,366,0,0,0,0,0,0,0,20,1,6,0,0,0,0,0,0,0,0,0,0,0,0
2014,9,2,6,0,,18.5,18,97,100650,0,0,377,0,0,0,0,0,0,0,360,1.4,8,0,0,0,0,0,0,0,0,0,0,0,0
2014,9,2,7,0,,18.5,17.8,96,100670,0,0,376,31,6,26,3381,465,3160,0,360,0.9,8,0,0,0,0,0,0,0,0,0,0,0,0
2014,9,2,8,0,,19.4,18,92,100680,0,0,381,127,109,96,19846,9723,13643,0,360,1.7,8,0,0,0,0,0,0,0,0,0,0,0,0
2014,9,2,9,0,,20.2,17.4,84,100620,0,0,404,142,29,129,17333,2612,15343,0,340,2,10,0,0,0,0,0,0,0,0,0,0,0,0
2014,9,2,10,0,,20.8,16.4,76,100650,0,0,406,203,30,185,24065,2700,21797,0,20,0.6,10,0,0,0,0,0,0,0,0,0,0,0,0
2014,9,2,11,0,,22.5,16.2,68,100570,0,0,415,285,41,254,32937,3789,29657,0,340,1.5,10,0,0,0,0,0,0,0,0,0,0,0,0
2014,9,2,12,0,,23.4,16.1,64,100500,0,0,420,320,41,285,36348,3742,33211,0,290,0.8,10,0,0,0,0,0,0,0,0,0,0,0,0
2014,9,2,13,0,,25.8,16.9,58,100450,0,0,414,525,142,403,57192,12866,47424,0,270,2,8,0,0,0,0,0,0,0,0,0,0,0,0
2014,9,2,14,0,,26.7,17.4,57,100330,0,0,441,335,46,296,36802,4185,34148,0,340,1.2,10,0,0,0,0,0,0,0,0,0,0,0,0
2014,9,2,15,0,,27.2,17.3,55,100260,0,0,444,315,54,274,33575,4827,31301,0,70,2,10,0,0,0,0,0,0,0,0,0,0,0,0
2014,9,2,16,0,,27,17.1,55,100270,0,0,443,239,46,210,24811,3784,23746,0,50,2.6,10,0,0,0,0,0,0,0,0,0,0,0,0
2014,9,2,17,0,,26.2,16.7,56,100280,0,0,437,154,36,137,13311,2700,13099,0,70,2.8,10,0,0,0,0,0,0,0,0,0,0,0,0
2014,9,2,18,0,,25.3,16.9,60,100220,0,0,432,83,32,74,0,0,0,0,50,2.6,10,0,0,0,0,0,0,0,0,0,0,0,0
2014,9,2,19,0,,24.6,17.3,64,100200,0,0,429,17,1,16,0,0,0,0,50,1.1,10,0,0,0,0,0,0,0,0,0,0,0,0
2014,9,2,20,0,,23.5,19.8,80,100210,0,0,426,0,0,0,0,0,0,0,110,0.5,10,0,0,0,0,0,0,0,0,0,0,0,0
2014,9,2,21,0,,22.3,21.1,93,100220,0,0,421,0,0,0,0,0,0,0,340,0.9,10,0,0,0,0,0,0,0,0,0,0,0,0
2014,9,2,22,0,,21.5,20.9,97,100200,0,0,416,0,0,0,0,0,0,0,320,1.3,10,0,0,0,0,0,0,0,0,0,0,0,0
2014,9,2,23,0,,20.9,20.7,99,100130,0,0,412,0,0,0,0,0,0,0,360,1.8,10,0,0,0,0,0,0,0,0,0,0,0,0
2014,9,2,24,0,,20.6,20.4,99,100090,0,0,410,0,0,0,0,0,0,0,20,1.3,10,0,0,0,0,0,0,0,0,0,0,0,0
2014,9,3,1,0,,20.2,20.1,100,100030,0,0,408,0,0,0,0,0,0,0,340,1.5,10,0,0,0,0,0,0,0,0,0,0,0,0
2014,9,3,2,0,,19.1,18.7,98,99870,0,0,400,0,0,0,0,0,0,0,340,2.7,10,0,0,0,0,0,0,0,0,0,0,0,0
2014,9,3,3,0,,18.1,17.7,98,99790,0,0,393,0,0,0,0,0,0,0,340,2.4,10,0,0,0,0,0,0,0,0,0,0,0,0
2014,9,3,4,0,,18,17.9,100,99700,0,0,393,0,0,0,0,0,0,0,20,1,10,0,0,0,0,0,0,0,0,0,0,0,0
2014,9,3,5,0,,17.9,17.8,100,99630,0,0,392,0,0,0,0,0,0,0,320,2.1,10,0,0,0,0,0,0,0,0,0,0,0,0
2014,9,3,6,0,,18,17.9,100,99600,0,0,393,0,0,0,0,0,0,0,320,2,10,0,0,0,0,0,0,0,0,0,0,0,0
2014,9,3,7,0,,18.1,18,100,99570,0,0,394,16,1,15,2088,32,2072,0,340,1.8,10,0,0,0,0,0,0,0,0,0,0,0,0
2014,9,3,8,0,,18.3,18.2,100,99500,0,0,395,71,21,65,9023,1857,7844,0,320,3.1,10,0,0,0,0,0,0,0,0,0,0,0,0
2014,9,3,9,0,,18.5,18.3,99,99490,0,0,396,119,18,111,14539,1599,13326,0,320,2,10,0,0,0,0,0,0,0,0,0,0,0,0
2014,9,3,10,0,,18.7,18.6,100,99540,0,0,398,159,15,150,19018,1347,17891,0,320,1.7,10,0,0,0,0,0,0,0,0,0,0,0,0
2014,9,3,11,0,,19.1,18.9,99,99520,0,0,400,192,14,182,22713,1242,21641,0,340,1.7,10,0,0,0,0,0,0,0,0,0,0,0,0
2014,9,3,12,0,,19.5,19.1,98,99460,0,0,402,223,15,210,26103,945,25314,0,340,1.6,10,0,0,0,0,0,0,0,0,0,0,0,0
2014,9,3,13,0,,19.6,19.4,99,99400,0,0,403,222,14,210,25616,863,24964,0,320,1.6,10,0,0,0,0,0,0,0,0,0,0,0,0
2014,9,3,14,0,,19.9,19.7,99,99320,0,0,405,227,16,214,25298,1061,24630,0,320,1.9,10,0,0,0,0,0,0,0,0,0,0,0,0
2014,9,3,15,0,,20.1,19.7,98,99250,0,0,407,196,15,185,21174,961,20726,0,340,2.3,10,0,0,0,0,0,0,0,0,0,0,0,0
2014,9,3,16,0,,19.8,19.7,100,99290,0,0,405,159,15,150,16256,828,16026,0,340,1.8,10,0,0,0,0,0,0,0,0,0,0,0,0
2014,9,3,17,0,,19.8,19.7,100,99320,0,0,405,112,15,105,10213,637,10166,0,340,1.6,10,0,0,0,0,0,0,0,0,0,0,0,0
2014,9,3,18,0,,20.1,20,100,99360,0,0,407,62,15,58,0,0,0,0,360,0.8,10,0,0,0,0,0,0,0,0,0,0,0,0
2014,9,3,19,0,,20,19.9,100,99400,0,0,406,14,1,13,0,0,0,0,340,1,10,0,0,0,0,0,0,0,0,0,0,0,0
2014,9,3,20,0,,19.9,19.5,98,99470,0,0,405,0,0,0,0,0,0,0,340,1.6,10,0,0,0,0,0,0,0,0,0,0,0,0
2014,9,3,21,0,,19.9,19.7,99,99510,0,0,405,0,0,0,0,0,0,0,0,0.3,10,0,0,0,0,0,0,0,0,0,0,0,0
2014,9,3,22,0,,19.8,19.6,99,99550,0,0,405,0,0,0,0,0,0,0,270,1.1,10,0,0,0,0,0,0,0,0,0,0,0,0
2014,9,3,23,0,,19.9,19.8,100,99590,0,0,406,0,0,0,0,0,0,0,0,0.3,10,0,0,0,0,0,0,0,0,0,0,0,0
2014,9,3,24,0,,19.9,19.8,100,99610,0,0,406,0,0,0,0,0,0,0,0,0.2,10,0,0,0,0,0,0,0,0,0,0,0,0
2014,9,4,1,0,,19.9,19.8,100,99620,0,0,406,0,0,0,0,0,0,0,0,0.1,10,0,0,0,0,0,0,0,0,0,0,0,0
2014,9,4,2,0,,19.9,19.7,99,99640,0,0,405,0,0,0,0,0,0,0,200,1.5,10,0,0,0,0,0,0,0,0,0,0,0,0
2014,9,4,3,0,,19.8,19.4,98,99650,0,0,405,0,0,0,0,0,0,0,160,1.1,10,0,0,0,0,0,0,0,0,0,0,0,0
2014,9,4,4,0,,19.8,19.6,99,99670,0,0,405,0,0,0,0,0,0,0,0,0.3,10,0,0,0,0,0,0,0,0,0,0,0,0
2014,9,4,5,0,,19.7,19,96,99690,0,0,403,0,0,0,0,0,0,0,180,0.7,10,0,0,0,0,0,0,0,0,0,0,0,0
2014,9,4,6,0,,19.4,18.9,97,99760,0,0,402,0,0,0,0,0,0,0,180,1,10,0,0,0,0,0,0,0,0,0,0,0,0
2014,9,4,7,0,,19.4,18.5,95,99830,0,0,363,54,31,22,4846,2629,3608,0,180,1,3,0,0,0,0,0,0,0,0,0,0,0,0
2014,9,4,8,0,,19.8,18.1,90,99870,0,0,364,195,385,87,38172,38016,14120,0,140,0.8,3,0,0,0,0,0,0,0,0,0,0,0,0
2014,9,4,9,0,,20.7,17.1,80,99910,0,0,381,259,163,182,35388,14830,24169,0,200,1.4,7,0,0,0,0,0,0,0,0,0,0,0,0
2014,9,4,10,0,,22.3,17.8,76,99940,0,0,390,377,170,270,47358,15354,34557,0,230,1.6,7,0,0,0,0,0,0,0,0,0,0,0,0
2014,9,4,11,0,,23.9,17.8,69,99930,0,0,398,479,177,345,55344,16164,41456,0,230,1.8,7,0,0,0,0,0,0,0,0,0,0,0,0
2014,9,4,12,0,,24.5,17.4,65,99930,0,0,401,546,181,395,60587,16487,46884,0,250,2.2,7,0,0,0,0,0,0,0,0,0,0,0,0
2014,9,4,13,0,,25.5,17.1,60,99880,0,0,402,614,227,419,64665,20498,49261,0,250,2.1,6,0,0,0,0,0,0,0,0,0,0,0,0
2014,9,4,14,0,,26.2,17.2,58,99830,0,0,402,629,275,400,62059,24386,46803,0,250,1.9,5,0,0,0,0,0,0,0,0,0,0,0,0
2014,9,4,15,0,,27.2,16.7,53,99780,0,0,404,617,471,261,50872,39568,32591,0,250,2,4,0,0,0,0,0,0,0,0,0,0,0,0
2014,9,4,16,0,,27.2,15.5,49,99770,0,0,402,511,497,198,33620,34420,24259,0,230,2.9,4,0,0,0,0,0,0,0,0,0,0,0,0
2014,9,4,17,0,,27.2,15.2,48,99810,0,0,402,369,504,134,15701,7711,15174,0,230,2.4,4,0,0,0,0,0,0,0,0,0,0,0,0
2014,9,4,18,0,,26.5,16.4,54,99870,0,0,397,211,492,74,0,0,0,0,230,1.9,3,0,0,0,0,0,0,0,0,0,0,0,0
2014,9,4,19,0,,25.1,17.5,63,99930,0,0,387,58,30,28,0,0,0,0,230,1.6,2,0,0,0,0,0,0,0,0,0,0,0,0
2014,9,4,20,0,,23.9,18.5,72,100020,0,0,376,0,0,0,0,0,0,0,0,0.4,1,0,0,0,0,0,0,0,0,0,0,0,0
2014,9,4,21,0,,22.1,20.9,93,100090,0,0,363,0,0,0,0,0,0,0,0,0.4,0,0,0,0,0,0,0,0,0,0,0,0,0
2014,9,4,22,0,,20.6,20.1,97,100140,0,0,358,0,0,0,0,0,0,0,0,0.4,0,0,0,0,0,0,0,0,0,0,0,0,0
2014,9,4,23,0,,19.6,19.2,98,100210,0,0,354,0,0,0,0,0,0,0,360,0.5,1,0,0,0,0,0,0,0,0,0,0,0,0
2014,9,4,24,0,,19,18.8,99,100260,0,0,353,0,0,0,0,0,0,0,0,0.3,1,0,0,0,0,0,0,0,0,0,0,0,0
2014,9,5,1,0,,18.5,18.4,100,100300,0,0,352,0,0,0,0,0,0,0,360,0.8,1,0,0,0,0,0,0,0,0,0,0,0,0
2014,9,5,2,0,,17.9,17.8,100,100300,0,0,350,0,0,0,0,0,0,0,0,0.1,2,0,0,0,0,0,0,0,0,0,0,0,0
2014,9,5,3,0,,17.4,17.3,100,100310,0,0,348,0,0,0,0,0,0,0,20,0.7,2,0,0,0,0,0,0,0,0,0,0,0,0
2014,9,5,4,0,,17.4,17.3,100,100330,0,0,348,0,0,0,0,0,0,0,50,0.7,2,0,0,0,0,0,0,0,0,0,0,0,0
2014,9,5,5,0,,17.2,17.1,100,100350,0,0,353,0,0,0,0,0,0,0,0,0.3,4,0,0,0,0,0,0,0,0,0,0,0,0
2014,9,5,6,0,,17.4,17.3,100,100410,0,0,389,0,0,0,0,0,0,0,0,0.3,10,0,0,0,0,0,0,0,0,0,0,0,0
2014,9,5,7,0,,17.8,17.7,100,100460,0,0,392,14,1,13,1828,21,1818,0,20,0.8,10,0,0,0,0,0,0,0,0,0,0,0,0
2014,9,5,8,0,,18.3,17.9,98,100490,0,0,394,68,20,62,8642,1747,7541,0,70,0.7,10,0,0,0,0,0,0,0,0,0,0,0,0
2014,9,5,9,0,,19.1,17.9,93,100560,0,0,399,124,21,114,15069,1846,13678,0,0,0.4,10,0,0,0,0,0,0,0,0,0,0,0,0
2014,9,5,10,0,,20.6,17.7,84,100560,0,0,364,497,459,208,65827,44976,28466,0,320,0.9,2,0,0,0,0,0,0,0,0,0,0,0,0
2014,9,5,11,0,,23,16.7,68,100520,0,0,370,656,575,223,78100,56404,29824,0,250,1.5,1,0,0,0,0,0,0,0,0,0,0,0,0
2014,9,5,12,0,,24.7,16.9,62,100460,0,0,379,751,616,239,81173,59964,31550,0,180,1.2,1,0,0,0,0,0,0,0,0,0,0,0,0
2014,9,5,13,0,,26,16.8,57,100360,0,0,378,794,653,233,78137,63052,31005,0,290,2.1,0,0,0,0,0,0,0,0,0,0,0,0,0
2014,9,5,14,0,,27.3,17.7,56,100320,0,0,386,751,619,237,66616,55575,32089,0,200,1.6,0,0,0,0,0,0,0,0,0,0,0,0,0
2014,9,5,15,0,,28.3,18.3,55,100290,0,0,409,651,568,224,52050,48001,30093,0,200,2.8,3,0,0,0,0,0,0,0,0,0,0,0,0
2014,9,5,16,0,,28.6,17.7,52,100240,0,0,413,498,472,203,33626,31080,25325,0,230,1.8,4,0,0,0,0,0,0,0,0,0,0,0,0
2014,9,5,17,0,,28.6,17.4,51,100240,0,0,424,284,226,180,19760,3075,19565,0,230,2,7,0,0,0,0,0,0,0,0,0,0,0,0
2014,9,5,18,0,,27.9,17.7,54,100230,0,0,427,130,135,94,0,0,0,0,200,1.1,8,0,0,0,0,0,0,0,0,0,0,0,0
2014,9,5,19,0,,26,23,84,100270,0,0,423,28,5,23,0,0,0,0,360,1.3,8,0,0,0,0,0,0,0,0,0,0,0,0
2014,9,5,20,0,,24.1,21.9,88,100350,0,0,411,0,0,0,0,0,0,0,340,1.1,8,0,0,0,0,0,0,0,0,0,0,0,0
2014,9,5,21,0,,23.3,21.7,91,100410,0,0,407,0,0,0,0,0,0,0,360,0.9,8,0,0,0,0,0,0,0,0,0,0,0,0
2014,9,5,22,0,,22.3,21.6,96,100440,0,0,401,0,0,0,0,0,0,0,320,0.7,8,0,0,0,0,0,0,0,0,0,0,0,0
2014,9,5,23,0,,21.6,21,97,100450,0,0,397,0,0,0,0,0,0,0,0,0.4,8,0,0,0,0,0,0,0,0,0,0,0,0
2014,9,5,24,0,,21.2,20.1,94,100490,0,0,393,0,0,0,0,0,0,0,0,0.4,8,0,0,0,0,0,0,0,0,0,0,0,0
2014,9,6,1,0,,20.6,20.3,98,100490,0,0,390,0,0,0,0,0,0,0,0,0.4,8,0,0,0,0,0,0,0,0,0,0,0,0
2014,9,6,2,0,,20.4,19.9,97,100470,0,0,389,0,0,0,0,0,0,0,20,1.1,8,0,0,0,0,0,0,0,0,0,0,0,0
2014,9,6,3,0,,20,19.8,99,100470,0,0,387,0,0,0,0,0,0,0,360,0.8,8,0,0,0,0,0,0,0,0,0,0,0,0
2014,9,6,4,0,,19.8,19.6,99,100480,0,0,385,0,0,0,0,0,0,0,20,0.5,8,0,0,0,0,0,0,0,0,0,0,0,0
2014,9,6,5,0,,19.5,19.3,99,100500,0,0,383,0,0,0,0,0,0,0,0,0.4,8,0,0,0,0,0,0,0,0,0,0,0,0
2014,9,6,6,0,,19.3,19.1,99,100530,0,0,382,0,0,0,0,0,0,0,0,0.1,8,0,0,0,0,0,0,0,0,0,0,0,0
2014,9,6,7,0,,19.4,19,98,100530,0,0,382,28,5,23,3095,391,2913,0,0,0.3,8,0,0,0,0,0,0,0,0,0,0,0,0
2014,9,6,8,0,,20,19.5,97,100530,0,0,406,63,17,59,8076,1470,7154,0,340,0.5,10,0,0,0,0,0,0,0,0,0,0,0,0
2014,9,6,9,0,,20.5,19.4,94,100540,0,0,408,121,20,112,14763,1741,13456,0,340,1.2,10,0,0,0,0,0,0,0,0,0,0,0,0
2014,9,6,10,0,,21.7,18.4,82,100530,0,0,383,395,201,269,49583,17977,34705,0,340,0.7,6,0,0,0,0,0,0,0,0,0,0,0,0
2014,9,6,11,0,,23.4,19.5,79,100500,0,0,384,602,444,269,71027,40116,36827,0,200,1.5,3,0,0,0,0,0,0,0,0,0,0,0,0
2014,9,6,12,0,,25.3,18.9,68,100420,0,0,377,736,588,249,79782,56749,33029,0,250,1.4,0,0,0,0,0,0,0,0,0,0,0,0,0
2014,9,6,13,0,,26.7,16.6,54,100320,0,0,381,781,632,241,77036,60890,31765,0,290,1.7,0,0,0,0,0,0,0,0,0,0,0,0,0
2014,9,6,14,0,,28.2,16.1,48,100240,0,0,389,769,671,214,66845,61134,29131,0,250,1.5,0,0,0,0,0,0,0,0,0,0,0,0,0
2014,9,6,15,0,,29.3,15,42,100170,0,0,393,682,659,190,51504,57421,25506,0,140,1,0,0,0,0,0,0,0,0,0,0,0,0,0
2014,9,6,16,0,,30.4,18.4,49,100130,0,0,411,560,667,145,31951,46235,19830,0,230,1.4,1,0,0,0,0,0,0,0,0,0,0,0,0
2014,9,6,17,0,,30.6,17.3,45,100100,0,0,416,393,628,106,12913,11495,12245,0,250,1.7,2,0,0,0,0,0,0,0,0,0,0,0,0
2014,9,6,18,0,,29.8,18.8,52,100100,0,0,414,215,570,63,0,0,0,0,250,1.3,2,0,0,0,0,0,0,0,0,0,0,0,0
2014,9,6,19,0,,27.6,23.4,78,100140,0,0,405,51,22,29,0,0,0,0,340,1.1,2,0,0,0,0,0,0,0,0,0,0,0,0
2014,9,6,20,0,,25.2,22.8,87,100200,0,0,390,0,0,0,0,0,0,0,320,1.3,1,0,0,0,0,0,0,0,0,0,0,0,0
2014,9,6,21,0,,23.9,22.5,92,100260,0,0,381,0,0,0,0,0,0,0,340,1.2,1,0,0,0,0,0,0,0,0,0,0,0,0
2014,9,6,22,0,,22.5,21.6,95,100280,0,0,371,0,0,0,0,0,0,0,340,1.5,1,0,0,0,0,0,0,0,0,0,0,0,0
2014,9,6,23,0,,21.6,21,97,100280,0,0,364,0,0,0,0,0,0,0,340,1.7,0,0,0,0,0,0,0,0,0,0,0,0,0
2014,9,6,24,0,,20.8,20.4,98,100270,0,0,356,0,0,0,0,0,0,0,360,1,0,0,0,0,0,0,0,0,0,0,0,0,0
2014,9,7,1,0,,20.3,19.9,98,100270,0,0,364,0,0,0,0,0,0,0,50,0.6,2,0,0,0,0,0,0,0,0,0,0,0,0
2014,9,7,2,0,,19.6,19.4,99,100250,0,0,366,0,0,0,0,0,0,0,0,0.3,3,0,0,0,0,0,0,0,0,0,0,0,0
2014,9,7,3,0,,19.2,19,99,100220,0,0,368,0,0,0,0,0,0,0,20,1.5,5,0,0,0,0,0,0,0,0,0,0,0,0
2014,9,7,4,0,,19,18.9,100,100210,0,0,367,0,0,0,0,0,0,0,360,1.3,5,0,0,0,0,0,0,0,0,0,0,0,0
2014,9,7,5,0,,19.2,19.1,100,100210,0,0,368,0,0,0,0,0,0,0,0,0.3,5,0,0,0,0,0,0,0,0,0,0,0,0
2014,9,7,6,0,,19.4,19,98,100220,0,0,402,0,0,0,0,0,0,0,360,0.9,10,0,0,0,0,0,0,0,0,0,0,0,0
2014,9,7,7,0,,19.5,19.1,98,100240,0,0,402,14,1,13,1812,23,1801,0,360,1.4,10,0,0,0,0,0,0,0,0,0,0,0,0
2014,9,7,8,0,,19.7,19.2,97,100260,0,0,404,59,15,55,7543,1258,6757,0,320,1.2,10,0,0,0,0,0,0,0,0,0,0,0,0
2014,9,7,9,0,,20.3,19.1,93,100280,0,0,407,125,22,114,15209,1939,13758,0,360,0.9,10,0,0,0,0,0,0,0,0,0,0,0,0
2014,9,7,10,0,,21,18.7,87,100250,0,0,410,185,25,170,22021,2187,20218,0,110,1,10,0,0,0,0,0,0,0,0,0,0,0,0
2014,9,7,11,0,,22.3,18.6,80,100170,0,0,368,607,463,261,71448,42324,35511,0,360,0.9,1,0,0,0,0,0,0,0,0,0,0,0,0
2014,9,7,12,0,,24.1,18.7,72,100100,0,0,371,691,487,288,74959,44306,38624,0,140,0.8,0,0,0,0,0,0,0,0,0,0,0,0,0
2014,9,7,13,0,,26.3,18.6,63,100000,0,0,398,733,528,284,73194,47691,37931,0,290,1.4,3,0,0,0,0,0,0,0,0,0,0,0,0
2014,9,7,14,0,,28.1,16.6,50,99930,0,0,406,750,635,227,65922,57472,30721,0,250,1.6,3,0,0,0,0,0,0,0,0,0,0,0,0
2014,9,7,15,0,,29.5,14.4,40,99850,0,0,417,629,532,234,49398,45594,28971,0,250,1.6,5,0,0,0,0,0,0,0,0,0,0,0,0
2014,9,7,16,0,,29.6,17.4,48,99820,0,0,437,364,167,261,32825,13767,29284,0,230,1.5,8,0,0,0,0,0,0,0,0,0,0,0,0
2014,9,7,17,0,,29.1,16.9,48,99790,0,0,433,237,142,173,19170,9044,18691,0,180,0.6,8,0,0,0,0,0,0,0,0,0,0,0,0
2014,9,7,18,0,,27.9,21.9,70,99800,0,0,426,132,159,91,0,0,0,0,320,1.1,7,0,0,0,0,0,0,0,0,0,0,0,0
2014,9,7,19,0,,26.5,22.7,80,99830,0,0,419,31,7,24,0,0,0,0,320,0.7,7,0,0,0,0,0,0,0,0,0,0,0,0
2014,9,7,20,0,,25.1,22,83,99880,0,0,410,0,0,0,0,0,0,0,0,0.3,7,0,0,0,0,0,0,0,0,0,0,0,0
2014,9,7,21,0,,24,21.5,86,99940,0,0,404,0,0,0,0,0,0,0,0,0.3,7,0,0,0,0,0,0,0,0,0,0,0,0
2014,9,7,22,0,,23,21.6,92,99950,0,0,389,0,0,0,0,0,0,0,20,0.7,5,0,0,0,0,0,0,0,0,0,0,0,0
2014,9,7,23,0,,21.9,21.5,98,99960,0,0,376,0,0,0,0,0,0,0,340,0.7,2,0,0,0,0,0,0,0,0,0,0,0,0
2014,9,7,24,0,,21.5,20.8,96,99950,0,0,360,0,0,0,0,0,0,0,50,0.5,0,0,0,0,0,0,0,0,0,0,0,0,0
2014,9,8,1,0,,20.5,20.3,99,99950,0,0,362,0,0,0,0,0,0,0,360,1.1,1,0,0,0,0,0,0,0,0,0,0,0,0
2014,9,8,2,0,,20.1,19.9,99,99940,0,0,364,0,0,0,0,0,0,0,70,0.8,2,0,0,0,0,0,0,0,0,0,0,0,0
2014,9,8,3,0,,19.5,19.4,100,99940,0,0,364,0,0,0,0,0,0,0,360,1.9,3,0,0,0,0,0,0,0,0,0,0,0,0
2014,9,8,4,0,,19.3,19.1,99,99910,0,0,382,0,0,0,0,0,0,0,360,1,8,0,0,0,0,0,0,0,0,0,0,0,0
2014,9,8,5,0,,19.6,19.2,98,99900,0,0,403,0,0,0,0,0,0,0,340,1.3,10,0,0,0,0,0,0,0,0,0,0,0,0
2014,9,8,6,0,,19.6,19.2,98,99930,0,0,403,0,0,0,0,0,0,0,320,0.8,10,0,0,0,0,0,0,0,0,0,0,0,0
2014,9,8,7,0,,19.6,19.1,97,99960,0,0,403,12,1,12,1605,16,1597,0,20,0.8,10,0,0,0,0,0,0,0,0,0,0,0,0
2014,9,8,8,0,,19.7,19.3,98,99970,0,0,404,57,14,53,7272,1170,6545,0,320,0.7,10,0,0,0,0,0,0,0,0,0,0,0,0
2014,9,8,9,0,,20.1,19.6,97,99950,0,0,406,110,16,103,13484,1394,12445,0,360,1.1,10,0,0,0,0,0,0,0,0,0,0,0,0
2014,9,8,10,0,,20.5,19.1,92,99950,0,0,388,281,80,232,34777,7191,28871,0,360,0.5,8,0,0,0,0,0,0,0,0,0,0,0,0
2014,9,8,11,0,,21.5,19,86,99900,0,0,387,421,130,324,49246,11692,39359,0,200,0.8,7,0,0,0,0,0,0,0,0,0,0,0,0
2014,9,8,12,0,,23.4,19.5,79,99850,0,0,387,634,299,388,69974,26078,48687,0,320,1.3,4,0,0,0,0,0,0,0,0,0,0,0,0
2014,9,8,13,0,,25.4,19,68,99810,0,0,397,693,441,319,70996,39596,41883,0,90,1.2,4,0,0,0,0,0,0,0,0,0,0,0,0
2014,9,8,14,0,,27.8,18.7,58,99630,0,0,407,731,600,240,65041,53132,32735,0,250,1.5,3,0,0,0,0,0,0,0,0,0,0,0,0
2014,9,8,15,0,,28.2,18.5,56,99640,0,0,412,624,529,233,48857,42744,29910,0,270,1.3,4,0,0,0,0,0,0,0,0,0,0,0,0
2014,9,8,16,0,,29,18.4,53,99580,0,0,413,519,571,170,32100,38578,22370,0,250,1.6,3,0,0,0,0,0,0,0,0,0,0,0,0
2014,9,8,17,0,,29.1,17.6,50,99570,0,0,408,374,586,111,12779,7391,12426,0,250,2.1,2,0,0,0,0,0,0,0,0,0,0,0,0
2014,9,8,18,0,,28.3,18,54,99590,0,0,399,204,555,62,0,0,0,0,250,1.2,1,0,0,0,0,0,0,0,0,0,0,0,0
2014,9,8,19,0,,26.2,22.4,80,99660,0,0,391,47,20,27,0,0,0,0,270,0.5,1,0,0,0,0,0,0,0,0,0,0,0,0
2014,9,8,20,0,,24.1,21.7,87,99740,0,0,377,0,0,0,0,0,0,0,360,0.8,0,0,0,0,0,0,0,0,0,0,0,0,0
2014,9,8,21,0,,22.6,20.8,90,99780,0,0,366,0,0,0,0,0,0,0,0,0.4,0,0,0,0,0,0,0,0,0,0,0,0,0
2014,9,8,22,0,,21.3,20.1,93,99810,0,0,358,0,0,0,0,0,0,0,340,0.5,0,0,0,0,0,0,0,0,0,0,0,0,0
2014,9,8,23,0,,20.5,19.4,94,99840,0,0,354,0,0,0,0,0,0,0,20,0.5,0,0,0,0,0,0,0,0,0,0,0,0,0
2014,9,8,24,0,,19.9,19,95,99880,0,0,351,0,0,0,0,0,0,0,320,0.5,0,0,0,0,0,0,0,0,0,0,0,0,0
2014,9,9,1,0,,19.4,18.9,97,99900,0,0,348,0,0,0,0,0,0,0,0,0.4,0,0,0,0,0,0,0,0,0,0,0,0,0
2014,9,9,2,0,,18.9,18.7,99,99900,0,0,346,0,0,0,0,0,0,0,360,0.5,0,0,0,0,0,0,0,0,0,0,0,0,0
2014,9,9,3,0,,18.5,18.1,98,99880,0,0,343,0,0,0,0,0,0,0,0,0.4,0,0,0,0,0,0,0,0,0,0,0,0,0
2014,9,9,4,0,,18.1,17.7,98,99870,0,0,341,0,0,0,0,0,0,0,360,0.6,0,0,0,0,0,0,0,0,0,0,0,0,0
2014,9,9,5,0,,17.6,17.4,99,99880,0,0,338,0,0,0,0,0,0,0,90,0.5,0,0,0,0,0,0,0,0,0,0,0,0,0
2014,9,9,6,0,,17.3,17.2,100,99930,0,0,388,0,0,0,0,0,0,0,50,0.8,10,0,0,0,0,0,0,0,0,0,0,0,0
2014,9,9,7,0,,17.5,17.3,99,99970,0,0,389,11,0,11,1464,14,1457,0,0,0.2,10,0,0,0,0,0,0,0,0,0,0,0,0
2014,9,9,8,0,,18.2,17.5,96,99990,0,0,393,62,18,57,7941,1558,6977,0,0,0.4,10,0,0,0,0,0,0,0,0,0,0,0,0
2014,9,9,9,0,,19.8,17.7,88,99980,0,0,372,285,242,175,41697,22291,25158,0,290,0.6,6,0,0,0,0,0,0,0,0,0,0,0,0
2014,9,9,10,0,,21.7,17.4,77,100020,0,0,386,375,181,263,47129,16470,33656,0,290,0.6,7,0,0,0,0,0,0,0,0,0,0,0,0
2014,9,9,11,0,,23.6,17.1,67,99990,0,0,396,482,194,338,55592,17863,40549,0,200,1.2,7,0,0,0,0,0,0,0,0,0,0,0,0
2014,9,9,12,0,,25,16.9,61,99920,0,0,410,492,144,374,55087,13185,44374,0,160,1.3,8,0,0,0,0,0,0,0,0,0,0,0,0
2014,9,9,13,0,,26.4,14.4,48,99870,0,0,415,534,163,396,57178,15102,46137,0,250,1.8,8,0,0,0,0,0,0,0,0,0,0,0,0
2014,9,9,14,0,,27,15,48,99840,0,0,419,501,154,376,51436,14492,42691,0,250,2.2,8,0,0,0,0,0,0,0,0,0,0,0,0
2014,9,9,15,0,,27.7,15.3,47,99770,0,0,423,428,142,323,42204,13002,36503,0,180,1.2,8,0,0,0,0,0,0,0,0,0,0,0,0
2014,9,9,16,0,,27.5,15.8,49,99780,0,0,411,421,273,255,33672,18275,29155,0,250,1.5,6,0,0,0,0,0,0,0,0,0,0,0,0
2014,9,9,17,0,,27,16.5,53,99790,0,0,421,231,141,168,18467,9031,18081,0,250,2.3,8,0,0,0,0,0,0,0,0,0,0,0,0
2014,9,9,18,0,,26.2,17.2,58,99790,0,0,406,151,273,82,0,0,0,0,250,1.5,6,0,0,0,0,0,0,0,0,0,0,0,0
2014,9,9,19,0,,25.2,18.1,65,99840,0,0,398,39,17,23,0,0,0,0,230,1.1,5,0,0,0,0,0,0,0,0,0,0,0,0
2014,9,9,20,0,,23.8,18.4,72,99920,0,0,388,0,0,0,0,0,0,0,230,0.9,4,0,0,0,0,0,0,0,0,0,0,0,0
2014,9,9,21,0,,22.2,20.2,89,99970,0,0,379,0,0,0,0,0,0,0,70,0.6,3,0,0,0,0,0,0,0,0,0,0,0,0
2014,9,9,22,0,,20.8,19.6,93,100000,0,0,369,0,0,0,0,0,0,0,0,0,2,0,0,0,0,0,0,0,0,0,0,0,0
2014,9,9,23,0,,19.8,19.1,96,100030,0,0,360,0,0,0,0,0,0,0,0,0.4,2,0,0,0,0,0,0,0,0,0,0,0,0
2014,9,9,24,0,,19.2,18.7,97,100100,0,0,354,0,0,0,0,0,0,0,20,1.2,1,0,0,0,0,0,0,0,0,0,0,0,0
2014,9,10,1,0,,18.5,18,97,100110,0,0,347,0,0,0,0,0,0,0,90,0.5,1,0,0,0,0,0,0,0,0,0,0,0,0
2014,9,10,2,0,,17.7,17.5,99,100120,0,0,341,0,0,0,0,0,0,0,0,0.2,0,0,0,0,0,0,0,0,0,0,0,0,0
2014,9,10,3,0,,17.3,17.1,99,100100,0,0,336,0,0,0,0,0,0,0,50,0.5,0,0,0,0,0,0,0,0,0,0,0,0,0
2014,9,10,4,0,,17.3,17.1,99,100100,0,0,336,0,0,0,0,0,0,0,360,1.3,0,0,0,0,0,0,0,0,0,0,0,0,0
2014,9,10,5,0,,17.4,17,98,100130,0,0,337,0,0,0,0,0,0,0,340,1.2,0,0,0,0,0,0,0,0,0,0,0,0,0
2014,9,10,6,0,,17.3,16.8,97,100170,0,0,388,0,0,0,0,0,0,0,340,1.6,10,0,0,0,0,0,0,0,0,0,0,0,0
2014,9,10,7,0,,17.3,16.4,95,100220,0,0,387,12,1,11,1568,18,1560,0,320,0.5,10,0,0,0,0,0,0,0,0,0,0,0,0
2014,9,10,8,0,,17.5,16.5,94,100260,0,0,388,66,22,60,8528,1952,7325,0,340,1.3,10,0,0,0,0,0,0,0,0,0,0,0,0
2014,9,10,9,0,,17.9,15.8,88,100290,0,0,389,118,20,109,14377,1823,13030,0,340,1.2,10,0,0,0,0,0,0,0,0,0,0,0,0
2014,9,10,10,0,,19.2,15.6,80,100320,0,0,396,197,31,178,23338,2815,21044,0,20,0.6,10,0,0,0,0,0,0,0,0,0,0,0,0
2014,9,10,11,0,,21.1,16.4,75,100280,0,0,353,625,533,231,74440,52188,30678,0,270,1.4,0,0,0,0,0,0,0,0,0,0,0,0,0
2014,9,10,12,0,,22.7,16.2,67,100230,0,0,361,727,598,239,78545,58215,31477,0,290,1.4,0,0,0,0,0,0,0,0,0,0,0,0,0
2014,9,10,13,0,,24.5,11,43,100170,0,0,371,789,686,213,76920,67243,28045,0,250,1.4,1,0,0,0,0,0,0,0,0,0,0,0,0
2014,9,10,14,0,,25.9,13.7,47,100130,0,0,374,754,673,208,65123,62344,27782,0,270,1.8,0,0,0,0,0,0,0,0,0,0,0,0,0
2014,9,10,15,0,,26.7,14.1,46,100070,0,0,379,670,670,180,49415,58439,24074,0,290,2,0,0,0,0,0,0,0,0,0,0,0,0,0
2014,9,10,16,0,,27.1,10.3,35,100050,0,0,376,547,683,136,29323,49525,17333,0,290,1.2,0,0,0,0,0,0,0,0,0,0,0,0,0
2014,9,10,17,0,,27.2,10.8,36,100070,0,0,377,379,641,98,10522,8167,10216,0,200,1.2,0,0,0,0,0,0,0,0,0,0,0,0,0
2014,9,10,18,0,,26.5,15.8,52,100110,0,0,379,197,560,59,0,0,0,0,250,1,0,0,0,0,0,0,0,0,0,0,0,0,0
2014,9,10,19,0,,24,19,74,100140,0,0,370,44,18,26,0,0,0,0,320,0.9,0,0,0,0,0,0,0,0,0,0,0,0,0
2014,9,10,20,0,,21.8,18.5,82,100200,0,0,359,0,0,0,0,0,0,0,360,1.2,0,0,0,0,0,0,0,0,0,0,0,0,0
2014,9,10,21,0,,20.5,17.1,81,100300,0,0,351,0,0,0,0,0,0,0,50,0.6,0,0,0,0,0,0,0,0,0,0,0,0,0
2014,9,10,22,0,,19.5,18.1,92,100360,0,0,348,0,0,0,0,0,0,0,20,1,0,0,0,0,0,0,0,0,0,0,0,0,0
2014,9,10,23,0,,18.8,18.3,97,100430,0,0,345,0,0,0,0,0,0,0,360,1,0,0,0,0,0,0,0,0,0,0,0,0,0
2014,9,10,24,0,,18.1,17.6,97,100450,0,0,341,0,0,0,0,0,0,0,20,1.6,0,0,0,0,0,0,0,0,0,0,0,0,0
2014,9,11,1,0,,17.6,17.1,97,100470,0,0,340,0,0,0,0,0,0,0,50,0.6,0,0,0,0,0,0,0,0,0,0,0,0,0
2014,9,11,2,0,,17.1,16.7,98,100460,0,0,339,0,0,0,0,0,0,0,360,1.5,1,0,0,0,0,0,0,0,0,0,0,0,0
2014,9,11,3,0,,16.5,16.3,99,100460,0,0,338,0,0,0,0,0,0,0,360,1.4,1,0,0,0,0,0,0,0,0,0,0,0,0
2014,9,11,4,0,,16.3,15.9,98,100480,0,0,337,0,0,0,0,0,0,0,20,0.8,1,0,0,0,0,0,0,0,0,0,0,0,0
2014,9,11,5,0,,15.8,15.4,98,100520,0,0,328,0,0,0,0,0,0,0,0,0.4,0,0,0,0,0,0,0,0,0,0,0,0,0
2014,9,11,6,0,,15.5,15.3,99,100550,0,0,340,0,0,0,0,0,0,0,0,0.4,3,0,0,0,0,0,0,0,0,0,0,0,0
2014,9,11,7,0,,15.5,15.4,100,100600,0,0,340,46,25,21,3996,2219,2993,0,360,0.8,3,0,0,0,0,0,0,0,0,0,0,0,0
2014,9,11,8,0,,17.2,15.7,91,100650,0,0,349,188,434,76,38836,43163,12367,0,20,1.3,3,0,0,0,0,0,0,0,0,0,0,0,0
2014,9,11,9,0,,19,15.6,81,100640,0,0,354,364,543,120,57988,54196,18107,0,360,1.6,2,0,0,0,0,0,0,0,0,0,0,0,0
2014,9,11,10,0,,20.8,15.7,73,100620,0,0,351,529,602,161,71499,59881,22908,0,20,0.5,0,0,0,0,0,0,0,0,0,0,0,0,0
2014,9,11,11,0,,22.5,15.8,66,100570,0,0,371,653,613,202,77958,60440,27496,0,270,1.3,2,0,0,0,0,0,0,0,0,0,0,0,0
2014,9,11,12,0,,24.5,14.8,55,100510,0,0,380,740,637,222,79765,62462,29510,0,250,1.3,2,0,0,0,0,0,0,0,0,0,0,0,0
2014,9,11,13,0,,25.8,15.7,54,100430,0,0,392,739,576,257,72612,53461,33984,0,290,1.8,3,0,0,0,0,0,0,0,0,0,0,0,0
2014,9,11,14,0,,27,12.9,42,100390,0,0,395,725,613,230,63839,56952,29990,0,230,1.2,3,0,0,0,0,0,0,0,0,0,0,0,0
2014,9,11,15,0,,27.9,11.4,36,100330,0,0,398,645,617,197,48782,54498,25417,0,250,2,3,0,0,0,0,0,0,0,0,0,0,0,0
2014,9,11,16,0,,28.2,13.3,40,100270,0,0,405,498,545,172,29377,36130,20814,0,250,1.8,4,0,0,0,0,0,0,0,0,0,0,0,0
2014,9,11,17,0,,28.1,12.4,38,100290,0,0,407,328,453,132,13821,0,13821,0,230,1.5,5,0,0,0,0,0,0,0,0,0,0,0,0
2014,9,11,18,0,,27.4,15,47,100290,0,0,406,167,376,76,0,0,0,0,250,1.3,5,0,0,0,0,0,0,0,0,0,0,0,0
2014,9,11,19,0,,24,19.5,76,100340,0,0,394,32,11,22,0,0,0,0,340,1.1,5,0,0,0,0,0,0,0,0,0,0,0,0
2014,9,11,20,0,,22.4,18.5,79,100410,0,0,386,0,0,0,0,0,0,0,340,1.2,6,0,0,0,0,0,0,0,0,0,0,0,0
2014,9,11,21,0,,20.6,18.5,88,100470,0,0,378,0,0,0,0,0,0,0,340,0.7,6,0,0,0,0,0,0,0,0,0,0,0,0
2014,9,11,22,0,,19.4,18,92,100500,0,0,368,0,0,0,0,0,0,0,360,1.2,5,0,0,0,0,0,0,0,0,0,0,0,0
2014,9,11,23,0,,18.9,17.3,91,100520,0,0,362,0,0,0,0,0,0,0,20,0.9,4,0,0,0,0,0,0,0,0,0,0,0,0
2014,9,11,24,0,,18.1,17.1,94,100530,0,0,355,0,0,0,0,0,0,0,50,0.6,3,0,0,0,0,0,0,0,0,0,0,0,0
2014,9,12,1,0,,17.5,16.8,96,100520,0,0,352,0,0,0,0,0,0,0,50,0.6,3,0,0,0,0,0,0,0,0,0,0,0,0
2014,9,12,2,0,,16.7,16.3,98,100530,0,0,349,0,0,0,0,0,0,0,360,1.4,4,0,0,0,0,0,0,0,0,0,0,0,0
2014,9,12,3,0,,16.3,16.1,99,100530,0,0,348,0,0,0,0,0,0,0,20,1,4,0,0,0,0,0,0,0,0,0,0,0,0
2014,9,12,4,0,,16,15.8,99,100560,0,0,346,0,0,0,0,0,0,0,20,1.6,4,0,0,0,0,0,0,0,0,0,0,0,0
2014,9,12,5,0,,15.7,15.5,99,100580,0,0,350,0,0,0,0,0,0,0,0,0.2,6,0,0,0,0,0,0,0,0,0,0,0,0
2014,9,12,6,0,,15.6,15.4,99,100580,0,0,349,0,0,0,0,0,0,0,360,1.3,6,0,0,0,0,0,0,0,0,0,0,0,0
2014,9,12,7,0,,15.7,15.3,98,100620,0,0,359,24,4,20,2671,316,2529,0,90,0.8,8,0,0,0,0,0,0,0,0,0,0,0,0
2014,9,12,8,0,,16.6,15.1,91,100650,0,0,363,112,103,85,17710,9514,11904,0,20,0.5,8,0,0,0,0,0,0,0,0,0,0,0,0
2014,9,12,9,0,,17.7,15.8,89,100660,0,0,370,210,105,163,27542,9836,20335,0,290,0.5,8,0,0,0,0,0,0,0,0,0,0,0,0
2014,9,12,10,0,,18.8,15.8,83,100670,0,0,375,316,117,245,38690,11025,29781,0,360,0.8,8,0,0,0,0,0,0,0,0,0,0,0,0
2014,9,12,11,0,,20.2,15.8,76,100630,0,0,382,384,107,306,44987,10033,36648,0,50,0.5,8,0,0,0,0,0,0,0,0,0,0,0,0
2014,9,12,12,0,,22.4,15.9,67,100540,0,0,394,459,124,359,51699,11554,42449,0,70,0.8,8,0,0,0,0,0,0,0,0,0,0,0,0
2014,9,12,13,0,,23.4,16.1,64,100500,0,0,420,338,49,297,37566,4500,34335,0,290,1.5,10,0,0,0,0,0,0,0,0,0,0,0,0
2014,9,12,14,0,,24.4,16.8,63,100440,0,0,406,466,133,360,48256,12273,41019,0,290,1,8,0,0,0,0,0,0,0,0,0,0,0,0
2014,9,12,15,0,,25.4,17.3,61,100410,0,0,413,406,131,311,40281,11739,35306,0,290,1.1,8,0,0,0,0,0,0,0,0,0,0,0,0
2014,9,12,16,0,,25.6,15.5,54,100400,0,0,411,335,150,246,30231,12276,27385,0,230,2,8,0,0,0,0,0,0,0,0,0,0,0,0
2014,9,12,17,0,,25.3,17.9,64,100400,0,0,413,220,138,161,17452,8847,17214,0,270,1.2,8,0,0,0,0,0,0,0,0,0,0,0,0
2014,9,12,18,0,,24.4,19.6,75,100410,0,0,410,102,104,78,0,0,0,0,340,1.8,8,0,0,0,0,0,0,0,0,0,0,0,0
2014,9,12,19,0,,22.9,19.2,80,100470,0,0,397,25,5,20,0,0,0,0,360,1.8,7,0,0,0,0,0,0,0,0,0,0,0,0
2014,9,12,20,0,,21.9,17.8,78,100500,0,0,386,0,0,0,0,0,0,0,360,1.2,7,0,0,0,0,0,0,0,0,0,0,0,0
2014,9,12,21,0,,21.2,17.9,82,100570,0,0,380,0,0,0,0,0,0,0,360,1.9,6,0,0,0,0,0,0,0,0,0,0,0,0
2014,9,12,22,0,,20.5,18.2,87,100590,0,0,377,0,0,0,0,0,0,0,360,2,6,0,0,0,0,0,0,0,0,0,0,0,0
2014,9,12,23,0,,19.9,18.2,90,100600,0,0,374,0,0,0,0,0,0,0,360,2.4,6,0,0,0,0,0,0,0,0,0,0,0,0
2014,9,12,24,0,,19.3,18.3,94,100640,0,0,371,0,0,0,0,0,0,0,360,1.6,6,0,0,0,0,0,0,0,0,0,0,0,0
2014,9,13,1,0,,18.9,18,95,100620,0,0,363,0,0,0,0,0,0,0,360,1.4,4,0,0,0,0,0,0,0,0,0,0,0,0
2014,9,13,2,0,,18.4,17.5,95,100630,0,0,355,0,0,0,0,0,0,0,360,1.5,3,0,0,0,0,0,0,0,0,0,0,0,0
2014,9,13,3,0,,17.9,17.4,97,100650,0,0,346,0,0,0,0,0,0,0,360,2.2,1,0,0,0,0,0,0,0,0,0,0,0,0
2014,9,13,4,0,,17.3,16.9,98,100650,0,0,336,0,0,0,0,0,0,0,360,1.8,0,0,0,0,0,0,0,0,0,0,0,0,0
2014,9,13,5,0,,16.9,16.5,98,100690,0,0,334,0,0,0,0,0,0,0,360,1.5,0,0,0,0,0,0,0,0,0,0,0,0,0
2014,9,13,6,0,,16.7,16.3,98,100710,0,0,333,0,0,0,0,0,0,0,360,2.1,0,0,0,0,0,0,0,0,0,0,0,0,0
2014,9,13,7,0,,16.7,16.2,97,100770,0,0,333,48,22,26,4466,1936,3602,0,20,1.3,0,0,0,0,0,0,0,0,0,0,0,0,0
2014,9,13,8,0,,17.6,16.2,92,100810,0,0,343,192,486,68,40754,50239,10240,0,340,2.7,1,0,0,0,0,0,0,0,0,0,0,0,0
2014,9,13,9,0,,19.5,15.5,78,100760,0,0,344,368,580,111,59062,59841,15403,0,340,2.7,0,0,0,0,0,0,0,0,0,0,0,0,0
2014,9,13,10,0,,21.8,14.9,65,100760,0,0,355,545,668,140,73906,68722,18608,0,340,2.8,0,0,0,0,0,0,0,0,0,0,0,0,0
2014,9,13,11,0,,23.9,14.3,55,100740,0,0,371,686,715,164,81802,73185,21242,0,20,2.8,1,0,0,0,0,0,0,0,0,0,0,0,0
2014,9,13,12,0,,25.2,14,50,100700,0,0,387,737,648,215,79422,63699,28685,0,360,3.2,3,0,0,0,0,0,0,0,0,0,0,0,0
2014,9,13,13,0,,26.4,13.5,45,100640,0,0,393,760,643,227,74267,62359,29756,0,20,2.9,3,0,0,0,0,0,0,0,0,0,0,0,0
2014,9,13,14,0,,27.2,12,39,100570,0,0,386,739,668,205,63640,62392,27142,0,50,2.8,1,0,0,0,0,0,0,0,0,0,0,0,0
2014,9,13,15,0,,27.7,11.6,37,100530,0,0,393,649,652,182,47775,57258,23792,0,70,2.6,2,0,0,0,0,0,0,0,0,0,0,0,0
2014,9,13,16,0,,27.9,11.8,37,100510,0,0,389,517,631,145,28225,43583,18345,0,50,2.3,1,0,0,0,0,0,0,0,0,0,0,0,0
2014,9,13,17,0,,27.5,12.6,40,100530,0,0,388,362,626,97,9718,1259,9691,0,50,2,1,0,0,0,0,0,0,0,0,0,0,0,0
2014,9,13,18,0,,26.3,13.7,46,100550,0,0,376,181,538,57,0,0,0,0,70,2,0,0,0,0,0,0,0,0,0,0,0,0,0
2014,9,13,19,0,,24.4,14.7,55,100570,0,0,367,41,19,22,0,0,0,0,70,1,0,0,0,0,0,0,0,0,0,0,0,0,0
2014,9,13,20,0,,22.5,15.3,64,100710,0,0,359,0,0,0,0,0,0,0,270,0.6,0,0,0,0,0,0,0,0,0,0,0,0,0
2014,9,13,21,0,,20.6,14.2,67,100780,0,0,348,0,0,0,0,0,0,0,20,1.4,0,0,0,0,0,0,0,0,0,0,0,0,0
2014,9,13,22,0,,19.5,17,86,100820,0,0,346,0,0,0,0,0,0,0,20,1.2,0,0,0,0,0,0,0,0,0,0,0,0,0
2014,9,13,23,0,,18.4,16.7,90,100840,0,0,341,0,0,0,0,0,0,0,20,1,0,0,0,0,0,0,0,0,0,0,0,0,0
2014,9,13,24,0,,17.4,16.4,94,100810,0,0,336,0,0,0,0,0,0,0,360,0.8,0,0,0,0,0,0,0,0,0,0,0,0,0
2014,9,14,1,0,,16.6,16.1,97,100790,0,0,332,0,0,0,0,0,0,0,360,1.5,0,0,0,0,0,0,0,0,0,0,0,0,0
2014,9,14,2,0,,15.9,15.4,97,100770,0,0,328,0,0,0,0,0,0,0,360,1.8,0,0,0,0,0,0,0,0,0,0,0,0,0
2014,9,14,3,0,,15.6,14.9,96,100810,0,0,326,0,0,0,0,0,0,0,360,1.3,0,0,0,0,0,0,0,0,0,0,0,0,0
2014,9,14,4,0,,15,14.8,99,100810,0,0,323,0,0,0,0,0,0,0,20,1.3,0,0,0,0,0,0,0,0,0,0,0,0,0
2014,9,14,5,0,,14.7,14.3,98,100880,0,0,321,0,0,0,0,0,0,0,20,1.2,0,0,0,0,0,0,0,0,0,0,0,0,0
2014,9,14,6,0,,14.1,13.9,99,100900,0,0,332,0,0,0,0,0,0,0,20,1.4,3,0,0,0,0,0,0,0,0,0,0,0,0
2014,9,14,7,0,,14.1,13.6,97,100930,0,0,332,42,21,21,3789,1877,2956,0,0,0.4,3,0,0,0,0,0,0,0,0,0,0,0,0
2014,9,14,8,0,,15.4,13.5,89,100960,0,0,340,171,362,81,34697,36083,12889,0,340,1.8,4,0,0,0,0,0,0,0,0,0,0,0,0
2014,9,14,9,0,,17.1,13,77,100910,0,0,350,316,380,149,47515,36338,21120,0,70,0.7,5,0,0,0,0,0,0,0,0,0,0,0,0
2014,9,14,10,0,,18.9,12.8,68,100880,0,0,353,508,563,168,68469,56211,23433,0,50,0.7,3,0,0,0,0,0,0,0,0,0,0,0,0
2014,9,14,11,0,,21,12.4,58,100840,0,0,366,617,544,222,73399,53715,29153,0,180,1.1,4,0,0,0,0,0,0,0,0,0,0,0,0
2014,9,14,12,0,,22.7,10.7,47,100750,0,0,379,630,326,369,68142,31555,43138,0,250,2.4,6,0,0,0,0,0,0,0,0,0,0,0,0
2014,9,14,13,0,,24.1,13,50,100680,0,0,389,625,282,393,64172,26453,45408,0,340,1.7,6,0,0,0,0,0,0,0,0,0,0,0,0
2014,9,14,14,0,,25.7,10.6,39,100610,0,0,385,710,607,227,62301,57072,29185,0,200,1.1,3,0,0,0,0,0,0,0,0,0,0,0,0
2014,9,14,15,0,,26.9,12.1,40,100540,0,0,403,539,318,312,46983,27391,35648,0,230,1.5,6,0,0,0,0,0,0,0,0,0,0,0,0
2014,9,14,16,0,,26.8,12.8,42,100490,0,0,408,390,251,244,31037,16406,27402,0,290,1.8,7,0,0,0,0,0,0,0,0,0,0,0,0
2014,9,14,17,0,,26.4,13.5,45,100540,0,0,413,230,170,159,16934,11871,16740,0,270,1.4,8,0,0,0,0,0,0,0,0,0,0,0,0
2014,9,14,18,0,,26,15.6,53,100560,0,0,407,127,228,75,0,0,0,0,250,0.9,7,0,0,0,0,0,0,0,0,0,0,0,0
2014,9,14,19,0,,24.6,18.9,71,100530,0,0,404,24,5,18,0,0,0,0,50,0.6,7,0,0,0,0,0,0,0,0,0,0,0,0
2014,9,14,20,0,,23.2,18.9,77,100530,0,0,396,0,0,0,0,0,0,0,20,0.6,7,0,0,0,0,0,0,0,0,0,0,0,0
2014,9,14,21,0,,21.9,18.8,83,100590,0,0,389,0,0,0,0,0,0,0,0,0.2,7,0,0,0,0,0,0,0,0,0,0,0,0
2014,9,14,22,0,,21.3,19.2,88,100630,0,0,388,0,0,0,0,0,0,0,20,1.3,7,0,0,0,0,0,0,0,0,0,0,0,0
2014,9,14,23,0,,20.7,18.8,89,100600,0,0,387,0,0,0,0,0,0,0,20,0.7,8,0,0,0,0,0,0,0,0,0,0,0,0
2014,9,14,24,0,,20.4,18.3,88,100590,0,0,387,0,0,0,0,0,0,0,0,0.4,8,0,0,0,0,0,0,0,0,0,0,0,0
2014,9,15,1,0,,19.9,19,95,100600,0,0,388,0,0,0,0,0,0,0,360,0.7,8,0,0,0,0,0,0,0,0,0,0,0,0
2014,9,15,2,0,,19.7,18.7,94,100580,0,0,389,0,0,0,0,0,0,0,0,0.4,9,0,0,0,0,0,0,0,0,0,0,0,0
2014,9,15,3,0,,19.3,18.3,94,100540,0,0,389,0,0,0,0,0,0,0,0,0.1,9,0,0,0,0,0,0,0,0,0,0,0,0
2014,9,15,4,0,,19.1,18.1,94,100520,0,0,388,0,0,0,0,0,0,0,0,0.4,9,0,0,0,0,0,0,0,0,0,0,0,0
2014,9,15,5,0,,18.8,18.1,96,100530,0,0,386,0,0,0,0,0,0,0,360,1.3,9,0,0,0,0,0,0,0,0,0,0,0,0
2014,9,15,6,0,,18.4,17.7,96,100540,0,0,384,0,0,0,0,0,0,0,0,0,9,0,0,0,0,0,0,0,0,0,0,0,0
2014,9,15,7,0,,18.2,17.3,95,100560,0,0,374,23,3,19,2506,285,2380,0,0,0.2,8,0,0,0,0,0,0,0,0,0,0,0,0
2014,9,15,8,0,,18.7,17.7,94,100570,0,0,385,80,44,69,11555,4040,9125,0,0,0.2,9,0,0,0,0,0,0,0,0,0,0,0,0
2014,9,15,9,0,,19.9,17.2,85,100580,0,0,383,206,107,160,27226,9890,20074,0,20,0.9,8,0,0,0,0,0,0,0,0,0,0,0,0
2014,9,15,10,0,,21.2,17.2,78,100560,0,0,389,308,114,239,37752,10560,29328,0,0,0.4,8,0,0,0,0,0,0,0,0,0,0,0,0
2014,9,15,11,0,,22.5,16.5,69,100500,0,0,396,406,131,312,47355,12112,37425,0,320,0.9,8,0,0,0,0,0,0,0,0,0,0,0,0
2014,9,15,12,0,,24,16.2,62,100400,0,0,397,515,179,372,56993,16555,43943,0,180,0.8,7,0,0,0,0,0,0,0,0,0,0,0,0
2014,9,15,13,0,,25.5,16.3,57,100360,0,0,405,547,192,389,58034,17508,45693,0,140,1.2,7,0,0,0,0,0,0,0,0,0,0,0,0
2014,9,15,14,0,,26.7,16,52,100320,0,0,412,536,209,371,53989,18532,43324,0,230,2,7,0,0,0,0,0,0,0,0,0,0,0,0
2014,9,15,15,0,,26.5,13.5,45,100260,0,0,407,474,218,319,44142,18460,36595,0,250,2.1,7,0,0,0,0,0,0,0,0,0,0,0,0
2014,9,15,16,0,,26.6,14.3,47,100230,0,0,404,402,284,237,30755,18014,26859,0,270,2.3,6,0,0,0,0,0,0,0,0,0,0,0,0
2014,9,15,17,0,,25.7,13.8,48,100260,0,0,403,239,199,157,15861,0,15861,0,250,1.9,7,0,0,0,0,0,0,0,0,0,0,0,0
2014,9,15,18,0,,24.7,16.1,59,100290,0,0,407,96,108,72,0,0,0,0,270,1.2,8,0,0,0,0,0,0,0,0,0,0,0,0
2014,9,15,19,0,,23.1,17.7,72,100330,0,0,396,21,4,17,0,0,0,0,360,0.7,7,0,0,0,0,0,0,0,0,0,0,0,0
2014,9,15,20,0,,21.9,17.8,78,100390,0,0,386,0,0,0,0,0,0,0,0,0.4,7,0,0,0,0,0,0,0,0,0,0,0,0
2014,9,15,21,0,,20.3,18.4,89,100470,0,0,376,0,0,0,0,0,0,0,0,0.3,6,0,0,0,0,0,0,0,0,0,0,0,0
2014,9,15,22,0,,19.4,17.8,91,100510,0,0,372,0,0,0,0,0,0,0,360,0.5,6,0,0,0,0,0,0,0,0,0,0,0,0
2014,9,15,23,0,,18.5,17.5,94,100550,0,0,368,0,0,0,0,0,0,0,360,0.5,7,0,0,0,0,0,0,0,0,0,0,0,0
2014,9,15,24,0,,17.6,17.1,97,100550,0,0,365,0,0,0,0,0,0,0,360,1.2,7,0,0,0,0,0,0,0,0,0,0,0,0
2014,9,16,1,0,,17.1,16.7,98,100580,0,0,359,0,0,0,0,0,0,0,50,0.5,6,0,0,0,0,0,0,0,0,0,0,0,0
2014,9,16,2,0,,16.4,16.2,99,100590,0,0,353,0,0,0,0,0,0,0,360,0.8,6,0,0,0,0,0,0,0,0,0,0,0,0
2014,9,16,3,0,,15.8,15.4,98,100630,0,0,347,0,0,0,0,0,0,0,20,0.8,5,0,0,0,0,0,0,0,0,0,0,0,0
2014,9,16,4,0,,15.2,14.8,98,100660,0,0,338,0,0,0,0,0,0,0,360,1.1,3,0,0,0,0,0,0,0,0,0,0,0,0
2014,9,16,5,0,,14.4,14.2,99,100680,0,0,334,0,0,0,0,0,0,0,360,0.6,3,0,0,0,0,0,0,0,0,0,0,0,0
2014,9,16,6,0,,13.8,13.4,98,100730,0,0,330,0,0,0,0,0,0,0,360,0.5,3,0,0,0,0,0,0,0,0,0,0,0,0
2014,9,16,7,0,,13.3,13.1,99,100780,0,0,328,40,19,21,3653,1724,2898,0,20,0.9,3,0,0,0,0,0,0,0,0,0,0,0,0
2014,9,16,8,0,,14.7,12.1,85,100800,0,0,333,171,383,76,35173,38276,12273,0,360,1.8,3,0,0,0,0,0,0,0,0,0,0,0,0
2014,9,16,9,0,,16.7,13.2,80,100820,0,0,346,325,436,136,51086,43514,19762,0,360,1.6,4,0,0,0,0,0,0,0,0,0,0,0,0
2014,9,16,10,0,,18.9,12.8,68,100810,0,0,359,463,442,199,60665,42410,26987,0,340,0.7,5,0,0,0,0,0,0,0,0,0,0,0,0
2014,9,16,11,0,,21.3,13.7,62,100750,0,0,372,587,480,242,69190,45690,31906,0,270,1.6,5,0,0,0,0,0,0,0,0,0,0,0,0
2014,9,16,12,0,,23.3,14,56,100700,0,0,383,665,497,270,71861,47036,34983,0,250,1.8,5,0,0,0,0,0,0,0,0,0,0,0,0
2014,9,16,13,0,,24.6,10.4,41,100640,0,0,388,648,329,379,66099,31578,43983,0,250,1.9,6,0,0,0,0,0,0,0,0,0,0,0,0
2014,9,16,14,0,,25.4,10.4,39,100600,0,0,393,610,317,361,58059,29562,41190,0,250,1.8,6,0,0,0,0,0,0,0,0,0,0,0,0
2014,9,16,15,0,,26.1,9.8,36,100540,0,0,396,534,326,305,45993,28419,34519,0,250,2.5,6,0,0,0,0,0,0,0,0,0,0,0,0
2014,9,16,16,0,,26.2,11.1,39,100570,0,0,395,448,454,187,27894,28756,21824,0,250,2.2,5,0,0,0,0,0,0,0,0,0,0,0,0
2014,9,16,17,0,,25.9,7.9,32,100550,0,0,392,290,377,136,12895,0,12895,0,250,1.9,6,0,0,0,0,0,0,0,0,0,0,0,0
2014,9,16,18,0,,24.6,13.7,51,100570,0,0,404,99,125,72,0,0,0,0,250,1.2,8,0,0,0,0,0,0,0,0,0,0,0,0
2014,9,16,19,0,,22.1,16.1,69,100570,0,0,393,15,2,13,0,0,0,0,360,1,8,0,0,0,0,0,0,0,0,0,0,0,0
2014,9,16,20,0,,19.9,16.5,81,100670,0,0,382,0,0,0,0,0,0,0,360,0.8,8,0,0,0,0,0,0,0,0,0,0,0,0
2014,9,16,21,0,,19.2,15,77,100720,0,0,376,0,0,0,0,0,0,0,20,0.9,8,0,0,0,0,0,0,0,0,0,0,0,0
2014,9,16,22,0,,18.2,16.1,88,100740,0,0,373,0,0,0,0,0,0,0,340,1.3,8,0,0,0,0,0,0,0,0,0,0,0,0
2014,9,16,23,0,,17.6,14.4,82,100750,0,0,367,0,0,0,0,0,0,0,50,0.5,8,0,0,0,0,0,0,0,0,0,0,0,0
2014,9,16,24,0,,17.3,15.4,89,100740,0,0,367,0,0,0,0,0,0,0,0,0.4,8,0,0,0,0,0,0,0,0,0,0,0,0
2014,9,17,1,0,,17,15.1,89,100760,0,0,368,0,0,0,0,0,0,0,360,0.6,8,0,0,0,0,0,0,0,0,0,0,0,0
2014,9,17,2,0,,17,15.1,89,100770,0,0,370,0,0,0,0,0,0,0,360,1,9,0,0,0,0,0,0,0,0,0,0,0,0
2014,9,17,3,0,,16.7,15.2,91,100740,0,0,372,0,0,0,0,0,0,0,320,1,9,0,0,0,0,0,0,0,0,0,0,0,0
2014,9,17,4,0,,16.5,14.1,86,100740,0,0,356,0,0,0,0,0,0,0,90,0.9,7,0,0,0,0,0,0,0,0,0,0,0,0
2014,9,17,5,0,,16.1,14.7,92,100780,0,0,360,0,0,0,0,0,0,0,50,0.8,8,0,0,0,0,0,0,0,0,0,0,0,0
2014,9,17,6,0,,15.8,14.6,93,100810,0,0,377,0,0,0,0,0,0,0,20,0.5,10,0,0,0,0,0,0,0,0,0,0,0,0
2014,9,17,7,0,,15.8,14.6,93,100830,0,0,377,8,0,8,1093,7,1090,0,360,0.7,10,0,0,0,0,0,0,0,0,0,0,0,0
2014,9,17,8,0,,16.3,13.9,86,100830,0,0,378,59,20,54,7590,1797,6520,0,360,1.7,10,0,0,0,0,0,0,0,0,0,0,0,0
2014,9,17,9,0,,17.1,13.6,80,100890,0,0,382,129,30,116,15725,2734,13766,0,50,0.7,10,0,0,0,0,0,0,0,0,0,0,0,0
2014,9,17,10,0,,18.2,12.4,69,100880,0,0,386,209,40,185,24593,3765,21617,0,70,0.7,10,0,0,0,0,0,0,0,0,0,0,0,0
2014,9,17,11,0,,19.3,12.7,66,100860,0,0,393,266,42,236,30575,3922,27389,0,230,0.5,10,0,0,0,0,0,0,0,0,0,0,0,0
2014,9,17,12,0,,20.4,13.8,66,100800,0,0,400,295,40,264,33473,3750,30548,0,320,1,10,0,0,0,0,0,0,0,0,0,0,0,0
2014,9,17,13,0,,21.1,14.2,65,100760,0,0,405,292,35,263,32702,3300,30406,0,360,0.7,10,0,0,0,0,0,0,0,0,0,0,0,0
2014,9,17,14,0,,22.1,13.9,60,100730,0,0,399,371,78,311,39472,7284,35351,0,320,0.9,9,0,0,0,0,0,0,0,0,0,0,0,0
2014,9,17,15,0,,23.1,14.6,59,100660,0,0,405,333,84,274,33995,7615,30959,0,250,1.3,9,0,0,0,0,0,0,0,0,0,0,0,0
2014,9,17,16,0,,23.4,14.3,57,100640,0,0,418,206,44,180,20899,3454,20188,0,270,0.9,10,0,0,0,0,0,0,0,0,0,0,0,0
2014,9,17,17,0,,23.3,14.5,58,100650,0,0,406,173,86,139,14570,6083,14568,0,270,1.2,9,0,0,0,0,0,0,0,0,0,0,0,0
2014,9,17,18,0,,22.9,16.6,68,100680,0,0,406,75,61,62,0,0,0,0,340,1.2,9,0,0,0,0,0,0,0,0,0,0,0,0
2014,9,17,19,0,,21.8,13.6,60,100750,0,0,391,18,3,15,0,0,0,0,50,1.8,8,0,0,0,0,0,0,0,0,0,0,0,0
2014,9,17,20,0,,20.7,13.8,65,100820,0,0,380,0,0,0,0,0,0,0,20,1.6,8,0,0,0,0,0,0,0,0,0,0,0,0
2014,9,17,21,0,,19.8,13.9,69,100890,0,0,372,0,0,0,0,0,0,0,20,1.3,7,0,0,0,0,0,0,0,0,0,0,0,0
2014,9,17,22,0,,18.9,14.5,76,100920,0,0,365,0,0,0,0,0,0,0,340,1.2,6,0,0,0,0,0,0,0,0,0,0,0,0
2014,9,17,23,0,,17.9,14.9,83,100950,0,0,358,0,0,0,0,0,0,0,340,1.4,6,0,0,0,0,0,0,0,0,0,0,0,0
2014,9,17,24,0,,16.8,14.7,88,100930,0,0,351,0,0,0,0,0,0,0,340,1.3,5,0,0,0,0,0,0,0,0,0,0,0,0
2014,9,18,1,0,,15.9,13.7,87,100940,0,0,344,0,0,0,0,0,0,0,20,0.9,5,0,0,0,0,0,0,0,0,0,0,0,0
2014,9,18,2,0,,14.5,13,91,100960,0,0,336,0,0,0,0,0,0,0,320,0.6,4,0,0,0,0,0,0,0,0,0,0,0,0
2014,9,18,3,0,,13.8,13.1,96,100950,0,0,332,0,0,0,0,0,0,0,340,2.1,4,0,0,0,0,0,0,0,0,0,0,0,0
2014,9,18,4,0,,13.3,12.9,98,100990,0,0,314,0,0,0,0,0,0,0,360,1.3,0,0,0,0,0,0,0,0,0,0,0,0,0
2014,9,18,5,0,,12.7,12.5,99,101020,0,0,311,0,0,0,0,0,0,0,340,2.5,0,0,0,0,0,0,0,0,0,0,0,0,0
2014,9,18,6,0,,12.5,12.1,98,101060,0,0,315,0,0,0,0,0,0,0,20,0.7,1,0,0,0,0,0,0,0,0,0,0,0,0
2014,9,18,7,0,,12.4,12,98,101110,0,0,325,37,16,21,3498,1479,2859,0,20,1.7,4,0,0,0,0,0,0,0,0,0,0,0,0
2014,9,18,8,0,,14.2,11.8,86,101120,0,0,330,179,473,66,38517,48519,9791,0,340,2.8,3,0,0,0,0,0,0,0,0,0,0,0,0
2014,9,18,9,0,,15.5,11.6,78,101120,0,0,344,278,279,159,41201,26846,22056,0,340,1,6,0,0,0,0,0,0,0,0,0,0,0,0
2014,9,18,10,0,,16.5,10.7,69,101120,0,0,342,468,475,188,62560,47347,25305,0,340,0.5,4,0,0,0,0,0,0,0,0,0,0,0,0
2014,9,18,11,0,,19.3,11.3,60,101060,0,0,353,622,589,201,74176,58573,26842,0,230,1.4,3,0,0,0,0,0,0,0,0,0,0,0,0
2014,9,18,12,0,,21.7,7.8,41,100970,0,0,361,730,676,198,78383,67307,26188,0,230,1.3,3,0,0,0,0,0,0,0,0,0,0,0,0
2014,9,18,13,0,,23.1,9.8,43,100900,0,0,362,793,770,169,75948,76235,23257,0,290,2,1,0,0,0,0,0,0,0,0,0,0,0,0
2014,9,18,14,0,,24.7,9,37,100820,0,0,369,736,713,181,62553,68308,24239,0,230,1.5,1,0,0,0,0,0,0,0,0,0,0,0,0
2014,9,18,15,0,,25.7,7.2,31,100770,0,0,372,653,721,152,45094,64183,19835,0,250,1.6,1,0,0,0,0,0,0,0,0,0,0,0,0
2014,9,18,16,0,,26.1,5,26,100720,0,0,371,523,724,114,24191,49623,14240,0,230,1.4,1,0,0,0,0,0,0,0,0,0,0,0,0
2014,9,18,17,0,,26.1,6.1,28,100710,0,0,373,356,698,78,0,0,0,0,230,1.4,1,0,0,0,0,0,0,0,0,0,0,0,0
2014,9,18,18,0,,24.9,9.5,38,100720,0,0,364,167,593,45,0,0,0,0,230,1.5,0,0,0,0,0,0,0,0,0,0,0,0,0
2014,9,18,19,0,,22,14.6,63,100770,0,0,355,29,16,14,0,0,0,0,50,0.9,0,0,0,0,0,0,0,0,0,0,0,0,0
2014,9,18,20,0,,19.3,15.3,78,100840,0,0,343,0,0,0,0,0,0,0,50,0.7,0,0,0,0,0,0,0,0,0,0,0,0,0
2014,9,18,21,0,,17.5,14.5,83,100910,0,0,334,0,0,0,0,0,0,0,360,0.7,0,0,0,0,0,0,0,0,0,0,0,0,0
2014,9,18,22,0,,16.1,13.9,87,100910,0,0,327,0,0,0,0,0,0,0,360,0.9,0,0,0,0,0,0,0,0,0,0,0,0,0
2014,9,18,23,0,,15,13.8,93,100940,0,0,322,0,0,0,0,0,0,0,0,0.4,0,0,0,0,0,0,0,0,0,0,0,0,0
2014,9,18,24,0,,14.2,13,93,100930,0,0,318,0,0,0,0,0,0,0,20,1.2,0,0,0,0,0,0,0,0,0,0,0,0,0
2014,9,19,1,0,,13.7,13,96,100920,0,0,316,0,0,0,0,0,0,0,360,0.7,0,0,0,0,0,0,0,0,0,0,0,0,0
2014,9,19,2,0,,13.3,12.6,96,100890,0,0,313,0,0,0,0,0,0,0,90,0.7,0,0,0,0,0,0,0,0,0,0,0,0,0
2014,9,19,3,0,,12.7,12.3,98,100890,0,0,311,0,0,0,0,0,0,0,20,1,0,0,0,0,0,0,0,0,0,0,0,0,0
2014,9,19,4,0,,12.3,11.9,98,100890,0,0,308,0,0,0,0,0,0,0,0,0.3,0,0,0,0,0,0,0,0,0,0,0,0,0
2014,9,19,5,0,,11.8,11.6,99,100890,0,0,306,0,0,0,0,0,0,0,20,0.6,0,0,0,0,0,0,0,0,0,0,0,0,0
2014,9,19,6,0,,11.5,11.3,99,100900,0,0,320,0,0,0,0,0,0,0,20,0.8,4,0,0,0,0,0,0,0,0,0,0,0,0
2014,9,19,7,0,,12.1,11.9,99,100900,0,0,338,21,3,18,2324,287,2201,0,360,1.8,8,0,0,0,0,0,0,0,0,0,0,0,0
2014,9,19,8,0,,12.9,12.2,96,100870,0,0,342,102,104,78,16550,9817,10769,0,360,1.5,8,0,0,0,0,0,0,0,0,0,0,0,0
2014,9,19,9,0,,14.3,11.4,83,100870,0,0,327,335,504,120,53652,50573,17758,0,270,0.5,2,0,0,0,0,0,0,0,0,0,0,0,0
2014,9,19,10,0,,16.5,11.6,73,100840,0,0,326,507,607,151,69068,60871,21397,0,340,1,0,0,0,0,0,0,0,0,0,0,0,0,0
2014,9,19,11,0,,19,11.5,62,100750,0,0,344,647,665,175,77468,66444,24040,0,200,1.1,1,0,0,0,0,0,0,0,0,0,0,0,0
2014,9,19,12,0,,21.4,10.8,51,100640,0,0,355,757,751,169,81123,74963,23317,0,250,1.3,1,0,0,0,0,0,0,0,0,0,0,0,0
2014,9,19,13,0,,23.3,9.6,42,100530,0,0,363,780,750,176,74804,74088,23942,0,270,1.2,1,0,0,0,0,0,0,0,0,0,0,0,0
2014,9,19,14,0,,25,9.6,38,100430,0,0,377,739,731,173,62391,70067,23435,0,290,1.1,2,0,0,0,0,0,0,0,0,0,0,0,0
2014,9,19,15,0,,26.2,4,24,100360,0,0,375,659,751,141,45272,67660,18991,0,230,1.4,2,0,0,0,0,0,0,0,0,0,0,0,0
2014,9,19,16,0,,26.8,5.6,26,100320,0,0,375,523,738,109,24041,50022,14274,0,230,1.8,1,0,0,0,0,0,0,0,0,0,0,0,0
2014,9,19,17,0,,26.7,5.5,26,100300,0,0,375,356,722,73,0,0,0,0,250,2.4,1,0,0,0,0,0,0,0,0,0,0,0,0
2014,9,19,18,0,,25.3,12.1,44,100320,0,0,376,159,567,46,0,0,0,0,270,1.4,1,0,0,0,0,0,0,0,0,0,0,0,0
2014,9,19,19,0,,21.5,14.6,65,100370,0,0,358,26,12,14,0,0,0,0,360,0.6,1,0,0,0,0,0,0,0,0,0,0,0,0
2014,9,19,20,0,,19.1,13.9,72,100430,0,0,343,0,0,0,0,0,0,0,320,0.5,0,0,0,0,0,0,0,0,0,0,0,0,0
2014,9,19,21,0,,17.6,13.7,78,100500,0,0,334,0,0,0,0,0,0,0,360,0.8,0,0,0,0,0,0,0,0,0,0,0,0,0
2014,9,19,22,0,,16.3,13.7,85,100530,0,0,328,0,0,0,0,0,0,0,340,0.7,0,0,0,0,0,0,0,0,0,0,0,0,0
2014,9,19,23,0,,15.1,13.4,90,100560,0,0,322,0,0,0,0,0,0,0,0,0.4,0,0,0,0,0,0,0,0,0,0,0,0,0
2014,9,19,24,0,,14.8,12.4,86,100610,0,0,320,0,0,0,0,0,0,0,70,0.7,0,0,0,0,0,0,0,0,0,0,0,0,0
2014,9,20,1,0,,13.9,12.9,94,100600,0,0,316,0,0,0,0,0,0,0,360,1,0,0,0,0,0,0,0,0,0,0,0,0,0
2014,9,20,2,0,,13.4,12.4,94,100610,0,0,314,0,0,0,0,0,0,0,50,0.8,0,0,0,0,0,0,0,0,0,0,0,0,0
2014,9,20,3,0,,12.9,12.1,95,100590,0,0,311,0,0,0,0,0,0,0,70,0.6,0,0,0,0,0,0,0,0,0,0,0,0,0
2014,9,20,4,0,,12.5,12.1,98,100580,0,0,309,0,0,0,0,0,0,0,20,0.9,0,0,0,0,0,0,0,0,0,0,0,0,0
2014,9,20,5,0,,12.1,11.9,99,100600,0,0,308,0,0,0,0,0,0,0,20,0.7,0,0,0,0,0,0,0,0,0,0,0,0,0
2014,9,20,6,0,,11.7,11.5,99,100640,0,0,305,0,0,0,0,0,0,0,50,0.6,0,0,0,0,0,0,0,0,0,0,0,0,0
2014,9,20,7,0,,11.6,11.1,97,100680,0,0,305,40,23,17,3510,2030,2646,0,70,0.5,0,0,0,0,0,0,0,0,0,0,0,0,0
2014,9,20,8,0,,13,11.7,92,100710,0,0,321,167,415,70,35637,41496,11334,0,360,1.6,2,0,0,0,0,0,0,0,0,0,0,0,0
2014,9,20,9,0,,15,11.3,79,100720,0,0,319,346,562,108,56347,56668,16322,0,180,0.6,0,0,0,0,0,0,0,0,0,0,0,0,0
2014,9,20,10,0,,17.3,11.3,68,100720,0,0,329,514,637,142,70305,64123,20327,0,360,0.7,0,0,0,0,0,0,0,0,0,0,0,0,0
2014,9,20,11,0,,19.8,11.8,60,100680,0,0,348,660,708,159,79172,71017,22356,0,340,0.7,1,0,0,0,0,0,0,0,0,0,0,0,0
2014,9,20,12,0,,22.1,12,53,100600,0,0,365,730,693,189,78276,68647,25640,0,340,0.7,2,0,0,0,0,0,0,0,0,0,0,0,0
2014,9,20,13,0,,24,9.9,41,100490,0,0,372,769,732,181,73723,72093,24568,0,320,1.4,2,0,0,0,0,0,0,0,0,0,0,0,0
2014,9,20,14,0,,25.4,7,31,100400,0,0,375,743,753,163,62231,72648,22200,0,290,1.9,2,0,0,0,0,0,0,0,0,0,0,0,0
2014,9,20,15,0,,26.2,9.9,36,100340,0,0,383,634,697,157,43820,60616,20588,0,290,1.9,2,0,0,0,0,0,0,0,0,0,0,0,0
2014,9,20,16,0,,26.8,8.7,32,100350,0,0,385,500,681,122,23569,44019,15207,0,290,1.4,2,0,0,0,0,0,0,0,0,0,0,0,0
2014,9,20,17,0,,26.7,8.1,31,100380,0,0,387,328,620,88,0,0,0,0,270,1.7,3,0,0,0,0,0,0,0,0,0,0,0,0
2014,9,20,18,0,,25.6,13.1,46,100430,0,0,388,146,491,51,0,0,0,0,270,1.2,3,0,0,0,0,0,0,0,0,0,0,0,0
2014,9,20,19,0,,22.3,14.6,62,100500,0,0,372,24,10,14,0,0,0,0,50,1,3,0,0,0,0,0,0,0,0,0,0,0,0
2014,9,20,20,0,,20.2,15.1,73,100610,0,0,362,0,0,0,0,0,0,0,0,0.3,3,0,0,0,0,0,0,0,0,0,0,0,0
2014,9,20,21,0,,18.9,14.7,77,100690,0,0,355,0,0,0,0,0,0,0,320,0.6,3,0,0,0,0,0,0,0,0,0,0,0,0
2014,9,20,22,0,,17.7,13.8,78,100720,0,0,345,0,0,0,0,0,0,0,70,0.5,2,0,0,0,0,0,0,0,0,0,0,0,0
2014,9,20,23,0,,16.3,14.6,90,100720,0,0,335,0,0,0,0,0,0,0,360,1.4,1,0,0,0,0,0,0,0,0,0,0,0,0
2014,9,20,24,0,,15.7,13.8,89,100730,0,0,325,0,0,0,0,0,0,0,20,0.7,0,0,0,0,0,0,0,0,0,0,0,0,0
2014,9,21,1,0,,15.2,13.5,90,100740,0,0,325,0,0,0,0,0,0,0,360,0.6,0,0,0,0,0,0,0,0,0,0,0,0,0
2014,9,21,2,0,,14.5,13,91,100770,0,0,323,0,0,0,0,0,0,0,50,0.5,1,0,0,0,0,0,0,0,0,0,0,0,0
2014,9,21,3,0,,13.9,13.2,96,100790,0,0,323,0,0,0,0,0,0,0,50,0.8,1,0,0,0,0,0,0,0,0,0,0,0,0
2014,9,21,4,0,,13.3,12.8,97,100800,0,0,327,0,0,0,0,0,0,0,360,1.2,3,0,0,0,0,0,0,0,0,0,0,0,0
2014,9,21,5,0,,12.9,12.4,97,100840,0,0,325,0,0,0,0,0,0,0,0,0.3,3,0,0,0,0,0,0,0,0,0,0,0,0
2014,9,21,6,0,,12.8,12.4,98,100880,0,0,342,0,0,0,0,0,0,0,0,0.3,8,0,0,0,0,0,0,0,0,0,0,0,0
2014,9,21,7,0,,13.2,12.2,94,100950,0,0,343,20,3,17,2202,260,2093,0,110,0.6,8,0,0,0,0,0,0,0,0,0,0,0,0
2014,9,21,8,0,,13.8,12.5,92,101000,0,0,364,57,21,52,7374,1898,6269,0,0,0.2,10,0,0,0,0,0,0,0,0,0,0,0,0
2014,9,21,9,0,,14.7,13.4,92,101030,0,0,352,189,96,149,24946,9174,18498,0,20,0.7,8,0,0,0,0,0,0,0,0,0,0,0,0
2014,9,21,10,0,,16.7,13,79,101060,0,0,361,300,118,231,36672,11402,27828,0,340,0.7,8,0,0,0,0,0,0,0,0,0,0,0,0
2014,9,21,11,0,,18.5,12.9,70,101020,0,0,389,268,46,236,30797,4284,27387,0,290,0.9,10,0,0,0,0,0,0,0,0,0,0,0,0
2014,9,21,12,0,,19,12.9,68,100980,0,0,391,297,44,264,33583,4092,30463,0,0,0.3,10,0,0,0,0,0,0,0,0,0,0,0,0
2014,9,21,13,0,,19.2,12.4,65,100920,0,0,392,289,37,260,32258,3477,29904,0,0,0.3,10,0,0,0,0,0,0,0,0,0,0,0,0
2014,9,21,14,0,,19.8,12.3,62,100880,0,0,395,265,33,240,29123,3115,27422,0,340,0.6,10,0,0,0,0,0,0,0,0,0,0,0,0
2014,9,21,15,0,,20.6,12.8,61,100830,0,0,381,360,115,282,35582,10422,31642,0,70,0.7,8,0,0,0,0,0,0,0,0,0,0,0,0
2014,9,21,16,0,,21.4,12.7,58,100820,0,0,374,377,284,221,27743,16785,24644,0,20,1,6,0,0,0,0,0,0,0,0,0,0,0,0
2014,9,21,17,0,,21.8,13.1,58,100830,0,0,368,307,545,99,0,0,0,0,340,1.3,3,0,0,0,0,0,0,0,0,0,0,0,0
2014,9,21,18,0,,21.3,13.7,62,100830,0,0,358,145,514,48,0,0,0,0,0,0.3,1,0,0,0,0,0,0,0,0,0,0,0,0
2014,9,21,19,0,,19.5,17.2,87,100870,0,0,351,23,10,13,0,0,0,0,340,1.1,1,0,0,0,0,0,0,0,0,0,0,0,0
2014,9,21,20,0,,17.8,16.4,92,100940,0,0,340,0,0,0,0,0,0,0,340,0.5,0,0,0,0,0,0,0,0,0,0,0,0,0
2014,9,21,21,0,,17,15.8,93,100980,0,0,333,0,0,0,0,0,0,0,20,0.8,0,0,0,0,0,0,0,0,0,0,0,0,0
2014,9,21,22,0,,16.1,15.4,96,101010,0,0,329,0,0,0,0,0,0,0,20,1,0,0,0,0,0,0,0,0,0,0,0,0,0
2014,9,21,23,0,,15.6,15.1,97,101030,0,0,326,0,0,0,0,0,0,0,20,1,0,0,0,0,0,0,0,0,0,0,0,0,0
2014,9,21,24,0,,14.9,14.5,98,101010,0,0,323,0,0,0,0,0,0,0,20,1.2,0,0,0,0,0,0,0,0,0,0,0,0,0
2014,9,22,1,0,,14.4,14,98,101060,0,0,328,0,0,0,0,0,0,0,90,0.9,1,0,0,0,0,0,0,0,0,0,0,0,0
2014,9,22,2,0,,13.8,13.6,99,101100,0,0,329,0,0,0,0,0,0,0,0,0.4,3,0,0,0,0,0,0,0,0,0,0,0,0
2014,9,22,3,0,,13.3,13.1,99,101080,0,0,330,0,0,0,0,0,0,0,90,0.6,4,0,0,0,0,0,0,0,0,0,0,0,0
2014,9,22,4,0,,12.9,12.8,100,101090,0,0,337,0,0,0,0,0,0,0,0,0.3,7,0,0,0,0,0,0,0,0,0,0,0,0
2014,9,22,5,0,,13.3,12.9,98,101140,0,0,345,0,0,0,0,0,0,0,0,0.4,8,0,0,0,0,0,0,0,0,0,0,0,0
2014,9,22,6,0,,13.7,13.3,98,101180,0,0,365,0,0,0,0,0,0,0,0,0.3,10,0,0,0,0,0,0,0,0,0,0,0,0
2014,9,22,7,0,,14,13.3,96,101210,0,0,366,9,0,9,1208,10,1204,0,50,0.5,10,0,0,0,0,0,0,0,0,0,0,0,0
2014,9,22,8,0,,14.7,13.9,95,101220,0,0,370,56,21,51,7216,1835,6153,0,320,1.9,10,0,0,0,0,0,0,0,0,0,0,0,0
2014,9,22,9,0,,15.5,13.5,88,101260,0,0,374,118,26,107,14433,2399,12755,0,340,1.1,10,0,0,0,0,0,0,0,0,0,0,0,0
2014,9,22,10,0,,17.3,13.6,79,101260,0,0,332,480,548,163,65038,54506,22971,0,270,1.5,0,0,0,0,0,0,0,0,0,0,0,0,0
2014,9,22,11,0,,19.4,13.7,70,101220,0,0,342,613,604,192,73387,59756,26072,0,270,1.4,0,0,0,0,0,0,0,0,0,0,0,0,0
2014,9,22,12,0,,21.6,13.4,60,101150,0,0,352,712,668,196,76387,65835,26492,0,20,1.3,0,0,0,0,0,0,0,0,0,0,0,0,0
2014,9,22,13,0,,23.8,11.8,47,101070,0,0,368,759,730,180,72650,71526,24559,0,340,1.4,1,0,0,0,0,0,0,0,0,0,0,0,0
2014,9,22,14,0,,25.5,10.8,40,100960,0,0,375,732,750,162,61093,71679,22312,0,270,1.6,1,0,0,0,0,0,0,0,0,0,0,0,0
2014,9,22,15,0,,26.3,11.6,40,100900,0,0,373,629,709,150,42592,60598,19996,0,290,1.4,0,0,0,0,0,0,0,0,0,0,0,0,0
2014,9,22,16,0,,26.8,11.6,39,100840,0,0,376,491,682,119,22493,41619,15029,0,320,1.7,0,0,0,0,0,0,0,0,0,0,0,0,0
2014,9,22,17,0,,26.6,12.2,41,100820,0,0,376,321,628,84,0,0,0,0,360,1.2,0,0,0,0,0,0,0,0,0,0,0,0,0
2014,9,22,18,0,,25,13.8,50,100870,0,0,369,142,524,46,0,0,0,0,270,1.7,0,0,0,0,0,0,0,0,0,0,0,0,0
2014,9,22,19,0,,22.5,16.5,69,100920,0,0,360,21,9,12,0,0,0,0,0,0,0,0,0,0,0,0,0,0,0,0,0,0,0
2014,9,22,20,0,,20.5,16.7,79,101010,0,0,351,0,0,0,0,0,0,0,340,1.5,0,0,0,0,0,0,0,0,0,0,0,0,0
2014,9,22,21,0,,19.3,15.9,81,101080,0,0,344,0,0,0,0,0,0,0,20,1.1,0,0,0,0,0,0,0,0,0,0,0,0,0
2014,9,22,22,0,,18,16.1,89,101110,0,0,346,0,0,0,0,0,0,0,360,2.5,1,0,0,0,0,0,0,0,0,0,0,0,0
2014,9,22,23,0,,17.3,15.6,90,101110,0,0,348,0,0,0,0,0,0,0,20,0.9,3,0,0,0,0,0,0,0,0,0,0,0,0
2014,9,22,24,0,,16.8,15.6,93,101120,0,0,349,0,0,0,0,0,0,0,20,1.6,4,0,0,0,0,0,0,0,0,0,0,0,0
2014,9,23,1,0,,16.5,15.3,93,101160,0,0,344,0,0,0,0,0,0,0,20,1.3,3,0,0,0,0,0,0,0,0,0,0,0,0
2014,9,23,2,0,,16,15.3,96,101160,0,0,336,0,0,0,0,0,0,0,340,0.7,1,0,0,0,0,0,0,0,0,0,0,0,0
2014,9,23,3,0,,15.8,14.9,95,101150,0,0,327,0,0,0,0,0,0,0,20,1.7,0,0,0,0,0,0,0,0,0,0,0,0,0
2014,9,23,4,0,,15.3,14.9,98,101150,0,0,325,0,0,0,0,0,0,0,0,0.3,0,0,0,0,0,0,0,0,0,0,0,0,0
2014,9,23,5,0,,14.9,14.5,98,101150,0,0,323,0,0,0,0,0,0,0,340,1.7,0,0,0,0,0,0,0,0,0,0,0,0,0
2014,9,23,6,0,,14.3,14.1,99,101200,0,0,330,0,0,0,0,0,0,0,0,0.3,2,0,0,0,0,0,0,0,0,0,0,0,0
2014,9,23,7,0,,14.3,14.1,99,101200,0,0,333,34,16,18,3121,1404,2536,0,360,0.9,3,0,0,0,0,0,0,0,0,0,0,0,0
2014,9,23,8,0,,15.5,14.5,94,101240,0,0,342,147,313,76,30175,30930,12364,0,320,1.2,4,0,0,0,0,0,0,0,0,0,0,0,0
2014,9,23,9,0,,16.9,14.1,84,101250,0,0,348,300,401,134,47358,39804,19666,0,340,1.8,4,0,0,0,0,0,0,0,0,0,0,0,0
2014,9,23,10,0,,18.8,14.2,75,101210,0,0,360,426,385,205,55907,36558,27832,0,320,1,5,0,0,0,0,0,0,0,0,0,0,0,0
2014,9,23,11,0,,20.9,14.5,67,101090,0,0,374,513,300,305,59495,28134,37336,0,20,1,6,0,0,0,0,0,0,0,0,0,0,0,0
2014,9,23,12,0,,22.7,14,58,100990,0,0,387,531,225,358,57859,21178,41904,0,320,0.7,7,0,0,0,0,0,0,0,0,0,0,0,0
2014,9,23,13,0,,24,12.6,49,100870,0,0,393,553,229,372,57298,21516,42935,0,250,1.4,7,0,0,0,0,0,0,0,0,0,0,0,0
2014,9,23,14,0,,25.3,13.1,47,100760,0,0,396,571,301,344,54241,27264,39627,0,320,1.8,6,0,0,0,0,0,0,0,0,0,0,0,0
2014,9,23,15,0,,26.6,12.6,42,100710,0,0,402,507,335,282,42542,27765,32333,0,20,1.4,6,0,0,0,0,0,0,0,0,0,0,0,0
2014,9,23,16,0,,26.2,12.2,42,100650,0,0,399,391,346,204,26270,19841,22817,0,320,1.4,6,0,0,0,0,0,0,0,0,0,0,0,0
2014,9,23,17,0,,26.2,11.5,40,100620,0,0,392,289,501,103,0,0,0,0,20,0.8,4,0,0,0,0,0,0,0,0,0,0,0,0
2014,9,23,18,0,,24.6,17,63,100640,0,0,401,89,168,59,0,0,0,0,360,1.5,7,0,0,0,0,0,0,0,0,0,0,0,0
2014,9,23,19,0,,22.6,17.2,72,100670,0,0,393,11,1,9,0,0,0,0,340,1.1,7,0,0,0,0,0,0,0,0,0,0,0,0
2014,9,23,20,0,,21.1,18,83,100750,0,0,388,0,0,0,0,0,0,0,340,1.4,8,0,0,0,0,0,0,0,0,0,0,0,0
2014,9,23,21,0,,20.5,16.5,78,100750,0,0,385,0,0,0,0,0,0,0,20,1,8,0,0,0,0,0,0,0,0,0,0,0,0
2014,9,23,22,0,,19.7,17.1,85,100720,0,0,387,0,0,0,0,0,0,0,340,1.5,9,0,0,0,0,0,0,0,0,0,0,0,0
2014,9,23,23,0,,19.4,16.2,82,100660,0,0,390,0,0,0,0,0,0,0,20,1.3,9,0,0,0,0,0,0,0,0,0,0,0,0
2014,9,23,24,0,,19,17.1,89,100600,0,0,397,0,0,0,0,0,0,0,360,0.9,10,0,0,0,0,0,0,0,0,0,0,0,0
2014,9,24,1,0,,18.7,16.1,85,100550,0,0,394,0,0,0,0,0,0,0,340,1.2,10,0,0,0,0,0,0,0,0,0,0,0,0
2014,9,24,2,0,,18.5,15.7,84,100490,0,0,392,0,0,0,0,0,0,0,340,1.7,10,0,0,0,0,0,0,0,0,0,0,0,0
2014,9,24,3,0,,18.6,16.2,86,100420,0,0,394,0,0,0,0,0,0,0,70,0.7,10,0,0,0,0,0,0,0,0,0,0,0,0
2014,9,24,4,0,,18.4,16.5,89,100370,0,0,393,0,0,0,0,0,0,0,110,0.6,10,0,0,0,0,0,0,0,0,0,0,0,0
2014,9,24,5,0,,18,16.1,89,100340,0,0,390,0,0,0,0,0,0,0,320,2.5,10,0,0,0,0,0,0,0,0,0,0,0,0
2014,9,24,6,0,,17.9,17.2,96,100290,0,0,391,0,0,0,0,0,0,0,50,0.7,10,0,0,0,0,0,0,0,0,0,0,0,0
2014,9,24,7,0,,17.7,17.3,98,100260,0,0,390,7,0,6,888,3,886,0,340,1,10,0,0,0,0,0,0,0,0,0,0,0,0
2014,9,24,8,0,,17.8,17.1,96,100260,0,0,391,53,19,48,6846,1666,5892,0,340,2.6,10,0,0,0,0,0,0,0,0,0,0,0,0
2014,9,24,9,0,,17.9,17.2,96,100270,0,0,391,103,18,95,12535,1634,11404,0,360,1.9,10,0,0,0,0,0,0,0,0,0,0,0,0
2014,9,24,10,0,,18.5,17.5,94,100280,0,0,395,146,17,137,17447,1519,16287,0,340,1.1,10,0,0,0,0,0,0,0,0,0,0,0,0
2014,9,24,11,0,,18.6,17.7,95,100260,0,0,396,182,17,171,21430,1488,20265,0,340,1.6,10,0,0,0,0,0,0,0,0,0,0,0,0
2014,9,24,12,0,,18.7,17.8,95,100180,0,0,396,206,17,193,23892,1061,23098,0,290,0.8,10,0,0,0,0,0,0,0,0,0,0,0,0
2014,9,24,13,0,,19.1,18.1,94,100110,0,0,399,207,15,195,23509,1001,22845,0,340,1.6,10,0,0,0,0,0,0,0,0,0,0,0,0
2014,9,24,14,0,,20,17,83,99940,0,0,402,246,29,224,26333,2110,25213,0,360,3.3,10,0,0,0,0,0,0,0,0,0,0,0,0
2014,9,24,15,0,,20.2,15.8,76,99920,0,0,402,213,29,194,21819,2089,21062,0,360,2.8,10,0,0,0,0,0,0,0,0,0,0,0,0
2014,9,24,16,0,,20.6,15.5,73,99930,0,0,384,278,126,210,24886,9569,23272,0,20,2.8,8,0,0,0,0,0,0,0,0,0,0,0,0
2014,9,24,17,0,,21,15.5,71,99950,0,0,386,186,142,134,0,0,0,0,70,1.9,8,0,0,0,0,0,0,0,0,0,0,0,0
2014,9,24,18,0,,20.3,15.9,76,100020,0,0,377,91,198,56,0,0,0,0,90,0.9,7,0,0,0,0,0,0,0,0,0,0,0,0
2014,9,24,19,0,,19.5,16.1,81,100020,0,0,369,12,2,10,0,0,0,0,70,1.2,6,0,0,0,0,0,0,0,0,0,0,0,0
2014,9,24,20,0,,18.2,17,93,100080,0,0,360,0,0,0,0,0,0,0,360,0.7,5,0,0,0,0,0,0,0,0,0,0,0,0
2014,9,24,21,0,,17.2,16.7,97,100120,0,0,353,0,0,0,0,0,0,0,360,1.4,4,0,0,0,0,0,0,0,0,0,0,0,0
2014,9,24,22,0,,16.9,16.2,96,100180,0,0,354,0,0,0,0,0,0,0,50,0.5,5,0,0,0,0,0,0,0,0,0,0,0,0
2014,9,24,23,0,,16.5,16.1,98,100180,0,0,357,0,0,0,0,0,0,0,20,0.5,7,0,0,0,0,0,0,0,0,0,0,0,0
2014,9,24,24,0,,16.3,15.9,98,100200,0,0,363,0,0,0,0,0,0,0,0,0,8,0,0,0,0,0,0,0,0,0,0,0,0
2014,9,25,1,0,,15.9,15.7,99,100250,0,0,361,0,0,0,0,0,0,0,110,0.8,8,0,0,0,0,0,0,0,0,0,0,0,0
2014,9,25,2,0,,15.5,15.4,100,100270,0,0,358,0,0,0,0,0,0,0,0,0.1,8,0,0,0,0,0,0,0,0,0,0,0,0
2014,9,25,3,0,,15.4,15.2,99,100280,0,0,358,0,0,0,0,0,0,0,110,0.9,8,0,0,0,0,0,0,0,0,0,0,0,0
2014,9,25,4,0,,15.2,15.1,100,100340,0,0,347,0,0,0,0,0,0,0,0,0.3,6,0,0,0,0,0,0,0,0,0,0,0,0
2014,9,25,5,0,,15.1,14.9,99,100360,0,0,346,0,0,0,0,0,0,0,70,0.7,6,0,0,0,0,0,0,0,0,0,0,0,0
2014,9,25,6,0,,15,14.9,100,100430,0,0,355,0,0,0,0,0,0,0,50,0.8,8,0,0,0,0,0,0,0,0,0,0,0,0
2014,9,25,7,0,,15,14.8,99,100480,0,0,350,21,4,17,2233,355,2087,0,0,0.2,7,0,0,0,0,0,0,0,0,0,0,0,0
2014,9,25,8,0,,15.7,14.8,95,100520,0,0,359,90,90,70,14614,8221,9936,0,0,0.4,8,0,0,0,0,0,0,0,0,0,0,0,0
2014,9,25,9,0,,16.9,14.7,87,100610,0,0,359,217,156,153,30259,14573,20226,0,340,0.5,7,0,0,0,0,0,0,0,0,0,0,0,0
2014,9,25,10,0,,18.7,14.7,78,100610,0,0,346,476,565,155,64831,56108,22184,0,320,0.9,1,0,0,0,0,0,0,0,0,0,0,0,0
2014,9,25,11,0,,20.9,14,65,100580,0,0,356,619,646,174,74131,64099,24190,0,320,0.8,1,0,0,0,0,0,0,0,0,0,0,0,0
2014,9,25,12,0,,23.2,15.2,61,100530,0,0,369,713,701,180,76313,68971,24980,0,270,1.3,1,0,0,0,0,0,0,0,0,0,0,0,0
2014,9,25,13,0,,24.7,15.3,56,100460,0,0,382,711,645,208,68744,62001,27953,0,290,1.7,2,0,0,0,0,0,0,0,0,0,0,0,0
2014,9,25,14,0,,25.9,14.6,50,100390,0,0,391,669,624,203,56717,56330,27094,0,250,1.7,3,0,0,0,0,0,0,0,0,0,0,0,0
2014,9,25,15,0,,26.6,14.3,47,100370,0,0,395,569,580,185,41141,47662,24115,0,230,1.6,3,0,0,0,0,0,0,0,0,0,0,0,0
2014,9,25,16,0,,26.4,13.1,44,100370,0,0,392,453,603,133,21976,33810,16452,0,270,2.3,3,0,0,0,0,0,0,0,0,0,0,0,0
2014,9,25,17,0,,25.1,18.2,66,100390,0,0,391,261,406,114,0,0,0,0,360,1,3,0,0,0,0,0,0,0,0,0,0,0,0
2014,9,25,18,0,,23.9,17.8,69,100450,0,0,390,97,270,52,0,0,0,0,340,0.7,5,0,0,0,0,0,0,0,0,0,0,0,0
2014,9,25,19,0,,22.5,17.1,72,100490,0,0,378,13,3,10,0,0,0,0,360,0.9,4,0,0,0,0,0,0,0,0,0,0,0,0
2014,9,25,20,0,,21.6,16.1,71,100550,0,0,368,0,0,0,0,0,0,0,90,0.9,2,0,0,0,0,0,0,0,0,0,0,0,0
2014,9,25,21,0,,20.7,15.6,73,100620,0,0,357,0,0,0,0,0,0,0,50,1.5,1,0,0,0,0,0,0,0,0,0,0,0,0
2014,9,25,22,0,,19.9,14.9,73,100660,0,0,352,0,0,0,0,0,0,0,50,2.2,1,0,0,0,0,0,0,0,0,0,0,0,0
2014,9,25,23,0,,19,17.1,89,100720,0,0,351,0,0,0,0,0,0,0,20,0.9,1,0,0,0,0,0,0,0,0,0,0,0,0
2014,9,25,24,0,,18.2,16.1,88,100740,0,0,346,0,0,0,0,0,0,0,20,2.5,1,0,0,0,0,0,0,0,0,0,0,0,0
2014,9,26,1,0,,17.5,16.6,95,100740,0,0,350,0,0,0,0,0,0,0,360,1.6,3,0,0,0,0,0,0,0,0,0,0,0,0
2014,9,26,2,0,,17.1,16.7,98,100780,0,0,353,0,0,0,0,0,0,0,360,2.1,4,0,0,0,0,0,0,0,0,0,0,0,0
2014,9,26,3,0,,16.5,16.3,99,100770,0,0,355,0,0,0,0,0,0,0,340,1,6,0,0,0,0,0,0,0,0,0,0,0,0
2014,9,26,4,0,,16.1,16,100,100780,0,0,352,0,0,0,0,0,0,0,360,2,6,0,0,0,0,0,0,0,0,0,0,0,0
2014,9,26,5,0,,16.2,15.8,98,100840,0,0,357,0,0,0,0,0,0,0,360,1.1,7,0,0,0,0,0,0,0,0,0,0,0,0
2014,9,26,6,0,,16.5,15.8,96,100890,0,0,358,0,0,0,0,0,0,0,340,3.2,7,0,0,0,0,0,0,0,0,0,0,0,0
2014,9,26,7,0,,16.8,15.9,95,100930,0,0,365,18,3,15,1977,226,1885,0,340,1.7,8,0,0,0,0,0,0,0,0,0,0,0,0
2014,9,26,8,0,,17.2,15.1,88,100990,0,0,385,57,26,51,8198,2411,6834,0,340,2.2,10,0,0,0,0,0,0,0,0,0,0,0,0
2014,9,26,9,0,,18.2,15,82,100980,0,0,390,124,33,110,15170,2974,13133,0,340,1.4,10,0,0,0,0,0,0,0,0,0,0,0,0
2014,9,26,10,0,,19.1,14.3,74,101000,0,0,394,184,33,165,21714,3074,19390,0,320,1.2,10,0,0,0,0,0,0,0,0,0,0,0,0
2014,9,26,11,0,,20,13.9,68,100920,0,0,398,245,39,218,28269,3625,25460,0,360,1.7,10,0,0,0,0,0,0,0,0,0,0,0,0
2014,9,26,12,0,,21.2,13.6,62,100900,0,0,404,275,38,246,31151,3568,28512,0,20,1.1,10,0,0,0,0,0,0,0,0,0,0,0,0
2014,9,26,13,0,,22.7,13.7,57,100840,0,0,413,309,48,271,34127,4496,31191,0,20,1.1,10,0,0,0,0,0,0,0,0,0,0,0,0
2014,9,26,14,0,,23.1,14.3,58,100740,0,0,396,428,137,326,43623,12819,36946,0,320,1.1,8,0,0,0,0,0,0,0,0,0,0,0,0
2014,9,26,15,0,,23.5,14.7,58,100750,0,0,419,241,43,213,25490,3744,24172,0,270,1.5,10,0,0,0,0,0,0,0,0,0,0,0,0
2014,9,26,16,0,,23.8,14.7,57,100750,0,0,400,279,137,207,24518,10277,22894,0,320,1.3,8,0,0,0,0,0,0,0,0,0,0,0,0
2014,9,26,17,0,,23.6,16.1,63,100680,0,0,401,170,121,127,0,0,0,0,20,1.2,8,0,0,0,0,0,0,0,0,0,0,0,0
2014,9,26,18,0,,22.8,17.9,74,100700,0,0,399,68,104,51,0,0,0,0,360,1.1,8,0,0,0,0,0,0,0,0,0,0,0,0
2014,9,26,19,0,,21.2,19.1,88,100710,0,0,388,6,0,5,0,0,0,0,360,1.2,7,0,0,0,0,0,0,0,0,0,0,0,0
2014,9,26,20,0,,20,17.9,88,100730,0,0,376,0,0,0,0,0,0,0,270,0.5,7,0,0,0,0,0,0,0,0,0,0,0,0
2014,9,26,21,0,,19.5,18.3,93,100760,0,0,372,0,0,0,0,0,0,0,340,0.5,6,0,0,0,0,0,0,0,0,0,0,0,0
2014,9,26,22,0,,18.9,18.2,96,100810,0,0,367,0,0,0,0,0,0,0,0,0.3,6,0,0,0,0,0,0,0,0,0,0,0,0
2014,9,26,23,0,,18.2,17.7,97,100790,0,0,362,0,0,0,0,0,0,0,0,0.4,5,0,0,0,0,0,0,0,0,0,0,0,0
2014,9,26,24,0,,18,17.5,97,100810,0,0,360,0,0,0,0,0,0,0,360,0.6,5,0,0,0,0,0,0,0,0,0,0,0,0
2014,9,27,1,0,,18,17.3,96,100820,0,0,360,0,0,0,0,0,0,0,360,0.8,5,0,0,0,0,0,0,0,0,0,0,0,0
2014,9,27,2,0,,17.6,17.2,98,100780,0,0,358,0,0,0,0,0,0,0,20,0.9,5,0,0,0,0,0,0,0,0,0,0,0,0
2014,9,27,3,0,,16.9,16.8,100,100780,0,0,354,0,0,0,0,0,0,0,20,0.5,5,0,0,0,0,0,0,0,0,0,0,0,0
2014,9,27,4,0,,16.7,16.5,99,100800,0,0,353,0,0,0,0,0,0,0,0,0.4,5,0,0,0,0,0,0,0,0,0,0,0,0
2014,9,27,5,0,,16.4,16.2,99,100810,0,0,351,0,0,0,0,0,0,0,0,0.3,5,0,0,0,0,0,0,0,0,0,0,0,0
2014,9,27,6,0,,16.2,15.8,98,100830,0,0,357,0,0,0,0,0,0,0,0,0.4,7,0,0,0,0,0,0,0,0,0,0,0,0
2014,9,27,7,0,,16.1,15.7,98,100880,0,0,362,15,2,13,1792,58,1768,0,90,0.5,8,0,0,0,0,0,0,0,0,0,0,0,0
2014,9,27,8,0,,16.9,16.2,96,100930,0,0,361,99,130,71,16737,11637,10194,0,360,0.5,7,0,0,0,0,0,0,0,0,0,0,0,0
2014,9,27,9,0,,18.2,15.8,86,100920,0,0,366,222,177,151,31230,16259,20158,0,50,0.5,7,0,0,0,0,0,0,0,0,0,0,0,0
2014,9,27,10,0,,20.2,14.9,72,100880,0,0,375,351,210,233,44236,19665,29447,0,230,1.3,7,0,0,0,0,0,0,0,0,0,0,0,0
2014,9,27,11,0,,21.3,14.6,66,100870,0,0,381,442,205,302,51862,19184,37081,0,230,1.5,7,0,0,0,0,0,0,0,0,0,0,0,0
2014,9,27,12,0,,23,13.7,56,100830,0,0,395,455,155,338,50389,14611,39650,0,200,2.7,8,0,0,0,0,0,0,0,0,0,0,0,0
2014,9,27,13,0,,23.8,14.2,55,100770,0,0,400,455,142,345,48844,13144,40325,0,200,1.8,8,0,0,0,0,0,0,0,0,0,0,0,0
2014,9,27,14,0,,24.4,15,56,100730,0,0,404,437,149,327,44238,13807,37117,0,250,3.3,8,0,0,0,0,0,0,0,0,0,0,0,0
2014,9,27,15,0,,24.4,15.5,58,100670,0,0,405,359,133,273,34787,11676,30739,0,200,1.9,8,0,0,0,0,0,0,0,0,0,0,0,0
2014,9,27,16,0,,24.9,16,58,100650,0,0,408,281,144,206,24409,10599,22789,0,250,2.4,8,0,0,0,0,0,0,0,0,0,0,0,0
2014,9,27,17,0,,24.5,16.4,61,100650,0,0,406,174,135,126,0,0,0,0,180,1.3,8,0,0,0,0,0,0,0,0,0,0,0,0
2014,9,27,18,0,,23.8,16.5,64,100640,0,0,396,82,199,51,0,0,0,0,180,1.5,7,0,0,0,0,0,0,0,0,0,0,0,0
2014,9,27,19,0,,22.6,19.3,82,100700,0,0,392,5,0,5,0,0,0,0,290,1.1,7,0,0,0,0,0,0,0,0,0,0,0,0
2014,9,27,20,0,,21.5,19.4,88,100740,0,0,385,0,0,0,0,0,0,0,270,1.8,6,0,0,0,0,0,0,0,0,0,0,0,0
2014,9,27,21,0,,20.4,19.2,93,100780,0,0,377,0,0,0,0,0,0,0,20,0.7,6,0,0,0,0,0,0,0,0,0,0,0,0
2014,9,27,22,0,,19.5,18.5,94,100790,0,0,375,0,0,0,0,0,0,0,20,0.5,7,0,0,0,0,0,0,0,0,0,0,0,0
2014,9,27,23,0,,18.5,17.8,96,100810,0,0,372,0,0,0,0,0,0,0,320,1.1,7,0,0,0,0,0,0,0,0,0,0,0,0
2014,9,27,24,0,,17.9,17.5,98,100780,0,0,373,0,0,0,0,0,0,0,20,0.5,8,0,0,0,0,0,0,0,0,0,0,0,0
2014,9,28,1,0,,17.4,17,98,100810,0,0,366,0,0,0,0,0,0,0,0,0.3,7,0,0,0,0,0,0,0,0,0,0,0,0
2014,9,28,2,0,,17,16.9,100,100830,0,0,360,0,0,0,0,0,0,0,50,0.5,7,0,0,0,0,0,0,0,0,0,0,0,0
2014,9,28,3,0,,16.6,16.2,98,100820,0,0,355,0,0,0,0,0,0,0,340,0.6,6,0,0,0,0,0,0,0,0,0,0,0,0
2014,9,28,4,0,,16.3,16.2,100,100820,0,0,354,0,0,0,0,0,0,0,50,0.8,6,0,0,0,0,0,0,0,0,0,0,0,0
2014,9,28,5,0,,16.2,16.1,100,100850,0,0,363,0,0,0,0,0,0,0,0,0.3,8,0,0,0,0,0,0,0,0,0,0,0,0
2014,9,28,6,0,,16.4,16.3,100,100860,0,0,364,0,0,0,0,0,0,0,0,0.3,8,0,0,0,0,0,0,0,0,0,0,0,0
2014,9,28,7,0,,17,16.8,99,100870,0,0,386,7,0,6,900,6,897,0,0,0.3,10,0,0,0,0,0,0,0,0,0,0,0,0
2014,9,28,8,0,,17.5,17.1,98,100890,0,0,389,51,21,47,6765,1844,5734,0,70,0.5,10,0,0,0,0,0,0,0,0,0,0,0,0
2014,9,28,9,0,,18.1,17.2,95,100910,0,0,392,106,22,97,12944,1962,11615,0,0,0.4,10,0,0,0,0,0,0,0,0,0,0,0,0
2014,9,28,10,0,,19.3,17,87,100910,0,0,398,170,28,155,20218,2538,18319,0,250,1,10,0,0,0,0,0,0,0,0,0,0,0,0
2014,9,28,11,0,,21,16.6,76,100870,0,0,396,301,71,253,34438,6510,29451,0,340,1.1,9,0,0,0,0,0,0,0,0,0,0,0,0
2014,9,28,12,0,,22.5,16.7,70,100800,0,0,416,290,46,256,32792,4190,29732,0,270,1.5,10,0,0,0,0,0,0,0,0,0,0,0,0
2014,9,28,13,0,,23.6,16.3,64,100710,0,0,401,436,129,337,46348,11963,38653,0,230,1.4,8,0,0,0,0,0,0,0,0,0,0,0,0
2014,9,28,14,0,,24.4,16.8,63,100620,0,0,406,408,126,316,41889,11511,36012,0,250,1.2,8,0,0,0,0,0,0,0,0,0,0,0,0
2014,9,28,15,0,,24.6,17.3,64,100600,0,0,429,225,37,201,22493,2699,21572,0,230,1.4,10,0,0,0,0,0,0,0,0,0,0,0,0
2014,9,28,16,0,,24.2,17.9,68,100600,0,0,427,168,35,150,15340,2055,15037,0,250,1.5,10,0,0,0,0,0,0,0,0,0,0,0,0
2014,9,28,17,0,,23.8,17.9,70,100590,0,0,425,95,25,86,0,0,0,0,250,1.2,10,0,0,0,0,0,0,0,0,0,0,0,0
2014,9,28,18,0,,23.3,18.1,73,100600,0,0,411,49,49,41,0,0,0,0,250,1,9,0,0,0,0,0,0,0,0,0,0,0,0
2014,9,28,19,0,,22.3,20,87,100610,0,0,411,0,0,0,0,0,0,0,360,0.5,9,0,0,0,0,0,0,0,0,0,0,0,0
2014,9,28,20,0,,21.3,20.2,94,100630,0,0,410,0,0,0,0,0,0,0,290,0.7,10,0,0,0,0,0,0,0,0,0,0,0,0
2014,9,28,21,0,,20.6,19.5,94,100660,0,0,409,0,0,0,0,0,0,0,0,0.2,10,0,0,0,0,0,0,0,0,0,0,0,0
2014,9,28,22,0,,20.3,19.4,95,100640,0,0,407,0,0,0,0,0,0,0,360,1,10,0,0,0,0,0,0,0,0,0,0,0,0
2014,9,28,23,0,,20.1,19.7,98,100610,0,0,407,0,0,0,0,0,0,0,340,1.6,10,0,0,0,0,0,0,0,0,0,0,0,0
2014,9,28,24,0,,19.8,19.7,100,100580,0,0,405,0,0,0,0,0,0,0,50,0.7,10,0,0,0,0,0,0,0,0,0,0,0,0
2014,9,29,1,0,,19.6,19.5,100,100570,0,0,404,0,0,0,0,0,0,0,360,0.6,10,0,0,0,0,0,0,0,0,0,0,0,0
2014,9,29,2,0,,19.3,19.2,100,100540,0,0,402,0,0,0,0,0,0,0,0,0.2,10,0,0,0,0,0,0,0,0,0,0,0,0
2014,9,29,3,0,,19.3,19.2,100,100530,0,0,402,0,0,0,0,0,0,0,140,0.7,10,0,0,0,0,0,0,0,0,0,0,0,0
2014,9,29,4,0,,19.3,19.2,100,100540,0,0,402,0,0,0,0,0,0,0,0,0.2,10,0,0,0,0,0,0,0,0,0,0,0,0
2014,9,29,5,0,,19.3,19.2,100,100520,0,0,402,0,0,0,0,0,0,0,90,0.5,10,0,0,0,0,0,0,0,0,0,0,0,0
2014,9,29,6,0,,19.2,19.1,100,100510,0,0,401,0,0,0,0,0,0,0,360,0.6,10,0,0,0,0,0,0,0,0,0,0,0,0
2014,9,29,7,0,,19.2,19.1,100,100520,0,0,401,5,0,5,658,3,657,0,0,0.1,10,0,0,0,0,0,0,0,0,0,0,0,0
2014,9,29,8,0,,19.3,19.2,100,100520,0,0,402,42,13,40,5492,1080,4892,0,0,0.4,10,0,0,0,0,0,0,0,0,0,0,0,0
2014,9,29,9,0,,19.3,18.9,98,100540,0,0,401,94,16,88,11542,1422,10585,0,340,0.9,10,0,0,0,0,0,0,0,0,0,0,0,0
2014,9,29,10,0,,19.5,19,97,100560,0,0,402,133,14,125,15879,1248,14951,0,0,0.4,10,0,0,0,0,0,0,0,0,0,0,0,0
2014,9,29,11,0,,19.7,18.7,94,100550,0,0,403,163,13,154,19334,768,18748,0,290,0.6,10,0,0,0,0,0,0,0,0,0,0,0,0
2014,9,29,12,0,,19.8,18.6,93,100480,0,0,403,196,16,184,22635,973,21928,0,0,0.4,10,0,0,0,0,0,0,0,0,0,0,0,0
2014,9,29,13,0,,19.8,18.6,93,100450,0,0,403,208,17,195,23459,1119,22745,0,320,1.4,10,0,0,0,0,0,0,0,0,0,0,0,0
2014,9,29,14,0,,19.9,19.2,96,100420,0,0,405,184,14,173,20180,890,19730,0,160,0.7,10,0,0,0,0,0,0,0,0,0,0,0,0
2014,9,29,15,0,,20.2,17.9,87,100370,0,0,405,164,16,154,17150,940,16834,0,200,1.1,10,0,0,0,0,0,0,0,0,0,0,0,0
2014,9,29,16,0,,20.5,18.6,89,100370,0,0,407,132,19,122,12544,774,12434,0,110,0.5,10,0,0,0,0,0,0,0,0,0,0,0,0
2014,9,29,17,0,,20.4,18.5,89,100370,0,0,406,90,24,82,0,0,0,0,180,0.8,10,0,0,0,0,0,0,0,0,0,0,0,0
2014,9,29,18,0,,20.2,19,93,100370,0,0,406,30,2,28,0,0,0,0,160,1.5,10,0,0,0,0,0,0,0,0,0,0,0,0
2014,9,29,19,0,,19.9,18.5,92,100420,0,0,396,0,0,0,0,0,0,0,200,1,9,0,0,0,0,0,0,0,0,0,0,0,0
2014,9,29,20,0,,19.6,18.2,92,100490,0,0,388,0,0,0,0,0,0,0,180,0.8,9,0,0,0,0,0,0,0,0,0,0,0,0
2014,9,29,21,0,,19.3,17.9,92,100510,0,0,381,0,0,0,0,0,0,0,200,1.6,8,0,0,0,0,0,0,0,0,0,0,0,0
2014,9,29,22,0,,18.7,18.5,99,100550,0,0,378,0,0,0,0,0,0,0,0,0.4,8,0,0,0,0,0,0,0,0,0,0,0,0
2014,9,29,23,0,,17.8,17.7,100,100570,0,0,373,0,0,0,0,0,0,0,90,0.5,8,0,0,0,0,0,0,0,0,0,0,0,0
2014,9,29,24,0,,17.2,17.1,100,100580,0,0,369,0,0,0,0,0,0,0,0,0,8,0,0,0,0,0,0,0,0,0,0,0,0
2014,9,30,1,0,,17.3,17.2,100,100610,0,0,375,0,0,0,0,0,0,0,0,0.4,9,0,0,0,0,0,0,0,0,0,0,0,0
2014,9,30,2,0,,17.3,17.2,100,100660,0,0,381,0,0,0,0,0,0,0,0,0.1,9,0,0,0,0,0,0,0,0,0,0,0,0
2014,9,30,3,0,,17.4,17.3,100,100660,0,0,389,0,0,0,0,0,0,0,270,0.7,10,0,0,0,0,0,0,0,0,0,0,0,0
2014,9,30,4,0,,17.2,17.1,100,100690,0,0,388,0,0,0,0,0,0,0,360,1.5,10,0,0,0,0,0,0,0,0,0,0,0,0
2014,9,30,5,0,,16.3,16.1,99,100720,0,0,358,0,0,0,0,0,0,0,340,1.6,7,0,0,0,0,0,0,0,0,0,0,0,0
2014,9,30,6,0,,15.6,15.4,99,100760,0,0,359,0,0,0,0,0,0,0,20,1.2,8,0,0,0,0,0,0,0,0,0,0,0,0
2014,9,30,7,0,,15.7,15.2,97,100810,0,0,353,16,3,14,1801,226,1712,0,360,1.7,7,0,0,0,0,0,0,0,0,0,0,0,0
2014,9,30,8,0,,16.4,11.9,75,100900,0,0,343,143,395,62,31974,39341,10269,0,20,2.2,4,0,0,0,0,0,0,0,0,0,0,0,0
2014,9,30,9,0,,17.8,10.4,62,100980,0,0,348,309,515,107,50751,51779,16078,0,50,3,4,0,0,0,0,0,0,0,0,0,0,0,0
2014,9,30,10,0,,18.2,10.5,61,101070,0,0,356,395,331,213,51694,32051,27984,0,50,3.9,6,0,0,0,0,0,0,0,0,0,0,0,0
2014,9,30,11,0,,18.8,10.6,59,101070,0,0,359,477,277,292,55300,26911,34921,0,50,3.8,6,0,0,0,0,0,0,0,0,0,0,0,0
2014,9,30,12,0,,19.3,10,55,101060,0,0,365,483,196,338,52754,18963,39082,0,70,4.1,7,0,0,0,0,0,0,0,0,0,0,0,0
2014,9,30,13,0,,19.9,10.5,55,101010,0,0,374,435,133,334,46532,12702,38488,0,70,4,8,0,0,0,0,0,0,0,0,0,0,0,0
2014,9,30,14,0,,19.7,10.3,55,100980,0,0,373,393,118,307,40248,11227,34631,0,50,3.4,8,0,0,0,0,0,0,0,0,0,0,0,0
2014,9,30,15,0,,19.4,10.3,56,100960,0,0,371,343,126,263,33090,11372,29326,0,50,3.4,8,0,0,0,0,0,0,0,0,0,0,0,0
2014,9,30,16,0,,19.1,10.1,56,100950,0,0,360,323,242,201,23528,11905,21899,0,50,3.3,6,0,0,0,0,0,0,0,0,0,0,0,0
2014,9,30,17,0,,18.4,9.9,58,100980,0,0,366,167,141,120,0,0,0,0,50,3.5,8,0,0,0,0,0,0,0,0,0,0,0,0
2014,9,30,18,0,,17.4,10,62,101010,0,0,361,59,15,44,0,0,0,0,50,2.6,8,0,0,0,0,0,0,0,0,0,0,0,0
2014,9,30,19,0,,16.5,9.8,65,101040,0,0,356,0,0,0,0,0,0,0,50,2.7,8,0,0,0,0,0,0,0,0,0,0,0,0
2014,9,30,20,0,,15.9,9.7,67,101110,0,0,353,0,0,0,0,0,0,0,50,2.1,8,0,0,0,0,0,0,0,0,0,0,0,0
2014,9,30,21,0,,15.3,9.6,69,101120,0,0,350,0,0,0,0,0,0,0,50,2.4,8,0,0,0,0,0,0,0,0,0,0,0,0
2014,9,30,22,0,,15,9.9,72,101180,0,0,349,0,0,0,0,0,0,0,20,1.8,8,0,0,0,0,0,0,0,0,0,0,0,0
2014,9,30,23,0,,14.5,11.8,84,101150,0,0,349,0,0,0,0,0,0,0,340,1.7,8,0,0,0,0,0,0,0,0,0,0,0,0
2014,9,30,24,0,,13.9,11.7,87,101140,0,0,346,0,0,0,0,0,0,0,20,1,8,0,0,0,0,0,0,0,0,0,0,0,0
2014,10,1,1,0,,13.7,12,90,101130,0,0,340,0,0,0,0,0,0,0,340,1.9,7,0,0,0,0,0,0,0,0,0,0,0,0
2014,10,1,2,0,,13.5,11.7,89,101130,0,0,335,0,0,0,0,0,0,0,360,1.9,6,0,0,0,0,0,0,0,0,0,0,0,0
2014,10,1,3,0,,13,11.5,91,101100,0,0,329,0,0,0,0,0,0,0,340,2.2,5,0,0,0,0,0,0,0,0,0,0,0,0
2014,10,1,4,0,,12.6,11.4,93,101090,0,0,327,0,0,0,0,0,0,0,360,2.1,5,0,0,0,0,0,0,0,0,0,0,0,0
2014,10,1,5,0,,12.2,11.4,95,101080,0,0,326,0,0,0,0,0,0,0,340,1.4,5,0,0,0,0,0,0,0,0,0,0,0,0
2014,10,1,6,0,,12.2,11.2,94,101110,0,0,337,0,0,0,0,0,0,0,360,1.6,8,0,0,0,0,0,0,0,0,0,0,0,0
2014,10,1,7,0,,12.2,10.6,90,101130,0,0,337,14,2,12,1682,66,1657,0,340,1.4,8,0,0,0,0,0,0,0,0,0,0,0,0
2014,10,1,8,0,,12.9,10.7,87,101100,0,0,340,86,105,65,14528,9961,9068,0,360,1.7,8,0,0,0,0,0,0,0,0,0,0,0,0
2014,10,1,9,0,,13.6,10.7,83,101150,0,0,343,183,112,139,24475,10944,17189,0,340,1.8,8,0,0,0,0,0,0,0,0,0,0,0,0
2014,10,1,10,0,,14.7,10.1,74,101120,0,0,348,278,117,214,34019,11468,25583,0,360,1.3,8,0,0,0,0,0,0,0,0,0,0,0,0
2014,10,1,11,0,,16.4,10.9,70,101060,0,0,357,373,136,282,43170,13244,33200,0,270,1.7,8,0,0,0,0,0,0,0,0,0,0,0,0
2014,10,1,12,0,,17.8,11.1,65,101000,0,0,354,521,250,337,57013,24105,39748,0,20,0.5,6,0,0,0,0,0,0,0,0,0,0,0,0
2014,10,1,13,0,,19.9,12.3,62,100880,0,0,366,563,290,345,56993,27205,39898,0,270,1.2,6,0,0,0,0,0,0,0,0,0,0,0,0
2014,10,1,14,0,,21.1,12.7,59,100790,0,0,373,525,282,322,49726,25388,37154,0,320,1.7,6,0,0,0,0,0,0,0,0,0,0,0,0
2014,10,1,15,0,,21.9,13.7,60,100750,0,0,383,409,215,273,36777,16933,31261,0,230,1.2,7,0,0,0,0,0,0,0,0,0,0,0,0
2014,10,1,16,0,,22.3,13.8,59,100700,0,0,385,310,222,199,23373,9975,22060,0,230,1.1,7,0,0,0,0,0,0,0,0,0,0,0,0
2014,10,1,17,0,,22.5,14,59,100680,0,0,386,197,243,117,0,0,0,0,230,1,7,0,0,0,0,0,0,0,0,0,0,0,0
2014,10,1,18,0,,21.6,15.6,69,100640,0,0,383,68,24,44,0,0,0,0,0,0.2,7,0,0,0,0,0,0,0,0,0,0,0,0
2014,10,1,19,0,,19.8,17.3,86,100700,0,0,376,0,0,0,0,0,0,0,360,0.6,7,0,0,0,0,0,0,0,0,0,0,0,0
2014,10,1,20,0,,18.1,16.7,92,100700,0,0,367,0,0,0,0,0,0,0,340,1,7,0,0,0,0,0,0,0,0,0,0,0,0
2014,10,1,21,0,,17.2,15.8,92,100740,0,0,361,0,0,0,0,0,0,0,50,0.9,7,0,0,0,0,0,0,0,0,0,0,0,0
2014,10,1,22,0,,16.8,15.8,94,100720,0,0,361,0,0,0,0,0,0,0,290,1,7,0,0,0,0,0,0,0,0,0,0,0,0
2014,10,1,23,0,,16.4,15.9,97,100670,0,0,361,0,0,0,0,0,0,0,360,1,8,0,0,0,0,0,0,0,0,0,0,0,0
2014,10,1,24,0,,15.8,15.4,98,100620,0,0,360,0,0,0,0,0,0,0,0,0.3,8,0,0,0,0,0,0,0,0,0,0,0,0
2014,10,2,1,0,,15.9,15.4,97,100590,0,0,360,0,0,0,0,0,0,0,50,0.9,8,0,0,0,0,0,0,0,0,0,0,0,0
2014,10,2,2,0,,15.6,15.2,98,100560,0,0,359,0,0,0,0,0,0,0,20,0.8,8,0,0,0,0,0,0,0,0,0,0,0,0
2014,10,2,3,0,,15.5,15.3,99,100490,0,0,358,0,0,0,0,0,0,0,0,0.2,8,0,0,0,0,0,0,0,0,0,0,0,0
2014,10,2,4,0,,15.4,15.2,99,100440,0,0,376,0,0,0,0,0,0,0,90,0.5,10,0,0,0,0,0,0,0,0,0,0,0,0
2014,10,2,5,0,,15.4,15,98,100420,0,0,375,0,0,0,0,0,0,0,70,0.5,10,0,0,0,0,0,0,0,0,0,0,0,0
2014,10,2,6,0,,15.4,15,98,100400,0,0,375,0,0,0,0,0,0,0,0,0.4,10,0,0,0,0,0,0,0,0,0,0,0,0
2014,10,2,7,0,,15.5,15.1,98,100390,0,0,376,4,0,4,619,3,617,0,250,1.4,10,0,0,0,0,0,0,0,0,0,0,0,0
2014,10,2,8,0,,15.8,15.6,99,100380,0,0,378,40,13,38,5214,1096,4618,0,50,0.6,10,0,0,0,0,0,0,0,0,0,0,0,0
2014,10,2,9,0,,16.1,15.6,97,100340,0,0,380,97,19,89,11847,1722,10708,0,360,1,10,0,0,0,0,0,0,0,0,0,0,0,0
2014,10,2,10,0,,16.5,15.5,94,100280,0,0,382,142,18,132,16885,1668,15665,0,360,0.5,10,0,0,0,0,0,0,0,0,0,0,0,0
2014,10,2,11,0,,17.4,15.3,88,100210,0,0,386,189,21,175,22032,1938,20582,0,360,0.7,10,0,0,0,0,0,0,0,0,0,0,0,0
2014,10,2,12,0,,18.1,15.3,84,100120,0,0,390,230,26,211,26324,2387,24625,0,20,0.7,10,0,0,0,0,0,0,0,0,0,0,0,0
2014,10,2,13,0,,18.7,15.5,82,100020,0,0,393,240,27,219,26984,2453,25455,0,360,0.8,10,0,0,0,0,0,0,0,0,0,0,0,0
2014,10,2,14,0,,18.8,16.5,87,99930,0,0,395,209,22,193,22563,1502,21827,0,0,0.4,10,0,0,0,0,0,0,0,0,0,0,0,0
2014,10,2,15,0,,18.5,17.8,96,99870,0,0,395,155,15,146,16213,821,15950,0,20,1.2,10,0,0,0,0,0,0,0,0,0,0,0,0
2014,10,2,16,0,,18.2,17.7,97,99830,0,0,394,116,14,109,11126,477,11065,0,50,0.8,10,0,0,0,0,0,0,0,0,0,0,0,0
2014,10,2,17,0,,18.1,17.7,98,99800,0,0,393,71,14,67,0,0,0,0,90,0.6,10,0,0,0,0,0,0,0,0,0,0,0,0
2014,10,2,18,0,,17.6,17.5,100,99800,0,0,390,22,1,21,0,0,0,0,50,0.5,10,0,0,0,0,0,0,0,0,0,0,0,0
2014,10,2,19,0,,17.6,17.5,100,99850,0,0,390,0,0,0,0,0,0,0,140,0.5,10,0,0,0,0,0,0,0,0,0,0,0,0
2014,10,2,20,0,,17.6,17.5,100,99900,0,0,390,0,0,0,0,0,0,0,160,0.5,10,0,0,0,0,0,0,0,0,0,0,0,0
2014,10,2,21,0,,17.4,16.2,93,99920,0,0,387,0,0,0,0,0,0,0,180,1.3,10,0,0,0,0,0,0,0,0,0,0,0,0
2014,10,2,22,0,,17.2,15.7,91,99890,0,0,378,0,0,0,0,0,0,0,180,1.4,9,0,0,0,0,0,0,0,0,0,0,0,0
2014,10,2,23,0,,17.2,14.8,86,99860,0,0,371,0,0,0,0,0,0,0,180,1.5,9,0,0,0,0,0,0,0,0,0,0,0,0
2014,10,2,24,0,,17.1,15.2,89,99850,0,0,366,0,0,0,0,0,0,0,180,1.7,8,0,0,0,0,0,0,0,0,0,0,0,0
2014,10,3,1,0,,16.9,13.2,79,99870,0,0,360,0,0,0,0,0,0,0,180,2.4,8,0,0,0,0,0,0,0,0,0,0,0,0
2014,10,3,2,0,,16.7,13,79,99850,0,0,357,0,0,0,0,0,0,0,180,2.4,7,0,0,0,0,0,0,0,0,0,0,0,0
2014,10,3,3,0,,16.6,13.5,82,99850,0,0,356,0,0,0,0,0,0,0,180,2,7,0,0,0,0,0,0,0,0,0,0,0,0
2014,10,3,4,0,,16.6,13.5,82,99860,0,0,361,0,0,0,0,0,0,0,230,2.1,8,0,0,0,0,0,0,0,0,0,0,0,0
2014,10,3,5,0,,16.2,15,93,99900,0,0,361,0,0,0,0,0,0,0,0,0.4,8,0,0,0,0,0,0,0,0,0,0,0,0
2014,10,3,6,0,,16,13.1,83,99950,0,0,352,0,0,0,0,0,0,0,180,1.2,7,0,0,0,0,0,0,0,0,0,0,0,0
2014,10,3,7,0,,15.9,12.6,81,100040,0,0,347,21,6,15,2002,526,1800,0,230,2.3,6,0,0,0,0,0,0,0,0,0,0,0,0
2014,10,3,8,0,,15.7,12,79,100140,0,0,345,113,258,62,24170,25633,10306,0,250,2.6,6,0,0,0,0,0,0,0,0,0,0,0,0
2014,10,3,9,0,,16.2,10.4,69,100200,0,0,337,288,457,113,46996,45731,16907,0,230,2.3,3,0,0,0,0,0,0,0,0,0,0,0,0
2014,10,3,10,0,,17,10.1,64,100250,0,0,349,361,265,218,45703,25929,26849,0,230,2.3,6,0,0,0,0,0,0,0,0,0,0,0,0
2014,10,3,11,0,,17.9,10,60,100250,0,0,354,457,258,287,53049,25194,34309,0,200,2.8,6,0,0,0,0,0,0,0,0,0,0,0,0
2014,10,3,12,0,,18.7,10.7,60,100230,0,0,368,416,136,317,46221,13141,36935,0,230,2.4,8,0,0,0,0,0,0,0,0,0,0,0,0
2014,10,3,13,0,,18.6,10.1,58,100250,0,0,367,398,111,316,42414,10617,35848,0,230,2.5,8,0,0,0,0,0,0,0,0,0,0,0,0
2014,10,3,14,0,,19.5,10.4,56,100240,0,0,366,444,178,317,44114,16300,36210,0,180,1.3,7,0,0,0,0,0,0,0,0,0,0,0,0
2014,10,3,15,0,,19.9,10.3,54,100260,0,0,361,453,316,257,37113,25462,29084,0,250,1.7,5,0,0,0,0,0,0,0,0,0,0,0,0
2014,10,3,16,0,,20.5,10.5,53,100320,0,0,364,371,439,156,19761,18052,17574,0,250,2.3,5,0,0,0,0,0,0,0,0,0,0,0,0
2014,10,3,17,0,,20.2,10.8,55,100340,0,0,363,225,385,102,0,0,0,0,230,1.8,5,0,0,0,0,0,0,0,0,0,0,0,0
2014,10,3,18,0,,19.4,10.9,58,100440,0,0,359,80,38,42,0,0,0,0,200,1.4,5,0,0,0,0,0,0,0,0,0,0,0,0
2014,10,3,19,0,,18,13.9,77,100490,0,0,351,0,0,0,0,0,0,0,20,0.9,3,0,0,0,0,0,0,0,0,0,0,0,0
2014,10,3,20,0,,15.9,14.5,92,100590,0,0,336,0,0,0,0,0,0,0,0,0.3,2,0,0,0,0,0,0,0,0,0,0,0,0
2014,10,3,21,0,,14.5,13.7,95,100650,0,0,320,0,0,0,0,0,0,0,340,0.8,0,0,0,0,0,0,0,0,0,0,0,0,0
2014,10,3,22,0,,14,13.6,98,100740,0,0,318,0,0,0,0,0,0,0,360,1,0,0,0,0,0,0,0,0,0,0,0,0,0
2014,10,3,23,0,,13.7,13.2,97,100770,0,0,316,0,0,0,0,0,0,0,110,0.6,0,0,0,0,0,0,0,0,0,0,0,0,0
2014,10,3,24,0,,12.8,12.6,99,100780,0,0,311,0,0,0,0,0,0,0,20,0.6,0,0,0,0,0,0,0,0,0,0,0,0,0
2014,10,4,1,0,,12.3,12.2,100,100830,0,0,311,0,0,0,0,0,0,0,0,0.4,0,0,0,0,0,0,0,0,0,0,0,0,0
2014,10,4,2,0,,11.8,11.6,99,100860,0,0,310,0,0,0,0,0,0,0,90,0.5,1,0,0,0,0,0,0,0,0,0,0,0,0
2014,10,4,3,0,,11.4,11.3,100,100910,0,0,310,0,0,0,0,0,0,0,20,0.5,1,0,0,0,0,0,0,0,0,0,0,0,0
2014,10,4,4,0,,11,10.9,100,100940,0,0,308,0,0,0,0,0,0,0,20,0.9,1,0,0,0,0,0,0,0,0,0,0,0,0
2014,10,4,5,0,,10.8,10.7,100,101020,0,0,307,0,0,0,0,0,0,0,110,0.8,1,0,0,0,0,0,0,0,0,0,0,0,0
2014,10,4,6,0,,10.5,10.4,100,101050,0,0,305,0,0,0,0,0,0,0,360,1.5,1,0,0,0,0,0,0,0,0,0,0,0,0
2014,10,4,7,0,,10.5,10.4,100,101100,0,0,312,23,9,14,2273,849,1950,0,360,0.8,3,0,0,0,0,0,0,0,0,0,0,0,0
2014,10,4,8,0,,11.7,11.3,98,101210,0,0,311,136,409,57,31131,41745,8706,0,160,0.5,1,0,0,0,0,0,0,0,0,0,0,0,0
2014,10,4,9,0,,13.9,11,83,101230,0,0,314,310,570,94,51509,58348,13350,0,320,2.2,0,0,0,0,0,0,0,0,0,0,0,0,0
2014,10,4,10,0,,16.9,9,60,101250,0,0,344,443,549,148,60750,55061,20946,0,50,3.2,5,0,0,0,0,0,0,0,0,0,0,0,0
2014,10,4,11,0,,18.1,9.1,56,101220,0,0,350,562,581,182,67409,57804,24677,0,50,3.4,5,0,0,0,0,0,0,0,0,0,0,0,0
2014,10,4,12,0,,19.7,8.3,48,101170,0,0,357,613,535,225,65532,52173,28911,0,70,3.6,5,0,0,0,0,0,0,0,0,0,0,0,0
2014,10,4,13,0,,20.5,8.1,45,101140,0,0,361,609,482,251,59715,46239,31351,0,70,3.3,5,0,0,0,0,0,0,0,0,0,0,0,0
2014,10,4,14,0,,20.9,8.1,44,101130,0,0,357,621,607,193,51744,56306,24729,0,70,3.6,3,0,0,0,0,0,0,0,0,0,0,0,0
2014,10,4,15,0,,20.7,8.3,45,101160,0,0,357,519,557,175,35911,45480,21807,0,50,3.7,3,0,0,0,0,0,0,0,0,0,0,0,0
2014,10,4,16,0,,20.1,8.4,47,101220,0,0,357,374,469,147,18684,19249,16451,0,70,3.8,4,0,0,0,0,0,0,0,0,0,0,0,0
2014,10,4,17,0,,18.2,8.1,52,101250,0,0,353,195,280,107,0,0,0,0,70,4,6,0,0,0,0,0,0,0,0,0,0,0,0
2014,10,4,18,0,,17.3,8.4,56,101270,0,0,346,72,40,32,0,0,0,0,70,3.3,5,0,0,0,0,0,0,0,0,0,0,0,0
2014,10,4,19,0,,16.4,8.3,59,101340,0,0,337,0,0,0,0,0,0,0,70,1.8,3,0,0,0,0,0,0,0,0,0,0,0,0
2014,10,4,20,0,,15.4,9.9,70,101420,0,0,329,0,0,0,0,0,0,0,360,0.8,2,0,0,0,0,0,0,0,0,0,0,0,0
2014,10,4,21,0,,13.9,10.1,78,101430,0,0,313,0,0,0,0,0,0,0,270,0.6,0,0,0,0,0,0,0,0,0,0,0,0,0
2014,10,4,22,0,,13,10.3,84,101470,0,0,309,0,0,0,0,0,0,0,0,0.4,0,0,0,0,0,0,0,0,0,0,0,0,0
2014,10,4,23,0,,12.2,10,87,101480,0,0,306,0,0,0,0,0,0,0,360,1.1,0,0,0,0,0,0,0,0,0,0,0,0,0
2014,10,4,24,0,,11.5,10.2,92,101470,0,0,303,0,0,0,0,0,0,0,340,0.8,0,0,0,0,0,0,0,0,0,0,0,0,0
2014,10,5,1,0,,11.2,10.1,93,101440,0,0,302,0,0,0,0,0,0,0,20,2.1,0,0,0,0,0,0,0,0,0,0,0,0,0
2014,10,5,2,0,,10.6,9.6,94,101410,0,0,299,0,0,0,0,0,0,0,360,1.6,0,0,0,0,0,0,0,0,0,0,0,0,0
2014,10,5,3,0,,10.1,9.4,96,101390,0,0,296,0,0,0,0,0,0,0,360,1.7,0,0,0,0,0,0,0,0,0,0,0,0,0
2014,10,5,4,0,,9.8,9.4,98,101350,0,0,295,0,0,0,0,0,0,0,360,2.6,0,0,0,0,0,0,0,0,0,0,0,0,0
2014,10,5,5,0,,9.6,9.1,97,101340,0,0,300,0,0,0,0,0,0,0,50,0.8,1,0,0,0,0,0,0,0,0,0,0,0,0
2014,10,5,6,0,,9.8,9.1,96,101310,0,0,305,0,0,0,0,0,0,0,360,1.8,2,0,0,0,0,0,0,0,0,0,0,0,0
2014,10,5,7,0,,9.5,8.8,96,101310,0,0,308,22,8,14,1943,690,1683,0,360,1.8,4,0,0,0,0,0,0,0,0,0,0,0,0
2014,10,5,8,0,,10.4,8.9,91,101330,0,0,317,111,279,58,24527,27769,9713,0,360,2.4,6,0,0,0,0,0,0,0,0,0,0,0,0
2014,10,5,9,0,,12.5,8.7,78,101340,0,0,324,269,393,121,43328,39343,17755,0,340,2.7,5,0,0,0,0,0,0,0,0,0,0,0,0
2014,10,5,10,0,,15.5,7.2,58,101290,0,0,317,496,739,102,68600,75788,14137,0,320,2.8,0,0,0,0,0,0,0,0,0,0,0,0,0
2014,10,5,11,0,,18,6.5,47,101190,0,0,327,639,806,114,76059,82454,15481,0,20,3.1,0,0,0,0,0,0,0,0,0,0,0,0,0
2014,10,5,12,0,,19.4,6.8,44,101100,0,0,334,709,799,134,74402,80851,18040,0,50,2.9,0,0,0,0,0,0,0,0,0,0,0,0,0
2014,10,5,13,0,,20.5,6.7,41,100950,0,0,339,706,745,157,66227,73342,21605,0,70,2.9,0,0,0,0,0,0,0,0,0,0,0,0,0
2014,10,5,14,0,,21.1,6.5,39,100880,0,0,348,657,718,155,53118,67590,21038,0,70,3.5,1,0,0,0,0,0,0,0,0,0,0,0,0
2014,10,5,15,0,,21.4,6.8,39,100820,0,0,358,539,630,153,35103,51769,19317,0,70,3.8,3,0,0,0,0,0,0,0,0,0,0,0,0
2014,10,5,16,0,,20,8,46,100860,0,0,349,401,585,121,16750,26272,13840,0,70,4.6,2,0,0,0,0,0,0,0,0,0,0,0,0
2014,10,5,17,0,,18.6,7.9,50,100900,0,0,346,228,446,90,0,0,0,0,70,3.2,3,0,0,0,0,0,0,0,0,0,0,0,0
2014,10,5,18,0,,17.4,7.9,54,100910,0,0,337,77,41,36,0,0,0,0,50,2.1,2,0,0,0,0,0,0,0,0,0,0,0,0
2014,10,5,19,0,,15.8,8.9,64,100920,0,0,328,0,0,0,0,0,0,0,0,0.4,1,0,0,0,0,0,0,0,0,0,0,0,0
2014,10,5,20,0,,14.5,7.9,65,100960,0,0,317,0,0,0,0,0,0,0,20,1,1,0,0,0,0,0,0,0,0,0,0,0,0
2014,10,5,21,0,,13.2,9,76,100960,0,0,309,0,0,0,0,0,0,0,360,0.8,0,0,0,0,0,0,0,0,0,0,0,0,0
2014,10,5,22,0,,12.2,9.5,84,100940,0,0,305,0,0,0,0,0,0,0,0,0.3,0,0,0,0,0,0,0,0,0,0,0,0,0
2014,10,5,23,0,,11.3,9.5,89,100930,0,0,301,0,0,0,0,0,0,0,110,0.7,0,0,0,0,0,0,0,0,0,0,0,0,0
2014,10,5,24,0,,10.5,9,91,100920,0,0,298,0,0,0,0,0,0,0,160,0.8,0,0,0,0,0,0,0,0,0,0,0,0,0
2014,10,6,1,0,,9.9,8.9,94,100880,0,0,295,0,0,0,0,0,0,0,110,0.6,0,0,0,0,0,0,0,0,0,0,0,0,0
2014,10,6,2,0,,9.3,8.8,97,100870,0,0,293,0,0,0,0,0,0,0,110,0.7,0,0,0,0,0,0,0,0,0,0,0,0,0
2014,10,6,3,0,,8.6,8.2,98,100830,0,0,289,0,0,0,0,0,0,0,0,0.3,0,0,0,0,0,0,0,0,0,0,0,0,0
2014,10,6,4,0,,8.4,8,98,100820,0,0,288,0,0,0,0,0,0,0,90,0.9,0,0,0,0,0,0,0,0,0,0,0,0,0
2014,10,6,5,0,,8.1,7.7,98,100840,0,0,287,0,0,0,0,0,0,0,110,0.6,0,0,0,0,0,0,0,0,0,0,0,0,0
2014,10,6,6,0,,7.6,7.4,99,100850,0,0,284,0,0,0,0,0,0,0,0,0.4,0,0,0,0,0,0,0,0,0,0,0,0,0
2014,10,6,7,0,,7.5,7.3,99,100880,0,0,284,23,10,13,2109,926,1763,0,0,0.2,0,0,0,0,0,0,0,0,0,0,0,0,0
2014,10,6,8,0,,8.4,6.8,90,100930,0,0,292,129,390,56,30047,39010,9381,0,0,0.2,1,0,0,0,0,0,0,0,0,0,0,0,0
2014,10,6,9,0,,10.9,6.4,74,100990,0,0,296,310,597,88,51851,60969,12466,0,0,0.4,0,0,0,0,0,0,0,0,0,0,0,0,0
2014,10,6,10,0,,13.8,6.6,62,101010,0,0,309,480,695,112,65979,71002,15261,0,70,0.7,0,0,0,0,0,0,0,0,0,0,0,0,0
2014,10,6,11,0,,16.5,7.1,54,100970,0,0,332,628,787,118,74751,80389,16058,0,160,1.6,2,0,0,0,0,0,0,0,0,0,0,0,0
2014,10,6,12,0,,18.7,5.5,42,100950,0,0,346,662,687,170,70474,68476,23069,0,90,1.7,4,0,0,0,0,0,0,0,0,0,0,0,0
2014,10,6,13,0,,19.8,6.5,42,100900,0,0,359,588,448,259,57899,43259,31796,0,200,1.6,6,0,0,0,0,0,0,0,0,0,0,0,0
2014,10,6,14,0,,21,6.5,39,100850,0,0,362,581,523,217,49727,48510,26951,0,140,1.9,5,0,0,0,0,0,0,0,0,0,0,0,0
2014,10,6,15,0,,21.3,5.6,36,100840,0,0,365,445,329,245,35480,26914,27413,0,200,1.7,6,0,0,0,0,0,0,0,0,0,0,0,0
2014,10,6,16,0,,21.7,6.3,37,100860,0,0,368,342,378,163,19108,14387,17588,0,20,2,6,0,0,0,0,0,0,0,0,0,0,0,0
2014,10,6,17,0,,20.6,8.2,45,100920,0,0,369,179,239,106,0,0,0,0,50,1.5,7,0,0,0,0,0,0,0,0,0,0,0,0
2014,10,6,18,0,,18.4,8.9,54,101010,0,0,365,46,12,34,0,0,0,0,340,3.3,8,0,0,0,0,0,0,0,0,0,0,0,0
2014,10,6,19,0,,17.1,9.5,61,101060,0,0,349,0,0,0,0,0,0,0,360,1.3,6,0,0,0,0,0,0,0,0,0,0,0,0
2014,10,6,20,0,,15.4,11.1,76,101130,0,0,337,0,0,0,0,0,0,0,360,1.1,4,0,0,0,0,0,0,0,0,0,0,0,0
2014,10,6,21,0,,14,11.5,85,101190,0,0,325,0,0,0,0,0,0,0,360,1.9,2,0,0,0,0,0,0,0,0,0,0,0,0
2014,10,6,22,0,,12.5,10.7,89,101220,0,0,315,0,0,0,0,0,0,0,340,1.3,1,0,0,0,0,0,0,0,0,0,0,0,0
2014,10,6,23,0,,12,10.7,92,101260,0,0,310,0,0,0,0,0,0,0,360,1.9,1,0,0,0,0,0,0,0,0,0,0,0,0
2014,10,6,24,0,,11.3,10.6,96,101270,0,0,303,0,0,0,0,0,0,0,360,1.8,0,0,0,0,0,0,0,0,0,0,0,0,0
2014,10,7,1,0,,10.7,10,96,101310,0,0,300,0,0,0,0,0,0,0,360,1.9,0,0,0,0,0,0,0,0,0,0,0,0,0
2014,10,7,2,0,,10,9.6,98,101330,0,0,296,0,0,0,0,0,0,0,360,0.9,0,0,0,0,0,0,0,0,0,0,0,0,0
2014,10,7,3,0,,9.4,9.2,99,101300,0,0,293,0,0,0,0,0,0,0,50,0.9,0,0,0,0,0,0,0,0,0,0,0,0,0
2014,10,7,4,0,,9.1,8.9,99,101320,0,0,292,0,0,0,0,0,0,0,20,1.1,0,0,0,0,0,0,0,0,0,0,0,0,0
2014,10,7,5,0,,8.7,8.5,99,101340,0,0,295,0,0,0,0,0,0,0,20,1,1,0,0,0,0,0,0,0,0,0,0,0,0
2014,10,7,6,0,,8.7,8.3,98,101390,0,0,299,0,0,0,0,0,0,0,0,0.2,2,0,0,0,0,0,0,0,0,0,0,0,0
2014,10,7,7,0,,9.1,8.4,96,101450,0,0,336,1,0,1,200,0,200,0,0,0.1,10,0,0,0,0,0,0,0,0,0,0,0,0
2014,10,7,8,0,,9.6,8.6,94,101500,0,0,339,41,17,38,5387,1541,4576,0,20,0.7,10,0,0,0,0,0,0,0,0,0,0,0,0
2014,10,7,9,0,,10.5,8.7,89,101530,0,0,343,103,26,93,12589,2447,11018,0,340,0.6,10,0,0,0,0,0,0,0,0,0,0,0,0
2014,10,7,10,0,,11.8,9.1,84,101530,0,0,333,260,111,201,31900,10953,24124,0,340,0.8,8,0,0,0,0,0,0,0,0,0,0,0,0
2014,10,7,11,0,,13.7,8.9,73,101470,0,0,311,552,583,177,66213,58039,24106,0,290,1.1,0,0,0,0,0,0,0,0,0,0,0,0,0
2014,10,7,12,0,,15.9,9.3,65,101400,0,0,321,642,645,182,68471,63722,24666,0,340,1.2,0,0,0,0,0,0,0,0,0,0,0,0,0
2014,10,7,13,0,,18.9,8.5,51,101280,0,0,334,702,759,149,65471,74490,20897,0,200,1.8,0,0,0,0,0,0,0,0,0,0,0,0,0
2014,10,7,14,0,,21,8.6,45,101180,0,0,359,655,737,146,52244,69104,20153,0,230,2.1,3,0,0,0,0,0,0,0,0,0,0,0,0
2014,10,7,15,0,,21.2,8.4,44,101160,0,0,362,528,624,151,34001,50177,19219,0,200,2.6,4,0,0,0,0,0,0,0,0,0,0,0,0
2014,10,7,16,0,,20.6,8.8,47,101130,0,0,353,398,606,114,15545,25054,13026,0,270,1.7,2,0,0,0,0,0,0,0,0,0,0,0,0
2014,10,7,17,0,,20.6,9.5,49,101130,0,0,349,243,574,71,0,0,0,0,230,2.3,1,0,0,0,0,0,0,0,0,0,0,0,0
2014,10,7,18,0,,19.2,11.9,63,101140,0,0,339,73,42,31,0,0,0,0,270,0.9,0,0,0,0,0,0,0,0,0,0,0,0,0
2014,10,7,19,0,,17,13.7,81,101190,0,0,331,0,0,0,0,0,0,0,340,0.6,0,0,0,0,0,0,0,0,0,0,0,0,0
2014,10,7,20,0,,15.6,13,85,101250,0,0,324,0,0,0,0,0,0,0,340,0.8,0,0,0,0,0,0,0,0,0,0,0,0,0
2014,10,7,21,0,,14,13,94,101300,0,0,317,0,0,0,0,0,0,0,90,0.5,0,0,0,0,0,0,0,0,0,0,0,0,0
2014,10,7,22,0,,13,11.8,93,101330,0,0,311,0,0,0,0,0,0,0,340,0.6,0,0,0,0,0,0,0,0,0,0,0,0,0
2014,10,7,23,0,,11.9,11.5,98,101350,0,0,306,0,0,0,0,0,0,0,0,0.3,0,0,0,0,0,0,0,0,0,0,0,0,0
2014,10,7,24,0,,11.3,10.9,98,101360,0,0,303,0,0,0,0,0,0,0,70,0.8,0,0,0,0,0,0,0,0,0,0,0,0,0
2014,10,8,1,0,,10.6,10.4,99,101380,0,0,308,0,0,0,0,0,0,0,70,0.6,2,0,0,0,0,0,0,0,0,0,0,0,0
2014,10,8,2,0,,10,9.8,99,101400,0,0,310,0,0,0,0,0,0,0,20,0.7,3,0,0,0,0,0,0,0,0,0,0,0,0
2014,10,8,3,0,,9.3,9.2,100,101410,0,0,310,0,0,0,0,0,0,0,0,0.4,5,0,0,0,0,0,0,0,0,0,0,0,0
2014,10,8,4,0,,9.9,9.8,100,101410,0,0,342,0,0,0,0,0,0,0,360,1.2,10,0,0,0,0,0,0,0,0,0,0,0,0
2014,10,8,5,0,,10.1,9.6,97,101440,0,0,342,0,0,0,0,0,0,0,360,1.8,10,0,0,0,0,0,0,0,0,0,0,0,0
2014,10,8,6,0,,10,9.3,96,101490,0,0,325,0,0,0,0,0,0,0,360,1.6,8,0,0,0,0,0,0,0,0,0,0,0,0
2014,10,8,7,0,,9.9,9.4,97,101530,0,0,325,10,1,9,1216,32,1204,0,340,2.4,8,0,0,0,0,0,0,0,0,0,0,0,0
2014,10,8,8,0,,10.1,9,93,101570,0,0,341,39,15,36,5092,1391,4366,0,340,1.1,10,0,0,0,0,0,0,0,0,0,0,0,0
2014,10,8,9,0,,10.8,9.2,90,101570,0,0,345,94,21,87,11547,1973,10289,0,340,2.3,10,0,0,0,0,0,0,0,0,0,0,0,0
2014,10,8,10,0,,11.9,9.2,84,101590,0,0,341,202,56,172,23783,5289,20051,0,360,0.8,9,0,0,0,0,0,0,0,0,0,0,0,0
2014,10,8,11,0,,14.4,8.9,70,101530,0,0,314,556,605,169,66746,60367,23228,0,340,1,0,0,0,0,0,0,0,0,0,0,0,0,0
2014,10,8,12,0,,16.4,9.5,64,101450,0,0,323,653,686,167,69463,68005,23042,0,230,1.4,0,0,0,0,0,0,0,0,0,0,0,0,0
2014,10,8,13,0,,18.6,6.7,46,101340,0,0,337,689,738,155,64356,72371,21413,0,140,1.2,1,0,0,0,0,0,0,0,0,0,0,0,0
2014,10,8,14,0,,20.5,4,34,101260,0,0,353,622,661,168,50100,61976,21635,0,230,1.1,4,0,0,0,0,0,0,0,0,0,0,0,0
2014,10,8,15,0,,21.8,7.2,39,101180,0,0,361,541,680,135,33192,54801,17330,0,230,0.9,3,0,0,0,0,0,0,0,0,0,0,0,0
2014,10,8,16,0,,21.9,7.3,39,101150,0,0,362,400,632,107,14653,25554,12214,0,340,0.8,3,0,0,0,0,0,0,0,0,0,0,0,0
2014,10,8,17,0,,21.5,8.3,43,101140,0,0,361,237,565,71,0,0,0,0,290,0.6,3,0,0,0,0,0,0,0,0,0,0,0,0
2014,10,8,18,0,,19.6,13.7,69,101160,0,0,361,61,34,27,0,0,0,0,360,1,4,0,0,0,0,0,0,0,0,0,0,0,0
2014,10,8,19,0,,17.5,13.6,78,101230,0,0,349,0,0,0,0,0,0,0,20,0.5,4,0,0,0,0,0,0,0,0,0,0,0,0
2014,10,8,20,0,,15.5,13.1,86,101300,0,0,338,0,0,0,0,0,0,0,320,0.7,3,0,0,0,0,0,0,0,0,0,0,0,0
2014,10,8,21,0,,14.1,12.4,90,101350,0,0,330,0,0,0,0,0,0,0,70,0.5,3,0,0,0,0,0,0,0,0,0,0,0,0
2014,10,8,22,0,,12.9,12.2,96,101360,0,0,322,0,0,0,0,0,0,0,360,0.5,2,0,0,0,0,0,0,0,0,0,0,0,0
2014,10,8,23,0,,12.4,11.7,96,101370,0,0,314,0,0,0,0,0,0,0,20,0.5,1,0,0,0,0,0,0,0,0,0,0,0,0
2014,10,8,24,0,,11.6,11.2,98,101390,0,0,305,0,0,0,0,0,0,0,0,0.4,0,0,0,0,0,0,0,0,0,0,0,0,0
2014,10,9,1,0,,10.9,10.7,99,101410,0,0,305,0,0,0,0,0,0,0,0,0.2,1,0,0,0,0,0,0,0,0,0,0,0,0
2014,10,9,2,0,,10.1,9.9,99,101390,0,0,304,0,0,0,0,0,0,0,20,0.5,1,0,0,0,0,0,0,0,0,0,0,0,0
2014,10,9,3,0,,10,9.9,100,101370,0,0,306,0,0,0,0,0,0,0,50,0.6,2,0,0,0,0,0,0,0,0,0,0,0,0
2014,10,9,4,0,,9.6,9.5,100,101360,0,0,340,0,0,0,0,0,0,0,0,0.2,10,0,0,0,0,0,0,0,0,0,0,0,0
2014,10,9,5,0,,10.4,10.3,100,101370,0,0,345,0,0,0,0,0,0,0,320,0.6,10,0,0,0,0,0,0,0,0,0,0,0,0
2014,10,9,6,0,,10.7,10.6,100,101380,0,0,347,0,0,0,0,0,0,0,20,1,10,0,0,0,0,0,0,0,0,0,0,0,0
2014,10,9,7,0,,10.9,10.8,100,101400,0,0,348,2,0,2,356,0,356,0,340,1.3,10,0,0,0,0,0,0,0,0,0,0,0,0
2014,10,9,8,0,,11.1,10.7,98,101430,0,0,349,39,16,36,5081,1431,4340,0,340,1.3,10,0,0,0,0,0,0,0,0,0,0,0,0
2014,10,9,9,0,,11.6,10.8,95,101450,0,0,351,92,20,85,11237,1862,10057,0,290,0.7,10,0,0,0,0,0,0,0,0,0,0,0,0
2014,10,9,10,0,,12.4,10.7,90,101460,0,0,355,138,20,128,16342,1856,15040,0,360,1.2,10,0,0,0,0,0,0,0,0,0,0,0,0
2014,10,9,11,0,,13.9,11,83,101410,0,0,314,511,485,203,60541,46754,27054,0,360,1.1,0,0,0,0,0,0,0,0,0,0,0,0,0
2014,10,9,12,0,,16.7,10.3,66,101300,0,0,326,624,620,188,66639,61008,25291,0,160,1,0,0,0,0,0,0,0,0,0,0,0,0,0
2014,10,9,13,0,,19.1,9.2,53,101190,0,0,335,676,716,161,63267,69807,22195,0,270,1,0,0,0,0,0,0,0,0,0,0,0,0,0
2014,10,9,14,0,,21.4,8.2,43,101080,0,0,345,671,808,121,51986,76275,17342,0,140,1.1,0,0,0,0,0,0,0,0,0,0,0,0,0
2014,10,9,15,0,,23.2,9.2,41,101020,0,0,355,572,789,105,33147,64737,14739,0,110,0.8,0,0,0,0,0,0,0,0,0,0,0,0,0
2014,10,9,16,0,,24.3,9.8,40,100970,0,0,361,431,766,79,12762,30775,9980,0,140,0.5,0,0,0,0,0,0,0,0,0,0,0,0,0
2014,10,9,17,0,,24.4,11,43,100950,0,0,370,251,674,57,0,0,0,0,340,0.5,1,0,0,0,0,0,0,0,0,0,0,0,0
2014,10,9,18,0,,22.4,17,72,100940,0,0,372,65,35,31,0,0,0,0,250,0.5,2,0,0,0,0,0,0,0,0,0,0,0,0
2014,10,9,19,0,,19.3,16.5,84,101000,0,0,355,0,0,0,0,0,0,0,360,0.8,2,0,0,0,0,0,0,0,0,0,0,0,0
2014,10,9,20,0,,17.2,15.7,91,101050,0,0,342,0,0,0,0,0,0,0,0,0.4,1,0,0,0,0,0,0,0,0,0,0,0,0
2014,10,9,21,0,,15.9,14.7,93,101090,0,0,333,0,0,0,0,0,0,0,320,1.2,1,0,0,0,0,0,0,0,0,0,0,0,0
2014,10,9,22,0,,14.5,14,97,101150,0,0,325,0,0,0,0,0,0,0,0,0.2,1,0,0,0,0,0,0,0,0,0,0,0,0
2014,10,9,23,0,,13.7,13.2,97,101150,0,0,318,0,0,0,0,0,0,0,0,0.2,0,0,0,0,0,0,0,0,0,0,0,0,0
2014,10,9,24,0,,12.8,12.4,98,101180,0,0,311,0,0,0,0,0,0,0,20,0.9,0,0,0,0,0,0,0,0,0,0,0,0,0
2014,10,10,1,0,,12.1,11.7,98,101220,0,0,307,0,0,0,0,0,0,0,50,0.6,0,0,0,0,0,0,0,0,0,0,0,0,0
2014,10,10,2,0,,11.4,11.2,99,101260,0,0,304,0,0,0,0,0,0,0,0,0.4,0,0,0,0,0,0,0,0,0,0,0,0,0
2014,10,10,3,0,,10.8,10.7,100,101270,0,0,301,0,0,0,0,0,0,0,110,0.6,0,0,0,0,0,0,0,0,0,0,0,0,0
2014,10,10,4,0,,10.5,10.3,99,101270,0,0,299,0,0,0,0,0,0,0,360,1.7,0,0,0,0,0,0,0,0,0,0,0,0,0
2014,10,10,5,0,,10.1,9.9,99,101290,0,0,297,0,0,0,0,0,0,0,20,0.7,0,0,0,0,0,0,0,0,0,0,0,0,0
2014,10,10,6,0,,9.6,9.5,100,101310,0,0,295,0,0,0,0,0,0,0,360,0.6,0,0,0,0,0,0,0,0,0,0,0,0,0
2014,10,10,7,0,,9.5,9.3,99,101380,0,0,294,18,7,11,1595,562,1393,0,20,1.1,0,0,0,0,0,0,0,0,0,0,0,0,0
2014,10,10,8,0,,10.6,9.5,93,101470,0,0,299,123,422,50,29820,42870,7760,0,360,1.5,0,0,0,0,0,0,0,0,0,0,0,0,0
2014,10,10,9,0,,13.1,9.3,78,101500,0,0,309,301,612,82,51268,62707,11786,0,340,2.3,0,0,0,0,0,0,0,0,0,0,0,0,0
2014,10,10,10,0,,16.3,8.9,62,101500,0,0,322,474,726,101,65887,74408,14036,0,320,1.6,0,0,0,0,0,0,0,0,0,0,0,0,0
2014,10,10,11,0,,20.7,11.8,57,101490,0,0,357,626,830,103,75009,85436,14214,0,20,2.8,2,0,0,0,0,0,0,0,0,0,0,0,0
2014,10,10,12,0,,22,13,57,101520,0,0,365,695,821,121,73114,83667,16815,0,70,3.9,2,0,0,0,0,0,0,0,0,0,0,0,0
2014,10,10,13,0,,22.4,13.1,56,101510,0,0,367,674,722,157,62921,69876,22157,0,70,4.1,2,0,0,0,0,0,0,0,0,0,0,0,0
2014,10,10,14,0,,22.2,12.9,56,101480,0,0,361,593,607,182,48420,54026,24156,0,70,4.4,1,0,0,0,0,0,0,0,0,0,0,0,0
2014,10,10,15,0,,21.5,12.8,58,101480,0,0,358,486,539,169,32927,40981,21483,0,50,4,1,0,0,0,0,0,0,0,0,0,0,0,0
2014,10,10,16,0,,20.8,12.7,60,101500,0,0,354,364,528,125,15533,17499,14038,0,50,4.5,1,0,0,0,0,0,0,0,0,0,0,0,0
2014,10,10,17,0,,19.9,12.6,63,101520,0,0,350,216,490,77,0,0,0,0,50,3.6,1,0,0,0,0,0,0,0,0,0,0,0,0
2014,10,10,18,0,,18.5,12.2,67,101550,0,0,342,64,34,30,0,0,0,0,50,2.7,1,0,0,0,0,0,0,0,0,0,0,0,0
2014,10,10,19,0,,17.6,11.8,69,101590,0,0,336,0,0,0,0,0,0,0,50,2.1,1,0,0,0,0,0,0,0,0,0,0,0,0
2014,10,10,20,0,,16.9,11.8,72,101630,0,0,330,0,0,0,0,0,0,0,20,2.3,0,0,0,0,0,0,0,0,0,0,0,0,0
2014,10,10,21,0,,15.8,12.9,83,101650,0,0,325,0,0,0,0,0,0,0,340,1.2,0,0,0,0,0,0,0,0,0,0,0,0,0
2014,10,10,22,0,,14.6,12.6,88,101670,0,0,319,0,0,0,0,0,0,0,340,1.9,0,0,0,0,0,0,0,0,0,0,0,0,0
2014,10,10,23,0,,13.7,12.5,93,101670,0,0,315,0,0,0,0,0,0,0,360,1.3,0,0,0,0,0,0,0,0,0,0,0,0,0
2014,10,10,24,0,,13,12.3,96,101640,0,0,312,0,0,0,0,0,0,0,340,1.8,0,0,0,0,0,0,0,0,0,0,0,0,0
2014,10,11,1,0,,12.6,11.9,96,101640,0,0,310,0,0,0,0,0,0,0,360,1.8,0,0,0,0,0,0,0,0,0,0,0,0,0
2014,10,11,2,0,,12.3,11.9,98,101670,0,0,308,0,0,0,0,0,0,0,360,1.6,0,0,0,0,0,0,0,0,0,0,0,0,0
2014,10,11,3,0,,11.8,11.6,99,101650,0,0,306,0,0,0,0,0,0,0,340,2,0,0,0,0,0,0,0,0,0,0,0,0,0
2014,10,11,4,0,,11.3,10.9,98,101650,0,0,303,0,0,0,0,0,0,0,360,1.6,0,0,0,0,0,0,0,0,0,0,0,0,0
2014,10,11,5,0,,11.1,10.7,98,101660,0,0,302,0,0,0,0,0,0,0,20,1.7,0,0,0,0,0,0,0,0,0,0,0,0,0
2014,10,11,6,0,,10.8,10.4,98,101660,0,0,300,0,0,0,0,0,0,0,360,2,0,0,0,0,0,0,0,0,0,0,0,0,0
2014,10,11,7,0,,10.5,10.3,99,101670,0,0,299,17,7,11,1521,558,1322,0,360,1.9,0,0,0,0,0,0,0,0,0,0,0,0,0
2014,10,11,8,0,,11.8,10.3,91,101680,0,0,304,123,437,48,30162,44362,7505,0,340,2.6,0,0,0,0,0,0,0,0,0,0,0,0,0
2014,10,11,9,0,,14.1,10.5,79,101660,0,0,314,294,591,84,49956,60508,12109,0,340,2.9,0,0,0,0,0,0,0,0,0,0,0,0,0
2014,10,11,10,0,,16.8,8.7,59,101650,0,0,324,472,729,99,65571,74685,13859,0,340,2.2,0,0,0,0,0,0,0,0,0,0,0,0,0
2014,10,11,11,0,,18.9,9.3,54,101620,0,0,335,604,780,116,72163,79654,15853,0,340,2.6,0,0,0,0,0,0,0,0,0,0,0,0,0
2014,10,11,12,0,,21,9.2,47,101550,0,0,344,685,805,125,71688,81593,17181,0,70,2.7,0,0,0,0,0,0,0,0,0,0,0,0,0
2014,10,11,13,0,,22.6,10,45,101490,0,0,353,682,757,145,63193,73908,20447,0,20,2,0,0,0,0,0,0,0,0,0,0,0,0,0
2014,10,11,14,0,,23.8,10.4,43,101390,0,0,359,631,724,144,49797,67040,20027,0,360,1.8,0,0,0,0,0,0,0,0,0,0,0,0,0
2014,10,11,15,0,,24.6,10.4,41,101350,0,0,363,532,698,126,31363,53947,16569,0,50,2.4,0,0,0,0,0,0,0,0,0,0,0,0,0
2014,10,11,16,0,,24.9,11,42,101340,0,0,366,396,670,95,12941,22373,11141,0,70,2.1,0,0,0,0,0,0,0,0,0,0,0,0,0
2014,10,11,17,0,,23.9,11.8,47,101370,0,0,362,230,598,63,0,0,0,0,70,2.5,0,0,0,0,0,0,0,0,0,0,0,0,0
2014,10,11,18,0,,21.9,12.1,54,101410,0,0,352,64,36,28,0,0,0,0,50,2.3,0,0,0,0,0,0,0,0,0,0,0,0,0
2014,10,11,19,0,,20.2,11.6,58,101450,0,0,343,0,0,0,0,0,0,0,70,2.1,0,0,0,0,0,0,0,0,0,0,0,0,0
2014,10,11,20,0,,18.8,11.1,61,101530,0,0,336,0,0,0,0,0,0,0,50,2.5,0,0,0,0,0,0,0,0,0,0,0,0,0
2014,10,11,21,0,,18,11,64,101540,0,0,332,0,0,0,0,0,0,0,70,3.2,0,0,0,0,0,0,0,0,0,0,0,0,0
2014,10,11,22,0,,16.5,13,80,101570,0,0,328,0,0,0,0,0,0,0,360,1.6,0,0,0,0,0,0,0,0,0,0,0,0,0
2014,10,11,23,0,,14.9,12.9,88,101570,0,0,321,0,0,0,0,0,0,0,360,1.9,0,0,0,0,0,0,0,0,0,0,0,0,0
2014,10,11,24,0,,14,12.5,91,101540,0,0,316,0,0,0,0,0,0,0,360,2,0,0,0,0,0,0,0,0,0,0,0,0,0
2014,10,12,1,0,,13.1,11.9,93,101550,0,0,312,0,0,0,0,0,0,0,360,2.3,0,0,0,0,0,0,0,0,0,0,0,0,0
2014,10,12,2,0,,12.4,11.6,95,101550,0,0,308,0,0,0,0,0,0,0,360,2.2,0,0,0,0,0,0,0,0,0,0,0,0,0
2014,10,12,3,0,,11.8,11.3,97,101510,0,0,306,0,0,0,0,0,0,0,360,2.1,0,0,0,0,0,0,0,0,0,0,0,0,0
2014,10,12,4,0,,11.3,10.8,97,101470,0,0,303,0,0,0,0,0,0,0,360,2.5,0,0,0,0,0,0,0,0,0,0,0,0,0
2014,10,12,5,0,,10.8,10.4,98,101440,0,0,300,0,0,0,0,0,0,0,360,2.4,0,0,0,0,0,0,0,0,0,0,0,0,0
2014,10,12,6,0,,10.5,10.1,98,101460,0,0,299,0,0,0,0,0,0,0,20,1.4,0,0,0,0,0,0,0,0,0,0,0,0,0
2014,10,12,7,0,,10.2,9.8,98,101450,0,0,297,16,5,10,1440,440,1285,0,20,1,0,0,0,0,0,0,0,0,0,0,0,0,0
2014,10,12,8,0,,11.4,9.9,91,101430,0,0,302,123,467,45,31110,47413,7079,0,360,2.3,0,0,0,0,0,0,0,0,0,0,0,0,0
2014,10,12,9,0,,13.3,10.4,83,101410,0,0,311,286,569,86,48550,58151,12419,0,340,2.5,0,0,0,0,0,0,0,0,0,0,0,0,0
2014,10,12,10,0,,15.1,9.8,71,101340,0,0,318,442,639,118,61653,64226,17467,0,340,1.3,0,0,0,0,0,0,0,0,0,0,0,0,0
2014,10,12,11,0,,17.6,8.7,56,101230,0,0,328,575,706,135,69194,70898,19406,0,340,1.2,0,0,0,0,0,0,0,0,0,0,0,0,0
2014,10,12,12,0,,20.6,9.5,49,101140,0,0,343,665,765,137,70175,76226,19624,0,290,1.1,0,0,0,0,0,0,0,0,0,0,0,0,0
2014,10,12,13,0,,23,9.7,43,100990,0,0,355,689,786,134,63336,76964,19206,0,20,0.6,0,0,0,0,0,0,0,0,0,0,0,0,0
2014,10,12,14,0,,25.1,7.6,33,100860,0,0,363,661,821,114,50311,77208,16416,0,320,1,0,0,0,0,0,0,0,0,0,0,0,0,0
2014,10,12,15,0,,26.7,7.1,29,100790,0,0,386,541,741,113,31411,59149,15488,0,290,0.7,3,0,0,0,0,0,0,0,0,0,0,0,0
2014,10,12,16,0,,26.3,6.8,29,100740,0,0,393,335,446,137,15596,11503,14727,0,0,0.3,6,0,0,0,0,0,0,0,0,0,0,0,0
2014,10,12,17,0,,26.5,8.9,33,100680,0,0,387,230,624,59,0,0,0,0,250,0.9,3,0,0,0,0,0,0,0,0,0,0,0,0
2014,10,12,18,0,,23.5,15,59,100700,0,0,393,40,12,28,0,0,0,0,360,1.3,7,0,0,0,0,0,0,0,0,0,0,0,0
2014,10,12,19,0,,20.8,14.4,67,100710,0,0,380,0,0,0,0,0,0,0,360,1.4,7,0,0,0,0,0,0,0,0,0,0,0,0
2014,10,12,20,0,,19.2,13.5,70,100720,0,0,372,0,0,0,0,0,0,0,340,0.5,8,0,0,0,0,0,0,0,0,0,0,0,0
2014,10,12,21,0,,17.8,13.5,76,100700,0,0,367,0,0,0,0,0,0,0,50,1.1,8,0,0,0,0,0,0,0,0,0,0,0,0
2014,10,12,22,0,,17.2,12.3,73,100610,0,0,365,0,0,0,0,0,0,0,360,1.8,8,0,0,0,0,0,0,0,0,0,0,0,0
2014,10,12,23,0,,16.9,12.2,74,100600,0,0,366,0,0,0,0,0,0,0,360,0.9,9,0,0,0,0,0,0,0,0,0,0,0,0
2014,10,12,24,0,,16.6,11.7,73,100530,0,0,367,0,0,0,0,0,0,0,20,1.7,9,0,0,0,0,0,0,0,0,0,0,0,0
2014,10,13,1,0,,18.2,10,59,100550,0,0,373,0,0,0,0,0,0,0,20,4.5,9,0,0,0,0,0,0,0,0,0,0,0,0
2014,10,13,2,0,,18.6,11.4,63,100590,0,0,377,0,0,0,0,0,0,0,320,1.4,9,0,0,0,0,0,0,0,0,0,0,0,0
2014,10,13,3,0,,17.8,12.4,71,100520,0,0,374,0,0,0,0,0,0,0,0,0.3,9,0,0,0,0,0,0,0,0,0,0,0,0
2014,10,13,4,0,,17.4,12.5,73,100440,0,0,372,0,0,0,0,0,0,0,340,1.7,9,0,0,0,0,0,0,0,0,0,0,0,0
2014,10,13,5,0,,18.4,11.9,66,100380,0,0,376,0,0,0,0,0,0,0,360,2.1,9,0,0,0,0,0,0,0,0,0,0,0,0
2014,10,13,6,0,,19.4,11.1,59,100480,0,0,380,0,0,0,0,0,0,0,50,5,9,0,0,0,0,0,0,0,0,0,0,0,0
2014,10,13,7,0,,18.7,10.2,58,100530,0,0,376,7,1,7,936,21,929,0,20,4.6,9,0,0,0,0,0,0,0,0,0,0,0,0
2014,10,13,8,0,,18.1,9.6,58,100560,0,0,372,68,98,51,11923,9281,7256,0,20,4,9,0,0,0,0,0,0,0,0,0,0,0,0
2014,10,13,9,0,,17.6,8.9,57,100610,0,0,368,144,82,116,19294,8024,14342,0,50,4.6,9,0,0,0,0,0,0,0,0,0,0,0,0
2014,10,13,10,0,,17.1,7.7,54,100660,0,0,356,262,132,196,32299,13079,23359,0,50,4.4,8,0,0,0,0,0,0,0,0,0,0,0,0
2014,10,13,11,0,,17.6,7.3,51,100670,0,0,358,346,142,258,39956,14111,30113,0,50,5.6,8,0,0,0,0,0,0,0,0,0,0,0,0
2014,10,13,12,0,,17.6,7,50,100600,0,0,366,326,85,268,35937,8211,30532,0,50,4.5,9,0,0,0,0,0,0,0,0,0,0,0,0
2014,10,13,13,0,,17.5,6.9,50,100550,0,0,358,397,136,301,41905,13099,34460,0,70,4.2,8,0,0,0,0,0,0,0,0,0,0,0,0
2014,10,13,14,0,,16.7,7,53,100510,0,0,361,289,68,243,30185,6423,27398,0,20,4.1,9,0,0,0,0,0,0,0,0,0,0,0,0
2014,10,13,15,0,,15.7,6.4,54,100530,0,0,348,285,107,223,27222,9393,24740,0,20,3.8,8,0,0,0,0,0,0,0,0,0,0,0,0
2014,10,13,16,0,,15.1,6.1,55,100580,0,0,352,171,63,144,15761,4139,15469,0,20,3.7,9,0,0,0,0,0,0,0,0,0,0,0,0
2014,10,13,17,0,,14.2,5.5,56,100610,0,0,340,130,139,93,0,0,0,0,20,3.5,8,0,0,0,0,0,0,0,0,0,0,0,0
2014,10,13,18,0,,13.2,4.3,55,100660,0,0,324,47,20,27,0,0,0,0,20,2.3,6,0,0,0,0,0,0,0,0,0,0,0,0
2014,10,13,19,0,,11.8,4.9,63,100700,0,0,313,0,0,0,0,0,0,0,20,1.5,4,0,0,0,0,0,0,0,0,0,0,0,0
2014,10,13,20,0,,10.8,4,63,100740,0,0,303,0,0,0,0,0,0,0,360,2.1,2,0,0,0,0,0,0,0,0,0,0,0,0
2014,10,13,21,0,,10.4,4.3,66,100740,0,0,292,0,0,0,0,0,0,0,360,2.3,0,0,0,0,0,0,0,0,0,0,0,0,0
2014,10,13,22,0,,9.4,4.3,71,100780,0,0,288,0,0,0,0,0,0,0,360,1.7,0,0,0,0,0,0,0,0,0,0,0,0,0
2014,10,13,23,0,,8.7,4.5,75,100800,0,0,285,0,0,0,0,0,0,0,360,1.5,0,0,0,0,0,0,0,0,0,0,0,0,0
2014,10,13,24,0,,8.6,4.9,78,100800,0,0,285,0,0,0,0,0,0,0,20,1.6,0,0,0,0,0,0,0,0,0,0,0,0,0
2014,10,14,1,0,,7.5,5.3,86,100820,0,0,281,0,0,0,0,0,0,0,20,1.6,0,0,0,0,0,0,0,0,0,0,0,0,0
2014,10,14,2,0,,7.2,4.3,82,100880,0,0,279,0,0,0,0,0,0,0,0,0.3,0,0,0,0,0,0,0,0,0,0,0,0,0
2014,10,14,3,0,,6.7,5,89,100870,0,0,278,0,0,0,0,0,0,0,70,0.7,0,0,0,0,0,0,0,0,0,0,0,0,0
2014,10,14,4,0,,6.3,4.7,90,100870,0,0,276,0,0,0,0,0,0,0,0,0.1,0,0,0,0,0,0,0,0,0,0,0,0,0
2014,10,14,5,0,,5.5,4.9,96,100870,0,0,273,0,0,0,0,0,0,0,110,0.6,0,0,0,0,0,0,0,0,0,0,0,0,0
2014,10,14,6,0,,5.1,4.2,94,100910,0,0,271,0,0,0,0,0,0,0,0,0.2,0,0,0,0,0,0,0,0,0,0,0,0,0
2014,10,14,7,0,,4.8,4,95,100960,0,0,270,13,4,9,1278,354,1156,0,0,0.1,0,0,0,0,0,0,0,0,0,0,0,0,0
2014,10,14,8,0,,5.9,4,88,101010,0,0,274,115,433,46,28855,43647,7075,0,50,0.6,0,0,0,0,0,0,0,0,0,0,0,0,0
2014,10,14,9,0,,8.4,4.4,76,101020,0,0,284,280,569,84,47530,57851,12071,0,50,0.8,0,0,0,0,0,0,0,0,0,0,0,0,0
2014,10,14,10,0,,11.2,4.6,64,100980,0,0,295,452,700,102,62667,71345,14219,0,290,0.8,0,0,0,0,0,0,0,0,0,0,0,0,0
2014,10,14,11,0,,15.2,5.1,51,100930,0,0,313,607,822,101,71895,83479,14053,0,250,1.3,0,0,0,0,0,0,0,0,0,0,0,0,0
2014,10,14,12,0,,15.8,3.6,44,100860,0,0,320,664,788,127,69105,79194,17355,0,230,1.7,1,0,0,0,0,0,0,0,0,0,0,0,0
2014,10,14,13,0,,17.3,3.1,39,100790,0,0,326,668,758,140,61534,74525,19542,0,50,1.1,1,0,0,0,0,0,0,0,0,0,0,0,0
2014,10,14,14,0,,18.2,2.5,35,100710,0,0,330,603,689,150,47526,63733,20183,0,290,1.8,1,0,0,0,0,0,0,0,0,0,0,0,0
2014,10,14,15,0,,19.5,4,36,100680,0,0,338,528,731,113,30214,57646,15268,0,290,1.6,1,0,0,0,0,0,0,0,0,0,0,0,0
2014,10,14,16,0,,20.3,4.3,35,100670,0,0,335,396,725,81,10817,20666,9457,0,200,1,0,0,0,0,0,0,0,0,0,0,0,0,0
2014,10,14,17,0,,18.7,4,38,100680,0,0,328,223,632,56,0,0,0,0,180,1.4,0,0,0,0,0,0,0,0,0,0,0,0,0
2014,10,14,18,0,,15.2,3.9,47,100690,0,0,312,56,29,27,0,0,0,0,200,0.9,0,0,0,0,0,0,0,0,0,0,0,0,0
2014,10,14,19,0,,13.8,8.2,69,100770,0,0,310,0,0,0,0,0,0,0,320,0.6,0,0,0,0,0,0,0,0,0,0,0,0,0
2014,10,14,20,0,,12.1,9.1,82,100840,0,0,304,0,0,0,0,0,0,0,0,0.1,0,0,0,0,0,0,0,0,0,0,0,0,0
2014,10,14,21,0,,10.4,8.3,87,100910,0,0,296,0,0,0,0,0,0,0,0,0.2,0,0,0,0,0,0,0,0,0,0,0,0,0
2014,10,14,22,0,,9.2,7.4,89,100960,0,0,290,0,0,0,0,0,0,0,20,0.7,0,0,0,0,0,0,0,0,0,0,0,0,0
2014,10,14,23,0,,8.1,7.4,96,100980,0,0,286,0,0,0,0,0,0,0,20,0.8,0,0,0,0,0,0,0,0,0,0,0,0,0
2014,10,14,24,0,,7.5,6.5,94,100970,0,0,283,0,0,0,0,0,0,0,50,0.5,0,0,0,0,0,0,0,0,0,0,0,0,0
2014,10,15,1,0,,6.8,6.2,96,101000,0,0,280,0,0,0,0,0,0,0,70,0.5,0,0,0,0,0,0,0,0,0,0,0,0,0
2014,10,15,2,0,,6.4,5.9,97,101020,0,0,278,0,0,0,0,0,0,0,0,0.4,0,0,0,0,0,0,0,0,0,0,0,0,0
2014,10,15,3,0,,5.8,5.5,98,101010,0,0,275,0,0,0,0,0,0,0,0,0.2,0,0,0,0,0,0,0,0,0,0,0,0,0
2014,10,15,4,0,,5.2,5.1,100,101010,0,0,272,0,0,0,0,0,0,0,50,0.5,0,0,0,0,0,0,0,0,0,0,0,0,0
2014,10,15,5,0,,5.1,5,100,101060,0,0,272,0,0,0,0,0,0,0,0,0.3,0,0,0,0,0,0,0,0,0,0,0,0,0
2014,10,15,6,0,,5.7,5.5,99,101090,0,0,275,0,0,0,0,0,0,0,340,0.7,0,0,0,0,0,0,0,0,0,0,0,0,0
2014,10,15,7,0,,6.1,6,100,101120,0,0,320,0,0,0,0,0,0,0,290,0.7,10,0,0,0,0,0,0,0,0,0,0,0,0
2014,10,15,8,0,,6.7,6.5,99,101160,0,0,323,35,18,33,5194,1727,4339,0,360,1.1,10,0,0,0,0,0,0,0,0,0,0,0,0
2014,10,15,9,0,,7.3,6.6,96,101170,0,0,326,88,21,80,10744,2004,9524,0,270,0.9,10,0,0,0,0,0,0,0,0,0,0,0,0
2014,10,15,10,0,,8.4,6.5,88,101150,0,0,314,240,108,186,29471,10735,22229,0,320,1.1,8,0,0,0,0,0,0,0,0,0,0,0,0
2014,10,15,11,0,,9.6,5.9,78,101060,0,0,303,476,444,205,56533,43810,26383,0,290,1,3,0,0,0,0,0,0,0,0,0,0,0,0
2014,10,15,12,0,,12.5,4.9,60,100920,0,0,301,610,651,168,64684,64565,22806,0,110,0.7,0,0,0,0,0,0,0,0,0,0,0,0,0
2014,10,15,13,0,,16,4.9,48,100810,0,0,316,681,803,125,62066,79145,17862,0,160,1.3,0,0,0,0,0,0,0,0,0,0,0,0,0
2014,10,15,14,0,,17.8,4.3,41,100740,0,0,324,658,853,101,48885,80489,14753,0,230,2.1,0,0,0,0,0,0,0,0,0,0,0,0,0
2014,10,15,15,0,,18.6,5,41,100690,0,0,328,538,774,101,29536,61181,13973,0,230,2.1,0,0,0,0,0,0,0,0,0,0,0,0,0
2014,10,15,16,0,,18.6,5,41,100690,0,0,328,380,680,88,10874,19410,9689,0,230,2.1,0,0,0,0,0,0,0,0,0,0,0,0,0
2014,10,15,17,0,,18,4.8,42,100680,0,0,325,213,596,58,0,0,0,0,200,1.6,0,0,0,0,0,0,0,0,0,0,0,0,0
2014,10,15,18,0,,16.9,4.8,45,100670,0,0,320,60,36,23,0,0,0,0,180,1.6,0,0,0,0,0,0,0,0,0,0,0,0,0
2014,10,15,19,0,,14.4,9.2,71,100750,0,0,314,0,0,0,0,0,0,0,340,0.7,0,0,0,0,0,0,0,0,0,0,0,0,0
2014,10,15,20,0,,12.3,9.1,81,100800,0,0,305,0,0,0,0,0,0,0,20,0.5,0,0,0,0,0,0,0,0,0,0,0,0,0
2014,10,15,21,0,,10.5,8.9,90,100860,0,0,297,0,0,0,0,0,0,0,0,0.4,0,0,0,0,0,0,0,0,0,0,0,0,0
2014,10,15,22,0,,9.5,8,91,100880,0,0,298,0,0,0,0,0,0,0,270,0.8,1,0,0,0,0,0,0,0,0,0,0,0,0
2014,10,15,23,0,,8.2,6.8,91,100920,0,0,295,0,0,0,0,0,0,0,0,0.4,2,0,0,0,0,0,0,0,0,0,0,0,0
2014,10,15,24,0,,7.4,6.6,95,100930,0,0,295,0,0,0,0,0,0,0,20,0.5,3,0,0,0,0,0,0,0,0,0,0,0,0
2014,10,16,1,0,,7.2,6.1,93,100920,0,0,296,0,0,0,0,0,0,0,0,0.2,4,0,0,0,0,0,0,0,0,0,0,0,0
2014,10,16,2,0,,7,6.2,95,100900,0,0,299,0,0,0,0,0,0,0,50,0.7,6,0,0,0,0,0,0,0,0,0,0,0,0
2014,10,16,3,0,,7,6.4,96,100860,0,0,304,0,0,0,0,0,0,0,340,0.7,7,0,0,0,0,0,0,0,0,0,0,0,0
2014,10,16,4,0,,7.2,6.2,94,100830,0,0,309,0,0,0,0,0,0,0,0,0.4,8,0,0,0,0,0,0,0,0,0,0,0,0
2014,10,16,5,0,,7.5,6.8,96,100780,0,0,327,0,0,0,0,0,0,0,0,0.4,10,0,0,0,0,0,0,0,0,0,0,0,0
2014,10,16,6,0,,7.8,6.7,93,100750,0,0,328,0,0,0,0,0,0,0,0,0.1,10,0,0,0,0,0,0,0,0,0,0,0,0
2014,10,16,7,0,,8.2,8,99,100850,0,0,332,0,0,0,0,0,0,0,140,1.3,10,0,0,0,0,0,0,0,0,0,0,0,0
2014,10,16,8,0,,8.7,8.2,97,100780,0,0,302,104,361,48,25766,35731,8218,0,360,0.5,3,0,0,0,0,0,0,0,0,0,0,0,0
2014,10,16,9,0,,9.7,8.6,93,100830,0,0,323,151,102,116,20442,10021,14385,0,0,0.3,8,0,0,0,0,0,0,0,0,0,0,0,0
2014,10,16,10,0,,11.3,8.6,84,100810,0,0,325,284,181,195,36060,17792,24138,0,200,2,7,0,0,0,0,0,0,0,0,0,0,0,0
2014,10,16,11,0,,13.1,8.9,76,100810,0,0,326,460,407,213,54719,39514,27711,0,110,1.6,5,0,0,0,0,0,0,0,0,0,0,0,0
2014,10,16,12,0,,15.1,8,63,100790,0,0,329,587,602,183,62547,59080,24513,0,230,1.4,3,0,0,0,0,0,0,0,0,0,0,0,0
2014,10,16,13,0,,17.2,1.9,36,100730,0,0,324,690,840,112,61907,83189,15853,0,250,4.6,1,0,0,0,0,0,0,0,0,0,0,0,0
2014,10,16,14,0,,17.9,-1.3,27,100710,0,0,318,635,805,114,47730,75678,16011,0,250,4,0,0,0,0,0,0,0,0,0,0,0,0,0
2014,10,16,15,0,,18.3,-4.4,21,100720,0,0,316,541,801,94,28817,63790,12900,0,320,3.7,0,0,0,0,0,0,0,0,0,0,0,0,0
2014,10,16,16,0,,18.1,-4.6,21,100780,0,0,315,391,744,76,9624,18717,8570,0,250,3.4,0,0,0,0,0,0,0,0,0,0,0,0,0
2014,10,16,17,0,,17.2,-4.1,23,100830,0,0,312,220,669,50,0,0,0,0,250,2.8,0,0,0,0,0,0,0,0,0,0,0,0,0
2014,10,16,18,0,,15.3,-3.6,27,100930,0,0,304,59,38,22,0,0,0,0,270,1.9,0,0,0,0,0,0,0,0,0,0,0,0,0
2014,10,16,19,0,,13.9,-4.3,28,101050,0,0,297,0,0,0,0,0,0,0,270,2.1,0,0,0,0,0,0,0,0,0,0,0,0,0
2014,10,16,20,0,,10.7,3.9,63,101130,0,0,292,0,0,0,0,0,0,0,70,0.7,0,0,0,0,0,0,0,0,0,0,0,0,0
2014,10,16,21,0,,8.4,3.4,71,101180,0,0,282,0,0,0,0,0,0,0,20,0.8,0,0,0,0,0,0,0,0,0,0,0,0,0
2014,10,16,22,0,,6.9,3.3,78,101210,0,0,277,0,0,0,0,0,0,0,0,0.3,0,0,0,0,0,0,0,0,0,0,0,0,0
2014,10,16,23,0,,5.9,2.3,78,101280,0,0,272,0,0,0,0,0,0,0,110,1,0,0,0,0,0,0,0,0,0,0,0,0,0
2014,10,16,24,0,,4.9,2.5,85,101360,0,0,268,0,0,0,0,0,0,0,50,0.7,0,0,0,0,0,0,0,0,0,0,0,0,0
2014,10,17,1,0,,4.1,1.9,86,101400,0,0,264,0,0,0,0,0,0,0,270,0.5,0,0,0,0,0,0,0,0,0,0,0,0,0
2014,10,17,2,0,,3.2,1.5,89,101420,0,0,261,0,0,0,0,0,0,0,90,0.5,0,0,0,0,0,0,0,0,0,0,0,0,0
2014,10,17,3,0,,2.9,1.8,93,101430,0,0,260,0,0,0,0,0,0,0,0,0.4,0,0,0,0,0,0,0,0,0,0,0,0,0
2014,10,17,4,0,,2.2,1.9,98,101430,0,0,258,0,0,0,0,0,0,0,0,0.4,0,0,0,0,0,0,0,0,0,0,0,0,0
2014,10,17,5,0,,2,1.5,97,101480,0,0,257,0,0,0,0,0,0,0,70,0.5,0,0,0,0,0,0,0,0,0,0,0,0,0
2014,10,17,6,0,,1.8,1.6,99,101560,0,0,256,0,0,0,0,0,0,0,110,0.6,0,0,0,0,0,0,0,0,0,0,0,0,0
2014,10,17,7,0,,1.4,1.3,100,101610,0,0,254,10,3,8,1026,233,948,0,0,0.2,0,0,0,0,0,0,0,0,0,0,0,0,0
2014,10,17,8,0,,2.2,1.1,93,101640,0,0,257,103,383,46,25802,38397,7099,0,0,0.2,0,0,0,0,0,0,0,0,0,0,0,0,0
2014,10,17,9,0,,5,1.2,77,101670,0,0,267,272,575,80,46557,58292,11570,0,360,0.6,0,0,0,0,0,0,0,0,0,0,0,0,0
2014,10,17,10,0,,7.6,1.6,66,101630,0,0,277,440,696,100,61030,70746,13941,0,360,0.8,0,0,0,0,0,0,0,0,0,0,0,0,0
2014,10,17,11,0,,10.3,1.3,54,101580,0,0,288,587,802,104,69626,81477,14318,0,340,1.2,0,0,0,0,0,0,0,0,0,0,0,0,0
2014,10,17,12,0,,13.4,-1,37,101480,0,0,299,672,846,106,69315,85353,14778,0,50,1,0,0,0,0,0,0,0,0,0,0,0,0,0
2014,10,17,13,0,,16.3,0.7,35,101350,0,0,313,691,856,107,61660,84834,15111,0,180,1.4,0,0,0,0,0,0,0,0,0,0,0,0,0
2014,10,17,14,0,,18.3,0.8,31,101240,0,0,328,655,873,94,48021,82741,13746,0,250,2.7,1,0,0,0,0,0,0,0,0,0,0,0,0
2014,10,17,15,0,,19.3,1.7,31,101190,0,0,338,540,814,90,28232,64216,12517,0,200,2.7,2,0,0,0,0,0,0,0,0,0,0,0,0
2014,10,17,16,0,,19.3,1.7,31,101180,0,0,338,385,738,76,9386,16064,8556,0,180,2.8,2,0,0,0,0,0,0,0,0,0,0,0,0
2014,10,17,17,0,,18.6,2.4,34,101170,0,0,339,200,565,59,0,0,0,0,180,1.7,3,0,0,0,0,0,0,0,0,0,0,0,0
2014,10,17,18,0,,17.3,3.5,40,101210,0,0,337,51,26,25,0,0,0,0,200,1.3,4,0,0,0,0,0,0,0,0,0,0,0,0
2014,10,17,19,0,,14.6,8.5,67,101290,0,0,327,0,0,0,0,0,0,0,0,0.1,3,0,0,0,0,0,0,0,0,0,0,0,0
2014,10,17,20,0,,12,8.2,78,101340,0,0,310,0,0,0,0,0,0,0,20,1.1,1,0,0,0,0,0,0,0,0,0,0,0,0
2014,10,17,21,0,,10,7.5,85,101370,0,0,294,0,0,0,0,0,0,0,20,0.8,0,0,0,0,0,0,0,0,0,0,0,0,0
2014,10,17,22,0,,8.9,7,88,101400,0,0,289,0,0,0,0,0,0,0,0,0.1,0,0,0,0,0,0,0,0,0,0,0,0,0
2014,10,17,23,0,,8.1,6.5,90,101430,0,0,285,0,0,0,0,0,0,0,0,0,0,0,0,0,0,0,0,0,0,0,0,0,0
2014,10,17,24,0,,7.5,6.1,91,101440,0,0,282,0,0,0,0,0,0,0,0,0.4,0,0,0,0,0,0,0,0,0,0,0,0,0
2014,10,18,1,0,,6.8,6.2,96,101470,0,0,280,0,0,0,0,0,0,0,0,0.4,0,0,0,0,0,0,0,0,0,0,0,0,0
2014,10,18,2,0,,6.3,5.8,97,101500,0,0,277,0,0,0,0,0,0,0,0,0.1,0,0,0,0,0,0,0,0,0,0,0,0,0
2014,10,18,3,0,,5.8,5.6,99,101500,0,0,275,0,0,0,0,0,0,0,0,0.3,0,0,0,0,0,0,0,0,0,0,0,0,0
2014,10,18,4,0,,5.6,5.3,98,101520,0,0,274,0,0,0,0,0,0,0,0,0.3,0,0,0,0,0,0,0,0,0,0,0,0,0
2014,10,18,5,0,,5.1,5,100,101570,0,0,272,0,0,0,0,0,0,0,0,0.2,0,0,0,0,0,0,0,0,0,0,0,0,0
2014,10,18,6,0,,4.8,4.7,100,101610,0,0,271,0,0,0,0,0,0,0,0,0,0,0,0,0,0,0,0,0,0,0,0,0,0
2014,10,18,7,0,,4.7,4.6,100,101620,0,0,297,1,0,1,184,0,184,0,20,0.6,8,0,0,0,0,0,0,0,0,0,0,0,0
2014,10,18,8,0,,5.8,5.7,100,101670,0,0,318,28,2,27,3509,75,3473,0,0,0.2,10,0,0,0,0,0,0,0,0,0,0,0,0
2014,10,18,9,0,,7,6.8,99,101720,0,0,325,91,26,82,11219,2467,9749,0,360,0.5,10,0,0,0,0,0,0,0,0,0,0,0,0
2014,10,18,10,0,,8.4,7,91,101700,0,0,304,337,326,179,44814,31900,23725,0,320,1,5,0,0,0,0,0,0,0,0,0,0,0,0
2014,10,18,11,0,,11,5.7,70,101660,0,0,296,528,639,146,63583,64046,20407,0,270,0.7,0,0,0,0,0,0,0,0,0,0,0,0,0
2014,10,18,12,0,,14,5.8,58,101570,0,0,308,613,696,150,64720,69169,20857,0,340,1.1,0,0,0,0,0,0,0,0,0,0,0,0,0
2014,10,18,13,0,,16.9,6.1,49,101470,0,0,322,662,793,125,60103,77645,17876,0,360,1,0,0,0,0,0,0,0,0,0,0,0,0,0
2014,10,18,14,0,,18.8,7.5,48,101400,0,0,332,615,775,120,46263,71516,16984,0,90,0.7,0,0,0,0,0,0,0,0,0,0,0,0,0
2014,10,18,15,0,,20.2,8.8,48,101340,0,0,340,514,745,105,27998,56724,14387,0,110,1.3,0,0,0,0,0,0,0,0,0,0,0,0,0
2014,10,18,16,0,,20.7,9.2,48,101330,0,0,343,370,695,82,9693,10896,9181,0,140,1.1,0,0,0,0,0,0,0,0,0,0,0,0,0
2014,10,18,17,0,,20.4,10.4,53,101350,0,0,343,205,621,52,0,0,0,0,180,1.7,0,0,0,0,0,0,0,0,0,0,0,0,0
2014,10,18,18,0,,19.1,12.3,65,101390,0,0,339,51,27,24,0,0,0,0,250,0.7,0,0,0,0,0,0,0,0,0,0,0,0,0
2014,10,18,19,0,,16.4,13.3,82,101460,0,0,328,0,0,0,0,0,0,0,0,0.4,0,0,0,0,0,0,0,0,0,0,0,0,0
2014,10,18,20,0,,14.6,13.1,91,101520,0,0,320,0,0,0,0,0,0,0,0,0,0,0,0,0,0,0,0,0,0,0,0,0,0
2014,10,18,21,0,,13.1,12.3,95,101550,0,0,312,0,0,0,0,0,0,0,0,0.4,0,0,0,0,0,0,0,0,0,0,0,0,0
2014,10,18,22,0,,12.1,11.7,98,101610,0,0,307,0,0,0,0,0,0,0,0,0.1,0,0,0,0,0,0,0,0,0,0,0,0,0
2014,10,18,23,0,,11.3,11.1,99,101650,0,0,303,0,0,0,0,0,0,0,0,0.4,0,0,0,0,0,0,0,0,0,0,0,0,0
2014,10,18,24,0,,10.4,10.3,100,101640,0,0,299,0,0,0,0,0,0,0,0,0.1,0,0,0,0,0,0,0,0,0,0,0,0,0
2014,10,19,1,0,,10.1,10,100,101640,0,0,311,0,0,0,0,0,0,0,110,0.8,3,0,0,0,0,0,0,0,0,0,0,0,0
2014,10,19,2,0,,9.5,9.4,100,101600,0,0,317,0,0,0,0,0,0,0,290,0.8,7,0,0,0,0,0,0,0,0,0,0,0,0
2014,10,19,3,0,,9.7,9.6,100,101580,0,0,341,0,0,0,0,0,0,0,90,0.6,10,0,0,0,0,0,0,0,0,0,0,0,0
2014,10,19,4,0,,10,9.9,100,101620,0,0,342,0,0,0,0,0,0,0,320,0.5,10,0,0,0,0,0,0,0,0,0,0,0,0
2014,10,19,5,0,,10.5,10.4,100,101640,0,0,345,0,0,0,0,0,0,0,360,0.6,10,0,0,0,0,0,0,0,0,0,0,0,0
2014,10,19,6,0,,10.6,10.5,100,101650,0,0,346,0,0,0,0,0,0,0,340,0.9,10,0,0,0,0,0,0,0,0,0,0,0,0
2014,10,19,7,0,,10.6,10.5,100,101640,0,0,346,0,0,0,0,0,0,0,290,0.8,10,0,0,0,0,0,0,0,0,0,0,0,0
2014,10,19,8,0,,10.7,10.6,100,101670,0,0,347,27,2,26,3411,70,3378,0,340,0.8,10,0,0,0,0,0,0,0,0,0,0,0,0
2014,10,19,9,0,,11,10.8,99,101700,0,0,348,79,18,73,9639,1648,8664,0,340,1.5,10,0,0,0,0,0,0,0,0,0,0,0,0
2014,10,19,10,0,,11.3,10.6,96,101680,0,0,349,117,16,109,13903,1494,12922,0,340,0.8,10,0,0,0,0,0,0,0,0,0,0,0,0
2014,10,19,11,0,,11.9,10.6,92,101620,0,0,352,156,18,145,18139,1672,17020,0,0,0.4,10,0,0,0,0,0,0,0,0,0,0,0,0
2014,10,19,12,0,,13.3,10.2,82,101520,0,0,329,455,253,288,49559,24301,34265,0,250,1.1,5,0,0,0,0,0,0,0,0,0,0,0,0
2014,10,19,13,0,,14.6,10.7,78,101390,0,0,348,355,115,278,37394,10836,31554,0,250,1.2,8,0,0,0,0,0,0,0,0,0,0,0,0
2014,10,19,14,0,,16.3,10.1,67,101260,0,0,355,359,146,267,35453,13530,29979,0,250,1,8,0,0,0,0,0,0,0,0,0,0,0,0
2014,10,19,15,0,,17.2,9.8,62,101200,0,0,360,307,159,221,27609,13391,24459,0,0,0.3,8,0,0,0,0,0,0,0,0,0,0,0,0
2014,10,19,16,0,,17.5,10.6,64,101160,0,0,370,189,103,147,15943,6611,15662,0,320,0.5,9,0,0,0,0,0,0,0,0,0,0,0,0
2014,10,19,17,0,,17.6,10.7,64,101140,0,0,370,100,92,78,0,0,0,0,0,0.3,9,0,0,0,0,0,0,0,0,0,0,0,0
2014,10,19,18,0,,16.9,13.4,80,101180,0,0,370,18,2,16,0,0,0,0,290,0.7,9,0,0,0,0,0,0,0,0,0,0,0,0
2014,10,19,19,0,,15.7,13.5,87,101170,0,0,365,0,0,0,0,0,0,0,0,0.3,9,0,0,0,0,0,0,0,0,0,0,0,0
2014,10,19,20,0,,15,13.5,91,101190,0,0,361,0,0,0,0,0,0,0,0,0.2,9,0,0,0,0,0,0,0,0,0,0,0,0
2014,10,19,21,0,,14.4,13.1,92,101170,0,0,358,0,0,0,0,0,0,0,0,0.3,9,0,0,0,0,0,0,0,0,0,0,0,0
2014,10,19,22,0,,14,13,94,101150,0,0,359,0,0,0,0,0,0,0,0,0.4,9,0,0,0,0,0,0,0,0,0,0,0,0
2014,10,19,23,0,,13.9,12.7,93,101120,0,0,361,0,0,0,0,0,0,0,70,1.1,10,0,0,0,0,0,0,0,0,0,0,0,0
2014,10,19,24,0,,13.8,12.5,92,101130,0,0,364,0,0,0,0,0,0,0,0,0.4,10,0,0,0,0,0,0,0,0,0,0,0,0
2014,10,20,1,0,,13.6,12.4,93,101150,0,0,363,0,0,0,0,0,0,0,90,1,10,0,0,0,0,0,0,0,0,0,0,0,0
2014,10,20,2,0,,13.5,13.1,98,101170,0,0,363,0,0,0,0,0,0,0,110,0.5,10,0,0,0,0,0,0,0,0,0,0,0,0
2014,10,20,3,0,,13.3,13.2,100,101080,0,0,363,0,0,0,0,0,0,0,320,0.7,10,0,0,0,0,0,0,0,0,0,0,0,0
2014,10,20,4,0,,13.2,13.1,100,101040,0,0,362,0,0,0,0,0,0,0,50,0.8,10,0,0,0,0,0,0,0,0,0,0,0,0
2014,10,20,5,0,,13,12.9,100,100990,0,0,361,0,0,0,0,0,0,0,360,1.5,10,0,0,0,0,0,0,0,0,0,0,0,0
2014,10,20,6,0,,12.9,12.8,100,100970,0,0,360,0,0,0,0,0,0,0,360,1.6,10,0,0,0,0,0,0,0,0,0,0,0,0
2014,10,20,7,0,,12.8,12.7,100,100950,0,0,359,0,0,0,0,0,0,0,20,0.5,10,0,0,0,0,0,0,0,0,0,0,0,0
2014,10,20,8,0,,12.7,12.6,100,100940,0,0,359,27,2,25,3303,63,3273,0,320,0.9,10,0,0,0,0,0,0,0,0,0,0,0,0
2014,10,20,9,0,,12.7,12.6,100,100940,0,0,359,72,15,68,8892,1339,8105,0,360,1,10,0,0,0,0,0,0,0,0,0,0,0,0
2014,10,20,10,0,,12.9,12.8,100,100890,0,0,360,113,15,106,13468,1373,12573,0,360,1.3,10,0,0,0,0,0,0,0,0,0,0,0,0
2014,10,20,11,0,,13.1,13,100,100890,0,0,361,156,18,145,18121,1665,17014,0,320,1.5,10,0,0,0,0,0,0,0,0,0,0,0,0
2014,10,20,12,0,,13.5,13.3,99,100820,0,0,364,163,15,153,18826,931,18245,0,340,1.1,10,0,0,0,0,0,0,0,0,0,0,0,0
2014,10,20,13,0,,14.2,12.9,92,100740,0,0,367,192,21,178,21261,1478,20471,0,0,0.4,10,0,0,0,0,0,0,0,0,0,0,0,0
2014,10,20,14,0,,15,13.3,90,100660,0,0,371,183,23,169,19427,1557,18805,0,110,0.8,10,0,0,0,0,0,0,0,0,0,0,0,0
2014,10,20,15,0,,15.5,13.6,89,100670,0,0,374,160,27,146,15792,1511,15444,0,110,1,10,0,0,0,0,0,0,0,0,0,0,0,0
2014,10,20,16,0,,15.7,13.8,89,100680,0,0,375,110,23,100,9474,1780,9407,0,160,0.9,10,0,0,0,0,0,0,0,0,0,0,0,0
2014,10,20,17,0,,15.7,14.3,92,100690,0,0,376,54,17,50,0,0,0,0,140,0.7,10,0,0,0,0,0,0,0,0,0,0,0,0
2014,10,20,18,0,,15.4,14.4,94,100740,0,0,375,9,0,9,0,0,0,0,0,0.1,10,0,0,0,0,0,0,0,0,0,0,0,0
2014,10,20,19,0,,15.2,14.5,96,100810,0,0,374,0,0,0,0,0,0,0,0,0.2,10,0,0,0,0,0,0,0,0,0,0,0,0
2014,10,20,20,0,,15.2,14.8,98,100840,0,0,374,0,0,0,0,0,0,0,0,0.4,10,0,0,0,0,0,0,0,0,0,0,0,0
2014,10,20,21,0,,15.1,14.7,98,100850,0,0,374,0,0,0,0,0,0,0,0,0.1,10,0,0,0,0,0,0,0,0,0,0,0,0
2014,10,20,22,0,,15.1,14.7,98,100880,0,0,374,0,0,0,0,0,0,0,0,0,10,0,0,0,0,0,0,0,0,0,0,0,0
2014,10,20,23,0,,15.1,14.7,98,100910,0,0,374,0,0,0,0,0,0,0,0,0.1,10,0,0,0,0,0,0,0,0,0,0,0,0
2014,10,20,24,0,,15,14.8,99,100850,0,0,373,0,0,0,0,0,0,0,0,0.3,10,0,0,0,0,0,0,0,0,0,0,0,0
2014,10,21,1,0,,15,14.6,98,100830,0,0,373,0,0,0,0,0,0,0,160,0.6,10,0,0,0,0,0,0,0,0,0,0,0,0
2014,10,21,2,0,,14.9,14.7,99,100810,0,0,373,0,0,0,0,0,0,0,0,0.2,10,0,0,0,0,0,0,0,0,0,0,0,0
2014,10,21,3,0,,14.8,14.6,99,100780,0,0,372,0,0,0,0,0,0,0,340,1.3,10,0,0,0,0,0,0,0,0,0,0,0,0
2014,10,21,4,0,,14.7,14,96,100810,0,0,371,0,0,0,0,0,0,0,20,1.1,10,0,0,0,0,0,0,0,0,0,0,0,0
2014,10,21,5,0,,14.6,13.9,96,100830,0,0,370,0,0,0,0,0,0,0,20,1.4,10,0,0,0,0,0,0,0,0,0,0,0,0
2014,10,21,6,0,,14.4,12.9,91,100850,0,0,367,0,0,0,0,0,0,0,0,0.3,10,0,0,0,0,0,0,0,0,0,0,0,0
2014,10,21,7,0,,14.5,13.3,93,100860,0,0,369,0,0,0,0,0,0,0,360,1.3,10,0,0,0,0,0,0,0,0,0,0,0,0
2014,10,21,8,0,,14.5,12.3,87,100920,0,0,367,29,2,27,3531,85,3490,0,320,0.8,10,0,0,0,0,0,0,0,0,0,0,0,0
2014,10,21,9,0,,14.7,13.5,93,100990,0,0,370,77,18,71,9429,1622,8483,0,340,1.3,10,0,0,0,0,0,0,0,0,0,0,0,0
2014,10,21,10,0,,14.8,14.1,96,101030,0,0,371,125,20,115,14862,1855,13660,0,340,1.9,10,0,0,0,0,0,0,0,0,0,0,0,0
2014,10,21,11,0,,14.7,12.5,87,101050,0,0,368,160,20,148,18628,1868,17395,0,20,2.5,10,0,0,0,0,0,0,0,0,0,0,0,0
2014,10,21,12,0,,14.2,12.9,92,101030,0,0,367,176,18,164,20138,1217,19384,0,20,2.1,10,0,0,0,0,0,0,0,0,0,0,0,0
2014,10,21,13,0,,14.1,12.6,91,101040,0,0,366,151,11,143,17153,708,16778,0,50,1,10,0,0,0,0,0,0,0,0,0,0,0,0
2014,10,21,14,0,,13.5,12.5,94,101000,0,0,363,149,13,140,16187,815,15865,0,360,2.1,10,0,0,0,0,0,0,0,0,0,0,0,0
2014,10,21,15,0,,13,12.5,97,101020,0,0,360,111,10,106,11595,414,11502,0,360,1.6,10,0,0,0,0,0,0,0,0,0,0,0,0
2014,10,21,16,0,,12.5,11.8,96,101000,0,0,357,90,14,84,8010,792,7983,0,20,1.5,10,0,0,0,0,0,0,0,0,0,0,0,0
2014,10,21,17,0,,12.3,11.5,95,100990,0,0,355,46,12,44,0,0,0,0,360,0.7,10,0,0,0,0,0,0,0,0,0,0,0,0
2014,10,21,18,0,,12.1,11.1,94,100990,0,0,354,9,0,9,0,0,0,0,20,1.1,10,0,0,0,0,0,0,0,0,0,0,0,0
2014,10,21,19,0,,11.9,10.1,89,100980,0,0,351,0,0,0,0,0,0,0,20,2,10,0,0,0,0,0,0,0,0,0,0,0,0
2014,10,21,20,0,,11.7,10.1,90,100930,0,0,351,0,0,0,0,0,0,0,360,2.1,10,0,0,0,0,0,0,0,0,0,0,0,0
2014,10,21,21,0,,11.5,10.7,95,100950,0,0,350,0,0,0,0,0,0,0,360,1.2,10,0,0,0,0,0,0,0,0,0,0,0,0
2014,10,21,22,0,,11.6,10.5,93,101020,0,0,351,0,0,0,0,0,0,0,0,0.3,10,0,0,0,0,0,0,0,0,0,0,0,0
2014,10,21,23,0,,11.8,8.2,79,101020,0,0,348,0,0,0,0,0,0,0,70,1.9,10,0,0,0,0,0,0,0,0,0,0,0,0
2014,10,21,24,0,,11.8,8,78,101050,0,0,348,0,0,0,0,0,0,0,20,1.8,10,0,0,0,0,0,0,0,0,0,0,0,0
2014,10,22,1,0,,11.7,8.1,79,101030,0,0,348,0,0,0,0,0,0,0,20,2.2,10,0,0,0,0,0,0,0,0,0,0,0,0
2014,10,22,2,0,,11.6,7.5,76,101100,0,0,346,0,0,0,0,0,0,0,50,0.8,10,0,0,0,0,0,0,0,0,0,0,0,0
2014,10,22,3,0,,11.5,7.4,76,101050,0,0,346,0,0,0,0,0,0,0,20,1.1,10,0,0,0,0,0,0,0,0,0,0,0,0
2014,10,22,4,0,,11.4,8.2,81,101040,0,0,346,0,0,0,0,0,0,0,360,1.6,10,0,0,0,0,0,0,0,0,0,0,0,0
2014,10,22,5,0,,11.1,8.4,84,101070,0,0,345,0,0,0,0,0,0,0,340,0.8,10,0,0,0,0,0,0,0,0,0,0,0,0
2014,10,22,6,0,,11,8.3,84,101130,0,0,335,0,0,0,0,0,0,0,290,1.3,9,0,0,0,0,0,0,0,0,0,0,0,0
2014,10,22,7,0,,10.9,8.6,86,101150,0,0,335,0,0,0,0,0,0,0,360,1.1,9,0,0,0,0,0,0,0,0,0,0,0,0
2014,10,22,8,0,,11.2,6.3,72,101230,0,0,333,46,8,38,4868,719,4532,0,20,2.2,9,0,0,0,0,0,0,0,0,0,0,0,0
2014,10,22,9,0,,12,6.4,69,101290,0,0,330,165,166,113,24025,16363,14554,0,20,3.6,8,0,0,0,0,0,0,0,0,0,0,0,0
2014,10,22,10,0,,12.9,6.4,65,101280,0,0,329,288,224,183,36785,22251,22476,0,50,3.6,7,0,0,0,0,0,0,0,0,0,0,0,0
2014,10,22,11,0,,13.6,6.4,62,101300,0,0,338,316,137,236,36601,13636,27663,0,50,2.8,8,0,0,0,0,0,0,0,0,0,0,0,0
2014,10,22,12,0,,14.3,6.1,58,101270,0,0,341,371,149,274,40652,14654,31638,0,50,3.7,8,0,0,0,0,0,0,0,0,0,0,0,0
2014,10,22,13,0,,14.5,5.5,55,101230,0,0,341,365,133,277,38015,12847,31274,0,50,2.6,8,0,0,0,0,0,0,0,0,0,0,0,0
2014,10,22,14,0,,14.9,5.6,54,101180,0,0,343,348,144,259,34171,13502,28900,0,50,2.7,8,0,0,0,0,0,0,0,0,0,0,0,0
2014,10,22,15,0,,14.8,5.5,54,101190,0,0,342,282,137,210,25714,11596,23146,0,50,2.3,8,0,0,0,0,0,0,0,0,0,0,0,0
2014,10,22,16,0,,14.5,5.8,56,101220,0,0,349,167,82,135,14402,5307,14247,0,70,2,9,0,0,0,0,0,0,0,0,0,0,0,0
2014,10,22,17,0,,14,5.6,57,101240,0,0,339,106,131,76,0,0,0,0,70,1.4,8,0,0,0,0,0,0,0,0,0,0,0,0
2014,10,22,18,0,,13.4,5.5,59,101250,0,0,336,24,5,19,0,0,0,0,50,1.5,8,0,0,0,0,0,0,0,0,0,0,0,0
2014,10,22,19,0,,12.8,5.9,63,101290,0,0,322,0,0,0,0,0,0,0,20,1.8,5,0,0,0,0,0,0,0,0,0,0,0,0
2014,10,22,20,0,,11.8,8,78,101320,0,0,314,0,0,0,0,0,0,0,360,1.7,3,0,0,0,0,0,0,0,0,0,0,0,0
2014,10,22,21,0,,10.1,8.3,89,101390,0,0,295,0,0,0,0,0,0,0,360,0.6,0,0,0,0,0,0,0,0,0,0,0,0,0
2014,10,22,22,0,,9,8,94,101420,0,0,290,0,0,0,0,0,0,0,360,1.9,0,0,0,0,0,0,0,0,0,0,0,0,0
2014,10,22,23,0,,8.1,7.1,94,101430,0,0,286,0,0,0,0,0,0,0,360,1.7,0,0,0,0,0,0,0,0,0,0,0,0,0
2014,10,22,24,0,,7.3,6.9,98,101390,0,0,282,0,0,0,0,0,0,0,360,1.4,0,0,0,0,0,0,0,0,0,0,0,0,0
2014,10,23,1,0,,6.6,6.4,99,101390,0,0,279,0,0,0,0,0,0,0,20,0.5,0,0,0,0,0,0,0,0,0,0,0,0,0
2014,10,23,2,0,,6.3,6.1,99,101400,0,0,278,0,0,0,0,0,0,0,0,0.3,0,0,0,0,0,0,0,0,0,0,0,0,0
2014,10,23,3,0,,5.8,5.6,99,101400,0,0,275,0,0,0,0,0,0,0,20,1.2,0,0,0,0,0,0,0,0,0,0,0,0,0
2014,10,23,4,0,,5.4,5.3,100,101380,0,0,273,0,0,0,0,0,0,0,70,0.5,0,0,0,0,0,0,0,0,0,0,0,0,0
2014,10,23,5,0,,5.4,5.3,100,101390,0,0,273,0,0,0,0,0,0,0,360,0.5,0,0,0,0,0,0,0,0,0,0,0,0,0
2014,10,23,6,0,,5.8,5.6,99,101430,0,0,275,0,0,0,0,0,0,0,20,0.6,0,0,0,0,0,0,0,0,0,0,0,0,0
2014,10,23,7,0,,6.1,5.8,98,101430,0,0,319,0,0,0,0,0,0,0,20,0.5,10,0,0,0,0,0,0,0,0,0,0,0,0
2014,10,23,8,0,,6.4,5.9,97,101510,0,0,321,29,2,26,3479,100,3432,0,320,1,10,0,0,0,0,0,0,0,0,0,0,0,0
2014,10,23,9,0,,6.8,5.8,94,101550,0,0,322,79,21,72,9686,1963,8558,0,270,0.7,10,0,0,0,0,0,0,0,0,0,0,0,0
2014,10,23,10,0,,7.3,5.9,91,101510,0,0,325,122,20,113,14432,1913,13211,0,360,0.6,10,0,0,0,0,0,0,0,0,0,0,0,0
2014,10,23,11,0,,8.2,5.9,86,101490,0,0,328,168,24,154,19386,2309,17883,0,340,0.6,10,0,0,0,0,0,0,0,0,0,0,0,0
2014,10,23,12,0,,9.8,5.9,77,101370,0,0,297,538,544,189,56883,53089,24479,0,340,1,1,0,0,0,0,0,0,0,0,0,0,0,0
2014,10,23,13,0,,12.1,6.7,70,101230,0,0,301,573,610,174,52837,58052,22652,0,70,1.1,0,0,0,0,0,0,0,0,0,0,0,0,0
2014,10,23,14,0,,14.3,6.3,59,101110,0,0,310,567,705,133,42822,63628,18276,0,50,1,0,0,0,0,0,0,0,0,0,0,0,0,0
2014,10,23,15,0,,16.3,6.6,53,101050,0,0,320,486,728,103,25369,53001,13870,0,140,1.2,0,0,0,0,0,0,0,0,0,0,0,0,0
2014,10,23,16,0,,17.2,6.3,49,101040,0,0,323,358,733,71,7492,1566,7453,0,200,1.1,0,0,0,0,0,0,0,0,0,0,0,0,0
2014,10,23,17,0,,17,7,52,101040,0,0,323,189,651,44,0,0,0,0,180,1.3,0,0,0,0,0,0,0,0,0,0,0,0,0
2014,10,23,18,0,,15.9,9.5,66,101070,0,0,321,44,24,20,0,0,0,0,250,1.1,0,0,0,0,0,0,0,0,0,0,0,0,0
2014,10,23,19,0,,13.6,11.2,86,101110,0,0,313,0,0,0,0,0,0,0,50,0.5,0,0,0,0,0,0,0,0,0,0,0,0,0
2014,10,23,20,0,,11.7,10.9,95,101120,0,0,305,0,0,0,0,0,0,0,0,0.1,0,0,0,0,0,0,0,0,0,0,0,0,0
2014,10,23,21,0,,10.6,9.9,96,101170,0,0,299,0,0,0,0,0,0,0,0,0,0,0,0,0,0,0,0,0,0,0,0,0,0
2014,10,23,22,0,,9.7,9.3,98,101210,0,0,295,0,0,0,0,0,0,0,0,0.4,0,0,0,0,0,0,0,0,0,0,0,0,0
2014,10,23,23,0,,8.9,8.7,99,101200,0,0,291,0,0,0,0,0,0,0,0,0,0,0,0,0,0,0,0,0,0,0,0,0,0
2014,10,23,24,0,,8.2,8.1,100,101170,0,0,287,0,0,0,0,0,0,0,0,0.2,0,0,0,0,0,0,0,0,0,0,0,0,0
2014,10,24,1,0,,7.9,7.8,100,101190,0,0,303,0,0,0,0,0,0,0,0,0.3,5,0,0,0,0,0,0,0,0,0,0,0,0
2014,10,24,2,0,,8.1,8,100,101210,0,0,331,0,0,0,0,0,0,0,0,0.1,10,0,0,0,0,0,0,0,0,0,0,0,0
2014,10,24,3,0,,8.5,8.4,100,101180,0,0,333,0,0,0,0,0,0,0,0,0.4,10,0,0,0,0,0,0,0,0,0,0,0,0
2014,10,24,4,0,,8.7,8.6,100,101170,0,0,335,0,0,0,0,0,0,0,320,0.9,10,0,0,0,0,0,0,0,0,0,0,0,0
2014,10,24,5,0,,8.8,8.7,100,101190,0,0,335,0,0,0,0,0,0,0,0,0,10,0,0,0,0,0,0,0,0,0,0,0,0
2014,10,24,6,0,,8.8,8.7,100,101230,0,0,335,0,0,0,0,0,0,0,200,0.7,10,0,0,0,0,0,0,0,0,0,0,0,0
2014,10,24,7,0,,8.7,8.6,100,101300,0,0,335,0,0,0,0,0,0,0,320,0.8,10,0,0,0,0,0,0,0,0,0,0,0,0
2014,10,24,8,0,,8.8,8.7,100,101350,0,0,335,23,1,22,2901,56,2876,0,360,1.1,10,0,0,0,0,0,0,0,0,0,0,0,0
2014,10,24,9,0,,8.9,8.8,100,101370,0,0,336,69,15,64,8424,1354,7652,0,340,1.2,10,0,0,0,0,0,0,0,0,0,0,0,0
2014,10,24,10,0,,9.5,9,97,101370,0,0,339,110,16,103,13056,1445,12140,0,320,0.6,10,0,0,0,0,0,0,0,0,0,0,0,0
2014,10,24,11,0,,10,8.7,92,101380,0,0,341,153,19,142,17729,1787,16574,0,340,0.5,10,0,0,0,0,0,0,0,0,0,0,0,0
2014,10,24,12,0,,11.6,8.8,83,101310,0,0,302,517,496,201,55044,47623,26199,0,20,1.2,0,0,0,0,0,0,0,0,0,0,0,0,0
2014,10,24,13,0,,13.6,8.4,71,101170,0,0,310,554,567,185,51581,53444,24041,0,360,1.2,0,0,0,0,0,0,0,0,0,0,0,0,0
2014,10,24,14,0,,16.4,8.6,60,101050,0,0,322,568,723,127,42485,64981,17714,0,180,1.4,0,0,0,0,0,0,0,0,0,0,0,0,0
2014,10,24,15,0,,18.1,8.9,55,101020,0,0,330,492,763,94,24716,55312,12961,0,140,1.8,0,0,0,0,0,0,0,0,0,0,0,0,0
2014,10,24,16,0,,18.7,9.4,55,101000,0,0,334,353,733,70,7339,0,7339,0,200,1.8,0,0,0,0,0,0,0,0,0,0,0,0,0
2014,10,24,17,0,,18.4,9.9,58,100990,0,0,333,179,598,48,0,0,0,0,180,1.5,0,0,0,0,0,0,0,0,0,0,0,0,0
2014,10,24,18,0,,17,12.5,75,101030,0,0,329,39,18,21,0,0,0,0,270,1.1,0,0,0,0,0,0,0,0,0,0,0,0,0
2014,10,24,19,0,,14.8,12.9,89,101100,0,0,331,0,0,0,0,0,0,0,0,0.4,2,0,0,0,0,0,0,0,0,0,0,0,0
2014,10,24,20,0,,13.4,12.6,95,101170,0,0,330,0,0,0,0,0,0,0,50,0.5,4,0,0,0,0,0,0,0,0,0,0,0,0
2014,10,24,21,0,,12.7,11.9,95,101200,0,0,331,0,0,0,0,0,0,0,0,0.2,6,0,0,0,0,0,0,0,0,0,0,0,0
2014,10,24,22,0,,11.7,11.5,99,101230,0,0,325,0,0,0,0,0,0,0,360,0.7,5,0,0,0,0,0,0,0,0,0,0,0,0
2014,10,24,23,0,,11.1,11,100,101230,0,0,320,0,0,0,0,0,0,0,0,0.2,5,0,0,0,0,0,0,0,0,0,0,0,0
2014,10,24,24,0,,10.7,10.6,100,101230,0,0,316,0,0,0,0,0,0,0,0,0.1,4,0,0,0,0,0,0,0,0,0,0,0,0
2014,10,25,1,0,,10.2,10.1,100,101250,0,0,318,0,0,0,0,0,0,0,0,0.4,6,0,0,0,0,0,0,0,0,0,0,0,0
2014,10,25,2,0,,10.5,10.4,100,101250,0,0,329,0,0,0,0,0,0,0,70,0.5,8,0,0,0,0,0,0,0,0,0,0,0,0
2014,10,25,3,0,,10.6,10.5,100,101210,0,0,346,0,0,0,0,0,0,0,320,0.5,10,0,0,0,0,0,0,0,0,0,0,0,0
2014,10,25,4,0,,10.7,10.6,100,101190,0,0,347,0,0,0,0,0,0,0,20,0.7,10,0,0,0,0,0,0,0,0,0,0,0,0
2014,10,25,5,0,,10.8,10.7,100,101210,0,0,347,0,0,0,0,0,0,0,340,1.2,10,0,0,0,0,0,0,0,0,0,0,0,0
2014,10,25,6,0,,10.8,10.7,100,101200,0,0,347,0,0,0,0,0,0,0,360,0.7,10,0,0,0,0,0,0,0,0,0,0,0,0
2014,10,25,7,0,,10.8,10.7,100,101240,0,0,347,0,0,0,0,0,0,0,340,1.2,10,0,0,0,0,0,0,0,0,0,0,0,0
2014,10,25,8,0,,11,10.8,99,101300,0,0,348,24,2,23,3009,63,2980,0,340,1.4,10,0,0,0,0,0,0,0,0,0,0,0,0
2014,10,25,9,0,,11.3,10.8,97,101330,0,0,350,71,17,66,8782,1559,7899,0,360,0.8,10,0,0,0,0,0,0,0,0,0,0,0,0
2014,10,25,10,0,,11.8,10.8,94,101350,0,0,352,118,20,109,14035,1814,12893,0,90,0.7,10,0,0,0,0,0,0,0,0,0,0,0,0
2014,10,25,11,0,,12.6,10.9,90,101320,0,0,339,268,93,215,31404,8933,25672,0,360,1.1,8,0,0,0,0,0,0,0,0,0,0,0,0
2014,10,25,12,0,,14.3,10.8,80,101230,0,0,316,525,529,190,55452,50286,25228,0,50,0.9,0,0,0,0,0,0,0,0,0,0,0,0,0
2014,10,25,13,0,,17.1,9.9,63,101100,0,0,327,589,679,150,53916,64754,20847,0,90,1.4,0,0,0,0,0,0,0,0,0,0,0,0,0
2014,10,25,14,0,,19.4,9.5,53,101010,0,0,337,569,737,122,42078,66142,17164,0,140,1.2,0,0,0,0,0,0,0,0,0,0,0,0,0
2014,10,25,15,0,,20.8,8,44,100990,0,0,342,493,784,88,24082,56637,12293,0,230,2.3,0,0,0,0,0,0,0,0,0,0,0,0,0
2014,10,25,16,0,,21,8.6,45,100990,0,0,344,345,716,71,7306,0,7306,0,200,1.6,0,0,0,0,0,0,0,0,0,0,0,0,0
2014,10,25,17,0,,20.2,9.4,50,101010,0,0,341,174,589,48,0,0,0,0,230,2.2,0,0,0,0,0,0,0,0,0,0,0,0,0
2014,10,25,18,0,,19.1,10.6,58,101030,0,0,337,39,20,19,0,0,0,0,200,1.5,0,0,0,0,0,0,0,0,0,0,0,0,0
2014,10,25,19,0,,16.9,13.9,83,101100,0,0,331,0,0,0,0,0,0,0,0,0.4,0,0,0,0,0,0,0,0,0,0,0,0,0
2014,10,25,20,0,,14.9,13.4,91,101110,0,0,321,0,0,0,0,0,0,0,0,0.3,0,0,0,0,0,0,0,0,0,0,0,0,0
2014,10,25,21,0,,13.4,12.9,97,101120,0,0,314,0,0,0,0,0,0,0,0,0,0,0,0,0,0,0,0,0,0,0,0,0,0
2014,10,25,22,0,,12.3,12.1,99,101140,0,0,309,0,0,0,0,0,0,0,0,0.2,0,0,0,0,0,0,0,0,0,0,0,0,0
2014,10,25,23,0,,11.5,11.4,100,101130,0,0,305,0,0,0,0,0,0,0,0,0.1,0,0,0,0,0,0,0,0,0,0,0,0,0
2014,10,25,24,0,,10.5,10.4,100,101110,0,0,299,0,0,0,0,0,0,0,0,0.4,0,0,0,0,0,0,0,0,0,0,0,0,0
2014,10,26,1,0,,9.6,9.5,100,101130,0,0,340,0,0,0,0,0,0,0,0,0.2,10,0,0,0,0,0,0,0,0,0,0,0,0
2014,10,26,2,0,,10.1,10,100,101150,0,0,343,0,0,0,0,0,0,0,0,0.4,10,0,0,0,0,0,0,0,0,0,0,0,0
2014,10,26,3,0,,10.6,10.5,100,101110,0,0,346,0,0,0,0,0,0,0,70,0.6,10,0,0,0,0,0,0,0,0,0,0,0,0
2014,10,26,4,0,,10.8,10.7,100,101090,0,0,347,0,0,0,0,0,0,0,0,0.1,10,0,0,0,0,0,0,0,0,0,0,0,0
2014,10,26,5,0,,10.8,10.7,100,101080,0,0,347,0,0,0,0,0,0,0,0,0.4,10,0,0,0,0,0,0,0,0,0,0,0,0
2014,10,26,6,0,,10.8,10.7,100,101080,0,0,347,0,0,0,0,0,0,0,110,0.5,10,0,0,0,0,0,0,0,0,0,0,0,0
2014,10,26,7,0,,10.6,10.5,100,101070,0,0,346,0,0,0,0,0,0,0,110,1,10,0,0,0,0,0,0,0,0,0,0,0,0
2014,10,26,8,0,,10.6,10.5,100,101110,0,0,346,21,1,20,2691,45,2671,0,160,0.8,10,0,0,0,0,0,0,0,0,0,0,0,0
2014,10,26,9,0,,10.7,10.6,100,101110,0,0,347,65,14,61,8024,1257,7318,0,110,0.5,10,0,0,0,0,0,0,0,0,0,0,0,0
2014,10,26,10,0,,11.2,11.1,100,101160,0,0,350,110,17,103,13096,1521,12145,0,20,1.1,10,0,0,0,0,0,0,0,0,0,0,0,0
2014,10,26,11,0,,13.2,10.1,82,101060,0,0,323,439,456,182,52289,43787,24395,0,270,1.4,3,0,0,0,0,0,0,0,0,0,0,0,0
2014,10,26,12,0,,14.5,10.5,77,100980,0,0,322,524,538,185,55228,51215,24683,0,340,0.6,1,0,0,0,0,0,0,0,0,0,0,0,0
2014,10,26,13,0,,17,10.1,64,100840,0,0,349,483,344,262,47331,31946,31163,0,200,0.9,6,0,0,0,0,0,0,0,0,0,0,0,0
2014,10,26,14,0,,18.4,10.2,59,100750,0,0,350,505,559,169,39812,48231,21860,0,200,1.6,4,0,0,0,0,0,0,0,0,0,0,0,0
2014,10,26,15,0,,19.5,11,58,100700,0,0,360,413,523,146,25009,34508,17973,0,180,3.1,5,0,0,0,0,0,0,0,0,0,0,0,0
2014,10,26,16,0,,19.4,11.4,60,100710,0,0,373,206,175,140,14205,0,14205,0,200,2.2,8,0,0,0,0,0,0,0,0,0,0,0,0
2014,10,26,17,0,,19.1,12.1,64,100680,0,0,372,101,148,70,0,0,0,0,180,2.8,8,0,0,0,0,0,0,0,0,0,0,0,0
2014,10,26,18,0,,18.6,12.3,67,100660,0,0,378,15,2,13,0,0,0,0,180,3.1,9,0,0,0,0,0,0,0,0,0,0,0,0
2014,10,26,19,0,,18.4,12.3,68,100670,0,0,382,0,0,0,0,0,0,0,180,2.9,10,0,0,0,0,0,0,0,0,0,0,0,0
2014,10,26,20,0,,18.1,13.1,73,100640,0,0,387,0,0,0,0,0,0,0,180,2.7,10,0,0,0,0,0,0,0,0,0,0,0,0
2014,10,26,21,0,,17.3,15.2,88,100710,0,0,385,0,0,0,0,0,0,0,230,0.8,10,0,0,0,0,0,0,0,0,0,0,0,0
2014,10,26,22,0,,15.9,15.5,98,100750,0,0,365,0,0,0,0,0,0,0,290,0.6,9,0,0,0,0,0,0,0,0,0,0,0,0
2014,10,26,23,0,,14.6,14.5,100,100800,0,0,349,0,0,0,0,0,0,0,180,0.8,7,0,0,0,0,0,0,0,0,0,0,0,0
2014,10,26,24,0,,13.6,11.2,86,100870,0,0,335,0,0,0,0,0,0,0,110,0.6,6,0,0,0,0,0,0,0,0,0,0,0,0
2014,10,27,1,0,,12.5,10.3,87,100920,0,0,323,0,0,0,0,0,0,0,230,0.7,4,0,0,0,0,0,0,0,0,0,0,0,0
2014,10,27,2,0,,11,8,82,100990,0,0,308,0,0,0,0,0,0,0,270,1.1,2,0,0,0,0,0,0,0,0,0,0,0,0
2014,10,27,3,0,,9.8,7.7,87,101040,0,0,293,0,0,0,0,0,0,0,0,0.1,0,0,0,0,0,0,0,0,0,0,0,0,0
2014,10,27,4,0,,9.2,8.8,98,101110,0,0,307,0,0,0,0,0,0,0,140,0.9,4,0,0,0,0,0,0,0,0,0,0,0,0
2014,10,27,5,0,,8.8,8.3,97,101180,0,0,303,0,0,0,0,0,0,0,140,0.9,3,0,0,0,0,0,0,0,0,0,0,0,0
2014,10,27,6,0,,8.3,7.6,96,101270,0,0,287,0,0,0,0,0,0,0,0,0.4,0,0,0,0,0,0,0,0,0,0,0,0,0
2014,10,27,7,0,,7.5,7,97,101340,0,0,283,0,0,0,0,0,0,0,110,0.5,0,0,0,0,0,0,0,0,0,0,0,0,0
2014,10,27,8,0,,7.3,6,92,101430,0,0,281,75,36,39,6587,3477,5034,0,0,0.4,0,0,0,0,0,0,0,0,0,0,0,0,0
2014,10,27,9,0,,8.9,-2.4,45,101440,0,0,279,245,594,68,43398,59880,10026,0,0,0.4,0,0,0,0,0,0,0,0,0,0,0,0,0
2014,10,27,10,0,,11.2,-3.7,35,101460,0,0,287,415,742,82,58388,75259,11676,0,290,2.3,0,0,0,0,0,0,0,0,0,0,0,0,0
2014,10,27,11,0,,13.1,-5,28,101470,0,0,293,553,831,87,64996,83172,12391,0,320,1.7,0,0,0,0,0,0,0,0,0,0,0,0,0
2014,10,27,12,0,,14.7,-7.4,21,101430,0,0,297,617,822,103,63101,82126,14495,0,340,1,0,0,0,0,0,0,0,0,0,0,0,0,0
2014,10,27,13,0,,16,-5.7,22,101310,0,0,310,623,803,111,55426,78767,15918,0,200,1.7,1,0,0,0,0,0,0,0,0,0,0,0,0
2014,10,27,14,0,,17.1,-6,20,101240,0,0,319,568,761,113,41108,69241,15640,0,250,1.5,2,0,0,0,0,0,0,0,0,0,0,0,0
2014,10,27,15,0,,17.9,-4.7,21,101230,0,0,324,473,747,94,23151,53284,12513,0,230,1.4,2,0,0,0,0,0,0,0,0,0,0,0,0
2014,10,27,16,0,,18,-1.3,27,101230,0,0,324,336,711,70,6709,0,6709,0,230,2.2,1,0,0,0,0,0,0,0,0,0,0,0,0
2014,10,27,17,0,,16.9,-2.2,27,101280,0,0,312,172,627,43,0,0,0,0,230,1.5,0,0,0,0,0,0,0,0,0,0,0,0,0
2014,10,27,18,0,,15,-1.1,33,101340,0,0,305,38,21,17,0,0,0,0,250,1.4,0,0,0,0,0,0,0,0,0,0,0,0,0
2014,10,27,19,0,,12.5,2.6,51,101420,0,0,298,0,0,0,0,0,0,0,90,0.5,0,0,0,0,0,0,0,0,0,0,0,0,0
2014,10,27,20,0,,9.8,4.1,68,101470,0,0,289,0,0,0,0,0,0,0,0,0.4,0,0,0,0,0,0,0,0,0,0,0,0,0
2014,10,27,21,0,,8.1,4.4,78,101510,0,0,282,0,0,0,0,0,0,0,0,0.1,0,0,0,0,0,0,0,0,0,0,0,0,0
2014,10,27,22,0,,6.7,4.1,84,101590,0,0,277,0,0,0,0,0,0,0,0,0.2,0,0,0,0,0,0,0,0,0,0,0,0,0
2014,10,27,23,0,,5.7,4,89,101620,0,0,273,0,0,0,0,0,0,0,20,0.5,0,0,0,0,0,0,0,0,0,0,0,0,0
2014,10,27,24,0,,4.9,2.9,87,101620,0,0,269,0,0,0,0,0,0,0,50,0.5,0,0,0,0,0,0,0,0,0,0,0,0,0
2014,10,28,1,0,,4,1.8,86,101650,0,0,264,0,0,0,0,0,0,0,20,0.6,0,0,0,0,0,0,0,0,0,0,0,0,0
2014,10,28,2,0,,3.5,2.3,92,101730,0,0,263,0,0,0,0,0,0,0,20,0.6,0,0,0,0,0,0,0,0,0,0,0,0,0
2014,10,28,3,0,,2.4,1.9,97,101730,0,0,259,0,0,0,0,0,0,0,0,0.2,0,0,0,0,0,0,0,0,0,0,0,0,0
2014,10,28,4,0,,2,1.1,94,101740,0,0,256,0,0,0,0,0,0,0,50,0.9,0,0,0,0,0,0,0,0,0,0,0,0,0
2014,10,28,5,0,,1.6,1.1,97,101780,0,0,255,0,0,0,0,0,0,0,0,0.3,0,0,0,0,0,0,0,0,0,0,0,0,0
2014,10,28,6,0,,1.2,0.7,97,101800,0,0,253,0,0,0,0,0,0,0,0,0.4,0,0,0,0,0,0,0,0,0,0,0,0,0
2014,10,28,7,0,,0.7,0.4,98,101830,0,0,256,0,0,0,0,0,0,0,0,0.4,1,0,0,0,0,0,0,0,0,0,0,0,0
2014,10,28,8,0,,0.9,0,94,101880,0,0,251,75,39,36,6347,3830,4652,0,20,0.9,0,0,0,0,0,0,0,0,0,0,0,0,0
2014,10,28,9,0,,3.4,0.6,82,101920,0,0,260,231,535,74,40651,53828,10883,0,90,1.4,0,0,0,0,0,0,0,0,0,0,0,0,0
2014,10,28,10,0,,5.7,-0.1,66,101910,0,0,268,386,644,99,53950,64930,13937,0,200,0.5,0,0,0,0,0,0,0,0,0,0,0,0,0
2014,10,28,11,0,,8.4,-0.3,54,101880,0,0,279,527,763,102,62632,76964,14303,0,250,1.1,0,0,0,0,0,0,0,0,0,0,0,0,0
2014,10,28,12,0,,10.8,-0.6,45,101800,0,0,288,598,780,114,61506,77732,15854,0,290,0.9,0,0,0,0,0,0,0,0,0,0,0,0,0
2014,10,28,13,0,,13.3,-4.8,28,101670,0,0,294,639,860,95,55528,84175,13685,0,290,0.6,0,0,0,0,0,0,0,0,0,0,0,0,0
2014,10,28,14,0,,15.4,-4,26,101570,0,0,304,596,860,87,41644,79161,12873,0,250,1.1,0,0,0,0,0,0,0,0,0,0,0,0,0
2014,10,28,15,0,,16.7,-2.9,26,101530,0,0,311,494,831,76,22239,59966,10515,0,230,1.1,0,0,0,0,0,0,0,0,0,0,0,0,0
2014,10,28,16,0,,17.3,-4.6,22,101500,0,0,311,347,777,59,5805,0,5805,0,340,0.5,0,0,0,0,0,0,0,0,0,0,0,0,0
2014,10,28,17,0,,16.7,-2.9,26,101530,0,0,311,172,656,40,0,0,0,0,0,0.2,0,0,0,0,0,0,0,0,0,0,0,0,0
2014,10,28,18,0,,13.8,3.8,51,101570,0,0,305,34,15,19,0,0,0,0,0,0.4,0,0,0,0,0,0,0,0,0,0,0,0,0
2014,10,28,19,0,,10.8,3.5,61,101640,0,0,292,0,0,0,0,0,0,0,360,0.6,0,0,0,0,0,0,0,0,0,0,0,0,0
2014,10,28,20,0,,8.8,3.4,69,101690,0,0,284,0,0,0,0,0,0,0,0,0.2,0,0,0,0,0,0,0,0,0,0,0,0,0
2014,10,28,21,0,,7.3,3.8,79,101710,0,0,279,0,0,0,0,0,0,0,0,0,0,0,0,0,0,0,0,0,0,0,0,0,0
2014,10,28,22,0,,6.4,3.5,82,101740,0,0,275,0,0,0,0,0,0,0,0,0.4,0,0,0,0,0,0,0,0,0,0,0,0,0
2014,10,28,23,0,,5.5,3.3,86,101740,0,0,271,0,0,0,0,0,0,0,320,0.5,0,0,0,0,0,0,0,0,0,0,0,0,0
2014,10,28,24,0,,4.5,3.6,94,101800,0,0,268,0,0,0,0,0,0,0,0,0.1,0,0,0,0,0,0,0,0,0,0,0,0,0
2014,10,29,1,0,,3.8,2.9,94,101830,0,0,265,0,0,0,0,0,0,0,0,0.2,0,0,0,0,0,0,0,0,0,0,0,0,0
2014,10,29,2,0,,3.1,2.3,95,101850,0,0,261,0,0,0,0,0,0,0,0,0.4,0,0,0,0,0,0,0,0,0,0,0,0,0
2014,10,29,3,0,,2.6,2.1,97,101840,0,0,259,0,0,0,0,0,0,0,0,0.2,0,0,0,0,0,0,0,0,0,0,0,0,0
2014,10,29,4,0,,2.1,1.8,98,101840,0,0,257,0,0,0,0,0,0,0,0,0.2,0,0,0,0,0,0,0,0,0,0,0,0,0
2014,10,29,5,0,,1.6,1.3,98,101850,0,0,255,0,0,0,0,0,0,0,0,0.4,0,0,0,0,0,0,0,0,0,0,0,0,0
2014,10,29,6,0,,1.6,1.1,97,101870,0,0,255,0,0,0,0,0,0,0,20,0.8,0,0,0,0,0,0,0,0,0,0,0,0,0
2014,10,29,7,0,,1.2,1,99,101880,0,0,253,0,0,0,0,0,0,0,110,0.5,0,0,0,0,0,0,0,0,0,0,0,0,0
2014,10,29,8,0,,1.6,0.8,95,101970,0,0,254,73,39,34,6126,3854,4436,0,0,0.4,0,0,0,0,0,0,0,0,0,0,0,0,0
2014,10,29,9,0,,3.4,1.1,85,102000,0,0,261,221,493,78,39284,49462,12142,0,0,0.1,0,0,0,0,0,0,0,0,0,0,0,0,0
2014,10,29,10,0,,5.9,1.6,74,101990,0,0,271,382,642,98,53499,64773,13869,0,0,0.4,0,0,0,0,0,0,0,0,0,0,0,0,0
2014,10,29,11,0,,8.5,1.6,62,101950,0,0,281,502,696,117,60626,70028,16968,0,140,0.7,0,0,0,0,0,0,0,0,0,0,0,0,0
2014,10,29,12,0,,11.3,1.5,51,101880,0,0,292,591,772,115,60841,76860,16046,0,140,0.7,0,0,0,0,0,0,0,0,0,0,0,0,0
2014,10,29,13,0,,14.1,-0.3,37,101730,0,0,302,620,820,105,54378,79881,15023,0,110,0.6,0,0,0,0,0,0,0,0,0,0,0,0,0
2014,10,29,14,0,,16.1,-1.5,30,101650,0,0,310,590,856,87,40826,78231,12727,0,270,0.7,0,0,0,0,0,0,0,0,0,0,0,0,0
2014,10,29,15,0,,17.7,-3.1,24,101620,0,0,315,497,858,69,21603,61824,9769,0,70,0.8,0,0,0,0,0,0,0,0,0,0,0,0,0
2014,10,29,16,0,,18.3,-3.8,22,101600,0,0,316,349,806,54,5357,0,5357,0,70,0.9,0,0,0,0,0,0,0,0,0,0,0,0,0
2014,10,29,17,0,,17.7,1.2,33,101580,0,0,320,169,660,38,0,0,0,0,0,0.4,0,0,0,0,0,0,0,0,0,0,0,0,0
2014,10,29,18,0,,14.9,6.4,57,101620,0,0,319,31,13,19,0,0,0,0,340,0.7,1,0,0,0,0,0,0,0,0,0,0,0,0
2014,10,29,19,0,,12.6,5.2,61,101690,0,0,306,0,0,0,0,0,0,0,140,0.9,1,0,0,0,0,0,0,0,0,0,0,0,0
2014,10,29,20,0,,10.6,5.5,71,101710,0,0,296,0,0,0,0,0,0,0,0,0.3,0,0,0,0,0,0,0,0,0,0,0,0,0
2014,10,29,21,0,,9,4.9,76,101740,0,0,287,0,0,0,0,0,0,0,0,0,0,0,0,0,0,0,0,0,0,0,0,0,0
2014,10,29,22,0,,8.1,5.3,83,101780,0,0,284,0,0,0,0,0,0,0,0,0.3,0,0,0,0,0,0,0,0,0,0,0,0,0
2014,10,29,23,0,,7.3,5.2,87,101800,0,0,280,0,0,0,0,0,0,0,90,0.6,0,0,0,0,0,0,0,0,0,0,0,0,0
2014,10,29,24,0,,6.5,5.1,91,101770,0,0,277,0,0,0,0,0,0,0,0,0.2,0,0,0,0,0,0,0,0,0,0,0,0,0
2014,10,30,1,0,,6,4.7,92,101800,0,0,275,0,0,0,0,0,0,0,0,0.1,0,0,0,0,0,0,0,0,0,0,0,0,0
2014,10,30,2,0,,5.4,4.1,92,101810,0,0,272,0,0,0,0,0,0,0,90,0.7,0,0,0,0,0,0,0,0,0,0,0,0,0
2014,10,30,3,0,,4.8,4.2,96,101780,0,0,270,0,0,0,0,0,0,0,0,0.3,0,0,0,0,0,0,0,0,0,0,0,0,0
2014,10,30,4,0,,4.5,3.7,95,101760,0,0,268,0,0,0,0,0,0,0,0,0.1,0,0,0,0,0,0,0,0,0,0,0,0,0
2014,10,30,5,0,,4,3.7,98,101790,0,0,266,0,0,0,0,0,0,0,0,0.3,0,0,0,0,0,0,0,0,0,0,0,0,0
2014,10,30,6,0,,3.6,3.4,99,101760,0,0,265,0,0,0,0,0,0,0,0,0.1,0,0,0,0,0,0,0,0,0,0,0,0,0
2014,10,30,7,0,,3.5,3.2,98,101770,0,0,264,0,0,0,0,0,0,0,0,0.2,0,0,0,0,0,0,0,0,0,0,0,0,0
2014,10,30,8,0,,3.7,2.5,92,101820,0,0,264,71,38,33,5923,3709,4312,0,20,0.8,0,0,0,0,0,0,0,0,0,0,0,0,0
2014,10,30,9,0,,5.4,2.2,80,101860,0,0,270,225,533,72,39884,53671,10662,0,0,0.4,0,0,0,0,0,0,0,0,0,0,0,0,0
2014,10,30,10,0,,7.7,2.1,68,101800,0,0,287,374,627,100,53313,63179,14937,0,270,0.8,2,0,0,0,0,0,0,0,0,0,0,0,0
2014,10,30,11,0,,10.3,2.1,57,101730,0,0,298,505,718,111,60118,72177,15442,0,320,0.8,2,0,0,0,0,0,0,0,0,0,0,0,0
2014,10,30,12,0,,13.1,0.4,42,101650,0,0,323,465,407,216,49811,40064,26640,0,230,0.8,7,0,0,0,0,0,0,0,0,0,0,0,0
2014,10,30,13,0,,15.4,0.3,36,101520,0,0,322,602,781,114,53377,75812,16358,0,250,1.1,3,0,0,0,0,0,0,0,0,0,0,0,0
2014,10,30,14,0,,17,-2.6,26,101430,0,0,328,541,721,120,39279,64424,16411,0,0,0.3,4,0,0,0,0,0,0,0,0,0,0,0,0
2014,10,30,15,0,,17.9,-3.5,23,101380,0,0,346,320,255,194,24331,17412,21067,0,50,0.6,8,0,0,0,0,0,0,0,0,0,0,0,0
2014,10,30,16,0,,18.2,-0.1,29,101380,0,0,352,216,237,131,0,0,0,0,360,0.5,8,0,0,0,0,0,0,0,0,0,0,0,0
2014,10,30,17,0,,17.6,3.8,40,101360,0,0,354,99,178,64,0,0,0,0,0,0.2,8,0,0,0,0,0,0,0,0,0,0,0,0
2014,10,30,18,0,,15.8,7.2,57,101340,0,0,344,19,4,15,0,0,0,0,0,0.4,7,0,0,0,0,0,0,0,0,0,0,0,0
2014,10,30,19,0,,14.2,7.4,64,101370,0,0,338,0,0,0,0,0,0,0,0,0.3,7,0,0,0,0,0,0,0,0,0,0,0,0
2014,10,30,20,0,,13,6.7,66,101400,0,0,333,0,0,0,0,0,0,0,90,0.5,8,0,0,0,0,0,0,0,0,0,0,0,0
2014,10,30,21,0,,11.9,7.7,76,101410,0,0,331,0,0,0,0,0,0,0,0,0.2,8,0,0,0,0,0,0,0,0,0,0,0,0
2014,10,30,22,0,,11.3,7.4,77,101420,0,0,333,0,0,0,0,0,0,0,0,0.3,9,0,0,0,0,0,0,0,0,0,0,0,0
2014,10,30,23,0,,11.2,6.7,74,101450,0,0,337,0,0,0,0,0,0,0,0,0,9,0,0,0,0,0,0,0,0,0,0,0,0
2014,10,30,24,0,,10.9,7.5,80,101410,0,0,343,0,0,0,0,0,0,0,0,0.3,10,0,0,0,0,0,0,0,0,0,0,0,0
2014,10,31,1,0,,10.3,8.3,88,101400,0,0,341,0,0,0,0,0,0,0,0,0.2,10,0,0,0,0,0,0,0,0,0,0,0,0
2014,10,31,2,0,,9.9,6.9,82,101410,0,0,338,0,0,0,0,0,0,0,110,0.8,10,0,0,0,0,0,0,0,0,0,0,0,0
2014,10,31,3,0,,9.6,7.3,86,101380,0,0,337,0,0,0,0,0,0,0,0,0.3,10,0,0,0,0,0,0,0,0,0,0,0,0
2014,10,31,4,0,,9.3,7.2,87,101360,0,0,335,0,0,0,0,0,0,0,90,0.5,10,0,0,0,0,0,0,0,0,0,0,0,0
2014,10,31,5,0,,9.3,6.9,85,101330,0,0,335,0,0,0,0,0,0,0,0,0.4,10,0,0,0,0,0,0,0,0,0,0,0,0
2014,10,31,6,0,,9.3,6.3,82,101310,0,0,334,0,0,0,0,0,0,0,70,0.5,10,0,0,0,0,0,0,0,0,0,0,0,0
2014,10,31,7,0,,9.5,6.5,82,101330,0,0,335,0,0,0,0,0,0,0,0,0.4,10,0,0,0,0,0,0,0,0,0,0,0,0
2014,10,31,8,0,,9.6,7.8,89,101330,0,0,338,19,1,18,2397,45,2378,0,360,1.3,10,0,0,0,0,0,0,0,0,0,0,0,0
2014,10,31,9,0,,10,7,82,101350,0,0,338,75,25,68,9338,2335,8076,0,340,0.5,10,0,0,0,0,0,0,0,0,0,0,0,0
2014,10,31,10,0,,10.9,5.8,71,101250,0,0,341,136,34,121,16061,3249,14101,0,0,0.1,10,0,0,0,0,0,0,0,0,0,0,0,0
2014,10,31,11,0,,12.2,5.3,63,101160,0,0,346,197,46,172,22584,4433,19860,0,340,1.7,10,0,0,0,0,0,0,0,0,0,0,0,0
2014,10,31,12,0,,13.3,6.1,62,101090,0,0,353,229,48,200,25478,4597,22839,0,180,1.1,10,0,0,0,0,0,0,0,0,0,0,0,0
2014,10,31,13,0,,14.2,5.7,57,100970,0,0,340,352,149,260,36503,14129,29665,0,180,0.9,8,0,0,0,0,0,0,0,0,0,0,0,0
2014,10,31,14,0,,15.1,6.1,55,100910,0,0,339,363,207,243,33759,18008,27442,0,320,0.5,7,0,0,0,0,0,0,0,0,0,0,0,0
2014,10,31,15,0,,16.2,5.1,48,100870,0,0,349,279,173,194,23408,11145,21363,0,160,0.9,8,0,0,0,0,0,0,0,0,0,0,0,0
2014,10,31,16,0,,16.3,6.1,51,100820,0,0,368,123,48,106,0,0,0,0,110,0.7,10,0,0,0,0,0,0,0,0,0,0,0,0
2014,10,31,17,0,,16.2,8.1,59,100800,0,0,352,92,154,63,0,0,0,0,0,0.3,8,0,0,0,0,0,0,0,0,0,0,0,0
2014,10,31,18,0,,15.7,8.4,62,100780,0,0,350,15,2,13,0,0,0,0,0,0.2,8,0,0,0,0,0,0,0,0,0,0,0,0
2014,10,31,19,0,,15.1,10,72,100810,0,0,354,0,0,0,0,0,0,0,20,0.5,9,0,0,0,0,0,0,0,0,0,0,0,0
2014,10,31,20,0,,14.6,9.8,73,100770,0,0,357,0,0,0,0,0,0,0,0,0.2,9,0,0,0,0,0,0,0,0,0,0,0,0
2014,10,31,21,0,,14.2,9.8,75,100730,0,0,362,0,0,0,0,0,0,0,0,0.4,10,0,0,0,0,0,0,0,0,0,0,0,0
2014,10,31,22,0,,13.9,10.6,81,100730,0,0,362,0,0,0,0,0,0,0,0,0.1,10,0,0,0,0,0,0,0,0,0,0,0,0
2014,10,31,23,0,,13.8,10.4,80,100720,0,0,361,0,0,0,0,0,0,0,0,0.2,10,0,0,0,0,0,0,0,0,0,0,0,0
2014,10,31,24,0,,13.6,10.9,84,100670,0,0,361,0,0,0,0,0,0,0,20,0.5,10,0,0,0,0,0,0,0,0,0,0,0,0
2008,11,1,1,0,,6.9,6.1,95,101070,0,0,323,0,0,0,0,0,0,0,0,0.1,10,0,0,0,0,0,0,0,0,0,0,0,0
2008,11,1,2,0,,7.1,6.3,95,101070,0,0,324,0,0,0,0,0,0,0,0,0,10,0,0,0,0,0,0,0,0,0,0,0,0
2008,11,1,3,0,,7.3,6.5,95,101090,0,0,325,0,0,0,0,0,0,0,180,0.8,10,0,0,0,0,0,0,0,0,0,0,0,0
2008,11,1,4,0,,7.3,6,92,101080,0,0,325,0,0,0,0,0,0,0,230,0.8,10,0,0,0,0,0,0,0,0,0,0,0,0
2008,11,1,5,0,,7.2,6.1,93,101100,0,0,324,0,0,0,0,0,0,0,290,0.8,10,0,0,0,0,0,0,0,0,0,0,0,0
2008,11,1,6,0,,7.2,5.8,91,101110,0,0,324,0,0,0,0,0,0,0,230,1.1,10,0,0,0,0,0,0,0,0,0,0,0,0
2008,11,1,7,0,,7.2,5.6,90,101110,0,0,324,0,0,0,0,0,0,0,180,0.8,10,0,0,0,0,0,0,0,0,0,0,0,0
2008,11,1,8,0,,7.2,5.6,90,101160,0,0,324,17,1,16,2144,33,2130,0,0,0,10,0,0,0,0,0,0,0,0,0,0,0,0
2008,11,1,9,0,,7.9,5.6,86,101210,0,0,327,72,23,65,8872,2129,7735,0,340,0.9,10,0,0,0,0,0,0,0,0,0,0,0,0
2008,11,1,10,0,,8.7,5.2,79,101170,0,0,321,168,65,141,20853,6440,17010,0,320,0.5,9,0,0,0,0,0,0,0,0,0,0,0,0
2008,11,1,11,0,,10,4.3,68,101090,0,0,314,328,199,221,38368,19915,26257,0,290,1,7,0,0,0,0,0,0,0,0,0,0,0,0
2008,11,1,12,0,,11.2,5,66,101010,0,0,301,513,578,164,54294,56379,22293,0,230,1.7,1,0,0,0,0,0,0,0,0,0,0,0,0
2008,11,1,13,0,,12.5,4.6,59,100850,0,0,306,541,629,154,48751,59562,20292,0,0,0.4,1,0,0,0,0,0,0,0,0,0,0,0,0
2008,11,1,14,0,,14.2,2.7,46,100750,0,0,306,540,744,112,38421,66038,15643,0,230,3.1,0,0,0,0,0,0,0,0,0,0,0,0,0
2008,11,1,15,0,,14.4,2.2,44,100690,0,0,312,440,703,98,21149,46385,12895,0,230,2.3,1,0,0,0,0,0,0,0,0,0,0,0,0
2008,11,1,16,0,,14.2,3,47,100670,0,0,316,298,619,79,0,0,0,0,200,1.6,2,0,0,0,0,0,0,0,0,0,0,0,0
2008,11,1,17,0,,13.8,3.5,50,100610,0,0,323,125,352,59,0,0,0,0,180,1.4,5,0,0,0,0,0,0,0,0,0,0,0,0
2008,11,1,18,0,,13.2,4.3,55,100570,0,0,328,19,5,14,0,0,0,0,160,1.8,7,0,0,0,0,0,0,0,0,0,0,0,0
2008,11,1,19,0,,12.7,4.6,58,100600,0,0,328,0,0,0,0,0,0,0,180,0.8,7,0,0,0,0,0,0,0,0,0,0,0,0
2008,11,1,20,0,,12.2,4.6,60,100610,0,0,327,0,0,0,0,0,0,0,160,1.8,8,0,0,0,0,0,0,0,0,0,0,0,0
2008,11,1,21,0,,11.6,5.6,67,100580,0,0,327,0,0,0,0,0,0,0,160,1,8,0,0,0,0,0,0,0,0,0,0,0,0
2008,11,1,22,0,,12.1,5.4,64,100580,0,0,329,0,0,0,0,0,0,0,160,1.1,8,0,0,0,0,0,0,0,0,0,0,0,0
2008,11,1,23,0,,11.8,5.8,67,100570,0,0,329,0,0,0,0,0,0,0,160,1.3,8,0,0,0,0,0,0,0,0,0,0,0,0
2008,11,1,24,0,,11.6,6,69,100510,0,0,328,0,0,0,0,0,0,0,160,1.3,8,0,0,0,0,0,0,0,0,0,0,0,0
2008,11,2,1,0,,11,6.5,74,100480,0,0,330,0,0,0,0,0,0,0,0,0.3,9,0,0,0,0,0,0,0,0,0,0,0,0
2008,11,2,2,0,,10.8,7.4,80,100470,0,0,336,0,0,0,0,0,0,0,0,0.1,9,0,0,0,0,0,0,0,0,0,0,0,0
2008,11,2,3,0,,12.1,7.1,72,100450,0,0,348,0,0,0,0,0,0,0,160,2,10,0,0,0,0,0,0,0,0,0,0,0,0
2008,11,2,4,0,,11.2,8.4,83,100440,0,0,329,0,0,0,0,0,0,0,270,1.9,8,0,0,0,0,0,0,0,0,0,0,0,0
2008,11,2,5,0,,10,7.9,87,100450,0,0,314,0,0,0,0,0,0,0,270,0.5,6,0,0,0,0,0,0,0,0,0,0,0,0
2008,11,2,6,0,,8,7,94,100470,0,0,298,0,0,0,0,0,0,0,0,0,3,0,0,0,0,0,0,0,0,0,0,0,0
2008,11,2,7,0,,7,6.2,95,100500,0,0,280,0,0,0,0,0,0,0,0,0,0,0,0,0,0,0,0,0,0,0,0,0,0
2008,11,2,8,0,,6.7,5.9,95,100540,0,0,279,56,30,26,4711,2831,3521,0,0,0,0,0,0,0,0,0,0,0,0,0,0,0,0
2008,11,2,9,0,,8.9,7.1,89,100580,0,0,289,204,459,78,36368,45543,12239,0,0,0,0,0,0,0,0,0,0,0,0,0,0,0,0
2008,11,2,10,0,,13.6,7.7,68,100540,0,0,309,376,681,87,53520,69076,12602,0,200,1,0,0,0,0,0,0,0,0,0,0,0,0,0
2008,11,2,11,0,,15.6,6.8,56,100510,0,0,327,521,811,87,62214,82369,12479,0,200,2.5,2,0,0,0,0,0,0,0,0,0,0,0,0
2008,11,2,12,0,,16.6,4.6,45,100430,0,0,338,530,642,145,55685,62960,20218,0,200,2.9,5,0,0,0,0,0,0,0,0,0,0,0,0
2008,11,2,13,0,,17.1,2.2,37,100350,0,0,340,483,464,199,45607,43948,24791,0,230,3.7,6,0,0,0,0,0,0,0,0,0,0,0,0
2008,11,2,14,0,,16.8,0.8,34,100340,0,0,341,382,256,236,34097,22591,26395,0,230,2.9,7,0,0,0,0,0,0,0,0,0,0,0,0
2008,11,2,15,0,,16.5,-0.7,31,100350,0,0,343,277,181,190,22741,11705,20702,0,250,3,8,0,0,0,0,0,0,0,0,0,0,0,0
2008,11,2,16,0,,16.1,-2.9,27,100350,0,0,330,243,366,115,0,0,0,0,230,3.2,6,0,0,0,0,0,0,0,0,0,0,0,0
2008,11,2,17,0,,15,-4.3,26,100400,0,0,327,108,291,55,0,0,0,0,230,2,7,0,0,0,0,0,0,0,0,0,0,0,0
2008,11,2,18,0,,13.9,-3.8,29,100460,0,0,319,22,8,14,0,0,0,0,200,1.8,6,0,0,0,0,0,0,0,0,0,0,0,0
2008,11,2,19,0,,13,-4.2,30,100500,0,0,312,0,0,0,0,0,0,0,200,2.2,5,0,0,0,0,0,0,0,0,0,0,0,0
2008,11,2,20,0,,12.2,-3.2,34,100540,0,0,308,0,0,0,0,0,0,0,180,2,5,0,0,0,0,0,0,0,0,0,0,0,0
2008,11,2,21,0,,11.6,-2.9,36,100560,0,0,304,0,0,0,0,0,0,0,180,2.3,4,0,0,0,0,0,0,0,0,0,0,0,0
2008,11,2,22,0,,10.3,-0.5,47,100640,0,0,302,0,0,0,0,0,0,0,200,1,4,0,0,0,0,0,0,0,0,0,0,0,0
2008,11,2,23,0,,10.6,0.5,50,100660,0,0,305,0,0,0,0,0,0,0,180,2.9,5,0,0,0,0,0,0,0,0,0,0,0,0
2008,11,2,24,0,,6.7,1.9,72,100640,0,0,290,0,0,0,0,0,0,0,20,0.8,5,0,0,0,0,0,0,0,0,0,0,0,0
2008,11,3,1,0,,4.4,1.9,84,100660,0,0,279,0,0,0,0,0,0,0,0,0,4,0,0,0,0,0,0,0,0,0,0,0,0
2008,11,3,2,0,,3.9,2.4,90,100670,0,0,274,0,0,0,0,0,0,0,0,0,2,0,0,0,0,0,0,0,0,0,0,0,0
2008,11,3,3,0,,3.4,2.2,92,100670,0,0,267,0,0,0,0,0,0,0,0,0,1,0,0,0,0,0,0,0,0,0,0,0,0
2008,11,3,4,0,,2.8,1.7,93,100630,0,0,268,0,0,0,0,0,0,0,0,0,2,0,0,0,0,0,0,0,0,0,0,0,0
2008,11,3,5,0,,3.6,2.8,95,100590,0,0,280,0,0,0,0,0,0,0,0,0.1,5,0,0,0,0,0,0,0,0,0,0,0,0
2008,11,3,6,0,,3.7,2.8,94,100570,0,0,280,0,0,0,0,0,0,0,0,0,5,0,0,0,0,0,0,0,0,0,0,0,0
2008,11,3,7,0,,3.9,3.1,95,100580,0,0,284,0,0,0,0,0,0,0,0,0,6,0,0,0,0,0,0,0,0,0,0,0,0
2008,11,3,8,0,,5.5,4.2,92,100620,0,0,291,50,22,29,4647,2055,3792,0,0,0.3,6,0,0,0,0,0,0,0,0,0,0,0,0
2008,11,3,9,0,,7.8,4,77,100680,0,0,298,191,394,84,33480,39144,12907,0,0,0.4,5,0,0,0,0,0,0,0,0,0,0,0,0
2008,11,3,10,0,,11.1,5.4,68,100610,0,0,309,368,661,90,52205,66840,12898,0,0,0.3,3,0,0,0,0,0,0,0,0,0,0,0,0
2008,11,3,11,0,,14.8,7.8,63,100520,0,0,333,463,634,126,55984,62899,18276,0,200,2.1,5,0,0,0,0,0,0,0,0,0,0,0,0
2008,11,3,12,0,,16.6,2.9,40,100550,0,0,331,598,858,88,60837,86135,12681,0,290,3.7,3,0,0,0,0,0,0,0,0,0,0,0,0
2008,11,3,13,0,,16.8,0.4,33,100510,0,0,315,594,809,103,51805,78295,15040,0,250,3.3,0,0,0,0,0,0,0,0,0,0,0,0,0
2008,11,3,14,0,,17,-1.1,29,100470,0,0,314,522,713,117,37268,62716,16130,0,250,2.6,0,0,0,0,0,0,0,0,0,0,0,0,0
2008,11,3,15,0,,16.8,-3.9,24,100490,0,0,310,427,682,100,19845,44594,12238,0,270,3.1,0,0,0,0,0,0,0,0,0,0,0,0,0
2008,11,3,16,0,,16,-9,17,100540,0,0,300,306,694,66,0,0,0,0,270,2.8,0,0,0,0,0,0,0,0,0,0,0,0,0
2008,11,3,17,0,,14.1,-11.4,16,100620,0,0,290,147,609,38,0,0,0,0,270,3.7,0,0,0,0,0,0,0,0,0,0,0,0,0
2008,11,3,18,0,,12.6,-9.8,20,100720,0,0,286,28,15,14,0,0,0,0,250,3.4,0,0,0,0,0,0,0,0,0,0,0,0,0
2008,11,3,19,0,,10.6,-6.2,30,100840,0,0,282,0,0,0,0,0,0,0,0,0.2,0,0,0,0,0,0,0,0,0,0,0,0,0
2008,11,3,20,0,,10.4,-6.9,29,100900,0,0,280,0,0,0,0,0,0,0,270,1.5,0,0,0,0,0,0,0,0,0,0,0,0,0
2008,11,3,21,0,,6.6,-2.8,51,100980,0,0,269,0,0,0,0,0,0,0,90,0.7,0,0,0,0,0,0,0,0,0,0,0,0,0
2008,11,3,22,0,,4.4,-0.9,68,101050,0,0,263,0,0,0,0,0,0,0,0,0.3,0,0,0,0,0,0,0,0,0,0,0,0,0
2008,11,3,23,0,,3.4,-0.4,76,101090,0,0,259,0,0,0,0,0,0,0,0,0,0,0,0,0,0,0,0,0,0,0,0,0,0
2008,11,3,24,0,,1.5,-0.9,84,101140,0,0,252,0,0,0,0,0,0,0,0,0,0,0,0,0,0,0,0,0,0,0,0,0,0
2008,11,4,1,0,,1.3,-0.9,85,101190,0,0,251,0,0,0,0,0,0,0,0,0.1,0,0,0,0,0,0,0,0,0,0,0,0,0
2008,11,4,2,0,,0.4,-1.6,86,101230,0,0,247,0,0,0,0,0,0,0,0,0,0,0,0,0,0,0,0,0,0,0,0,0,0
2008,11,4,3,0,,-0.2,-1.9,88,101230,0,0,245,0,0,0,0,0,0,0,0,0,0,0,0,0,0,0,0,0,0,0,0,0,0
2008,11,4,4,0,,-0.4,-2.1,88,101240,0,0,244,0,0,0,0,0,0,0,0,0.3,0,0,0,0,0,0,0,0,0,0,0,0,0
2008,11,4,5,0,,-1.2,-2.6,90,101280,0,0,241,0,0,0,0,0,0,0,0,0.3,0,0,0,0,0,0,0,0,0,0,0,0,0
2008,11,4,6,0,,-1.3,-2.2,93,101340,0,0,241,0,0,0,0,0,0,0,0,0,0,0,0,0,0,0,0,0,0,0,0,0,0
2008,11,4,7,0,,-2,-2.9,93,101390,0,0,238,0,0,0,0,0,0,0,0,0.1,0,0,0,0,0,0,0,0,0,0,0,0,0
2008,11,4,8,0,,-0.7,-3.3,82,101470,0,0,242,63,36,28,5354,3469,3924,0,20,0.6,0,0,0,0,0,0,0,0,0,0,0,0,0
2008,11,4,9,0,,1.7,-2.8,72,101520,0,0,251,214,562,64,38932,56349,9552,0,0,0.1,0,0,0,0,0,0,0,0,0,0,0,0,0
2008,11,4,10,0,,4.5,-3,58,101500,0,0,261,382,734,76,54360,74199,11041,0,360,0.6,0,0,0,0,0,0,0,0,0,0,0,0,0
2008,11,4,11,0,,7.4,-4.7,42,101470,0,0,270,514,816,84,60467,81391,12020,0,0,0.4,0,0,0,0,0,0,0,0,0,0,0,0,0
2008,11,4,12,0,,9.8,-9.3,25,101410,0,0,276,607,898,77,60532,88901,11201,0,0,0.4,0,0,0,0,0,0,0,0,0,0,0,0,0
2008,11,4,13,0,,11.4,-10.8,20,101290,0,0,280,618,892,81,52334,86920,11870,0,320,1.5,0,0,0,0,0,0,0,0,0,0,0,0,0
2008,11,4,14,0,,13.8,-10.8,17,101250,0,0,289,568,868,79,37975,78451,11832,0,180,0.7,0,0,0,0,0,0,0,0,0,0,0,0,0
2008,11,4,15,0,,14.7,-10.1,17,101240,0,0,293,461,823,72,19013,55219,9790,0,180,1.6,0,0,0,0,0,0,0,0,0,0,0,0,0
2008,11,4,16,0,,15,-12.3,14,101250,0,0,291,326,809,50,0,0,0,0,200,1.4,0,0,0,0,0,0,0,0,0,0,0,0,0
2008,11,4,17,0,,13.8,-8.8,20,101250,0,0,292,150,663,34,0,0,0,0,250,1.7,0,0,0,0,0,0,0,0,0,0,0,0,0
2008,11,4,18,0,,12.3,-8.2,23,101270,0,0,287,27,13,14,0,0,0,0,180,1.1,0,0,0,0,0,0,0,0,0,0,0,0,0
2008,11,4,19,0,,7.9,-0.8,54,101340,0,0,276,0,0,0,0,0,0,0,20,0.9,0,0,0,0,0,0,0,0,0,0,0,0,0
2008,11,4,20,0,,5.8,-0.2,65,101370,0,0,268,0,0,0,0,0,0,0,0,0,0,0,0,0,0,0,0,0,0,0,0,0,0
2008,11,4,21,0,,4.5,-1.1,67,101380,0,0,263,0,0,0,0,0,0,0,0,0.1,0,0,0,0,0,0,0,0,0,0,0,0,0
2008,11,4,22,0,,3.3,-1.2,72,101420,0,0,258,0,0,0,0,0,0,0,0,0,0,0,0,0,0,0,0,0,0,0,0,0,0
2008,11,4,23,0,,2.5,-0.4,81,101380,0,0,256,0,0,0,0,0,0,0,0,0,0,0,0,0,0,0,0,0,0,0,0,0,0
2008,11,4,24,0,,2.2,-0.5,82,101350,0,0,255,0,0,0,0,0,0,0,0,0.4,0,0,0,0,0,0,0,0,0,0,0,0,0
2008,11,5,1,0,,1.3,-0.3,89,101370,0,0,252,0,0,0,0,0,0,0,0,0.2,0,0,0,0,0,0,0,0,0,0,0,0,0
2008,11,5,2,0,,0.9,-1.3,85,101380,0,0,250,0,0,0,0,0,0,0,0,0,0,0,0,0,0,0,0,0,0,0,0,0,0
2008,11,5,3,0,,0.4,-1.2,89,101370,0,0,248,0,0,0,0,0,0,0,0,0,0,0,0,0,0,0,0,0,0,0,0,0,0
2008,11,5,4,0,,0.1,-1.1,91,101380,0,0,247,0,0,0,0,0,0,0,110,0.6,0,0,0,0,0,0,0,0,0,0,0,0,0
2008,11,5,5,0,,-0.5,-1.6,92,101380,0,0,245,0,0,0,0,0,0,0,0,0,0,0,0,0,0,0,0,0,0,0,0,0,0
2008,11,5,6,0,,-1,-1.9,93,101400,0,0,243,0,0,0,0,0,0,0,0,0,0,0,0,0,0,0,0,0,0,0,0,0,0
2008,11,5,7,0,,-0.7,-1.9,91,101410,0,0,244,0,0,0,0,0,0,0,0,0,0,0,0,0,0,0,0,0,0,0,0,0,0
2008,11,5,8,0,,-0.4,-1.9,89,101440,0,0,245,58,29,30,5013,2819,3863,0,0,0,0,0,0,0,0,0,0,0,0,0,0,0,0
2008,11,5,9,0,,1.8,-1.4,79,101470,0,0,253,208,546,65,37960,54704,9664,0,0,0.3,0,0,0,0,0,0,0,0,0,0,0,0,0
2008,11,5,10,0,,4.2,-1.5,66,101400,0,0,261,358,652,89,50773,65546,12782,0,0,0.1,0,0,0,0,0,0,0,0,0,0,0,0,0
2008,11,5,11,0,,7.7,-1.2,53,101360,0,0,287,489,746,98,58187,74914,13910,0,200,0.8,3,0,0,0,0,0,0,0,0,0,0,0,0
2008,11,5,12,0,,9.8,-2.5,42,101230,0,0,299,517,641,142,54258,63067,19522,0,340,0.5,5,0,0,0,0,0,0,0,0,0,0,0,0
2008,11,5,13,0,,12.1,-2.9,35,101080,0,0,291,592,829,96,50935,80185,13923,0,0,0.1,0,0,0,0,0,0,0,0,0,0,0,0,0
2008,11,5,14,0,,13.9,-2.1,33,100970,0,0,320,446,495,170,34813,43120,20605,0,0,0.1,6,0,0,0,0,0,0,0,0,0,0,0,0
2008,11,5,15,0,,15,-1.1,33,100940,0,0,321,409,643,106,19449,40555,12817,0,0,0.2,4,0,0,0,0,0,0,0,0,0,0,0,0
2008,11,5,16,0,,15.2,0.9,38,100930,0,0,324,275,574,81,0,0,0,0,0,0.4,4,0,0,0,0,0,0,0,0,0,0,0,0
2008,11,5,17,0,,14.9,0.6,38,100930,0,0,337,91,203,56,0,0,0,0,230,0.9,8,0,0,0,0,0,0,0,0,0,0,0,0
2008,11,5,18,0,,13.9,3,48,100920,0,0,342,8,1,8,0,0,0,0,0,0.1,9,0,0,0,0,0,0,0,0,0,0,0,0
2008,11,5,19,0,,11.9,5,63,100970,0,0,333,0,0,0,0,0,0,0,0,0,9,0,0,0,0,0,0,0,0,0,0,0,0
2008,11,5,20,0,,10.8,5.7,71,100950,0,0,326,0,0,0,0,0,0,0,0,0,8,0,0,0,0,0,0,0,0,0,0,0,0
2008,11,5,21,0,,9.5,6,79,100930,0,0,318,0,0,0,0,0,0,0,0,0,8,0,0,0,0,0,0,0,0,0,0,0,0
2008,11,5,22,0,,8.8,5.5,80,100930,0,0,319,0,0,0,0,0,0,0,0,0,9,0,0,0,0,0,0,0,0,0,0,0,0
2008,11,5,23,0,,9.4,5.9,79,100940,0,0,328,0,0,0,0,0,0,0,0,0,9,0,0,0,0,0,0,0,0,0,0,0,0
2008,11,5,24,0,,9.4,6.2,81,100920,0,0,334,0,0,0,0,0,0,0,0,0,10,0,0,0,0,0,0,0,0,0,0,0,0
2008,11,6,1,0,,9.6,6.1,79,100930,0,0,332,0,0,0,0,0,0,0,0,0,10,0,0,0,0,0,0,0,0,0,0,0,0
2008,11,6,2,0,,8.8,6.2,84,100890,0,0,325,0,0,0,0,0,0,0,0,0.2,9,0,0,0,0,0,0,0,0,0,0,0,0
2008,11,6,3,0,,8.1,5.8,86,100870,0,0,319,0,0,0,0,0,0,0,0,0.1,9,0,0,0,0,0,0,0,0,0,0,0,0
2008,11,6,4,0,,8.5,6.2,86,100820,0,0,321,0,0,0,0,0,0,0,360,0.5,9,0,0,0,0,0,0,0,0,0,0,0,0
2008,11,6,5,0,,8.1,6.2,88,100780,0,0,313,0,0,0,0,0,0,0,0,0.2,8,0,0,0,0,0,0,0,0,0,0,0,0
2008,11,6,6,0,,8.4,6,85,100790,0,0,330,0,0,0,0,0,0,0,0,0.2,10,0,0,0,0,0,0,0,0,0,0,0,0
2008,11,6,7,0,,9.2,6.8,85,100770,0,0,334,0,0,0,0,0,0,0,0,0.2,10,0,0,0,0,0,0,0,0,0,0,0,0
2008,11,6,8,0,,9.5,6,79,100790,0,0,335,18,1,17,2237,48,2218,0,0,0,10,0,0,0,0,0,0,0,0,0,0,0,0
2008,11,6,9,0,,10.7,6.4,75,100800,0,0,341,78,36,68,10473,3521,8667,0,0,0,10,0,0,0,0,0,0,0,0,0,0,0,0
2008,11,6,10,0,,12.2,6.8,70,100750,0,0,348,136,41,119,16104,3874,13874,0,0,0.2,10,0,0,0,0,0,0,0,0,0,0,0,0
2008,11,6,11,0,,13.5,5.8,60,100740,0,0,344,245,98,194,28593,9704,22898,0,0,0,9,0,0,0,0,0,0,0,0,0,0,0,0
2008,11,6,12,0,,15.5,5.3,51,100670,0,0,353,305,123,233,33593,11988,27038,0,0,0.3,9,0,0,0,0,0,0,0,0,0,0,0,0
2008,11,6,13,0,,17.5,6,47,100570,0,0,364,323,136,243,33710,12712,27892,0,0,0.3,9,0,0,0,0,0,0,0,0,0,0,0,0
2008,11,6,14,0,,18.2,9,55,100480,0,0,371,288,124,219,28212,11055,24610,0,180,1.2,9,0,0,0,0,0,0,0,0,0,0,0,0
2008,11,6,15,0,,18.9,10.9,60,100440,0,0,370,268,184,182,22052,10361,20392,0,200,2.4,8,0,0,0,0,0,0,0,0,0,0,0,0
2008,11,6,16,0,,18.9,11.4,62,100470,0,0,370,170,149,120,0,0,0,0,180,1.6,8,0,0,0,0,0,0,0,0,0,0,0,0
2008,11,6,17,0,,18.3,11.8,66,100470,0,0,368,77,130,55,0,0,0,0,180,1.4,8,0,0,0,0,0,0,0,0,0,0,0,0
2008,11,6,18,0,,17.6,12,70,100460,0,0,372,6,0,6,0,0,0,0,160,1.7,9,0,0,0,0,0,0,0,0,0,0,0,0
2008,11,6,19,0,,17,12.3,74,100510,0,0,369,0,0,0,0,0,0,0,200,0.6,9,0,0,0,0,0,0,0,0,0,0,0,0
2008,11,6,20,0,,14.7,12.3,86,100510,0,0,358,0,0,0,0,0,0,0,230,0.7,9,0,0,0,0,0,0,0,0,0,0,0,0
2008,11,6,21,0,,12.3,11.1,93,100560,0,0,345,0,0,0,0,0,0,0,20,0.7,9,0,0,0,0,0,0,0,0,0,0,0,0
2008,11,6,22,0,,11,10,94,100610,0,0,340,0,0,0,0,0,0,0,0,0.2,9,0,0,0,0,0,0,0,0,0,0,0,0
2008,11,6,23,0,,10.4,9.6,95,100610,0,0,340,0,0,0,0,0,0,0,20,0.6,10,0,0,0,0,0,0,0,0,0,0,0,0
2008,11,6,24,0,,9.8,9,95,100600,0,0,340,0,0,0,0,0,0,0,0,0.3,10,0,0,0,0,0,0,0,0,0,0,0,0
2008,11,7,1,0,,9,8.2,95,100660,0,0,335,0,0,0,0,0,0,0,0,0.1,10,0,0,0,0,0,0,0,0,0,0,0,0
2008,11,7,2,0,,8.6,7.8,95,100670,0,0,333,0,0,0,0,0,0,0,0,0.2,10,0,0,0,0,0,0,0,0,0,0,0,0
2008,11,7,3,0,,8,7.2,95,100680,0,0,329,0,0,0,0,0,0,0,0,0.3,10,0,0,0,0,0,0,0,0,0,0,0,0
2008,11,7,4,0,,7.8,7,95,100740,0,0,328,0,0,0,0,0,0,0,0,0,10,0,0,0,0,0,0,0,0,0,0,0,0
2008,11,7,5,0,,8.4,7.6,95,100760,0,0,332,0,0,0,0,0,0,0,0,0.4,10,0,0,0,0,0,0,0,0,0,0,0,0
2008,11,7,6,0,,8.5,7.7,95,100800,0,0,332,0,0,0,0,0,0,0,0,0.1,10,0,0,0,0,0,0,0,0,0,0,0,0
2008,11,7,7,0,,8.6,7.8,95,100880,0,0,333,0,0,0,0,0,0,0,0,0,10,0,0,0,0,0,0,0,0,0,0,0,0
2008,11,7,8,0,,8.8,8,95,100960,0,0,334,15,1,14,1863,26,1853,0,360,0.6,10,0,0,0,0,0,0,0,0,0,0,0,0
2008,11,7,9,0,,9.2,8.4,95,101060,0,0,337,61,19,56,7625,1752,6733,0,0,0,10,0,0,0,0,0,0,0,0,0,0,0,0
2008,11,7,10,0,,9.8,9,95,101060,0,0,340,110,23,100,13014,2158,11781,0,20,0.5,10,0,0,0,0,0,0,0,0,0,0,0,0
2008,11,7,11,0,,10.6,9.8,95,101030,0,0,345,138,21,128,16053,1903,14944,0,0,0.2,10,0,0,0,0,0,0,0,0,0,0,0,0
2008,11,7,12,0,,11.6,9.8,89,100980,0,0,350,171,25,156,19387,2351,18111,0,340,0.6,10,0,0,0,0,0,0,0,0,0,0,0,0
2008,11,7,13,0,,12.7,9.6,82,100880,0,0,355,189,31,171,20887,2876,19582,0,20,0.8,10,0,0,0,0,0,0,0,0,0,0,0,0
2008,11,7,14,0,,13.4,10,80,100860,0,0,359,174,31,157,18731,2733,17851,0,340,0.5,10,0,0,0,0,0,0,0,0,0,0,0,0
2008,11,7,15,0,,13.9,9.7,76,100880,0,0,361,142,31,127,13418,1546,13175,0,0,0,10,0,0,0,0,0,0,0,0,0,0,0,0
2008,11,7,16,0,,14,9,72,100870,0,0,360,96,31,86,0,0,0,0,0,0.2,10,0,0,0,0,0,0,0,0,0,0,0,0
2008,11,7,17,0,,13.3,10.1,81,100890,0,0,358,38,18,35,0,0,0,0,360,0.6,10,0,0,0,0,0,0,0,0,0,0,0,0
2008,11,7,18,0,,11.8,8.4,80,100930,0,0,349,0,0,0,0,0,0,0,0,0,10,0,0,0,0,0,0,0,0,0,0,0,0
2008,11,7,19,0,,10.8,6.5,75,101010,0,0,341,0,0,0,0,0,0,0,0,0,10,0,0,0,0,0,0,0,0,0,0,0,0
2008,11,7,20,0,,10,5.5,74,101040,0,0,336,0,0,0,0,0,0,0,0,0.4,10,0,0,0,0,0,0,0,0,0,0,0,0
2008,11,7,21,0,,9.4,5.5,77,101040,0,0,333,0,0,0,0,0,0,0,0,0.3,10,0,0,0,0,0,0,0,0,0,0,0,0
2008,11,7,22,0,,8.6,6.2,85,101080,0,0,331,0,0,0,0,0,0,0,0,0,10,0,0,0,0,0,0,0,0,0,0,0,0
2008,11,7,23,0,,7.8,6.2,90,101130,0,0,327,0,0,0,0,0,0,0,90,0.5,10,0,0,0,0,0,0,0,0,0,0,0,0
2008,11,7,24,0,,7.7,5.6,87,101130,0,0,326,0,0,0,0,0,0,0,0,0.1,10,0,0,0,0,0,0,0,0,0,0,0,0
2008,11,8,1,0,,7.5,4.4,81,101110,0,0,323,0,0,0,0,0,0,0,20,0.9,10,0,0,0,0,0,0,0,0,0,0,0,0
2008,11,8,2,0,,7.5,4.6,82,101110,0,0,324,0,0,0,0,0,0,0,360,1.4,10,0,0,0,0,0,0,0,0,0,0,0,0
2008,11,8,3,0,,6.9,4.2,83,101090,0,0,320,0,0,0,0,0,0,0,360,0.9,10,0,0,0,0,0,0,0,0,0,0,0,0
2008,11,8,4,0,,6.6,4,84,101060,0,0,319,0,0,0,0,0,0,0,50,0.6,10,0,0,0,0,0,0,0,0,0,0,0,0
2008,11,8,5,0,,6.1,3.9,86,101070,0,0,297,0,0,0,0,0,0,0,20,1.2,7,0,0,0,0,0,0,0,0,0,0,0,0
2008,11,8,6,0,,5.7,3.5,86,101100,0,0,294,0,0,0,0,0,0,0,20,1.3,7,0,0,0,0,0,0,0,0,0,0,0,0
2008,11,8,7,0,,5.6,3.1,84,101140,0,0,290,0,0,0,0,0,0,0,20,1.5,6,0,0,0,0,0,0,0,0,0,0,0,0
2008,11,8,8,0,,6,2.8,80,101210,0,0,284,55,28,27,4659,2648,3610,0,360,1.3,3,0,0,0,0,0,0,0,0,0,0,0,0
2008,11,8,9,0,,9.2,3.5,68,101260,0,0,295,211,627,53,39444,62248,8012,0,360,2,2,0,0,0,0,0,0,0,0,0,0,0,0
2008,11,8,10,0,,12.6,4,56,101220,0,0,313,371,751,70,52935,75379,10183,0,20,2.9,3,0,0,0,0,0,0,0,0,0,0,0,0
2008,11,8,11,0,,13.9,4.1,52,101220,0,0,322,462,697,106,55966,69530,15729,0,50,2.2,4,0,0,0,0,0,0,0,0,0,0,0,0
2008,11,8,12,0,,14.9,3.6,47,101190,0,0,328,476,548,162,49893,53140,21261,0,50,2.2,5,0,0,0,0,0,0,0,0,0,0,0,0
2008,11,8,13,0,,15.7,3.1,43,101120,0,0,332,464,475,186,43389,44456,23377,0,70,2.7,5,0,0,0,0,0,0,0,0,0,0,0,0
2008,11,8,14,0,,15.3,4.3,48,101110,0,0,334,389,324,212,33067,27309,24361,0,50,2.1,6,0,0,0,0,0,0,0,0,0,0,0,0
2008,11,8,15,0,,15.3,3.4,45,101110,0,0,328,361,502,131,19786,29524,15248,0,70,2.6,4,0,0,0,0,0,0,0,0,0,0,0,0
2008,11,8,16,0,,14,3.7,50,101130,0,0,327,206,289,111,0,0,0,0,70,2.6,6,0,0,0,0,0,0,0,0,0,0,0,0
2008,11,8,17,0,,12.5,3.9,56,101170,0,0,318,101,280,56,0,0,0,0,70,2.6,5,0,0,0,0,0,0,0,0,0,0,0,0
2008,11,8,18,0,,11.7,3.6,58,101220,0,0,314,14,4,10,0,0,0,0,70,2,5,0,0,0,0,0,0,0,0,0,0,0,0
2008,11,8,19,0,,11,3.5,60,101310,0,0,312,0,0,0,0,0,0,0,50,1.1,6,0,0,0,0,0,0,0,0,0,0,0,0
2008,11,8,20,0,,10.6,3.6,62,101300,0,0,313,0,0,0,0,0,0,0,70,1.6,6,0,0,0,0,0,0,0,0,0,0,0,0
2008,11,8,21,0,,10.5,3.9,64,101330,0,0,315,0,0,0,0,0,0,0,50,1.8,7,0,0,0,0,0,0,0,0,0,0,0,0
2008,11,8,22,0,,10.5,4.1,65,101370,0,0,317,0,0,0,0,0,0,0,50,2,7,0,0,0,0,0,0,0,0,0,0,0,0
2008,11,8,23,0,,10.3,3.9,65,101370,0,0,317,0,0,0,0,0,0,0,50,1.4,8,0,0,0,0,0,0,0,0,0,0,0,0
2008,11,8,24,0,,9.4,5.9,79,101360,0,0,318,0,0,0,0,0,0,0,50,1.1,8,0,0,0,0,0,0,0,0,0,0,0,0
2008,11,9,1,0,,8.6,6.7,88,101360,0,0,315,0,0,0,0,0,0,0,360,0.9,8,0,0,0,0,0,0,0,0,0,0,0,0
2008,11,9,2,0,,8.5,6.6,88,101340,0,0,315,0,0,0,0,0,0,0,20,0.9,8,0,0,0,0,0,0,0,0,0,0,0,0
2008,11,9,3,0,,8.8,4.7,76,101290,0,0,314,0,0,0,0,0,0,0,20,1.5,8,0,0,0,0,0,0,0,0,0,0,0,0
2008,11,9,4,0,,7.9,6.3,90,101260,0,0,304,0,0,0,0,0,0,0,360,1.1,6,0,0,0,0,0,0,0,0,0,0,0,0
2008,11,9,5,0,,7.7,6.3,91,101280,0,0,311,0,0,0,0,0,0,0,360,1.2,8,0,0,0,0,0,0,0,0,0,0,0,0
2008,11,9,6,0,,7.6,6.2,91,101270,0,0,311,0,0,0,0,0,0,0,340,1.1,8,0,0,0,0,0,0,0,0,0,0,0,0
2008,11,9,7,0,,7.6,6.5,93,101320,0,0,327,0,0,0,0,0,0,0,20,1.4,10,0,0,0,0,0,0,0,0,0,0,0,0
2008,11,9,8,0,,7.4,6.6,95,101380,0,0,326,12,0,11,1541,15,1535,0,360,1.4,10,0,0,0,0,0,0,0,0,0,0,0,0
2008,11,9,9,0,,8,6.9,93,101410,0,0,329,57,17,53,7056,1548,6280,0,360,1.2,10,0,0,0,0,0,0,0,0,0,0,0,0
2008,11,9,10,0,,8.8,6.9,88,101390,0,0,333,112,26,101,13243,2440,11869,0,360,1.3,10,0,0,0,0,0,0,0,0,0,0,0,0
2008,11,9,11,0,,9.7,6.2,79,101360,0,0,336,161,33,145,18551,3151,16740,0,340,1.8,10,0,0,0,0,0,0,0,0,0,0,0,0
2008,11,9,12,0,,10.4,5.7,73,101330,0,0,338,197,39,175,22042,3737,20043,0,360,0.7,10,0,0,0,0,0,0,0,0,0,0,0,0
2008,11,9,13,0,,10.4,6.1,75,101290,0,0,339,194,35,174,21247,3271,19787,0,340,2.4,10,0,0,0,0,0,0,0,0,0,0,0,0
2008,11,9,14,0,,10.8,5.9,72,101260,0,0,340,172,31,155,18340,2773,17466,0,320,1.9,10,0,0,0,0,0,0,0,0,0,0,0,0
2008,11,9,15,0,,10.6,5.9,73,101260,0,0,340,133,28,120,12684,1312,12486,0,320,2,10,0,0,0,0,0,0,0,0,0,0,0,0
2008,11,9,16,0,,11,5.9,71,101290,0,0,341,98,34,87,0,0,0,0,360,1.7,10,0,0,0,0,0,0,0,0,0,0,0,0
2008,11,9,17,0,,10.6,4.9,68,101310,0,0,329,57,68,47,0,0,0,0,50,1.6,9,0,0,0,0,0,0,0,0,0,0,0,0
2008,11,9,18,0,,8.9,5.4,79,101390,0,0,322,3,0,3,0,0,0,0,360,1.8,9,0,0,0,0,0,0,0,0,0,0,0,0
2008,11,9,19,0,,7.8,5.2,84,101470,0,0,305,0,0,0,0,0,0,0,0,0.4,7,0,0,0,0,0,0,0,0,0,0,0,0
2008,11,9,20,0,,7.6,4.5,81,101530,0,0,297,0,0,0,0,0,0,0,340,1.4,5,0,0,0,0,0,0,0,0,0,0,0,0
2008,11,9,21,0,,6.1,3.5,84,101580,0,0,286,0,0,0,0,0,0,0,360,1.9,3,0,0,0,0,0,0,0,0,0,0,0,0
2008,11,9,22,0,,5.5,3.5,87,101650,0,0,282,0,0,0,0,0,0,0,20,0.8,3,0,0,0,0,0,0,0,0,0,0,0,0
2008,11,9,23,0,,4.5,3.1,91,101690,0,0,277,0,0,0,0,0,0,0,360,1.1,2,0,0,0,0,0,0,0,0,0,0,0,0
2008,11,9,24,0,,4.5,3.4,93,101700,0,0,277,0,0,0,0,0,0,0,20,1.5,2,0,0,0,0,0,0,0,0,0,0,0,0
2008,11,10,1,0,,3.8,2.9,94,101700,0,0,273,0,0,0,0,0,0,0,360,1.8,2,0,0,0,0,0,0,0,0,0,0,0,0
2008,11,10,2,0,,3.7,2.9,95,101720,0,0,273,0,0,0,0,0,0,0,20,2.1,2,0,0,0,0,0,0,0,0,0,0,0,0
2008,11,10,3,0,,3.2,2.4,95,101740,0,0,271,0,0,0,0,0,0,0,110,0.8,2,0,0,0,0,0,0,0,0,0,0,0,0
2008,11,10,4,0,,2.8,2,95,101760,0,0,269,0,0,0,0,0,0,0,0,0.3,2,0,0,0,0,0,0,0,0,0,0,0,0
2008,11,10,5,0,,2.3,1.5,95,101800,0,0,258,0,0,0,0,0,0,0,0,0.3,0,0,0,0,0,0,0,0,0,0,0,0,0
2008,11,10,6,0,,2,1.2,95,101840,0,0,256,0,0,0,0,0,0,0,0,0.3,0,0,0,0,0,0,0,0,0,0,0,0,0
2008,11,10,7,0,,1.8,1,95,101870,0,0,255,0,0,0,0,0,0,0,0,0.1,0,0,0,0,0,0,0,0,0,0,0,0,0
2008,11,10,8,0,,1.7,0.9,95,101930,0,0,255,51,23,27,4473,2220,3611,0,0,0.1,0,0,0,0,0,0,0,0,0,0,0,0,0
2008,11,10,9,0,,5.1,2.7,85,101960,0,0,274,194,553,59,36447,55311,8963,0,340,2.2,1,0,0,0,0,0,0,0,0,0,0,0,0
2008,11,10,10,0,,6.9,3.8,81,101940,0,0,282,337,634,87,48240,63705,12624,0,340,3,1,0,0,0,0,0,0,0,0,0,0,0,0
2008,11,10,11,0,,9.8,2.3,60,101910,0,0,292,489,817,78,58046,81755,11383,0,360,2.2,1,0,0,0,0,0,0,0,0,0,0,0,0
2008,11,10,12,0,,11.5,2.2,53,101820,0,0,303,528,735,112,54722,72451,16240,0,360,1.4,2,0,0,0,0,0,0,0,0,0,0,0,0
2008,11,10,13,0,,13.4,2.5,48,101730,0,0,318,512,648,137,45867,60937,18877,0,290,1.6,4,0,0,0,0,0,0,0,0,0,0,0,0
2008,11,10,14,0,,14.6,1.1,40,101690,0,0,322,465,614,134,33327,52367,16983,0,110,1.9,4,0,0,0,0,0,0,0,0,0,0,0,0
2008,11,10,15,0,,14.1,1.3,42,101660,0,0,322,349,475,134,18909,26369,15017,0,20,1.7,5,0,0,0,0,0,0,0,0,0,0,0,0
2008,11,10,16,0,,14,0.5,40,101660,0,0,321,233,427,97,0,0,0,0,70,1.2,5,0,0,0,0,0,0,0,0,0,0,0,0
2008,11,10,17,0,,12.6,1.5,47,101670,0,0,315,103,341,50,0,0,0,0,90,1.9,5,0,0,0,0,0,0,0,0,0,0,0,0
2008,11,10,18,0,,9.9,2.9,62,101730,0,0,305,12,3,9,0,0,0,0,360,0.8,5,0,0,0,0,0,0,0,0,0,0,0,0
2008,11,10,19,0,,8.8,2.3,64,101800,0,0,296,0,0,0,0,0,0,0,0,0.1,3,0,0,0,0,0,0,0,0,0,0,0,0
2008,11,10,20,0,,8.2,2.2,66,101840,0,0,288,0,0,0,0,0,0,0,20,0.9,2,0,0,0,0,0,0,0,0,0,0,0,0
2008,11,10,21,0,,6.8,3,77,101910,0,0,276,0,0,0,0,0,0,0,360,1.4,0,0,0,0,0,0,0,0,0,0,0,0,0
2008,11,10,22,0,,5.5,2.8,83,101980,0,0,271,0,0,0,0,0,0,0,20,1.2,0,0,0,0,0,0,0,0,0,0,0,0,0
2008,11,10,23,0,,4.5,2.6,88,101970,0,0,267,0,0,0,0,0,0,0,0,0.4,0,0,0,0,0,0,0,0,0,0,0,0,0
2008,11,10,24,0,,4,2.5,90,101960,0,0,265,0,0,0,0,0,0,0,360,0.7,0,0,0,0,0,0,0,0,0,0,0,0,0
2008,11,11,1,0,,3.4,2.3,93,101960,0,0,262,0,0,0,0,0,0,0,20,0.7,0,0,0,0,0,0,0,0,0,0,0,0,0
2008,11,11,2,0,,3,2.1,94,101970,0,0,261,0,0,0,0,0,0,0,20,0.5,0,0,0,0,0,0,0,0,0,0,0,0,0
2008,11,11,3,0,,2.7,1.9,95,101960,0,0,260,0,0,0,0,0,0,0,0,0.3,0,0,0,0,0,0,0,0,0,0,0,0,0
2008,11,11,4,0,,2.3,1.5,95,101960,0,0,258,0,0,0,0,0,0,0,360,0.5,0,0,0,0,0,0,0,0,0,0,0,0,0
2008,11,11,5,0,,1.4,0.6,95,101950,0,0,253,0,0,0,0,0,0,0,0,0,0,0,0,0,0,0,0,0,0,0,0,0,0
2008,11,11,6,0,,1.3,0.5,95,101940,0,0,253,0,0,0,0,0,0,0,20,0.6,0,0,0,0,0,0,0,0,0,0,0,0,0
2008,11,11,7,0,,1,0.2,95,101980,0,0,252,0,0,0,0,0,0,0,360,1.1,0,0,0,0,0,0,0,0,0,0,0,0,0
2008,11,11,8,0,,1.5,0.7,95,102040,0,0,254,51,25,26,4348,2340,3448,0,360,0.5,0,0,0,0,0,0,0,0,0,0,0,0,0
2008,11,11,9,0,,3.3,1.1,86,102080,0,0,261,185,507,63,34349,50511,9450,0,0,0,0,0,0,0,0,0,0,0,0,0,0,0,0
2008,11,11,10,0,,5.4,1.8,78,102050,0,0,269,323,591,93,46829,59022,14065,0,0,0,0,0,0,0,0,0,0,0,0,0,0,0,0
2008,11,11,11,0,,8.1,2.1,66,102000,0,0,280,453,704,101,54270,70283,14427,0,0,0.3,0,0,0,0,0,0,0,0,0,0,0,0,0
2008,11,11,12,0,,10.3,2.1,57,101910,0,0,294,526,743,109,54505,73239,15877,0,360,0.7,1,0,0,0,0,0,0,0,0,0,0,0,0
2008,11,11,13,0,,12.7,0.7,44,101770,0,0,307,546,765,106,47404,72950,15347,0,230,0.5,2,0,0,0,0,0,0,0,0,0,0,0,0
2008,11,11,14,0,,14,0.2,39,101680,0,0,302,506,762,98,34153,65831,13819,0,250,1.2,0,0,0,0,0,0,0,0,0,0,0,0,0
2008,11,11,15,0,,14.4,0.5,39,101630,0,0,304,412,734,83,17215,43750,10885,0,230,1.6,0,0,0,0,0,0,0,0,0,0,0,0,0
2008,11,11,16,0,,14.2,0,38,101610,0,0,303,275,663,64,0,0,0,0,160,1,0,0,0,0,0,0,0,0,0,0,0,0,0
2008,11,11,17,0,,13.1,1.4,45,101590,0,0,300,118,525,38,0,0,0,0,0,0.1,0,0,0,0,0,0,0,0,0,0,0,0,0
2008,11,11,18,0,,9.4,3.5,67,101600,0,0,287,13,4,9,0,0,0,0,20,0.8,0,0,0,0,0,0,0,0,0,0,0,0,0
2008,11,11,19,0,,7.4,3.4,76,101640,0,0,279,0,0,0,0,0,0,0,0,0,0,0,0,0,0,0,0,0,0,0,0,0,0
2008,11,11,20,0,,5.7,3.3,85,101680,0,0,272,0,0,0,0,0,0,0,0,0.2,0,0,0,0,0,0,0,0,0,0,0,0,0
2008,11,11,21,0,,4.6,2.7,88,101720,0,0,267,0,0,0,0,0,0,0,140,0.6,0,0,0,0,0,0,0,0,0,0,0,0,0
2008,11,11,22,0,,3.6,1.7,88,101740,0,0,262,0,0,0,0,0,0,0,0,0.4,0,0,0,0,0,0,0,0,0,0,0,0,0
2008,11,11,23,0,,2.8,1.6,92,101740,0,0,259,0,0,0,0,0,0,0,0,0,0,0,0,0,0,0,0,0,0,0,0,0,0
2008,11,11,24,0,,2.4,1.3,93,101710,0,0,258,0,0,0,0,0,0,0,0,0.1,0,0,0,0,0,0,0,0,0,0,0,0,0
2008,11,12,1,0,,1.6,0.8,95,101710,0,0,254,0,0,0,0,0,0,0,90,0.5,0,0,0,0,0,0,0,0,0,0,0,0,0
2008,11,12,2,0,,1.6,0.8,95,101720,0,0,254,0,0,0,0,0,0,0,0,0.2,0,0,0,0,0,0,0,0,0,0,0,0,0
2008,11,12,3,0,,1.1,0.3,95,101710,0,0,252,0,0,0,0,0,0,0,0,0,0,0,0,0,0,0,0,0,0,0,0,0,0
2008,11,12,4,0,,0.8,0,95,101710,0,0,251,0,0,0,0,0,0,0,0,0,0,0,0,0,0,0,0,0,0,0,0,0,0
2008,11,12,5,0,,0.8,0,95,101710,0,0,262,0,0,0,0,0,0,0,0,0.2,3,0,0,0,0,0,0,0,0,0,0,0,0
2008,11,12,6,0,,1.5,0.7,95,101700,0,0,293,0,0,0,0,0,0,0,0,0.2,10,0,0,0,0,0,0,0,0,0,0,0,0
2008,11,12,7,0,,1.6,0.8,95,101750,0,0,294,0,0,0,0,0,0,0,50,0.5,10,0,0,0,0,0,0,0,0,0,0,0,0
2008,11,12,8,0,,2,1.2,95,101780,0,0,296,15,1,14,1887,39,1873,0,360,1.3,10,0,0,0,0,0,0,0,0,0,0,0,0
2008,11,12,9,0,,2.9,2.1,95,101830,0,0,269,167,398,72,30561,39294,11346,0,20,0.7,2,0,0,0,0,0,0,0,0,0,0,0,0
2008,11,12,10,0,,3.7,2.9,95,101840,0,0,273,291,460,114,41627,45476,16561,0,0,0.4,2,0,0,0,0,0,0,0,0,0,0,0,0
2008,11,12,11,0,,4.6,3,90,101800,0,0,268,382,462,153,45770,45117,20366,0,320,0.5,0,0,0,0,0,0,0,0,0,0,0,0,0
2008,11,12,12,0,,7.4,2.6,72,101680,0,0,278,477,598,144,50250,58090,19824,0,0,0.4,0,0,0,0,0,0,0,0,0,0,0,0,0
2008,11,12,13,0,,10.3,2.8,60,101540,0,0,289,533,735,113,46504,69643,16138,0,200,0.8,0,0,0,0,0,0,0,0,0,0,0,0,0
2008,11,12,14,0,,12.2,0.2,44,101460,0,0,295,518,813,85,33975,70586,12393,0,340,0.6,0,0,0,0,0,0,0,0,0,0,0,0,0
2008,11,12,15,0,,14.4,0.2,38,101400,0,0,304,432,822,66,16202,50129,9090,0,110,0.7,0,0,0,0,0,0,0,0,0,0,0,0,0
2008,11,12,16,0,,14.6,0,37,101390,0,0,305,282,716,57,0,0,0,0,0,0.1,0,0,0,0,0,0,0,0,0,0,0,0,0
2008,11,12,17,0,,12.7,3.6,54,101400,0,0,300,117,82,36,0,0,0,0,340,1.5,0,0,0,0,0,0,0,0,0,0,0,0,0
2008,11,12,18,0,,9.7,4.4,70,101410,0,0,289,11,3,9,0,0,0,0,0,0.2,0,0,0,0,0,0,0,0,0,0,0,0,0
2008,11,12,19,0,,7.7,4.2,79,101480,0,0,281,0,0,0,0,0,0,0,0,0.1,0,0,0,0,0,0,0,0,0,0,0,0,0
2008,11,12,20,0,,6.3,3.2,81,101560,0,0,274,0,0,0,0,0,0,0,320,0.6,0,0,0,0,0,0,0,0,0,0,0,0,0
2008,11,12,21,0,,5.2,3.3,88,101590,0,0,270,0,0,0,0,0,0,0,0,0.1,0,0,0,0,0,0,0,0,0,0,0,0,0
2008,11,12,22,0,,4.2,3.1,93,101610,0,0,266,0,0,0,0,0,0,0,0,0.2,0,0,0,0,0,0,0,0,0,0,0,0,0
2008,11,12,23,0,,3.5,2.6,94,101630,0,0,263,0,0,0,0,0,0,0,0,0.2,0,0,0,0,0,0,0,0,0,0,0,0,0
2008,11,12,24,0,,2.8,2,95,101580,0,0,260,0,0,0,0,0,0,0,0,0.1,0,0,0,0,0,0,0,0,0,0,0,0,0
2008,11,13,1,0,,1.6,0.8,95,101520,0,0,254,0,0,0,0,0,0,0,0,0.1,0,0,0,0,0,0,0,0,0,0,0,0,0
2008,11,13,2,0,,1.5,0.7,95,101560,0,0,254,0,0,0,0,0,0,0,0,0.1,0,0,0,0,0,0,0,0,0,0,0,0,0
2008,11,13,3,0,,1.4,0.6,95,101630,0,0,253,0,0,0,0,0,0,0,0,0.4,0,0,0,0,0,0,0,0,0,0,0,0,0
2008,11,13,4,0,,1,0.2,95,101650,0,0,252,0,0,0,0,0,0,0,0,0.2,0,0,0,0,0,0,0,0,0,0,0,0,0
2008,11,13,5,0,,0.5,-0.2,95,101690,0,0,250,0,0,0,0,0,0,0,90,0.5,0,0,0,0,0,0,0,0,0,0,0,0,0
2008,11,13,6,0,,0.1,-0.6,95,101730,0,0,248,0,0,0,0,0,0,0,0,0,0,0,0,0,0,0,0,0,0,0,0,0,0
2008,11,13,7,0,,0.9,0.1,95,101750,0,0,290,0,0,0,0,0,0,0,20,1,10,0,0,0,0,0,0,0,0,0,0,0,0
2008,11,13,8,0,,1.6,0.8,95,101740,0,0,294,13,1,13,1706,27,1696,0,20,0.9,10,0,0,0,0,0,0,0,0,0,0,0,0
2008,11,13,9,0,,2.4,1.6,95,101780,0,0,273,145,315,71,26283,31038,11227,0,0,0.1,5,0,0,0,0,0,0,0,0,0,0,0,0
2008,11,13,10,0,,3.4,2.5,94,101810,0,0,278,252,316,131,34758,30824,17886,0,20,0.9,5,0,0,0,0,0,0,0,0,0,0,0,0
2008,11,13,11,0,,5,2.6,85,101750,0,0,282,363,404,164,43588,39451,21522,0,0,0.1,4,0,0,0,0,0,0,0,0,0,0,0,0
2008,11,13,12,0,,8,1.3,63,101660,0,0,288,486,637,133,50896,62178,18550,0,340,0.6,2,0,0,0,0,0,0,0,0,0,0,0,0
2008,11,13,13,0,,12.2,0.9,46,101490,0,0,308,540,770,103,46677,73272,14972,0,0,0.3,3,0,0,0,0,0,0,0,0,0,0,0,0
2008,11,13,14,0,,13.9,0.8,41,101400,0,0,313,518,825,82,33646,71555,11983,0,0,0,2,0,0,0,0,0,0,0,0,0,0,0,0
2008,11,13,15,0,,15.2,1.3,39,101300,0,0,330,354,531,120,17972,29743,13832,0,0,0.1,6,0,0,0,0,0,0,0,0,0,0,0,0
2008,11,13,16,0,,15.1,2.2,42,101290,0,0,331,220,394,98,0,0,0,0,0,0.3,6,0,0,0,0,0,0,0,0,0,0,0,0
2008,11,13,17,0,,14.6,1.1,40,101290,0,0,327,95,46,49,0,0,0,0,230,1.4,6,0,0,0,0,0,0,0,0,0,0,0,0
2008,11,13,18,0,,12.7,3.8,55,101330,0,0,321,8,1,7,0,0,0,0,0,0.1,6,0,0,0,0,0,0,0,0,0,0,0,0
2008,11,13,19,0,,9.6,4.7,72,101370,0,0,310,0,0,0,0,0,0,0,0,0,6,0,0,0,0,0,0,0,0,0,0,0,0
2008,11,13,20,0,,7.6,5.2,85,101370,0,0,303,0,0,0,0,0,0,0,0,0.1,7,0,0,0,0,0,0,0,0,0,0,0,0
2008,11,13,21,0,,6.3,4.1,86,101390,0,0,298,0,0,0,0,0,0,0,0,0,7,0,0,0,0,0,0,0,0,0,0,0,0
2008,11,13,22,0,,6.1,3.9,86,101420,0,0,298,0,0,0,0,0,0,0,0,0.2,7,0,0,0,0,0,0,0,0,0,0,0,0
2008,11,13,23,0,,5.2,3.5,89,101460,0,0,295,0,0,0,0,0,0,0,0,0.2,8,0,0,0,0,0,0,0,0,0,0,0,0
2008,11,13,24,0,,5.2,3.8,91,101460,0,0,297,0,0,0,0,0,0,0,0,0,8,0,0,0,0,0,0,0,0,0,0,0,0
2008,11,14,1,0,,4.6,3.5,93,101470,0,0,295,0,0,0,0,0,0,0,360,0.9,8,0,0,0,0,0,0,0,0,0,0,0,0
2008,11,14,2,0,,3.8,2.9,94,101450,0,0,291,0,0,0,0,0,0,0,0,0,8,0,0,0,0,0,0,0,0,0,0,0,0
2008,11,14,3,0,,4,3.2,95,101470,0,0,292,0,0,0,0,0,0,0,0,0.1,8,0,0,0,0,0,0,0,0,0,0,0,0
2008,11,14,4,0,,3.4,2.6,95,101470,0,0,279,0,0,0,0,0,0,0,0,0.2,5,0,0,0,0,0,0,0,0,0,0,0,0
2008,11,14,5,0,,2.4,1.6,95,101490,0,0,269,0,0,0,0,0,0,0,0,0,3,0,0,0,0,0,0,0,0,0,0,0,0
2008,11,14,6,0,,2.4,1.6,95,101530,0,0,269,0,0,0,0,0,0,0,0,0,3,0,0,0,0,0,0,0,0,0,0,0,0
2008,11,14,7,0,,1.7,0.9,95,101560,0,0,294,0,0,0,0,0,0,0,0,0.1,10,0,0,0,0,0,0,0,0,0,0,0,0
2008,11,14,8,0,,2.3,1.5,95,101610,0,0,297,9,0,9,1214,7,1211,0,0,0,10,0,0,0,0,0,0,0,0,0,0,0,0
2008,11,14,9,0,,3.9,3.1,95,101630,0,0,306,57,21,52,7110,1977,6158,0,0,0,10,0,0,0,0,0,0,0,0,0,0,0,0
2008,11,14,10,0,,5.7,4.1,90,101620,0,0,315,115,33,102,13646,3126,11947,0,0,0,10,0,0,0,0,0,0,0,0,0,0,0,0
2008,11,14,11,0,,8.1,3.7,74,101580,0,0,294,416,611,118,50639,60390,17084,0,270,0.8,3,0,0,0,0,0,0,0,0,0,0,0,0
2008,11,14,12,0,,10.1,4.2,67,101500,0,0,310,404,377,196,42464,36838,23429,0,140,0.6,6,0,0,0,0,0,0,0,0,0,0,0,0
2008,11,14,13,0,,11.8,3,55,101370,0,0,320,387,281,228,37398,26390,26064,0,270,0.7,7,0,0,0,0,0,0,0,0,0,0,0,0
2008,11,14,14,0,,13.7,1.9,45,101300,0,0,327,372,328,199,30947,27414,22728,0,270,0.6,7,0,0,0,0,0,0,0,0,0,0,0,0
2008,11,14,15,0,,14,2.5,46,101290,0,0,335,258,203,169,19829,11116,18311,0,0,0.3,8,0,0,0,0,0,0,0,0,0,0,0,0
2008,11,14,16,0,,13.9,2.4,46,101290,0,0,329,191,284,104,0,0,0,0,0,0.2,7,0,0,0,0,0,0,0,0,0,0,0,0
2008,11,14,17,0,,12.5,4.4,58,101320,0,0,325,74,27,47,0,0,0,0,0,0,7,0,0,0,0,0,0,0,0,0,0,0,0
2008,11,14,18,0,,10.4,5.7,73,101350,0,0,317,5,0,4,0,0,0,0,0,0.1,7,0,0,0,0,0,0,0,0,0,0,0,0
2008,11,14,19,0,,9.5,5.8,78,101370,0,0,312,0,0,0,0,0,0,0,0,0.3,7,0,0,0,0,0,0,0,0,0,0,0,0
2008,11,14,20,0,,8.3,6.4,88,101340,0,0,306,0,0,0,0,0,0,0,0,0,6,0,0,0,0,0,0,0,0,0,0,0,0
2008,11,14,21,0,,7.4,5.5,88,101350,0,0,300,0,0,0,0,0,0,0,0,0.4,6,0,0,0,0,0,0,0,0,0,0,0,0
2008,11,14,22,0,,6.4,4.7,89,101360,0,0,296,0,0,0,0,0,0,0,0,0.2,6,0,0,0,0,0,0,0,0,0,0,0,0
2008,11,14,23,0,,5.8,4.9,94,101330,0,0,295,0,0,0,0,0,0,0,0,0.3,7,0,0,0,0,0,0,0,0,0,0,0,0
2008,11,14,24,0,,5.3,4.4,94,101300,0,0,294,0,0,0,0,0,0,0,0,0,7,0,0,0,0,0,0,0,0,0,0,0,0
2008,11,15,1,0,,4.7,3.8,94,101320,0,0,292,0,0,0,0,0,0,0,0,0,7,0,0,0,0,0,0,0,0,0,0,0,0
2008,11,15,2,0,,5.1,4.3,95,101250,0,0,296,0,0,0,0,0,0,0,0,0.2,8,0,0,0,0,0,0,0,0,0,0,0,0
2008,11,15,3,0,,5.5,4.6,94,101220,0,0,300,0,0,0,0,0,0,0,0,0.3,8,0,0,0,0,0,0,0,0,0,0,0,0
2008,11,15,4,0,,5.5,4.7,95,101140,0,0,315,0,0,0,0,0,0,0,110,0.5,10,0,0,0,0,0,0,0,0,0,0,0,0
2008,11,15,5,0,,5.6,4.8,95,101090,0,0,316,0,0,0,0,0,0,0,0,0.3,10,0,0,0,0,0,0,0,0,0,0,0,0
2008,11,15,6,0,,6.2,5.3,94,101060,0,0,319,0,0,0,0,0,0,0,0,0.1,10,0,0,0,0,0,0,0,0,0,0,0,0
2008,11,15,7,0,,6.3,5,92,101080,0,0,319,0,0,0,0,0,0,0,0,0,10,0,0,0,0,0,0,0,0,0,0,0,0
2008,11,15,8,0,,6.3,5.5,95,101110,0,0,320,9,0,9,1251,10,1247,0,0,0.1,10,0,0,0,0,0,0,0,0,0,0,0,0
2008,11,15,9,0,,6.9,5.8,93,101110,0,0,323,51,17,47,6396,1536,5663,0,0,0,10,0,0,0,0,0,0,0,0,0,0,0,0
2008,11,15,10,0,,8,5.6,85,101030,0,0,327,103,26,94,12285,2385,10997,0,0,0,10,0,0,0,0,0,0,0,0,0,0,0,0
2008,11,15,11,0,,8.8,5.7,81,100980,0,0,331,152,33,136,17478,3096,15769,0,0,0,10,0,0,0,0,0,0,0,0,0,0,0,0
2008,11,15,12,0,,9.4,6.2,81,100890,0,0,334,173,32,156,19450,2962,17929,0,0,0,10,0,0,0,0,0,0,0,0,0,0,0,0
2008,11,15,13,0,,9.2,7.3,88,100820,0,0,335,164,25,150,18157,2292,17180,0,360,0.9,10,0,0,0,0,0,0,0,0,0,0,0,0
2008,11,15,14,0,,9.3,7.7,90,100720,0,0,336,139,20,129,14569,1151,14227,0,320,0.5,10,0,0,0,0,0,0,0,0,0,0,0,0
2008,11,15,15,0,,9.5,7.9,90,100690,0,0,337,102,15,95,10006,477,9942,0,0,0,10,0,0,0,0,0,0,0,0,0,0,0,0
2008,11,15,16,0,,9.3,8.2,93,100730,0,0,337,70,16,65,0,0,0,0,0,0.3,10,0,0,0,0,0,0,0,0,0,0,0,0
2008,11,15,17,0,,9.2,8.4,95,100740,0,0,337,27,2,26,0,0,0,0,0,0,10,0,0,0,0,0,0,0,0,0,0,0,0
2008,11,15,18,0,,9.1,8.3,95,100760,0,0,336,0,0,0,0,0,0,0,0,0,10,0,0,0,0,0,0,0,0,0,0,0,0
2008,11,15,19,0,,8.8,8,95,100750,0,0,334,0,0,0,0,0,0,0,0,0.2,10,0,0,0,0,0,0,0,0,0,0,0,0
2008,11,15,20,0,,8.8,8,95,100750,0,0,334,0,0,0,0,0,0,0,0,0,10,0,0,0,0,0,0,0,0,0,0,0,0
2008,11,15,21,0,,8.8,8,95,100740,0,0,334,0,0,0,0,0,0,0,0,0,10,0,0,0,0,0,0,0,0,0,0,0,0
2008,11,15,22,0,,8.7,7.9,95,100710,0,0,334,0,0,0,0,0,0,0,0,0,10,0,0,0,0,0,0,0,0,0,0,0,0
2008,11,15,23,0,,8.7,7.9,95,100690,0,0,334,0,0,0,0,0,0,0,0,0.1,10,0,0,0,0,0,0,0,0,0,0,0,0
2008,11,15,24,0,,8.6,7.8,95,100710,0,0,333,0,0,0,0,0,0,0,0,0.1,10,0,0,0,0,0,0,0,0,0,0,0,0
2008,11,16,1,0,,8.4,7.6,95,100750,0,0,332,0,0,0,0,0,0,0,0,0,10,0,0,0,0,0,0,0,0,0,0,0,0
2008,11,16,2,0,,7.4,6.6,95,100760,0,0,326,0,0,0,0,0,0,0,0,0.4,10,0,0,0,0,0,0,0,0,0,0,0,0
2008,11,16,3,0,,7.8,7,95,100760,0,0,328,0,0,0,0,0,0,0,0,0.3,10,0,0,0,0,0,0,0,0,0,0,0,0
2008,11,16,4,0,,7.3,6.5,95,100780,0,0,325,0,0,0,0,0,0,0,360,0.8,10,0,0,0,0,0,0,0,0,0,0,0,0
2008,11,16,5,0,,6.7,5.9,95,100770,0,0,322,0,0,0,0,0,0,0,0,0,10,0,0,0,0,0,0,0,0,0,0,0,0
2008,11,16,6,0,,5.3,4.5,95,100790,0,0,314,0,0,0,0,0,0,0,0,0.1,10,0,0,0,0,0,0,0,0,0,0,0,0
2008,11,16,7,0,,4.8,4,95,100810,0,0,311,0,0,0,0,0,0,0,140,0.8,10,0,0,0,0,0,0,0,0,0,0,0,0
2008,11,16,8,0,,4.6,3.8,95,100880,0,0,310,6,0,6,779,3,778,0,90,0.6,10,0,0,0,0,0,0,0,0,0,0,0,0
2008,11,16,9,0,,6,5.2,95,100930,0,0,318,51,17,47,6362,1583,5613,0,0,0.2,10,0,0,0,0,0,0,0,0,0,0,0,0
2008,11,16,10,0,,7.2,6.4,95,100930,0,0,281,284,483,105,41093,47505,15625,0,360,0.9,0,0,0,0,0,0,0,0,0,0,0,0,0
2008,11,16,11,0,,8.6,5.6,82,100870,0,0,298,376,488,142,45118,47173,19245,0,270,1.2,3,0,0,0,0,0,0,0,0,0,0,0,0
2008,11,16,12,0,,10.7,4.1,64,100790,0,0,302,472,626,132,49500,60669,18559,0,230,1.4,2,0,0,0,0,0,0,0,0,0,0,0,0
2008,11,16,13,0,,12,2.9,54,100670,0,0,297,503,688,121,44271,64491,16973,0,270,1.1,0,0,0,0,0,0,0,0,0,0,0,0,0
2008,11,16,14,0,,12.9,-2.6,34,100610,0,0,295,488,759,94,32336,64721,13292,0,230,1.6,0,0,0,0,0,0,0,0,0,0,0,0,0
2008,11,16,15,0,,12.9,-3.8,31,100580,0,0,294,392,718,82,15891,40338,10579,0,230,2.2,0,0,0,0,0,0,0,0,0,0,0,0,0
2008,11,16,16,0,,12.4,-3.8,32,100570,0,0,292,259,651,62,0,0,0,0,230,2.2,0,0,0,0,0,0,0,0,0,0,0,0,0
2008,11,16,17,0,,11.2,-6.6,28,100600,0,0,284,112,82,31,0,0,0,0,270,2.6,0,0,0,0,0,0,0,0,0,0,0,0,0
2008,11,16,18,0,,9.4,-4.9,36,100640,0,0,278,11,4,7,0,0,0,0,270,1.5,0,0,0,0,0,0,0,0,0,0,0,0,0
2008,11,16,19,0,,8.5,-2.7,45,100710,0,0,277,0,0,0,0,0,0,0,250,1.3,0,0,0,0,0,0,0,0,0,0,0,0,0
2008,11,16,20,0,,4.9,1,76,100740,0,0,266,0,0,0,0,0,0,0,0,0.1,0,0,0,0,0,0,0,0,0,0,0,0,0
2008,11,16,21,0,,3,0.2,82,100790,0,0,259,0,0,0,0,0,0,0,20,0.6,0,0,0,0,0,0,0,0,0,0,0,0,0
2008,11,16,22,0,,1.8,-0.1,87,100850,0,0,254,0,0,0,0,0,0,0,50,0.5,0,0,0,0,0,0,0,0,0,0,0,0,0
2008,11,16,23,0,,1.3,0,91,100890,0,0,252,0,0,0,0,0,0,0,0,0.1,0,0,0,0,0,0,0,0,0,0,0,0,0
2008,11,16,24,0,,0.4,-0.7,92,100900,0,0,249,0,0,0,0,0,0,0,0,0.1,0,0,0,0,0,0,0,0,0,0,0,0,0
2008,11,17,1,0,,-0.2,-1,94,100960,0,0,246,0,0,0,0,0,0,0,0,0,0,0,0,0,0,0,0,0,0,0,0,0,0
2008,11,17,2,0,,-0.9,-1.6,95,100980,0,0,243,0,0,0,0,0,0,0,0,0,0,0,0,0,0,0,0,0,0,0,0,0,0
2008,11,17,3,0,,-1.2,-1.9,95,100990,0,0,242,0,0,0,0,0,0,0,0,0,0,0,0,0,0,0,0,0,0,0,0,0,0
2008,11,17,4,0,,-1.7,-2.4,95,101020,0,0,248,0,0,0,0,0,0,0,0,0,2,0,0,0,0,0,0,0,0,0,0,0,0
2008,11,17,5,0,,-1.8,-2.4,95,101020,0,0,250,0,0,0,0,0,0,0,0,0,3,0,0,0,0,0,0,0,0,0,0,0,0
2008,11,17,6,0,,-2.3,-2.9,95,101050,0,0,247,0,0,0,0,0,0,0,320,0.5,3,0,0,0,0,0,0,0,0,0,0,0,0
2008,11,17,7,0,,-1.5,-2.2,95,101070,0,0,253,0,0,0,0,0,0,0,0,0,4,0,0,0,0,0,0,0,0,0,0,0,0
2008,11,17,8,0,,-1.9,-2.5,95,101050,0,0,255,31,10,21,2865,872,2550,0,360,0.6,6,0,0,0,0,0,0,0,0,0,0,0,0
2008,11,17,9,0,,0,-1.2,91,101100,0,0,261,141,300,75,24619,28998,10989,0,0,0.3,5,0,0,0,0,0,0,0,0,0,0,0,0
2008,11,17,10,0,,2,-1.2,79,101070,0,0,262,300,574,90,43968,57184,13519,0,20,0.9,2,0,0,0,0,0,0,0,0,0,0,0,0
2008,11,17,11,0,,5.4,-2.4,57,101000,0,0,270,447,762,84,53686,76198,12157,0,320,0.8,1,0,0,0,0,0,0,0,0,0,0,0,0
2008,11,17,12,0,,8.4,-4.4,40,100860,0,0,291,482,673,120,50314,65887,16926,0,180,1.6,5,0,0,0,0,0,0,0,0,0,0,0,0
2008,11,17,13,0,,9.2,-4.4,38,100760,0,0,301,441,494,168,40432,46519,20879,0,290,5,7,0,0,0,0,0,0,0,0,0,0,0,0
2008,11,17,14,0,,8.4,-4.7,39,100740,0,0,297,363,326,195,29848,27604,21799,0,270,4.5,7,0,0,0,0,0,0,0,0,0,0,0,0
2008,11,17,15,0,,8.6,-4.2,40,100710,0,0,303,235,166,164,18738,9086,17562,0,250,2.1,8,0,0,0,0,0,0,0,0,0,0,0,0
2008,11,17,16,0,,7.9,-7.4,33,100710,0,0,275,253,627,65,0,0,0,0,250,4.3,1,0,0,0,0,0,0,0,0,0,0,0,0
2008,11,17,17,0,,6.6,-7,37,100750,0,0,265,108,76,32,0,0,0,0,250,2.7,0,0,0,0,0,0,0,0,0,0,0,0,0
2008,11,17,18,0,,5.5,-5.5,45,100820,0,0,262,10,3,7,0,0,0,0,230,2.5,0,0,0,0,0,0,0,0,0,0,0,0,0
2008,11,17,19,0,,4.4,-8,40,100880,0,0,256,0,0,0,0,0,0,0,270,2.5,0,0,0,0,0,0,0,0,0,0,0,0,0
2008,11,17,20,0,,3.2,-10.8,35,100940,0,0,249,0,0,0,0,0,0,0,250,3,0,0,0,0,0,0,0,0,0,0,0,0,0
2008,11,17,21,0,,1.8,-11.3,37,101000,0,0,243,0,0,0,0,0,0,0,250,2.3,0,0,0,0,0,0,0,0,0,0,0,0,0
2008,11,17,22,0,,0.8,-10,44,101090,0,0,240,0,0,0,0,0,0,0,230,1.6,0,0,0,0,0,0,0,0,0,0,0,0,0
2008,11,17,23,0,,-0.5,-12.7,39,101160,0,0,235,0,0,0,0,0,0,0,270,1.2,0,0,0,0,0,0,0,0,0,0,0,0,0
2008,11,17,24,0,,-2.2,-10.2,54,101220,0,0,230,0,0,0,0,0,0,0,0,0.3,0,0,0,0,0,0,0,0,0,0,0,0,0
2008,11,18,1,0,,-2.5,-13.9,41,101280,0,0,226,0,0,0,0,0,0,0,270,0.9,0,0,0,0,0,0,0,0,0,0,0,0,0
2008,11,18,2,0,,-3.2,-14.3,42,101340,0,0,224,0,0,0,0,0,0,0,270,1.4,0,0,0,0,0,0,0,0,0,0,0,0,0
2008,11,18,3,0,,-3.5,-16.1,37,101380,0,0,222,0,0,0,0,0,0,0,250,2.2,0,0,0,0,0,0,0,0,0,0,0,0,0
2008,11,18,4,0,,-4.2,-18.4,32,101410,0,0,219,0,0,0,0,0,0,0,270,1.8,0,0,0,0,0,0,0,0,0,0,0,0,0
2008,11,18,5,0,,-4.8,-20.1,29,101410,0,0,217,0,0,0,0,0,0,0,250,1.1,0,0,0,0,0,0,0,0,0,0,0,0,0
2008,11,18,6,0,,-4.9,-19,32,101420,0,0,216,0,0,0,0,0,0,0,200,1,0,0,0,0,0,0,0,0,0,0,0,0,0
2008,11,18,7,0,,-5.1,-20,30,101460,0,0,216,0,0,0,0,0,0,0,180,1.5,0,0,0,0,0,0,0,0,0,0,0,0,0
2008,11,18,8,0,,-4.9,-21.9,25,101510,0,0,217,51,36,16,3527,3400,2309,0,250,2.3,0,0,0,0,0,0,0,0,0,0,0,0,0
2008,11,18,9,0,,-3.4,-22.1,22,101530,0,0,222,194,730,36,38752,71087,5598,0,180,1.6,0,0,0,0,0,0,0,0,0,0,0,0,0
2008,11,18,10,0,,-1.6,-22.2,19,101490,0,0,228,343,791,56,49592,77966,8354,0,200,1.1,0,0,0,0,0,0,0,0,0,0,0,0,0
2008,11,18,11,0,,-0.2,-20.5,20,101450,0,0,233,467,849,66,55132,83773,9759,0,290,2.2,0,0,0,0,0,0,0,0,0,0,0,0,0
2008,11,18,12,0,,0.5,-19.3,21,101360,0,0,241,520,807,88,52601,79276,12678,0,290,3.7,2,0,0,0,0,0,0,0,0,0,0,0,0
2008,11,18,13,0,,1,-17.8,23,101220,0,0,244,523,772,99,44861,73587,14141,0,270,4.2,2,0,0,0,0,0,0,0,0,0,0,0,0
2008,11,18,14,0,,1.5,-16.4,25,101150,0,0,249,458,678,111,31363,57033,14876,0,270,2.9,3,0,0,0,0,0,0,0,0,0,0,0,0
2008,11,18,15,0,,0.9,-15.1,29,101160,0,0,247,375,672,89,15695,36521,11050,0,320,4.5,3,0,0,0,0,0,0,0,0,0,0,0,0
2008,11,18,16,0,,0.1,-15,31,101210,0,0,244,247,609,66,0,0,0,0,290,3.9,3,0,0,0,0,0,0,0,0,0,0,0,0
2008,11,18,17,0,,-0.5,-14.8,33,101220,0,0,246,97,60,37,0,0,0,0,270,2.1,4,0,0,0,0,0,0,0,0,0,0,0,0
2008,11,18,18,0,,-1.3,-14.4,36,101250,0,0,243,9,2,7,0,0,0,0,290,2.4,4,0,0,0,0,0,0,0,0,0,0,0,0
2008,11,18,19,0,,-1.6,-15.4,34,101300,0,0,241,0,0,0,0,0,0,0,250,2.5,4,0,0,0,0,0,0,0,0,0,0,0,0
2008,11,18,20,0,,-2.4,-15.1,37,101380,0,0,237,0,0,0,0,0,0,0,290,2.4,3,0,0,0,0,0,0,0,0,0,0,0,0
2008,11,18,21,0,,-3,-15,39,101420,0,0,234,0,0,0,0,0,0,0,270,2,3,0,0,0,0,0,0,0,0,0,0,0,0
2008,11,18,22,0,,-3.5,-15.4,39,101430,0,0,229,0,0,0,0,0,0,0,250,3.2,2,0,0,0,0,0,0,0,0,0,0,0,0
2008,11,18,23,0,,-4.7,-16.8,38,101490,0,0,221,0,0,0,0,0,0,0,20,0.9,1,0,0,0,0,0,0,0,0,0,0,0,0
2008,11,18,24,0,,-5.6,-17.3,39,101510,0,0,214,0,0,0,0,0,0,0,360,1.2,0,0,0,0,0,0,0,0,0,0,0,0,0
2008,11,19,1,0,,-6.6,-15.3,50,101510,0,0,211,0,0,0,0,0,0,0,0,0.3,0,0,0,0,0,0,0,0,0,0,0,0,0
2008,11,19,2,0,,-7.3,-15,54,101510,0,0,208,0,0,0,0,0,0,0,140,0.8,0,0,0,0,0,0,0,0,0,0,0,0,0
2008,11,19,3,0,,-8.1,-14.1,62,101550,0,0,206,0,0,0,0,0,0,0,20,0.6,0,0,0,0,0,0,0,0,0,0,0,0,0
2008,11,19,4,0,,-8.3,-15.7,55,101560,0,0,204,0,0,0,0,0,0,0,110,1.1,0,0,0,0,0,0,0,0,0,0,0,0,0
2008,11,19,5,0,,-8.2,-15.4,56,101600,0,0,205,0,0,0,0,0,0,0,140,0.6,0,0,0,0,0,0,0,0,0,0,0,0,0
2008,11,19,6,0,,-9,-15.9,57,101630,0,0,202,0,0,0,0,0,0,0,110,1,0,0,0,0,0,0,0,0,0,0,0,0,0
2008,11,19,7,0,,-9.8,-14.2,70,101670,0,0,201,0,0,0,0,0,0,0,360,0.5,0,0,0,0,0,0,0,0,0,0,0,0,0
2008,11,19,8,0,,-10,-13.4,76,101710,0,0,201,40,17,22,3526,1666,2935,0,360,0.5,0,0,0,0,0,0,0,0,0,0,0,0,0
2008,11,19,9,0,,-6.8,-18.1,40,101760,0,0,209,183,670,41,36361,65110,6229,0,0,0.2,0,0,0,0,0,0,0,0,0,0,0,0,0
2008,11,19,10,0,,-4.2,-18.8,31,101750,0,0,219,344,811,53,49838,79883,7865,0,250,0.6,0,0,0,0,0,0,0,0,0,0,0,0,0
2008,11,19,11,0,,-2.3,-20.1,24,101710,0,0,226,483,916,53,56635,90427,7958,0,250,1.3,0,0,0,0,0,0,0,0,0,0,0,0,0
2008,11,19,12,0,,-1.5,-18.1,27,101660,0,0,229,527,843,79,53149,83140,11534,0,270,3,0,0,0,0,0,0,0,0,0,0,0,0,0
2008,11,19,13,0,,-0.7,-16.5,29,101590,0,0,232,526,793,93,44869,75636,13502,0,230,3.1,0,0,0,0,0,0,0,0,0,0,0,0,0
2008,11,19,14,0,,0.1,-17.1,26,101560,0,0,233,475,747,95,31322,63461,13131,0,230,2.7,0,0,0,0,0,0,0,0,0,0,0,0,0
2008,11,19,15,0,,0.4,-17.3,25,101550,0,0,234,395,763,72,14733,42834,9374,0,250,2.9,0,0,0,0,0,0,0,0,0,0,0,0,0
2008,11,19,16,0,,0.5,-18.2,23,101550,0,0,234,265,724,52,0,0,0,0,250,2.1,0,0,0,0,0,0,0,0,0,0,0,0,0
2008,11,19,17,0,,-0.8,-17.9,26,101600,0,0,232,111,84,27,0,0,0,0,250,2.6,0,0,0,0,0,0,0,0,0,0,0,0,0
2008,11,19,18,0,,-1.3,-17,29,101640,0,0,230,10,3,6,0,0,0,0,250,2.3,0,0,0,0,0,0,0,0,0,0,0,0,0
2008,11,19,19,0,,-2,-15.8,34,101700,0,0,228,0,0,0,0,0,0,0,270,2.7,0,0,0,0,0,0,0,0,0,0,0,0,0
2008,11,19,20,0,,-2.8,-16.1,35,101760,0,0,224,0,0,0,0,0,0,0,250,1.4,0,0,0,0,0,0,0,0,0,0,0,0,0
2008,11,19,21,0,,-3.3,-15.9,37,101800,0,0,223,0,0,0,0,0,0,0,290,1.1,0,0,0,0,0,0,0,0,0,0,0,0,0
2008,11,19,22,0,,-3.7,-15.6,39,101860,0,0,221,0,0,0,0,0,0,0,230,1.1,0,0,0,0,0,0,0,0,0,0,0,0,0
2008,11,19,23,0,,-6.6,-11.3,69,101900,0,0,214,0,0,0,0,0,0,0,360,0.9,0,0,0,0,0,0,0,0,0,0,0,0,0
2008,11,19,24,0,,-7.6,-12.1,70,101910,0,0,210,0,0,0,0,0,0,0,0,0.2,0,0,0,0,0,0,0,0,0,0,0,0,0
2008,11,20,1,0,,-8.5,-12.3,74,101910,0,0,207,0,0,0,0,0,0,0,0,0,0,0,0,0,0,0,0,0,0,0,0,0,0
2008,11,20,2,0,,-8.9,-12,78,101890,0,0,206,0,0,0,0,0,0,0,360,0.5,0,0,0,0,0,0,0,0,0,0,0,0,0
2008,11,20,3,0,,-9.3,-12.1,80,101870,0,0,205,0,0,0,0,0,0,0,0,0,0,0,0,0,0,0,0,0,0,0,0,0,0
2008,11,20,4,0,,-9.6,-11.6,85,101830,0,0,204,0,0,0,0,0,0,0,360,0.7,0,0,0,0,0,0,0,0,0,0,0,0,0
2008,11,20,5,0,,-9.4,-11.4,85,101780,0,0,214,0,0,0,0,0,0,0,0,0,3,0,0,0,0,0,0,0,0,0,0,0,0
2008,11,20,6,0,,-9.3,-11.6,83,101750,0,0,214,0,0,0,0,0,0,0,0,0.2,3,0,0,0,0,0,0,0,0,0,0,0,0
2008,11,20,7,0,,-9.3,-11.2,86,101750,0,0,216,0,0,0,0,0,0,0,110,0.5,4,0,0,0,0,0,0,0,0,0,0,0,0
2008,11,20,8,0,,-8.4,-10.4,85,101760,0,0,222,34,16,18,2952,1511,2422,0,0,0.3,5,0,0,0,0,0,0,0,0,0,0,0,0
2008,11,20,9,0,,-7,-10.1,78,101770,0,0,231,113,209,69,19453,20460,10057,0,0,0.2,7,0,0,0,0,0,0,0,0,0,0,0,0
2008,11,20,10,0,,-5.3,-10.2,68,101690,0,0,237,221,268,126,30640,26741,16681,0,20,1.1,7,0,0,0,0,0,0,0,0,0,0,0,0
2008,11,20,11,0,,-2,-10.8,51,101600,0,0,240,417,692,95,50239,68457,13610,0,0,0.3,3,0,0,0,0,0,0,0,0,0,0,0,0
2008,11,20,12,0,,1.1,-9.5,45,101500,0,0,252,506,786,91,51463,77059,13121,0,140,1,3,0,0,0,0,0,0,0,0,0,0,0,0
2008,11,20,13,0,,2.5,-8.2,45,101360,0,0,273,373,290,216,35847,28002,24309,0,250,1.2,8,0,0,0,0,0,0,0,0,0,0,0,0
2008,11,20,14,0,,3.3,-5.8,51,101280,0,0,293,223,83,181,22273,7440,20158,0,230,1.7,10,0,0,0,0,0,0,0,0,0,0,0,0
2008,11,20,15,0,,1.9,-1.7,77,101240,0,0,291,124,29,111,11603,1325,11440,0,230,2,10,0,0,0,0,0,0,0,0,0,0,0,0
2008,11,20,16,0,,1.2,-0.7,87,101180,0,0,290,63,14,59,0,0,0,0,180,0.9,10,0,0,0,0,0,0,0,0,0,0,0,0
2008,11,20,17,0,,1.5,-1.4,81,101150,0,0,290,26,2,25,0,0,0,0,200,1.4,10,0,0,0,0,0,0,0,0,0,0,0,0
2008,11,20,18,0,,1.7,-1.3,80,101090,0,0,291,0,0,0,0,0,0,0,0,0.1,10,0,0,0,0,0,0,0,0,0,0,0,0
2008,11,20,19,0,,1.9,-1,81,101070,0,0,292,0,0,0,0,0,0,0,230,1.4,10,0,0,0,0,0,0,0,0,0,0,0,0
2008,11,20,20,0,,1.3,-0.6,87,101010,0,0,291,0,0,0,0,0,0,0,0,0.3,10,0,0,0,0,0,0,0,0,0,0,0,0
2008,11,20,21,0,,1.1,-0.2,91,100980,0,0,290,0,0,0,0,0,0,0,0,0.4,10,0,0,0,0,0,0,0,0,0,0,0,0
2008,11,20,22,0,,0.5,-0.3,94,101020,0,0,288,0,0,0,0,0,0,0,0,0,10,0,0,0,0,0,0,0,0,0,0,0,0
2008,11,20,23,0,,1.3,0.4,94,101010,0,0,292,0,0,0,0,0,0,0,160,0.8,10,0,0,0,0,0,0,0,0,0,0,0,0
2008,11,20,24,0,,0.2,-0.5,95,101020,0,0,286,0,0,0,0,0,0,0,0,0,10,0,0,0,0,0,0,0,0,0,0,0,0
2008,11,21,1,0,,-0.9,-1.6,95,101050,0,0,281,0,0,0,0,0,0,0,0,0,10,0,0,0,0,0,0,0,0,0,0,0,0
2008,11,21,2,0,,-2.1,-2.7,95,101060,0,0,275,0,0,0,0,0,0,0,0,0,10,0,0,0,0,0,0,0,0,0,0,0,0
2008,11,21,3,0,,-1.4,-2.1,95,101090,0,0,278,0,0,0,0,0,0,0,0,0,10,0,0,0,0,0,0,0,0,0,0,0,0
2008,11,21,4,0,,-0.9,-1.6,95,101110,0,0,281,0,0,0,0,0,0,0,70,0.5,10,0,0,0,0,0,0,0,0,0,0,0,0
2008,11,21,5,0,,-0.9,-1.6,95,101120,0,0,281,0,0,0,0,0,0,0,0,0.1,10,0,0,0,0,0,0,0,0,0,0,0,0
2008,11,21,6,0,,-1,-1.7,95,101180,0,0,280,0,0,0,0,0,0,0,0,0.4,10,0,0,0,0,0,0,0,0,0,0,0,0
2008,11,21,7,0,,-2.3,-2.9,95,101240,0,0,274,0,0,0,0,0,0,0,0,0.2,10,0,0,0,0,0,0,0,0,0,0,0,0
2008,11,21,8,0,,-2.2,-2.8,95,101340,0,0,242,35,20,16,2798,1828,2162,0,70,0.9,1,0,0,0,0,0,0,0,0,0,0,0,0
2008,11,21,9,0,,-0.4,-1.1,95,101420,0,0,246,145,410,61,28087,40187,9770,0,0,0.2,0,0,0,0,0,0,0,0,0,0,0,0,0
2008,11,21,10,0,,2.9,-3.8,61,101480,0,0,254,310,681,70,45620,68013,10345,0,20,0.6,0,0,0,0,0,0,0,0,0,0,0,0,0
2008,11,21,11,0,,5.6,-8.6,35,101550,0,0,260,460,861,62,54473,85094,9210,0,320,0.8,0,0,0,0,0,0,0,0,0,0,0,0,0
2008,11,21,12,0,,6.3,-11.8,26,101570,0,0,260,536,893,67,53176,87459,9911,0,250,3.7,0,0,0,0,0,0,0,0,0,0,0,0,0
2008,11,21,13,0,,6.7,-12.4,24,101600,0,0,261,526,816,86,44339,77239,12711,0,250,3.4,0,0,0,0,0,0,0,0,0,0,0,0,0
2008,11,21,14,0,,7.1,-12.1,24,101600,0,0,263,473,761,90,30816,64374,12655,0,270,3.9,0,0,0,0,0,0,0,0,0,0,0,0,0
2008,11,21,15,0,,7.1,-12.1,24,101640,0,0,263,385,741,75,14515,40316,9626,0,270,3.8,0,0,0,0,0,0,0,0,0,0,0,0,0
2008,11,21,16,0,,6.7,-11.9,25,101680,0,0,261,259,710,53,0,0,0,0,290,3.9,0,0,0,0,0,0,0,0,0,0,0,0,0
2008,11,21,17,0,,5.6,-11,29,101750,0,0,258,103,74,29,0,0,0,0,250,2,0,0,0,0,0,0,0,0,0,0,0,0,0
2008,11,21,18,0,,3.9,-9.1,38,101770,0,0,253,0,0,0,0,0,0,0,290,0.9,0,0,0,0,0,0,0,0,0,0,0,0,0
2008,11,21,19,0,,1.1,-7.1,54,101870,0,0,244,0,0,0,0,0,0,0,0,0.1,0,0,0,0,0,0,0,0,0,0,0,0,0
2008,11,21,20,0,,-0.7,-7.3,61,101870,0,0,238,0,0,0,0,0,0,0,0,0.3,0,0,0,0,0,0,0,0,0,0,0,0,0
2008,11,21,21,0,,-1.8,-6.1,72,101870,0,0,235,0,0,0,0,0,0,0,0,0.2,0,0,0,0,0,0,0,0,0,0,0,0,0
2008,11,21,22,0,,-3,-5.9,80,101920,0,0,231,0,0,0,0,0,0,0,360,0.5,0,0,0,0,0,0,0,0,0,0,0,0,0
2008,11,21,23,0,,-3.8,-6.4,82,101960,0,0,228,0,0,0,0,0,0,0,0,0,0,0,0,0,0,0,0,0,0,0,0,0,0
2008,11,21,24,0,,-4.6,-6.4,87,102000,0,0,226,0,0,0,0,0,0,0,0,0,0,0,0,0,0,0,0,0,0,0,0,0,0
2008,11,22,1,0,,-4.5,-6.3,87,102010,0,0,226,0,0,0,0,0,0,0,0,0,0,0,0,0,0,0,0,0,0,0,0,0,0
2008,11,22,2,0,,-4.9,-7.1,84,102100,0,0,224,0,0,0,0,0,0,0,110,0.5,0,0,0,0,0,0,0,0,0,0,0,0,0
2008,11,22,3,0,,-5.6,-6.9,90,102090,0,0,222,0,0,0,0,0,0,0,0,0.2,0,0,0,0,0,0,0,0,0,0,0,0,0
2008,11,22,4,0,,-5.7,-6.9,91,102040,0,0,222,0,0,0,0,0,0,0,0,0,0,0,0,0,0,0,0,0,0,0,0,0,0
2008,11,22,5,0,,-6,-6.9,93,102040,0,0,221,0,0,0,0,0,0,0,0,0,0,0,0,0,0,0,0,0,0,0,0,0,0
2008,11,22,6,0,,-6.1,-6.9,94,102040,0,0,221,0,0,0,0,0,0,0,0,0,0,0,0,0,0,0,0,0,0,0,0,0,0
2008,11,22,7,0,,-5.3,-6.5,91,102080,0,0,245,0,0,0,0,0,0,0,0,0.1,8,0,0,0,0,0,0,0,0,0,0,0,0
2008,11,22,8,0,,-4.4,-5.7,90,102070,0,0,249,20,4,16,2063,310,1956,0,0,0,8,0,0,0,0,0,0,0,0,0,0,0,0
2008,11,22,9,0,,-3,-4.8,87,102090,0,0,256,97,148,67,15393,14627,8776,0,20,0.7,8,0,0,0,0,0,0,0,0,0,0,0,0
2008,11,22,10,0,,-1.1,-5.8,70,102040,0,0,257,217,270,122,30192,26711,16426,0,0,0.1,7,0,0,0,0,0,0,0,0,0,0,0,0
2008,11,22,11,0,,0,-5,69,101990,0,0,262,288,243,177,33867,24640,20836,0,0,0,7,0,0,0,0,0,0,0,0,0,0,0,0
2008,11,22,12,0,,2.6,-6.2,52,101880,0,0,271,361,304,202,38319,30450,23340,0,0,0.3,7,0,0,0,0,0,0,0,0,0,0,0,0
2008,11,22,13,0,,4.5,-5.5,48,101760,0,0,279,374,306,210,35732,29267,23820,0,360,0.7,7,0,0,0,0,0,0,0,0,0,0,0,0
2008,11,22,14,0,,6.3,-5.3,43,101650,0,0,292,319,241,198,27698,20294,22016,0,0,0,8,0,0,0,0,0,0,0,0,0,0,0,0
2008,11,22,15,0,,7.2,-3.9,45,101580,0,0,297,254,235,156,18187,12173,16733,0,200,1.2,8,0,0,0,0,0,0,0,0,0,0,0,0
2008,11,22,16,0,,7.6,-3.3,46,101560,0,0,299,167,234,99,0,0,0,0,180,1.2,8,0,0,0,0,0,0,0,0,0,0,0,0
2008,11,22,17,0,,7,-2.2,52,101550,0,0,298,62,22,41,0,0,0,0,160,1.4,8,0,0,0,0,0,0,0,0,0,0,0,0
2008,11,22,18,0,,6.6,-2,54,101570,0,0,292,0,0,0,0,0,0,0,160,2.4,7,0,0,0,0,0,0,0,0,0,0,0,0
2008,11,22,19,0,,6.9,-1.2,56,101590,0,0,293,0,0,0,0,0,0,0,160,1.9,7,0,0,0,0,0,0,0,0,0,0,0,0
2008,11,22,20,0,,3.5,-0.5,75,101600,0,0,278,0,0,0,0,0,0,0,0,0,6,0,0,0,0,0,0,0,0,0,0,0,0
2008,11,22,21,0,,1.4,-1.1,83,101600,0,0,269,0,0,0,0,0,0,0,0,0,6,0,0,0,0,0,0,0,0,0,0,0,0
2008,11,22,22,0,,1.2,-1.3,83,101600,0,0,268,0,0,0,0,0,0,0,0,0,6,0,0,0,0,0,0,0,0,0,0,0,0
2008,11,22,23,0,,1,-1,86,101630,0,0,267,0,0,0,0,0,0,0,0,0.1,6,0,0,0,0,0,0,0,0,0,0,0,0
2008,11,22,24,0,,-0.3,-1.4,92,101650,0,0,262,0,0,0,0,0,0,0,0,0.2,6,0,0,0,0,0,0,0,0,0,0,0,0
2008,11,23,1,0,,-0.8,-1.7,93,101700,0,0,256,0,0,0,0,0,0,0,0,0.2,4,0,0,0,0,0,0,0,0,0,0,0,0
2008,11,23,2,0,,-1.3,-2,95,101690,0,0,249,0,0,0,0,0,0,0,0,0,2,0,0,0,0,0,0,0,0,0,0,0,0
2008,11,23,3,0,,-2.3,-2.9,95,101690,0,0,237,0,0,0,0,0,0,0,0,0,0,0,0,0,0,0,0,0,0,0,0,0,0
2008,11,23,4,0,,-2.4,-3,95,101700,0,0,273,0,0,0,0,0,0,0,0,0.1,10,0,0,0,0,0,0,0,0,0,0,0,0
2008,11,23,5,0,,-2.4,-3,95,101710,0,0,273,0,0,0,0,0,0,0,0,0,10,0,0,0,0,0,0,0,0,0,0,0,0
2008,11,23,6,0,,-1.5,-2.2,95,101730,0,0,278,0,0,0,0,0,0,0,0,0.1,10,0,0,0,0,0,0,0,0,0,0,0,0
2008,11,23,7,0,,-1.1,-1.8,95,101750,0,0,280,0,0,0,0,0,0,0,0,0,10,0,0,0,0,0,0,0,0,0,0,0,0
2008,11,23,8,0,,-0.5,-1.2,95,101800,0,0,283,8,0,8,1051,10,1047,0,0,0.3,10,0,0,0,0,0,0,0,0,0,0,0,0
2008,11,23,9,0,,-0.2,-0.9,95,101850,0,0,284,49,22,44,6172,2014,5267,0,0,0,10,0,0,0,0,0,0,0,0,0,0,0,0
2008,11,23,10,0,,0.1,-0.6,95,101870,0,0,286,86,20,79,10239,1850,9292,0,0,0.3,10,0,0,0,0,0,0,0,0,0,0,0,0
2008,11,23,11,0,,1.1,0.3,95,101840,0,0,291,123,22,113,14140,2080,13046,0,0,0,10,0,0,0,0,0,0,0,0,0,0,0,0
2008,11,23,12,0,,2.9,2.1,95,101760,0,0,260,396,442,167,42206,42250,21537,0,0,0.4,0,0,0,0,0,0,0,0,0,0,0,0,0
2008,11,23,13,0,,6.9,0.3,63,101640,0,0,285,468,644,124,41393,59686,17241,0,0,0.4,3,0,0,0,0,0,0,0,0,0,0,0,0
2008,11,23,14,0,,10,0.3,51,101540,0,0,298,468,762,89,30340,63726,12624,0,0,0.1,3,0,0,0,0,0,0,0,0,0,0,0,0
2008,11,23,15,0,,10.9,-2.1,40,101460,0,0,302,382,749,73,14135,39842,9440,0,90,0.5,4,0,0,0,0,0,0,0,0,0,0,0,0
2008,11,23,16,0,,10.6,-0.2,47,101450,0,0,305,218,493,77,0,0,0,0,0,0.1,5,0,0,0,0,0,0,0,0,0,0,0,0
2008,11,23,17,0,,9.3,0.7,55,101490,0,0,300,79,37,42,0,0,0,0,0,0.4,5,0,0,0,0,0,0,0,0,0,0,0,0
2008,11,23,18,0,,6.6,1.9,72,101510,0,0,290,0,0,0,0,0,0,0,0,0,5,0,0,0,0,0,0,0,0,0,0,0,0
2008,11,23,19,0,,4.1,1.4,83,101580,0,0,281,0,0,0,0,0,0,0,0,0,6,0,0,0,0,0,0,0,0,0,0,0,0
2008,11,23,20,0,,3.5,1,84,101590,0,0,280,0,0,0,0,0,0,0,0,0.2,6,0,0,0,0,0,0,0,0,0,0,0,0
2008,11,23,21,0,,2.7,0.7,87,101560,0,0,279,0,0,0,0,0,0,0,0,0,7,0,0,0,0,0,0,0,0,0,0,0,0
2008,11,23,22,0,,1.6,0.1,90,101610,0,0,274,0,0,0,0,0,0,0,0,0,7,0,0,0,0,0,0,0,0,0,0,0,0
2008,11,23,23,0,,1,-0.1,92,101590,0,0,272,0,0,0,0,0,0,0,0,0.1,7,0,0,0,0,0,0,0,0,0,0,0,0
2008,11,23,24,0,,1.1,-0.3,90,101560,0,0,272,0,0,0,0,0,0,0,0,0.2,7,0,0,0,0,0,0,0,0,0,0,0,0
2008,11,24,1,0,,0.8,-0.2,93,101570,0,0,272,0,0,0,0,0,0,0,0,0,7,0,0,0,0,0,0,0,0,0,0,0,0
2008,11,24,2,0,,0.4,-0.3,95,101600,0,0,272,0,0,0,0,0,0,0,0,0.1,8,0,0,0,0,0,0,0,0,0,0,0,0
2008,11,24,3,0,,1.2,-0.2,90,101480,0,0,277,0,0,0,0,0,0,0,320,0.9,8,0,0,0,0,0,0,0,0,0,0,0,0
2008,11,24,4,0,,1.3,0.4,94,101420,0,0,278,0,0,0,0,0,0,0,140,0.8,8,0,0,0,0,0,0,0,0,0,0,0,0
2008,11,24,5,0,,1.1,0,92,101340,0,0,277,0,0,0,0,0,0,0,0,0.3,8,0,0,0,0,0,0,0,0,0,0,0,0
2008,11,24,6,0,,1,0.1,94,101370,0,0,276,0,0,0,0,0,0,0,0,0,8,0,0,0,0,0,0,0,0,0,0,0,0
2008,11,24,7,0,,1.3,0,91,101340,0,0,291,0,0,0,0,0,0,0,340,0.5,10,0,0,0,0,0,0,0,0,0,0,0,0
2008,11,24,8,0,,1.5,0.3,92,101350,0,0,293,6,0,6,840,3,839,0,0,0,10,0,0,0,0,0,0,0,0,0,0,0,0
2008,11,24,9,0,,1.9,0.1,88,101360,0,0,294,44,17,41,5563,1593,4853,0,0,0,10,0,0,0,0,0,0,0,0,0,0,0,0
2008,11,24,10,0,,3.5,0.7,82,101330,0,0,301,102,33,91,12212,3115,10626,0,360,1.2,10,0,0,0,0,0,0,0,0,0,0,0,0
2008,11,24,11,0,,5.3,0.2,70,101300,0,0,293,244,156,174,28476,15547,20345,0,0,0.1,8,0,0,0,0,0,0,0,0,0,0,0,0
2008,11,24,12,0,,7.8,0.2,59,101230,0,0,299,353,295,200,37580,28996,23471,0,160,0.7,7,0,0,0,0,0,0,0,0,0,0,0,0
2008,11,24,13,0,,9.7,-0.8,48,101130,0,0,298,458,620,129,40771,57285,17719,0,180,0.7,4,0,0,0,0,0,0,0,0,0,0,0,0
2008,11,24,14,0,,10,0.5,52,101080,0,0,330,204,70,170,20658,6124,18967,0,0,0.3,10,0,0,0,0,0,0,0,0,0,0,0,0
2008,11,24,15,0,,11.1,-0.4,45,101050,0,0,310,299,407,132,16565,18834,14374,0,160,1.1,6,0,0,0,0,0,0,0,0,0,0,0,0
2008,11,24,16,0,,11.7,-0.4,43,101080,0,0,312,197,376,90,0,0,0,0,0,0.4,6,0,0,0,0,0,0,0,0,0,0,0,0
2008,11,24,17,0,,9.6,1.9,59,101090,0,0,303,76,44,32,0,0,0,0,0,0,5,0,0,0,0,0,0,0,0,0,0,0,0
2008,11,24,18,0,,7.7,1.7,66,101170,0,0,292,0,0,0,0,0,0,0,0,0.2,4,0,0,0,0,0,0,0,0,0,0,0,0
2008,11,24,19,0,,5.7,2.1,78,101220,0,0,285,0,0,0,0,0,0,0,0,0,4,0,0,0,0,0,0,0,0,0,0,0,0
2008,11,24,20,0,,3.9,0.9,81,101260,0,0,277,0,0,0,0,0,0,0,0,0,5,0,0,0,0,0,0,0,0,0,0,0,0
2008,11,24,21,0,,2.9,0.6,85,101300,0,0,274,0,0,0,0,0,0,0,0,0,5,0,0,0,0,0,0,0,0,0,0,0,0
2008,11,24,22,0,,2.1,0.4,89,101280,0,0,271,0,0,0,0,0,0,0,0,0,5,0,0,0,0,0,0,0,0,0,0,0,0
2008,11,24,23,0,,1.5,0.3,92,101340,0,0,269,0,0,0,0,0,0,0,140,0.7,5,0,0,0,0,0,0,0,0,0,0,0,0
2008,11,24,24,0,,1,0.1,94,101370,0,0,267,0,0,0,0,0,0,0,20,0.5,5,0,0,0,0,0,0,0,0,0,0,0,0
2008,11,25,1,0,,0.9,0.1,95,101390,0,0,267,0,0,0,0,0,0,0,0,0,5,0,0,0,0,0,0,0,0,0,0,0,0
2008,11,25,2,0,,1,0,93,101380,0,0,268,0,0,0,0,0,0,0,0,0,6,0,0,0,0,0,0,0,0,0,0,0,0
2008,11,25,3,0,,0.6,-0.1,95,101340,0,0,267,0,0,0,0,0,0,0,0,0,6,0,0,0,0,0,0,0,0,0,0,0,0
2008,11,25,4,0,,0,-0.7,95,101350,0,0,264,0,0,0,0,0,0,0,0,0.2,6,0,0,0,0,0,0,0,0,0,0,0,0
2008,11,25,5,0,,-0.6,-1.3,95,101370,0,0,261,0,0,0,0,0,0,0,0,0.4,6,0,0,0,0,0,0,0,0,0,0,0,0
2008,11,25,6,0,,-0.5,-1.2,95,101380,0,0,262,0,0,0,0,0,0,0,0,0,6,0,0,0,0,0,0,0,0,0,0,0,0
2008,11,25,7,0,,0.1,-0.6,95,101450,0,0,286,0,0,0,0,0,0,0,110,0.6,10,0,0,0,0,0,0,0,0,0,0,0,0
2008,11,25,8,0,,0.6,-0.1,95,101490,0,0,289,6,0,6,839,3,838,0,340,1,10,0,0,0,0,0,0,0,0,0,0,0,0
2008,11,25,9,0,,1.5,0.7,95,101540,0,0,293,49,24,44,6238,2242,5246,0,90,0.5,10,0,0,0,0,0,0,0,0,0,0,0,0
2008,11,25,10,0,,2.7,0.9,88,101600,0,0,290,134,73,110,16926,7222,13272,0,0,0.2,9,0,0,0,0,0,0,0,0,0,0,0,0
2008,11,25,11,0,,4.3,0.7,78,101610,0,0,264,373,583,112,46004,57293,16201,0,360,0.5,0,0,0,0,0,0,0,0,0,0,0,0,0
2008,11,25,12,0,,6.3,1.6,72,101540,0,0,272,434,595,130,45857,57274,18130,0,270,0.9,0,0,0,0,0,0,0,0,0,0,0,0,0
2008,11,25,13,0,,8.5,0.9,59,101480,0,0,280,475,685,113,41462,63653,15984,0,0,0.3,0,0,0,0,0,0,0,0,0,0,0,0,0
2008,11,25,14,0,,9.5,-0.4,50,101420,0,0,283,444,697,101,29713,57437,13957,0,0,0,0,0,0,0,0,0,0,0,0,0,0,0,0
2008,11,25,15,0,,10.1,-0.4,48,101420,0,0,285,362,686,82,14366,34734,10376,0,230,0.7,0,0,0,0,0,0,0,0,0,0,0,0,0
2008,11,25,16,0,,9.9,-0.6,48,101430,0,0,284,237,629,60,0,0,0,0,180,1.1,0,0,0,0,0,0,0,0,0,0,0,0,0
2008,11,25,17,0,,9,-0.8,50,101460,0,0,290,90,58,32,0,0,0,0,160,0.8,2,0,0,0,0,0,0,0,0,0,0,0,0
2008,11,25,18,0,,5.8,1.3,73,101510,0,0,282,0,0,0,0,0,0,0,0,0.3,3,0,0,0,0,0,0,0,0,0,0,0,0
2008,11,25,19,0,,3.5,1,84,101590,0,0,270,0,0,0,0,0,0,0,0,0.3,2,0,0,0,0,0,0,0,0,0,0,0,0
2008,11,25,20,0,,2.1,0.3,88,101650,0,0,260,0,0,0,0,0,0,0,0,0.1,1,0,0,0,0,0,0,0,0,0,0,0,0
2008,11,25,21,0,,1.3,-0.1,90,101690,0,0,252,0,0,0,0,0,0,0,0,0.3,0,0,0,0,0,0,0,0,0,0,0,0,0
2008,11,25,22,0,,0.7,-0.4,92,101720,0,0,256,0,0,0,0,0,0,0,0,0,1,0,0,0,0,0,0,0,0,0,0,0,0
2008,11,25,23,0,,0.8,-0.3,92,101750,0,0,260,0,0,0,0,0,0,0,0,0,3,0,0,0,0,0,0,0,0,0,0,0,0
2008,11,25,24,0,,1.1,-0.5,89,101770,0,0,264,0,0,0,0,0,0,0,0,0,4,0,0,0,0,0,0,0,0,0,0,0,0
2008,11,26,1,0,,0,-0.8,94,101740,0,0,261,0,0,0,0,0,0,0,0,0,5,0,0,0,0,0,0,0,0,0,0,0,0
2008,11,26,2,0,,-0.2,-0.9,95,101750,0,0,262,0,0,0,0,0,0,0,0,0.3,5,0,0,0,0,0,0,0,0,0,0,0,0
2008,11,26,3,0,,-0.1,-0.8,95,101760,0,0,264,0,0,0,0,0,0,0,110,0.5,6,0,0,0,0,0,0,0,0,0,0,0,0
2008,11,26,4,0,,0.1,-0.6,95,101780,0,0,265,0,0,0,0,0,0,0,0,0.3,6,0,0,0,0,0,0,0,0,0,0,0,0
2008,11,26,5,0,,0.1,-0.6,95,101760,0,0,258,0,0,0,0,0,0,0,0,0,3,0,0,0,0,0,0,0,0,0,0,0,0
2008,11,26,6,0,,-1.1,-1.8,95,101760,0,0,253,0,0,0,0,0,0,0,0,0.1,3,0,0,0,0,0,0,0,0,0,0,0,0
2008,11,26,7,0,,-1.2,-1.9,95,101790,0,0,252,0,0,0,0,0,0,0,0,0,3,0,0,0,0,0,0,0,0,0,0,0,0
2008,11,26,8,0,,-0.7,-1.4,95,101820,0,0,268,14,2,12,1655,53,1638,0,0,0.1,8,0,0,0,0,0,0,0,0,0,0,0,0
2008,11,26,9,0,,0.3,-0.4,95,101850,0,0,273,80,106,60,12542,10224,8050,0,20,0.6,8,0,0,0,0,0,0,0,0,0,0,0,0
2008,11,26,10,0,,1.3,0,91,101910,0,0,270,198,234,120,26596,23219,14916,0,0,0,6,0,0,0,0,0,0,0,0,0,0,0,0
2008,11,26,11,0,,3.1,0.6,84,101850,0,0,277,292,283,166,34498,28044,19985,0,320,0.7,6,0,0,0,0,0,0,0,0,0,0,0,0
2008,11,26,12,0,,5.9,-0.4,64,101740,0,0,287,370,377,178,38970,37076,21109,0,0,0.1,6,0,0,0,0,0,0,0,0,0,0,0,0
2008,11,26,13,0,,8.8,0.4,56,101590,0,0,300,413,482,160,37838,44318,20189,0,160,0.6,6,0,0,0,0,0,0,0,0,0,0,0,0
2008,11,26,14,0,,10.3,-0.8,46,101470,0,0,306,388,503,142,28568,40842,17432,0,180,0.5,6,0,0,0,0,0,0,0,0,0,0,0,0
2008,11,26,15,0,,10.1,-1,46,101430,0,0,313,244,226,152,17634,11137,16369,0,230,1.6,8,0,0,0,0,0,0,0,0,0,0,0,0
2008,11,26,16,0,,9.9,-1.8,44,101420,0,0,311,152,194,98,0,0,0,0,230,1.8,8,0,0,0,0,0,0,0,0,0,0,0,0
2008,11,26,17,0,,9.4,-1.3,47,101420,0,0,309,54,15,38,0,0,0,0,180,0.6,8,0,0,0,0,0,0,0,0,0,0,0,0
2008,11,26,18,0,,7,0.8,65,101400,0,0,308,0,0,0,0,0,0,0,0,0,9,0,0,0,0,0,0,0,0,0,0,0,0
2008,11,26,19,0,,5,1.4,78,101410,0,0,302,0,0,0,0,0,0,0,0,0,9,0,0,0,0,0,0,0,0,0,0,0,0
2008,11,26,20,0,,4,0.6,79,101420,0,0,300,0,0,0,0,0,0,0,0,0,10,0,0,0,0,0,0,0,0,0,0,0,0
2008,11,26,21,0,,2.7,0.2,84,101460,0,0,297,0,0,0,0,0,0,0,0,0,10,0,0,0,0,0,0,0,0,0,0,0,0
2008,11,26,22,0,,2.8,0.6,86,101440,0,0,298,0,0,0,0,0,0,0,0,0.3,10,0,0,0,0,0,0,0,0,0,0,0,0
2008,11,26,23,0,,3.1,0.6,84,101420,0,0,299,0,0,0,0,0,0,0,0,0,10,0,0,0,0,0,0,0,0,0,0,0,0
2008,11,26,24,0,,2.9,0.7,86,101320,0,0,299,0,0,0,0,0,0,0,0,0,10,0,0,0,0,0,0,0,0,0,0,0,0
2008,11,27,1,0,,2.4,0.6,88,101300,0,0,296,0,0,0,0,0,0,0,0,0,10,0,0,0,0,0,0,0,0,0,0,0,0
2008,11,27,2,0,,2.1,0.6,90,101210,0,0,295,0,0,0,0,0,0,0,320,0.9,10,0,0,0,0,0,0,0,0,0,0,0,0
2008,11,27,3,0,,2.4,0.7,89,101130,0,0,297,0,0,0,0,0,0,0,0,0,10,0,0,0,0,0,0,0,0,0,0,0,0
2008,11,27,4,0,,2.9,0.9,87,101050,0,0,299,0,0,0,0,0,0,0,0,0,10,0,0,0,0,0,0,0,0,0,0,0,0
2008,11,27,5,0,,3.3,1.4,88,101000,0,0,301,0,0,0,0,0,0,0,0,0.2,10,0,0,0,0,0,0,0,0,0,0,0,0
2008,11,27,6,0,,3.4,1.5,88,100940,0,0,302,0,0,0,0,0,0,0,0,0.2,10,0,0,0,0,0,0,0,0,0,0,0,0
2008,11,27,7,0,,3.5,1.5,87,100910,0,0,302,0,0,0,0,0,0,0,0,0.1,10,0,0,0,0,0,0,0,0,0,0,0,0
2008,11,27,8,0,,3.9,2,88,100930,0,0,304,5,0,5,666,3,665,0,0,0,10,0,0,0,0,0,0,0,0,0,0,0,0
2008,11,27,9,0,,4.3,2.9,91,100940,0,0,307,44,21,41,5655,1877,4836,0,360,1.1,10,0,0,0,0,0,0,0,0,0,0,0,0
2008,11,27,10,0,,4.3,3.1,92,100880,0,0,308,88,24,80,10526,2212,9419,0,340,1.7,10,0,0,0,0,0,0,0,0,0,0,0,0
2008,11,27,11,0,,4,2.6,91,100850,0,0,306,116,20,107,13371,1922,12381,0,340,2.5,10,0,0,0,0,0,0,0,0,0,0,0,0
2008,11,27,12,0,,3.9,2.7,92,100780,0,0,306,126,17,117,14332,1051,13828,0,340,2,10,0,0,0,0,0,0,0,0,0,0,0,0
2008,11,27,13,0,,4,2.5,90,100710,0,0,306,130,16,121,14368,1024,13962,0,340,2.1,10,0,0,0,0,0,0,0,0,0,0,0,0
2008,11,27,14,0,,4.1,2.9,92,100680,0,0,307,124,18,115,12978,970,12715,0,360,1.7,10,0,0,0,0,0,0,0,0,0,0,0,0
2008,11,27,15,0,,4.3,3.2,93,100620,0,0,308,106,21,97,10065,740,9982,0,360,1.6,10,0,0,0,0,0,0,0,0,0,0,0,0
2008,11,27,16,0,,4.4,3.2,92,100590,0,0,308,69,20,63,0,0,0,0,360,1.2,10,0,0,0,0,0,0,0,0,0,0,0,0
2008,11,27,17,0,,4.3,3.1,92,100610,0,0,308,24,2,23,0,0,0,0,340,0.9,10,0,0,0,0,0,0,0,0,0,0,0,0
2008,11,27,18,0,,4,3.2,95,100630,0,0,307,0,0,0,0,0,0,0,360,1.8,10,0,0,0,0,0,0,0,0,0,0,0,0
2008,11,27,19,0,,4,3.2,95,100630,0,0,307,0,0,0,0,0,0,0,360,1.9,10,0,0,0,0,0,0,0,0,0,0,0,0
2008,11,27,20,0,,3.9,3.1,95,100610,0,0,306,0,0,0,0,0,0,0,20,0.8,10,0,0,0,0,0,0,0,0,0,0,0,0
2008,11,27,21,0,,4.1,3.2,94,100640,0,0,307,0,0,0,0,0,0,0,340,1.2,10,0,0,0,0,0,0,0,0,0,0,0,0
2008,11,27,22,0,,4.1,3.3,95,100660,0,0,307,0,0,0,0,0,0,0,0,0.1,10,0,0,0,0,0,0,0,0,0,0,0,0
2008,11,27,23,0,,3.9,3.1,95,100670,0,0,306,0,0,0,0,0,0,0,0,0.2,10,0,0,0,0,0,0,0,0,0,0,0,0
2008,11,27,24,0,,4.1,3.3,95,100660,0,0,307,0,0,0,0,0,0,0,340,0.9,10,0,0,0,0,0,0,0,0,0,0,0,0
2008,11,28,1,0,,4.1,3,93,100630,0,0,307,0,0,0,0,0,0,0,340,1.5,10,0,0,0,0,0,0,0,0,0,0,0,0
2008,11,28,2,0,,4,3.1,94,100620,0,0,307,0,0,0,0,0,0,0,0,0.1,10,0,0,0,0,0,0,0,0,0,0,0,0
2008,11,28,3,0,,3.8,3,95,100640,0,0,306,0,0,0,0,0,0,0,0,0,10,0,0,0,0,0,0,0,0,0,0,0,0
2008,11,28,4,0,,3.5,2.7,95,100630,0,0,304,0,0,0,0,0,0,0,0,0,10,0,0,0,0,0,0,0,0,0,0,0,0
2008,11,28,5,0,,3.3,2.5,95,100660,0,0,303,0,0,0,0,0,0,0,0,0,10,0,0,0,0,0,0,0,0,0,0,0,0
2008,11,28,6,0,,3.7,2.9,95,100700,0,0,305,0,0,0,0,0,0,0,0,0.1,10,0,0,0,0,0,0,0,0,0,0,0,0
2008,11,28,7,0,,2.9,2.1,95,100770,0,0,301,0,0,0,0,0,0,0,0,0.1,10,0,0,0,0,0,0,0,0,0,0,0,0
2008,11,28,8,0,,3.3,2.5,95,100820,0,0,294,9,1,8,1136,15,1131,0,0,0.2,9,0,0,0,0,0,0,0,0,0,0,0,0
2008,11,28,9,0,,4,2.8,92,100880,0,0,298,55,41,48,7855,3955,6141,0,0,0.2,9,0,0,0,0,0,0,0,0,0,0,0,0
2008,11,28,10,0,,4.7,2.7,87,100940,0,0,289,171,159,118,22642,15591,14888,0,0,0.1,7,0,0,0,0,0,0,0,0,0,0,0,0
2008,11,28,11,0,,5.5,3.5,87,100960,0,0,294,243,169,169,28401,16602,19895,0,140,0.5,7,0,0,0,0,0,0,0,0,0,0,0,0
2008,11,28,12,0,,6.1,3.2,82,100900,0,0,300,241,104,189,26754,10005,21980,0,0,0.1,8,0,0,0,0,0,0,0,0,0,0,0,0
2008,11,28,13,0,,6.7,3.6,81,100840,0,0,310,214,67,179,22698,6222,20244,0,0,0.4,9,0,0,0,0,0,0,0,0,0,0,0,0
2008,11,28,14,0,,7.5,4.2,80,100800,0,0,307,239,115,183,23105,10005,20408,0,110,0.5,8,0,0,0,0,0,0,0,0,0,0,0,0
2008,11,28,15,0,,8.7,2.4,65,100780,0,0,302,279,350,139,16761,15175,15072,0,230,2.6,6,0,0,0,0,0,0,0,0,0,0,0,0
2008,11,28,16,0,,8.4,1.7,63,100800,0,0,308,140,158,97,0,0,0,0,180,1.6,8,0,0,0,0,0,0,0,0,0,0,0,0
2008,11,28,17,0,,8,2.6,69,100830,0,0,308,50,13,37,0,0,0,0,180,1.5,8,0,0,0,0,0,0,0,0,0,0,0,0
2008,11,28,18,0,,7.5,2.9,73,100860,0,0,301,0,0,0,0,0,0,0,160,1.7,7,0,0,0,0,0,0,0,0,0,0,0,0
2008,11,28,19,0,,7.1,2.5,73,100900,0,0,298,0,0,0,0,0,0,0,200,1.4,7,0,0,0,0,0,0,0,0,0,0,0,0
2008,11,28,20,0,,6.5,0.1,64,100960,0,0,291,0,0,0,0,0,0,0,250,2.6,6,0,0,0,0,0,0,0,0,0,0,0,0
2008,11,28,21,0,,6,0,65,100960,0,0,288,0,0,0,0,0,0,0,200,1.2,6,0,0,0,0,0,0,0,0,0,0,0,0
2008,11,28,22,0,,4.8,0,71,100960,0,0,285,0,0,0,0,0,0,0,200,0.5,7,0,0,0,0,0,0,0,0,0,0,0,0
2008,11,28,23,0,,2.8,1,88,100900,0,0,281,0,0,0,0,0,0,0,360,0.6,7,0,0,0,0,0,0,0,0,0,0,0,0
2008,11,28,24,0,,2.9,1.1,88,100860,0,0,285,0,0,0,0,0,0,0,0,0,8,0,0,0,0,0,0,0,0,0,0,0,0
2008,11,29,1,0,,4.5,0.4,75,100800,0,0,292,0,0,0,0,0,0,0,250,0.8,8,0,0,0,0,0,0,0,0,0,0,0,0
2008,11,29,2,0,,4.9,0,71,100730,0,0,295,0,0,0,0,0,0,0,200,0.9,9,0,0,0,0,0,0,0,0,0,0,0,0
2008,11,29,3,0,,5,0.3,72,100630,0,0,298,0,0,0,0,0,0,0,180,1.9,9,0,0,0,0,0,0,0,0,0,0,0,0
2008,11,29,4,0,,3.7,1.5,86,100540,0,0,295,0,0,0,0,0,0,0,0,0.2,9,0,0,0,0,0,0,0,0,0,0,0,0
2008,11,29,5,0,,2.7,1.3,91,100450,0,0,290,0,0,0,0,0,0,0,0,0.1,9,0,0,0,0,0,0,0,0,0,0,0,0
2008,11,29,6,0,,3.8,2.4,91,100390,0,0,305,0,0,0,0,0,0,0,180,0.9,10,0,0,0,0,0,0,0,0,0,0,0,0
2008,11,29,7,0,,4.4,2,85,100310,0,0,307,0,0,0,0,0,0,0,180,1.2,10,0,0,0,0,0,0,0,0,0,0,0,0
2008,11,29,8,0,,3.5,2,90,100380,0,0,303,5,0,5,678,3,677,0,160,1.4,10,0,0,0,0,0,0,0,0,0,0,0,0
2008,11,29,9,0,,3.7,2.2,90,100360,0,0,304,43,21,39,5485,1895,4670,0,160,1.4,10,0,0,0,0,0,0,0,0,0,0,0,0
2008,11,29,10,0,,3.6,1.6,87,100360,0,0,303,76,16,70,9023,1524,8269,0,250,2.1,10,0,0,0,0,0,0,0,0,0,0,0,0
2008,11,29,11,0,,3.8,-0.4,74,100450,0,0,287,207,109,159,24231,10805,18721,0,320,0.5,8,0,0,0,0,0,0,0,0,0,0,0,0
2008,11,29,12,0,,4,-4,56,100470,0,0,279,302,204,200,32507,20078,22967,0,270,3.3,7,0,0,0,0,0,0,0,0,0,0,0,0
2008,11,29,13,0,,4.9,-6.3,44,100510,0,0,273,435,584,133,38510,54406,17142,0,270,5,4,0,0,0,0,0,0,0,0,0,0,0,0
2008,11,29,14,0,,4.6,-6.9,43,100580,0,0,273,368,449,151,27198,37071,17252,0,270,3.7,5,0,0,0,0,0,0,0,0,0,0,0,0
2008,11,29,15,0,,4.5,-9.3,36,100660,0,0,266,341,629,90,13839,31726,10340,0,250,3.8,3,0,0,0,0,0,0,0,0,0,0,0,0
2008,11,29,16,0,,3.9,-8.8,39,100780,0,0,268,197,416,83,0,0,0,0,270,2.5,5,0,0,0,0,0,0,0,0,0,0,0,0
2008,11,29,17,0,,2.8,-7.1,48,100940,0,0,268,70,38,32,0,0,0,0,270,3.2,6,0,0,0,0,0,0,0,0,0,0,0,0
2008,11,29,18,0,,2,-7.6,49,101070,0,0,262,0,0,0,0,0,0,0,290,3.1,5,0,0,0,0,0,0,0,0,0,0,0,0
2008,11,29,19,0,,1.7,-7.3,51,101200,0,0,259,0,0,0,0,0,0,0,270,1.9,4,0,0,0,0,0,0,0,0,0,0,0,0
2008,11,29,20,0,,1.5,-7.3,52,101280,0,0,256,0,0,0,0,0,0,0,270,2.1,3,0,0,0,0,0,0,0,0,0,0,0,0
2008,11,29,21,0,,1.4,-7.4,52,101320,0,0,253,0,0,0,0,0,0,0,250,2.7,2,0,0,0,0,0,0,0,0,0,0,0,0
2008,11,29,22,0,,1,-8,51,101410,0,0,249,0,0,0,0,0,0,0,250,2.1,1,0,0,0,0,0,0,0,0,0,0,0,0
2008,11,29,23,0,,-0.1,-5.9,65,101450,0,0,245,0,0,0,0,0,0,0,360,1.6,1,0,0,0,0,0,0,0,0,0,0,0,0
2008,11,29,24,0,,-1.4,-5.2,75,101490,0,0,238,0,0,0,0,0,0,0,0,0.4,0,0,0,0,0,0,0,0,0,0,0,0,0
2008,11,30,1,0,,-2.6,-5.2,82,101530,0,0,233,0,0,0,0,0,0,0,0,0.3,0,0,0,0,0,0,0,0,0,0,0,0,0
2008,11,30,2,0,,-3.8,-5.3,89,101550,0,0,229,0,0,0,0,0,0,0,360,0.5,0,0,0,0,0,0,0,0,0,0,0,0,0
2008,11,30,3,0,,-4.5,-5.6,92,101620,0,0,227,0,0,0,0,0,0,0,0,0.1,0,0,0,0,0,0,0,0,0,0,0,0,0
2008,11,30,4,0,,-5,-6.3,90,101630,0,0,225,0,0,0,0,0,0,0,0,0.1,0,0,0,0,0,0,0,0,0,0,0,0,0
2008,11,30,5,0,,-5.2,-6.1,93,101710,0,0,224,0,0,0,0,0,0,0,0,0,0,0,0,0,0,0,0,0,0,0,0,0,0
2008,11,30,6,0,,-5.6,-6.4,94,101730,0,0,223,0,0,0,0,0,0,0,0,0,0,0,0,0,0,0,0,0,0,0,0,0,0
2008,11,30,7,0,,-5.9,-6.7,94,101780,0,0,221,0,0,0,0,0,0,0,0,0.2,0,0,0,0,0,0,0,0,0,0,0,0,0
2008,11,30,8,0,,-5.5,-6.3,94,101890,0,0,223,25,12,13,2138,1089,1792,0,0,0.2,0,0,0,0,0,0,0,0,0,0,0,0,0
2008,11,30,9,0,,-3.6,-5.7,85,101950,0,0,230,133,496,46,27914,48657,7110,0,0,0.1,0,0,0,0,0,0,0,0,0,0,0,0,0
2008,11,30,10,0,,-1.1,-6.8,65,102020,0,0,237,281,669,65,42342,66364,9688,0,0,0,0,0,0,0,0,0,0,0,0,0,0,0,0
2008,11,30,11,0,,1.5,-7.3,52,102010,0,0,250,410,784,71,50028,77967,10452,0,0,0.3,1,0,0,0,0,0,0,0,0,0,0,0,0
2008,11,30,12,0,,2.9,-8.4,43,101920,0,0,249,474,780,85,48470,76134,12445,0,90,1,0,0,0,0,0,0,0,0,0,0,0,0,0
2008,11,30,13,0,,4.2,-7.6,42,101850,0,0,266,470,714,103,40710,66554,14678,0,340,0.8,3,0,0,0,0,0,0,0,0,0,0,0,0
2008,11,30,14,0,,5.2,-9,35,101820,0,0,273,382,510,137,27800,41796,16638,0,0,0.2,5,0,0,0,0,0,0,0,0,0,0,0,0
2008,11,30,15,0,,5.3,-8.9,35,101810,0,0,280,265,317,139,16240,14488,14655,0,0,0,7,0,0,0,0,0,0,0,0,0,0,0,0
2008,11,30,16,0,,6.1,-9,33,101810,0,0,280,192,391,85,0,0,0,0,0,0.2,6,0,0,0,0,0,0,0,0,0,0,0,0
2008,11,30,17,0,,4.4,-4.1,54,101810,0,0,277,66,33,34,0,0,0,0,0,0.2,6,0,0,0,0,0,0,0,0,0,0,0,0
2008,11,30,18,0,,3.1,-4.3,58,101830,0,0,275,0,0,0,0,0,0,0,0,0.2,7,0,0,0,0,0,0,0,0,0,0,0,0
2008,11,30,19,0,,2.5,-3,67,101860,0,0,272,0,0,0,0,0,0,0,0,0,6,0,0,0,0,0,0,0,0,0,0,0,0
2008,11,30,20,0,,2,-3.4,67,101860,0,0,267,0,0,0,0,0,0,0,0,0,6,0,0,0,0,0,0,0,0,0,0,0,0
2008,11,30,21,0,,1,-3.3,73,101840,0,0,262,0,0,0,0,0,0,0,0,0.1,5,0,0,0,0,0,0,0,0,0,0,0,0
2008,11,30,22,0,,-0.2,-3.2,80,101860,0,0,261,0,0,0,0,0,0,0,0,0,6,0,0,0,0,0,0,0,0,0,0,0,0
2008,11,30,23,0,,0.1,-2.6,82,101850,0,0,265,0,0,0,0,0,0,0,0,0.3,7,0,0,0,0,0,0,0,0,0,0,0,0
2008,11,30,24,0,,0.1,-2.9,80,101830,0,0,269,0,0,0,0,0,0,0,360,0.5,8,0,0,0,0,0,0,0,0,0,0,0,0
2000,12,1,1,0,,-0.2,-2.4,86,101640,0,0,255,0,0,0,0,0,0,0,340,0.9,3,0,0,0,0,0,0,0,0,0,0,0,0
2000,12,1,2,0,,-0.8,-2.7,89,101650,0,0,251,0,0,0,0,0,0,0,360,0.7,2,0,0,0,0,0,0,0,0,0,0,0,0
2000,12,1,3,0,,-1.3,-3,88,101670,0,0,248,0,0,0,0,0,0,0,360,1.5,2,0,0,0,0,0,0,0,0,0,0,0,0
2000,12,1,4,0,,-1.5,-3.2,89,101670,0,0,245,0,0,0,0,0,0,0,20,0.3,1,0,0,0,0,0,0,0,0,0,0,0,0
2000,12,1,5,0,,-1.7,-3.4,91,101680,0,0,242,0,0,0,0,0,0,0,340,2.1,1,0,0,0,0,0,0,0,0,0,0,0,0
2000,12,1,6,0,,-2.4,-3.6,91,101680,0,0,236,0,0,0,0,0,0,0,360,1,0,0,0,0,0,0,0,0,0,0,0,0,0
2000,12,1,7,0,,-3,-2.9,92,101720,0,0,246,0,0,0,0,0,0,0,0,0,3,0,0,0,0,0,0,0,0,0,0,0,0
2000,12,1,8,0,,-2.2,-2.2,92,101770,0,0,257,13,2,11,1527,62,1508,0,340,0.6,7,0,0,0,0,0,0,0,0,0,0,0,0
2000,12,1,9,0,,-0.7,-1.5,93,101810,0,0,282,43,23,39,5981,2268,5017,0,320,0.8,10,0,0,0,0,0,0,0,0,0,0,0,0
2000,12,1,10,0,,0.4,-0.9,87,101780,0,0,267,179,203,114,24161,20135,14302,0,50,0.4,7,0,0,0,0,0,0,0,0,0,0,0,0
2000,12,1,11,0,,3.1,-0.3,72,101760,0,0,270,356,580,107,44374,56894,15615,0,320,0.5,3,0,0,0,0,0,0,0,0,0,0,0,0
2000,12,1,12,0,,6.2,0.3,66,101730,0,0,271,441,673,107,46303,65230,15553,0,0,0.1,0,0,0,0,0,0,0,0,0,0,0,0,0
2000,12,1,13,0,,7.9,-0.2,55,101680,0,0,277,474,733,98,40874,68245,14275,0,0,0.2,0,0,0,0,0,0,0,0,0,0,0,0,0
2000,12,1,14,0,,9.9,-0.8,51,101640,0,0,284,451,769,83,28834,63546,11929,0,270,0.3,0,0,0,0,0,0,0,0,0,0,0,0,0
2000,12,1,15,0,,10.9,-1.3,42,101590,0,0,288,363,733,72,13283,36900,9272,0,0,0.1,0,0,0,0,0,0,0,0,0,0,0,0,0
2000,12,1,16,0,,10.4,-1.2,40,101590,0,0,286,236,668,54,0,0,0,0,70,0.3,0,0,0,0,0,0,0,0,0,0,0,0,0
2000,12,1,17,0,,6.9,-1,58,101580,0,0,272,78,42,36,0,0,0,0,0,0.2,0,0,0,0,0,0,0,0,0,0,0,0,0
2000,12,1,18,0,,3.6,-0.9,72,101580,0,0,260,0,0,0,0,0,0,0,20,0.5,0,0,0,0,0,0,0,0,0,0,0,0,0
2000,12,1,19,0,,2.5,-1.1,77,101600,0,0,255,0,0,0,0,0,0,0,90,0.6,0,0,0,0,0,0,0,0,0,0,0,0,0
2000,12,1,20,0,,1.2,-1.4,81,101630,0,0,251,0,0,0,0,0,0,0,0,0,0,0,0,0,0,0,0,0,0,0,0,0,0
2000,12,1,21,0,,0.4,-1.6,85,101650,0,0,247,0,0,0,0,0,0,0,70,0.4,0,0,0,0,0,0,0,0,0,0,0,0,0
2000,12,1,22,0,,0,-1.8,87,101680,0,0,246,0,0,0,0,0,0,0,70,0.8,0,0,0,0,0,0,0,0,0,0,0,0,0
2000,12,1,23,0,,-0.5,-2,90,101720,0,0,244,0,0,0,0,0,0,0,360,1,0,0,0,0,0,0,0,0,0,0,0,0,0
2000,12,1,24,0,,-1.1,-2.2,90,101750,0,0,242,0,0,0,0,0,0,0,0,0,0,0,0,0,0,0,0,0,0,0,0,0,0
2000,12,2,1,0,,-2.1,-2.8,90,101770,0,0,244,0,0,0,0,0,0,0,110,0.8,1,0,0,0,0,0,0,0,0,0,0,0,0
2000,12,2,2,0,,-2.4,-3.5,91,101780,0,0,246,0,0,0,0,0,0,0,0,0,3,0,0,0,0,0,0,0,0,0,0,0,0
2000,12,2,3,0,,-2.9,-4.1,91,101800,0,0,246,0,0,0,0,0,0,0,20,0.4,4,0,0,0,0,0,0,0,0,0,0,0,0
2000,12,2,4,0,,-2.8,-3.9,91,101800,0,0,246,0,0,0,0,0,0,0,0,0.2,4,0,0,0,0,0,0,0,0,0,0,0,0
2000,12,2,5,0,,-2.5,-3.7,92,101810,0,0,248,0,0,0,0,0,0,0,0,0.1,4,0,0,0,0,0,0,0,0,0,0,0,0
2000,12,2,6,0,,-2.6,-3.5,93,101810,0,0,248,0,0,0,0,0,0,0,70,0.3,4,0,0,0,0,0,0,0,0,0,0,0,0
2000,12,2,7,0,,-2.1,-3.1,93,101820,0,0,254,0,0,0,0,0,0,0,0,0,6,0,0,0,0,0,0,0,0,0,0,0,0
2000,12,2,8,0,,-1.8,-2.7,93,101840,0,0,263,11,1,10,1331,36,1319,0,50,0.3,8,0,0,0,0,0,0,0,0,0,0,0,0
2000,12,2,9,0,,-1.2,-2.3,92,101850,0,0,279,43,25,39,6010,2398,4998,0,340,1.5,10,0,0,0,0,0,0,0,0,0,0,0,0
2000,12,2,10,0,,0,-1.8,87,101760,0,0,272,148,118,110,19039,11787,13297,0,340,0.3,8,0,0,0,0,0,0,0,0,0,0,0,0
2000,12,2,11,0,,2.5,-1.3,74,101680,0,0,275,263,236,162,31254,23458,19446,0,250,0.6,7,0,0,0,0,0,0,0,0,0,0,0,0
2000,12,2,12,0,,5.2,-0.8,64,101590,0,0,281,384,477,149,40875,45770,19380,0,0,0.2,5,0,0,0,0,0,0,0,0,0,0,0,0
2000,12,2,13,0,,6.9,-1.2,55,101490,0,0,289,415,537,142,37393,49388,18213,0,110,0.4,5,0,0,0,0,0,0,0,0,0,0,0,0
2000,12,2,14,0,,8.4,-1.5,50,101380,0,0,296,361,442,150,26836,35660,17386,0,320,0.7,6,0,0,0,0,0,0,0,0,0,0,0,0
2000,12,2,15,0,,9.5,-1.9,44,101280,0,0,301,292,428,122,15385,18898,13343,0,90,0.4,6,0,0,0,0,0,0,0,0,0,0,0,0
2000,12,2,16,0,,8,-1.5,50,101270,0,0,296,179,320,93,0,0,0,0,320,1.1,6,0,0,0,0,0,0,0,0,0,0,0,0
2000,12,2,17,0,,6.4,-1.2,55,101260,0,0,291,56,20,36,0,0,0,0,50,0.8,7,0,0,0,0,0,0,0,0,0,0,0,0
2000,12,2,18,0,,3.9,-0.8,70,101250,0,0,282,0,0,0,0,0,0,0,20,0.7,7,0,0,0,0,0,0,0,0,0,0,0,0
2000,12,2,19,0,,2.2,-0.9,75,101240,0,0,277,0,0,0,0,0,0,0,0,0,7,0,0,0,0,0,0,0,0,0,0,0,0
2000,12,2,20,0,,1.7,-0.9,78,101220,0,0,276,0,0,0,0,0,0,0,20,0.5,8,0,0,0,0,0,0,0,0,0,0,0,0
2000,12,2,21,0,,2.2,-1,79,101210,0,0,280,0,0,0,0,0,0,0,140,0.5,8,0,0,0,0,0,0,0,0,0,0,0,0
2000,12,2,22,0,,2.6,-0.8,79,101210,0,0,285,0,0,0,0,0,0,0,340,0.5,9,0,0,0,0,0,0,0,0,0,0,0,0
2000,12,2,23,0,,3,-0.7,79,101210,0,0,292,0,0,0,0,0,0,0,0,0,9,0,0,0,0,0,0,0,0,0,0,0,0
2000,12,2,24,0,,3.6,-0.5,73,101210,0,0,300,0,0,0,0,0,0,0,110,0.5,10,0,0,0,0,0,0,0,0,0,0,0,0
2000,12,3,1,0,,3.8,-0.3,82,101190,0,0,281,0,0,0,0,0,0,0,360,1,7,0,0,0,0,0,0,0,0,0,0,0,0
2000,12,3,2,0,,4.2,-0.2,74,101160,0,0,275,0,0,0,0,0,0,0,110,0.7,3,0,0,0,0,0,0,0,0,0,0,0,0
2000,12,3,3,0,,1.5,0,89,101140,0,0,253,0,0,0,0,0,0,0,0,0.2,0,0,0,0,0,0,0,0,0,0,0,0,0
2000,12,3,4,0,,1.3,-0.3,92,101130,0,0,252,0,0,0,0,0,0,0,0,0.2,0,0,0,0,0,0,0,0,0,0,0,0,0
2000,12,3,5,0,,0.8,-0.5,92,101120,0,0,250,0,0,0,0,0,0,0,340,0.8,0,0,0,0,0,0,0,0,0,0,0,0,0
2000,12,3,6,0,,0,-0.8,94,101110,0,0,247,0,0,0,0,0,0,0,0,0.1,0,0,0,0,0,0,0,0,0,0,0,0,0
2000,12,3,7,0,,-0.6,-0.7,94,101140,0,0,245,0,0,0,0,0,0,0,70,0.6,0,0,0,0,0,0,0,0,0,0,0,0,0
2000,12,3,8,0,,-1.4,-0.5,94,101160,0,0,243,20,7,13,1734,615,1543,0,0,0.1,0,0,0,0,0,0,0,0,0,0,0,0,0
2000,12,3,9,0,,0.3,-0.4,94,101190,0,0,249,117,410,49,24825,39761,8139,0,50,0.3,0,0,0,0,0,0,0,0,0,0,0,0,0
2000,12,3,10,0,,3.1,-2.9,75,101150,0,0,262,268,643,66,40807,63727,9909,0,290,0.9,1,0,0,0,0,0,0,0,0,0,0,0,0
2000,12,3,11,0,,5,-5.4,44,101110,0,0,271,389,733,78,47819,72512,11466,0,230,0.8,3,0,0,0,0,0,0,0,0,0,0,0,0
2000,12,3,12,0,,6.6,-7.9,34,101070,0,0,278,439,685,103,46140,66623,14961,0,180,0.7,4,0,0,0,0,0,0,0,0,0,0,0,0
2000,12,3,13,0,,8.3,-9,27,101030,0,0,283,473,744,95,40662,69575,13731,0,230,1.3,3,0,0,0,0,0,0,0,0,0,0,0,0
2000,12,3,14,0,,8.5,-10.1,24,100980,0,0,281,429,704,95,28402,57706,13160,0,200,1.6,3,0,0,0,0,0,0,0,0,0,0,0,0
2000,12,3,15,0,,8,-11.2,24,100940,0,0,276,352,697,77,13367,34547,9653,0,200,2.5,2,0,0,0,0,0,0,0,0,0,0,0,0
2000,12,3,16,0,,6.7,-11.4,24,100980,0,0,268,226,621,58,0,0,0,0,180,2.3,1,0,0,0,0,0,0,0,0,0,0,0,0
2000,12,3,17,0,,5.2,-11.6,27,101020,0,0,259,86,57,29,0,0,0,0,200,2.2,1,0,0,0,0,0,0,0,0,0,0,0,0
2000,12,3,18,0,,2.4,-11.8,33,101060,0,0,245,0,0,0,0,0,0,0,0,0.2,0,0,0,0,0,0,0,0,0,0,0,0,0
2000,12,3,19,0,,0.8,-10.6,50,101120,0,0,240,0,0,0,0,0,0,0,110,0.7,0,0,0,0,0,0,0,0,0,0,0,0,0
2000,12,3,20,0,,-1.1,-9.5,56,101190,0,0,235,0,0,0,0,0,0,0,140,1,0,0,0,0,0,0,0,0,0,0,0,0,0
2000,12,3,21,0,,-2.1,-8.3,62,101250,0,0,232,0,0,0,0,0,0,0,110,1,0,0,0,0,0,0,0,0,0,0,0,0,0
2000,12,3,22,0,,-3.1,-8.3,63,101260,0,0,228,0,0,0,0,0,0,0,110,0.9,0,0,0,0,0,0,0,0,0,0,0,0,0
2000,12,3,23,0,,-3.7,-8.2,68,101270,0,0,226,0,0,0,0,0,0,0,110,0.4,0,0,0,0,0,0,0,0,0,0,0,0,0
2000,12,3,24,0,,-3.9,-8.2,71,101280,0,0,226,0,0,0,0,0,0,0,0,0.1,0,0,0,0,0,0,0,0,0,0,0,0,0
2000,12,4,1,0,,-4.4,-8.2,75,101290,0,0,224,0,0,0,0,0,0,0,70,0.7,0,0,0,0,0,0,0,0,0,0,0,0,0
2000,12,4,2,0,,-5.9,-8.2,76,101310,0,0,219,0,0,0,0,0,0,0,360,1,0,0,0,0,0,0,0,0,0,0,0,0,0
2000,12,4,3,0,,-5.6,-8.2,81,101320,0,0,220,0,0,0,0,0,0,0,0,0,0,0,0,0,0,0,0,0,0,0,0,0,0
2000,12,4,4,0,,-5.6,-8.6,79,101320,0,0,220,0,0,0,0,0,0,0,0,0,0,0,0,0,0,0,0,0,0,0,0,0,0
2000,12,4,5,0,,-6.3,-9.1,84,101320,0,0,217,0,0,0,0,0,0,0,90,0.6,0,0,0,0,0,0,0,0,0,0,0,0,0
2000,12,4,6,0,,-7.2,-9.5,83,101320,0,0,214,0,0,0,0,0,0,0,20,0.6,0,0,0,0,0,0,0,0,0,0,0,0,0
2000,12,4,7,0,,-7.3,-8.9,87,101320,0,0,214,0,0,0,0,0,0,0,0,0.1,0,0,0,0,0,0,0,0,0,0,0,0,0
2000,12,4,8,0,,-7.3,-8.4,87,101310,0,0,215,20,8,12,1678,728,1454,0,290,0.7,0,0,0,0,0,0,0,0,0,0,0,0,0
2000,12,4,9,0,,-5,-7.8,81,101310,0,0,223,125,514,41,27469,50291,6490,0,360,0.5,0,0,0,0,0,0,0,0,0,0,0,0,0
2000,12,4,10,0,,-2.3,-8.1,73,101250,0,0,231,272,680,61,41695,67439,9149,0,320,0.5,0,0,0,0,0,0,0,0,0,0,0,0,0
2000,12,4,11,0,,0.1,-8.5,50,101200,0,0,239,398,779,69,48920,77333,10299,0,250,0.6,0,0,0,0,0,0,0,0,0,0,0,0,0
2000,12,4,12,0,,1.8,-8.8,44,101140,0,0,245,467,790,81,47876,77103,11913,0,290,0.9,0,0,0,0,0,0,0,0,0,0,0,0,0
2000,12,4,13,0,,3.7,-10.9,33,101040,0,0,251,488,804,82,41244,75357,12163,0,320,0.4,0,0,0,0,0,0,0,0,0,0,0,0,0
2000,12,4,14,0,,6.2,-13,21,100950,0,0,259,465,837,69,29144,70922,10467,0,180,0.6,0,0,0,0,0,0,0,0,0,0,0,0,0
2000,12,4,15,0,,6.2,-15.1,19,100850,0,0,257,380,826,56,12222,43668,7547,0,180,1.7,0,0,0,0,0,0,0,0,0,0,0,0,0
2000,12,4,16,0,,5.5,-14.8,22,100870,0,0,256,248,761,43,0,0,0,0,200,3.3,0,0,0,0,0,0,0,0,0,0,0,0,0
2000,12,4,17,0,,4.4,-14.4,24,100890,0,0,254,89,63,26,0,0,0,0,180,1.8,1,0,0,0,0,0,0,0,0,0,0,0,0
2000,12,4,18,0,,3.6,-14.1,25,100910,0,0,253,0,0,0,0,0,0,0,180,1.9,1,0,0,0,0,0,0,0,0,0,0,0,0
2000,12,4,19,0,,1.2,-11.6,38,100860,0,0,251,0,0,0,0,0,0,0,110,1,3,0,0,0,0,0,0,0,0,0,0,0,0
2000,12,4,20,0,,2.5,-9.1,32,100810,0,0,262,0,0,0,0,0,0,0,140,1.2,5,0,0,0,0,0,0,0,0,0,0,0,0
2000,12,4,21,0,,0.6,-6.6,57,100760,0,0,262,0,0,0,0,0,0,0,360,1,7,0,0,0,0,0,0,0,0,0,0,0,0
2000,12,4,22,0,,0.8,-7.1,56,100710,0,0,267,0,0,0,0,0,0,0,0,0.2,8,0,0,0,0,0,0,0,0,0,0,0,0
2000,12,4,23,0,,2.6,-7.7,32,100650,0,0,280,0,0,0,0,0,0,0,180,1.2,9,0,0,0,0,0,0,0,0,0,0,0,0
2000,12,4,24,0,,1.5,-8.2,47,100600,0,0,282,0,0,0,0,0,0,0,200,1.3,10,0,0,0,0,0,0,0,0,0,0,0,0
2000,12,5,1,0,,0.1,-6.5,73,100580,0,0,268,0,0,0,0,0,0,0,140,1,9,0,0,0,0,0,0,0,0,0,0,0,0
2000,12,5,2,0,,-0.1,-4.9,81,100560,0,0,263,0,0,0,0,0,0,0,20,0.5,7,0,0,0,0,0,0,0,0,0,0,0,0
2000,12,5,3,0,,-0.3,-3.2,81,100540,0,0,260,0,0,0,0,0,0,0,0,0.2,6,0,0,0,0,0,0,0,0,0,0,0,0
2000,12,5,4,0,,-0.8,-3.4,84,100560,0,0,257,0,0,0,0,0,0,0,110,0.8,6,0,0,0,0,0,0,0,0,0,0,0,0
2000,12,5,5,0,,0.3,-3.7,80,100590,0,0,260,0,0,0,0,0,0,0,110,1,5,0,0,0,0,0,0,0,0,0,0,0,0
2000,12,5,6,0,,-2.3,-3.9,88,100610,0,0,250,0,0,0,0,0,0,0,320,0.3,5,0,0,0,0,0,0,0,0,0,0,0,0
2000,12,5,7,0,,-2.8,-4.9,89,100700,0,0,244,0,0,0,0,0,0,0,110,0.7,3,0,0,0,0,0,0,0,0,0,0,0,0
2000,12,5,8,0,,-2.1,-5.8,84,100780,0,0,241,20,8,12,1627,681,1419,0,290,1.4,2,0,0,0,0,0,0,0,0,0,0,0,0
2000,12,5,9,0,,3.3,-6.8,47,100870,0,0,253,147,758,25,34270,73059,3970,0,200,3.2,0,0,0,0,0,0,0,0,0,0,0,0,0
2000,12,5,10,0,,3.5,-8.3,37,100930,0,0,252,296,821,43,45208,80464,6549,0,230,3.3,0,0,0,0,0,0,0,0,0,0,0,0,0
2000,12,5,11,0,,3.4,-9.9,34,100980,0,0,250,416,860,55,50312,84428,8301,0,230,5.1,0,0,0,0,0,0,0,0,0,0,0,0,0
2000,12,5,12,0,,4.1,-11.4,31,101040,0,0,252,439,698,99,46097,68066,14447,0,200,4.2,0,0,0,0,0,0,0,0,0,0,0,0,0
2000,12,5,13,0,,4.6,-11.6,29,101050,0,0,254,462,720,99,40019,67088,14199,0,200,3.9,0,0,0,0,0,0,0,0,0,0,0,0,0
2000,12,5,14,0,,5.2,-11.8,27,101060,0,0,256,436,738,88,28265,60839,12284,0,200,3.7,0,0,0,0,0,0,0,0,0,0,0,0,0
2000,12,5,15,0,,5.1,-12,27,101070,0,0,255,360,744,69,12866,37635,8849,0,200,3.9,0,0,0,0,0,0,0,0,0,0,0,0,0
2000,12,5,16,0,,4.5,-11.5,30,101140,0,0,253,236,688,51,0,0,0,0,200,3.7,0,0,0,0,0,0,0,0,0,0,0,0,0
2000,12,5,17,0,,3.2,-10.9,36,101200,0,0,249,89,63,26,0,0,0,0,230,3.5,0,0,0,0,0,0,0,0,0,0,0,0,0
2000,12,5,18,0,,1.9,-10.4,39,101270,0,0,244,0,0,0,0,0,0,0,200,2.6,0,0,0,0,0,0,0,0,0,0,0,0,0
2000,12,5,19,0,,0.8,-10.1,41,101310,0,0,240,0,0,0,0,0,0,0,200,2.2,0,0,0,0,0,0,0,0,0,0,0,0,0
2000,12,5,20,0,,0.2,-9.7,43,101350,0,0,238,0,0,0,0,0,0,0,200,1.6,0,0,0,0,0,0,0,0,0,0,0,0,0
2000,12,5,21,0,,-2.9,-9.4,60,101390,0,0,228,0,0,0,0,0,0,0,250,0.3,0,0,0,0,0,0,0,0,0,0,0,0,0
2000,12,5,22,0,,-0.7,-9.3,47,101440,0,0,236,0,0,0,0,0,0,0,180,2.1,0,0,0,0,0,0,0,0,0,0,0,0,0
2000,12,5,23,0,,-1.7,-9.2,48,101480,0,0,233,0,0,0,0,0,0,0,180,1,0,0,0,0,0,0,0,0,0,0,0,0,0
2000,12,5,24,0,,-4.5,-9.1,70,101530,0,0,223,0,0,0,0,0,0,0,250,1.2,0,0,0,0,0,0,0,0,0,0,0,0,0
2000,12,6,1,0,,-5,-9.3,70,101580,0,0,221,0,0,0,0,0,0,0,360,0.3,0,0,0,0,0,0,0,0,0,0,0,0,0
2000,12,6,2,0,,-6.6,-9.4,77,101630,0,0,216,0,0,0,0,0,0,0,320,0.8,0,0,0,0,0,0,0,0,0,0,0,0,0
2000,12,6,3,0,,-6.2,-9.6,76,101680,0,0,217,0,0,0,0,0,0,0,20,0.4,0,0,0,0,0,0,0,0,0,0,0,0,0
2000,12,6,4,0,,-6.9,-9.6,80,101690,0,0,215,0,0,0,0,0,0,0,0,0,0,0,0,0,0,0,0,0,0,0,0,0,0
2000,12,6,5,0,,-8.3,-9.7,84,101710,0,0,211,0,0,0,0,0,0,0,0,0.2,0,0,0,0,0,0,0,0,0,0,0,0,0
2000,12,6,6,0,,-7.9,-9.7,87,101720,0,0,212,0,0,0,0,0,0,0,0,0,0,0,0,0,0,0,0,0,0,0,0,0,0
2000,12,6,7,0,,-7.8,-9.5,83,101780,0,0,212,0,0,0,0,0,0,0,50,0.4,0,0,0,0,0,0,0,0,0,0,0,0,0
2000,12,6,8,0,,-7.6,-9.4,82,101840,0,0,213,20,9,11,1727,823,1478,0,0,0.2,0,0,0,0,0,0,0,0,0,0,0,0,0
2000,12,6,9,0,,-5.5,-9.2,75,101900,0,0,219,122,527,39,26906,50595,6041,0,360,0.6,0,0,0,0,0,0,0,0,0,0,0,0,0
2000,12,6,10,0,,-3,-10.5,65,101890,0,0,228,272,707,56,41463,68986,8460,0,0,0.1,0,0,0,0,0,0,0,0,0,0,0,0,0
2000,12,6,11,0,,-1,-11.9,45,101890,0,0,236,397,792,66,48295,77566,9831,0,290,0.4,1,0,0,0,0,0,0,0,0,0,0,0,0
2000,12,6,12,0,,0.1,-13.2,35,101880,0,0,239,460,783,81,47304,76212,11967,0,20,0.3,1,0,0,0,0,0,0,0,0,0,0,0,0
2000,12,6,13,0,,1.6,-13.4,29,101820,0,0,249,465,736,95,40118,68740,13726,0,230,0.4,2,0,0,0,0,0,0,0,0,0,0,0,0
2000,12,6,14,0,,3.3,-13.7,25,101770,0,0,259,417,676,100,28034,55166,13574,0,230,0.8,4,0,0,0,0,0,0,0,0,0,0,0,0
2000,12,6,15,0,,3.9,-13.9,25,101710,0,0,264,323,585,94,13752,28978,10665,0,290,0.3,5,0,0,0,0,0,0,0,0,0,0,0,0
2000,12,6,16,0,,3.3,-12.5,27,101740,0,0,262,207,512,70,0,0,0,0,320,0.6,5,0,0,0,0,0,0,0,0,0,0,0,0
2000,12,6,17,0,,1.6,-11.2,33,101760,0,0,257,72,36,37,0,0,0,0,50,0.5,5,0,0,0,0,0,0,0,0,0,0,0,0
2000,12,6,18,0,,-1.1,-9.8,51,101790,0,0,248,0,0,0,0,0,0,0,0,0,5,0,0,0,0,0,0,0,0,0,0,0,0
2000,12,6,19,0,,-2.3,-9.7,58,101840,0,0,244,0,0,0,0,0,0,0,340,0.6,5,0,0,0,0,0,0,0,0,0,0,0,0
2000,12,6,20,0,,-2.2,-9.7,59,101890,0,0,244,0,0,0,0,0,0,0,90,0.6,5,0,0,0,0,0,0,0,0,0,0,0,0
2000,12,6,21,0,,-3.5,-9.6,62,101940,0,0,239,0,0,0,0,0,0,0,0,0,5,0,0,0,0,0,0,0,0,0,0,0,0
2000,12,6,22,0,,-3.6,-9.1,65,101960,0,0,240,0,0,0,0,0,0,0,0,0,5,0,0,0,0,0,0,0,0,0,0,0,0
2000,12,6,23,0,,-4.2,-8.6,69,101980,0,0,239,0,0,0,0,0,0,0,0,0.2,6,0,0,0,0,0,0,0,0,0,0,0,0
2000,12,6,24,0,,-4.4,-8.1,75,102000,0,0,240,0,0,0,0,0,0,0,110,0.9,6,0,0,0,0,0,0,0,0,0,0,0,0
2000,12,7,1,0,,-5,-7.9,79,102030,0,0,238,0,0,0,0,0,0,0,110,1,6,0,0,0,0,0,0,0,0,0,0,0,0
2000,12,7,2,0,,-5.4,-7.7,79,102050,0,0,237,0,0,0,0,0,0,0,0,0.2,6,0,0,0,0,0,0,0,0,0,0,0,0
2000,12,7,3,0,,-5.3,-7.5,84,102080,0,0,237,0,0,0,0,0,0,0,110,1,6,0,0,0,0,0,0,0,0,0,0,0,0
2000,12,7,4,0,,-4.8,-7.1,75,102080,0,0,242,0,0,0,0,0,0,0,0,0.1,7,0,0,0,0,0,0,0,0,0,0,0,0
2000,12,7,5,0,,-3.9,-6.8,78,102070,0,0,250,0,0,0,0,0,0,0,90,0.4,8,0,0,0,0,0,0,0,0,0,0,0,0
2000,12,7,6,0,,-3.5,-6.4,80,102070,0,0,257,0,0,0,0,0,0,0,340,0.7,9,0,0,0,0,0,0,0,0,0,0,0,0
2000,12,7,7,0,,-3.2,-6.2,78,102080,0,0,257,0,0,0,0,0,0,0,0,0.2,9,0,0,0,0,0,0,0,0,0,0,0,0
2000,12,7,8,0,,-2.7,-5.9,80,102080,0,0,257,10,1,8,1148,31,1139,0,340,1,8,0,0,0,0,0,0,0,0,0,0,0,0
2000,12,7,9,0,,-1.7,-5.7,73,102090,0,0,259,72,140,51,13167,13318,7705,0,110,0.3,8,0,0,0,0,0,0,0,0,0,0,0,0
2000,12,7,10,0,,-1,-5.8,67,102020,0,0,259,175,226,106,24009,22626,13228,0,0,0,7,0,0,0,0,0,0,0,0,0,0,0,0
2000,12,7,11,0,,1.3,-5.8,57,101960,0,0,265,266,273,152,31789,27493,18200,0,290,0.4,7,0,0,0,0,0,0,0,0,0,0,0,0
2000,12,7,12,0,,2.8,-5.9,52,101890,0,0,269,354,399,162,38237,38514,20426,0,110,0.7,6,0,0,0,0,0,0,0,0,0,0,0,0
2000,12,7,13,0,,4.1,-6.9,44,101840,0,0,278,346,315,189,33008,29749,21611,0,110,0.5,7,0,0,0,0,0,0,0,0,0,0,0,0
2000,12,7,14,0,,5.2,-8,36,101780,0,0,288,247,142,180,23135,11709,20071,0,250,0.3,9,0,0,0,0,0,0,0,0,0,0,0,0
2000,12,7,15,0,,5.1,-9,35,101730,0,0,297,154,69,127,14352,4892,13831,0,0,0.2,10,0,0,0,0,0,0,0,0,0,0,0,0
2000,12,7,16,0,,4.9,-8.4,41,101740,0,0,289,125,125,91,0,0,0,0,320,0.4,9,0,0,0,0,0,0,0,0,0,0,0,0
2000,12,7,17,0,,4.5,-7.7,43,101740,0,0,282,52,16,35,0,0,0,0,0,0,8,0,0,0,0,0,0,0,0,0,0,0,0
2000,12,7,18,0,,1.9,-7.1,50,101750,0,0,267,0,0,0,0,0,0,0,0,0,7,0,0,0,0,0,0,0,0,0,0,0,0
2000,12,7,19,0,,0.4,-6.6,62,101750,0,0,259,0,0,0,0,0,0,0,0,0,6,0,0,0,0,0,0,0,0,0,0,0,0
2000,12,7,20,0,,-0.5,-6.1,66,101750,0,0,255,0,0,0,0,0,0,0,50,0.3,6,0,0,0,0,0,0,0,0,0,0,0,0
2000,12,7,21,0,,-0.9,-5.6,70,101750,0,0,253,0,0,0,0,0,0,0,0,0,5,0,0,0,0,0,0,0,0,0,0,0,0
2000,12,7,22,0,,-1.4,-5.4,74,101750,0,0,256,0,0,0,0,0,0,0,90,0.9,7,0,0,0,0,0,0,0,0,0,0,0,0
2000,12,7,23,0,,-1,-5.1,73,101750,0,0,264,0,0,0,0,0,0,0,0,0.2,8,0,0,0,0,0,0,0,0,0,0,0,0
2000,12,7,24,0,,-1.2,-4.9,75,101750,0,0,275,0,0,0,0,0,0,0,20,0.6,10,0,0,0,0,0,0,0,0,0,0,0,0
2000,12,8,1,0,,-0.2,-4.4,73,101740,0,0,280,0,0,0,0,0,0,0,0,0,10,0,0,0,0,0,0,0,0,0,0,0,0
2000,12,8,2,0,,0.2,-3.9,76,101730,0,0,282,0,0,0,0,0,0,0,50,0.3,10,0,0,0,0,0,0,0,0,0,0,0,0
2000,12,8,3,0,,0,-3.4,77,101720,0,0,282,0,0,0,0,0,0,0,340,0.4,10,0,0,0,0,0,0,0,0,0,0,0,0
2000,12,8,4,0,,0.5,-3.3,74,101690,0,0,276,0,0,0,0,0,0,0,0,0.1,9,0,0,0,0,0,0,0,0,0,0,0,0
2000,12,8,5,0,,0.3,-3.1,74,101670,0,0,269,0,0,0,0,0,0,0,0,0,8,0,0,0,0,0,0,0,0,0,0,0,0
2000,12,8,6,0,,0.6,-3,76,101640,0,0,267,0,0,0,0,0,0,0,20,1,7,0,0,0,0,0,0,0,0,0,0,0,0
2000,12,8,7,0,,-0.3,-2.9,81,101640,0,0,268,0,0,0,0,0,0,0,0,0,8,0,0,0,0,0,0,0,0,0,0,0,0
2000,12,8,8,0,,0.8,-2.9,76,101640,0,0,278,5,0,5,649,5,647,0,110,0.6,9,0,0,0,0,0,0,0,0,0,0,0,0
2000,12,8,9,0,,1.1,-2.8,74,101640,0,0,287,38,24,34,5388,2293,4453,0,0,0.1,10,0,0,0,0,0,0,0,0,0,0,0,0
2000,12,8,10,0,,2,-2.7,72,101600,0,0,291,98,44,85,11873,4140,9908,0,0,0.2,10,0,0,0,0,0,0,0,0,0,0,0,0
2000,12,8,11,0,,2.8,-2.7,67,101560,0,0,294,138,42,121,15883,4013,13906,0,320,0.6,10,0,0,0,0,0,0,0,0,0,0,0,0
2000,12,8,12,0,,4.3,-2.6,59,101520,0,0,301,177,51,152,19597,4887,17343,0,0,0.2,10,0,0,0,0,0,0,0,0,0,0,0,0
2000,12,8,13,0,,5.3,-1.9,54,101450,0,0,306,185,52,160,19891,4817,18049,0,110,0.4,10,0,0,0,0,0,0,0,0,0,0,0,0
2000,12,8,14,0,,7.1,-1.3,51,101380,0,0,314,186,65,156,18880,5622,17411,0,0,0.1,10,0,0,0,0,0,0,0,0,0,0,0,0
2000,12,8,15,0,,8,-0.6,54,101310,0,0,319,148,61,124,13958,4282,13503,0,270,0.8,10,0,0,0,0,0,0,0,0,0,0,0,0
2000,12,8,16,0,,7.4,-0.7,57,101310,0,0,310,115,101,89,0,0,0,0,340,0.8,9,0,0,0,0,0,0,0,0,0,0,0,0
2000,12,8,17,0,,6.7,-0.7,58,101320,0,0,302,37,6,31,0,0,0,0,0,0,9,0,0,0,0,0,0,0,0,0,0,0,0
2000,12,8,18,0,,5.3,-0.8,64,101320,0,0,292,0,0,0,0,0,0,0,0,0,8,0,0,0,0,0,0,0,0,0,0,0,0
2000,12,8,19,0,,3.8,-0.7,72,101340,0,0,286,0,0,0,0,0,0,0,0,0.2,8,0,0,0,0,0,0,0,0,0,0,0,0
2000,12,8,20,0,,3.3,-0.7,76,101360,0,0,284,0,0,0,0,0,0,0,0,0.1,8,0,0,0,0,0,0,0,0,0,0,0,0
2000,12,8,21,0,,2,-0.6,82,101380,0,0,279,0,0,0,0,0,0,0,0,0,8,0,0,0,0,0,0,0,0,0,0,0,0
2000,12,8,22,0,,2.7,-0.4,80,101370,0,0,284,0,0,0,0,0,0,0,0,0,8,0,0,0,0,0,0,0,0,0,0,0,0
2000,12,8,23,0,,2.4,-0.3,80,101350,0,0,285,0,0,0,0,0,0,0,320,0.7,9,0,0,0,0,0,0,0,0,0,0,0,0
2000,12,8,24,0,,2.3,-0.1,83,101340,0,0,287,0,0,0,0,0,0,0,320,0.9,9,0,0,0,0,0,0,0,0,0,0,0,0
2000,12,9,1,0,,2.2,-0.1,83,101360,0,0,284,0,0,0,0,0,0,0,340,0.6,9,0,0,0,0,0,0,0,0,0,0,0,0
2000,12,9,2,0,,2.6,0,82,101380,0,0,284,0,0,0,0,0,0,0,20,0.3,8,0,0,0,0,0,0,0,0,0,0,0,0
2000,12,9,3,0,,2.3,0,84,101400,0,0,281,0,0,0,0,0,0,0,20,0.4,8,0,0,0,0,0,0,0,0,0,0,0,0
2000,12,9,4,0,,1.2,-0.7,87,101390,0,0,267,0,0,0,0,0,0,0,0,0,5,0,0,0,0,0,0,0,0,0,0,0,0
2000,12,9,5,0,,0.3,-1.5,90,101390,0,0,257,0,0,0,0,0,0,0,70,1,3,0,0,0,0,0,0,0,0,0,0,0,0
2000,12,9,6,0,,-1,-2.2,91,101380,0,0,242,0,0,0,0,0,0,0,290,0.7,0,0,0,0,0,0,0,0,0,0,0,0,0
2000,12,9,7,0,,-1.6,-1.7,92,101410,0,0,252,0,0,0,0,0,0,0,0,0.2,3,0,0,0,0,0,0,0,0,0,0,0,0
2000,12,9,8,0,,-0.7,-1.3,93,101430,0,0,263,8,1,7,977,21,971,0,140,0.6,7,0,0,0,0,0,0,0,0,0,0,0,0
2000,12,9,9,0,,0,-0.8,93,101460,0,0,285,32,15,30,4123,1370,3567,0,0,0.1,10,0,0,0,0,0,0,0,0,0,0,0,0
2000,12,9,10,0,,0.8,-0.1,93,101390,0,0,284,106,55,89,13488,5423,10924,0,0,0,9,0,0,0,0,0,0,0,0,0,0,0,0
2000,12,9,11,0,,2.1,0.7,93,101320,0,0,285,158,63,133,18163,5929,15249,0,0,0.2,9,0,0,0,0,0,0,0,0,0,0,0,0
2000,12,9,12,0,,4.8,1.4,78,101250,0,0,293,266,164,187,29047,15900,21728,0,320,1.2,8,0,0,0,0,0,0,0,0,0,0,0,0
2000,12,9,13,0,,8.2,1.4,61,101160,0,0,300,389,483,149,35832,43876,19079,0,140,0.8,6,0,0,0,0,0,0,0,0,0,0,0,0
2000,12,9,14,0,,10.3,1.3,56,101080,0,0,304,397,613,111,27110,48906,14339,0,0,0,5,0,0,0,0,0,0,0,0,0,0,0,0
2000,12,9,15,0,,10.9,1.3,51,100990,0,0,303,344,688,77,13357,33398,9799,0,340,0.6,3,0,0,0,0,0,0,0,0,0,0,0,0
2000,12,9,16,0,,11,1.1,47,100950,0,0,304,216,577,62,0,0,0,0,0,0,3,0,0,0,0,0,0,0,0,0,0,0,0
2000,12,9,17,0,,8.4,1,62,100920,0,0,294,70,32,38,0,0,0,0,250,0.6,4,0,0,0,0,0,0,0,0,0,0,0,0
2000,12,9,18,0,,5.1,0.8,73,100880,0,0,281,0,0,0,0,0,0,0,270,0.5,4,0,0,0,0,0,0,0,0,0,0,0,0
2000,12,9,19,0,,3.5,0.2,78,100890,0,0,275,0,0,0,0,0,0,0,110,0.9,5,0,0,0,0,0,0,0,0,0,0,0,0
2000,12,9,20,0,,1,-0.3,86,100890,0,0,267,0,0,0,0,0,0,0,0,0,5,0,0,0,0,0,0,0,0,0,0,0,0
2000,12,9,21,0,,0.6,-0.9,88,100900,0,0,266,0,0,0,0,0,0,0,0,0.2,6,0,0,0,0,0,0,0,0,0,0,0,0
2000,12,9,22,0,,0,-0.6,89,100870,0,0,265,0,0,0,0,0,0,0,0,0,6,0,0,0,0,0,0,0,0,0,0,0,0
2000,12,9,23,0,,1.9,-0.2,86,100840,0,0,274,0,0,0,0,0,0,0,0,0,7,0,0,0,0,0,0,0,0,0,0,0,0
2000,12,9,24,0,,2.1,0.1,86,100810,0,0,276,0,0,0,0,0,0,0,0,0,7,0,0,0,0,0,0,0,0,0,0,0,0
2000,12,10,1,0,,2.2,0.4,87,100790,0,0,277,0,0,0,0,0,0,0,360,0.5,7,0,0,0,0,0,0,0,0,0,0,0,0
2000,12,10,2,0,,3.3,0.7,82,100770,0,0,281,0,0,0,0,0,0,0,0,0.1,7,0,0,0,0,0,0,0,0,0,0,0,0
2000,12,10,3,0,,3.5,1,83,100750,0,0,282,0,0,0,0,0,0,0,0,0,7,0,0,0,0,0,0,0,0,0,0,0,0
2000,12,10,4,0,,3.8,1.4,83,100740,0,0,289,0,0,0,0,0,0,0,50,0.3,8,0,0,0,0,0,0,0,0,0,0,0,0
2000,12,10,5,0,,3.5,1.7,88,100720,0,0,294,0,0,0,0,0,0,0,0,0.2,9,0,0,0,0,0,0,0,0,0,0,0,0
2000,12,10,6,0,,3.5,2.1,90,100710,0,0,303,0,0,0,0,0,0,0,0,0,10,0,0,0,0,0,0,0,0,0,0,0,0
2000,12,10,7,0,,4,2.6,91,100760,0,0,306,0,0,0,0,0,0,0,200,0.4,10,0,0,0,0,0,0,0,0,0,0,0,0
2000,12,10,8,0,,4.5,3,89,100820,0,0,308,1,0,1,110,0,110,0,290,1.8,10,0,0,0,0,0,0,0,0,0,0,0,0
2000,12,10,9,0,,5,3.5,90,100870,0,0,311,36,3,32,4163,140,4107,0,360,0.8,10,0,0,0,0,0,0,0,0,0,0,0,0
2000,12,10,10,0,,5.4,2.2,88,100840,0,0,305,116,74,94,14934,7221,11532,0,110,0.7,9,0,0,0,0,0,0,0,0,0,0,0,0
2000,12,10,11,0,,6,0.9,86,100810,0,0,301,169,76,138,20041,7496,16367,0,290,0.5,9,0,0,0,0,0,0,0,0,0,0,0,0
2000,12,10,12,0,,7.4,-0.4,56,100780,0,0,302,268,170,187,29204,16535,21607,0,230,2.9,8,0,0,0,0,0,0,0,0,0,0,0,0
2000,12,10,13,0,,8.3,-3.7,49,100800,0,0,292,395,510,143,36049,46870,18175,0,180,2.8,5,0,0,0,0,0,0,0,0,0,0,0,0
2000,12,10,14,0,,9,-7.1,21,100830,0,0,286,421,708,92,27920,57879,12811,0,230,4,3,0,0,0,0,0,0,0,0,0,0,0,0
2000,12,10,15,0,,7.7,-10.4,26,100850,0,0,267,350,717,72,13018,35862,9189,0,230,3.4,0,0,0,0,0,0,0,0,0,0,0,0,0
2000,12,10,16,0,,6.1,-12.3,19,100950,0,0,259,223,625,57,0,0,0,0,250,3.2,0,0,0,0,0,0,0,0,0,0,0,0,0
2000,12,10,17,0,,3.3,-14.1,24,101060,0,0,247,83,53,29,0,0,0,0,250,3.9,0,0,0,0,0,0,0,0,0,0,0,0,0
2000,12,10,18,0,,1.6,-16,25,101160,0,0,239,0,0,0,0,0,0,0,250,3.8,0,0,0,0,0,0,0,0,0,0,0,0,0
2000,12,10,19,0,,0.5,-15.7,26,101250,0,0,235,0,0,0,0,0,0,0,230,3.2,0,0,0,0,0,0,0,0,0,0,0,0,0
2000,12,10,20,0,,-0.8,-15.3,30,101350,0,0,232,0,0,0,0,0,0,0,200,0.9,0,0,0,0,0,0,0,0,0,0,0,0,0
2000,12,10,21,0,,-1.5,-15,34,101440,0,0,230,0,0,0,0,0,0,0,230,2.6,0,0,0,0,0,0,0,0,0,0,0,0,0
2000,12,10,22,0,,-2.6,-15,39,101530,0,0,226,0,0,0,0,0,0,0,230,1.7,0,0,0,0,0,0,0,0,0,0,0,0,0
2000,12,10,23,0,,-3.4,-14.9,42,101620,0,0,223,0,0,0,0,0,0,0,230,1.8,0,0,0,0,0,0,0,0,0,0,0,0,0
2000,12,10,24,0,,-4.4,-14.9,43,101710,0,0,219,0,0,0,0,0,0,0,230,1.8,0,0,0,0,0,0,0,0,0,0,0,0,0
2000,12,11,1,0,,-5,-15,40,101780,0,0,217,0,0,0,0,0,0,0,250,2.6,0,0,0,0,0,0,0,0,0,0,0,0,0
2000,12,11,2,0,,-6.1,-15.2,43,101840,0,0,212,0,0,0,0,0,0,0,250,1.1,0,0,0,0,0,0,0,0,0,0,0,0,0
2000,12,11,3,0,,-7.1,-15.3,51,101910,0,0,209,0,0,0,0,0,0,0,270,0.4,0,0,0,0,0,0,0,0,0,0,0,0,0
2000,12,11,4,0,,-8.3,-17.8,62,101950,0,0,204,0,0,0,0,0,0,0,50,0.5,0,0,0,0,0,0,0,0,0,0,0,0,0
2000,12,11,5,0,,-7.4,-20.2,38,101980,0,0,207,0,0,0,0,0,0,0,0,0.2,0,0,0,0,0,0,0,0,0,0,0,0,0
2000,12,11,6,0,,-6.7,-22.7,26,102020,0,0,210,0,0,0,0,0,0,0,270,2.2,0,0,0,0,0,0,0,0,0,0,0,0,0
2000,12,11,7,0,,-7.3,-22.7,32,102080,0,0,208,0,0,0,0,0,0,0,180,1.1,0,0,0,0,0,0,0,0,0,0,0,0,0
2000,12,11,8,0,,-7.1,-22.7,30,102130,0,0,209,19,8,11,1524,664,1330,0,50,0.7,0,0,0,0,0,0,0,0,0,0,0,0,0
2000,12,11,9,0,,-5,-22.7,23,102190,0,0,216,130,106,24,8174,10173,4083,0,290,3.7,0,0,0,0,0,0,0,0,0,0,0,0,0
2000,12,11,10,0,,-4.3,-24.1,17,102170,0,0,219,290,861,36,45028,83980,5584,0,290,6.6,0,0,0,0,0,0,0,0,0,0,0,0,0
2000,12,11,11,0,,-3.3,-25.4,15,102140,0,0,223,396,833,57,48444,81461,8611,0,270,2.8,0,0,0,0,0,0,0,0,0,0,0,0,0
2000,12,11,12,0,,-3.4,-26.8,14,102120,0,0,223,453,791,78,46825,76991,11507,0,270,3.8,0,0,0,0,0,0,0,0,0,0,0,0,0
2000,12,11,13,0,,-3.1,-26.4,13,102090,0,0,223,464,760,89,40002,71119,12906,0,230,2.9,0,0,0,0,0,0,0,0,0,0,0,0,0
2000,12,11,14,0,,-3,-26.1,13,102070,0,0,224,431,749,84,27976,61842,11832,0,230,3.2,0,0,0,0,0,0,0,0,0,0,0,0,0
2000,12,11,15,0,,-3,-25.7,15,102040,0,0,224,355,743,68,12800,37890,8742,0,230,3.3,0,0,0,0,0,0,0,0,0,0,0,0,0
2000,12,11,16,0,,-3.6,-25,15,102080,0,0,222,237,713,47,0,0,0,0,250,2.5,0,0,0,0,0,0,0,0,0,0,0,0,0
2000,12,11,17,0,,-5.3,-24.2,20,102130,0,0,216,88,62,26,0,0,0,0,250,2.6,0,0,0,0,0,0,0,0,0,0,0,0,0
2000,12,11,18,0,,-6.8,-23.5,24,102170,0,0,210,0,0,0,0,0,0,0,340,0.9,0,0,0,0,0,0,0,0,0,0,0,0,0
2000,12,11,19,0,,-8.3,-22.6,32,102210,0,0,204,0,0,0,0,0,0,0,360,1.6,0,0,0,0,0,0,0,0,0,0,0,0,0
2000,12,11,20,0,,-9.4,-21.6,36,102260,0,0,200,0,0,0,0,0,0,0,360,0.9,0,0,0,0,0,0,0,0,0,0,0,0,0
2000,12,11,21,0,,-10,-20.7,40,102300,0,0,197,0,0,0,0,0,0,0,340,0.4,0,0,0,0,0,0,0,0,0,0,0,0,0
2000,12,11,22,0,,-10.2,-20.1,41,102290,0,0,197,0,0,0,0,0,0,0,20,0.3,0,0,0,0,0,0,0,0,0,0,0,0,0
2000,12,11,23,0,,-10.7,-19.4,47,102290,0,0,195,0,0,0,0,0,0,0,0,0.1,0,0,0,0,0,0,0,0,0,0,0,0,0
2000,12,11,24,0,,-11.3,-18.8,53,102280,0,0,193,0,0,0,0,0,0,0,110,0.9,0,0,0,0,0,0,0,0,0,0,0,0,0
2000,12,12,1,0,,-11.1,-18.5,58,102270,0,0,193,0,0,0,0,0,0,0,50,0.6,0,0,0,0,0,0,0,0,0,0,0,0,0
2000,12,12,2,0,,-11.1,-18.2,55,102250,0,0,193,0,0,0,0,0,0,0,110,0.8,0,0,0,0,0,0,0,0,0,0,0,0,0
2000,12,12,3,0,,-11.9,-17.9,68,102240,0,0,191,0,0,0,0,0,0,0,360,0.3,0,0,0,0,0,0,0,0,0,0,0,0,0
2000,12,12,4,0,,-13.4,-17.4,71,102220,0,0,187,0,0,0,0,0,0,0,0,0.1,0,0,0,0,0,0,0,0,0,0,0,0,0
2000,12,12,5,0,,-13.9,-16.9,77,102210,0,0,186,0,0,0,0,0,0,0,320,0.4,0,0,0,0,0,0,0,0,0,0,0,0,0
2000,12,12,6,0,,-14,-16.4,80,102190,0,0,186,0,0,0,0,0,0,0,0,0.1,0,0,0,0,0,0,0,0,0,0,0,0,0
2000,12,12,7,0,,-14.1,-15.8,88,102200,0,0,187,0,0,0,0,0,0,0,70,0.4,0,0,0,0,0,0,0,0,0,0,0,0,0
2000,12,12,8,0,,-14.8,-15.1,88,102200,0,0,187,12,4,9,1180,301,1093,0,320,0.5,0,0,0,0,0,0,0,0,0,0,0,0,0
2000,12,12,9,0,,-12.9,-14.5,76,102210,0,0,192,103,62,41,7924,6044,5504,0,360,0.5,0,0,0,0,0,0,0,0,0,0,0,0,0
2000,12,12,10,0,,-9,-16.2,46,102130,0,0,202,259,703,54,40111,68329,8116,0,0,0.1,0,0,0,0,0,0,0,0,0,0,0,0,0
2000,12,12,11,0,,-6.2,-17.9,30,102040,0,0,211,406,881,50,49514,86106,7500,0,230,0.6,0,0,0,0,0,0,0,0,0,0,0,0,0
2000,12,12,12,0,,-4.6,-19.6,25,101960,0,0,217,479,889,59,48343,86126,8890,0,20,0.4,0,0,0,0,0,0,0,0,0,0,0,0,0
2000,12,12,13,0,,-2.3,-17.9,23,101850,0,0,229,485,839,72,40864,78853,10841,0,360,0.7,1,0,0,0,0,0,0,0,0,0,0,0,0
2000,12,12,14,0,,-1.1,-16.2,26,101750,0,0,237,444,797,74,28092,66418,10745,0,20,1.1,1,0,0,0,0,0,0,0,0,0,0,0,0
2000,12,12,15,0,,0.3,-14.5,28,101640,0,0,243,360,766,64,12646,39609,8386,0,230,0.7,2,0,0,0,0,0,0,0,0,0,0,0,0
2000,12,12,16,0,,0.1,-14.6,32,101620,0,0,245,231,675,51,0,0,0,0,230,2.6,3,0,0,0,0,0,0,0,0,0,0,0,0
2000,12,12,17,0,,-1.4,-14.6,42,101610,0,0,243,77,44,33,0,0,0,0,250,2.6,5,0,0,0,0,0,0,0,0,0,0,0,0
2000,12,12,18,0,,-1.8,-14.7,37,101590,0,0,245,0,0,0,0,0,0,0,180,2.7,6,0,0,0,0,0,0,0,0,0,0,0,0
2000,12,12,19,0,,-2,-14,40,101600,0,0,247,0,0,0,0,0,0,0,230,2.3,7,0,0,0,0,0,0,0,0,0,0,0,0
2000,12,12,20,0,,-2,-13.2,39,101600,0,0,251,0,0,0,0,0,0,0,180,1.6,8,0,0,0,0,0,0,0,0,0,0,0,0
2000,12,12,21,0,,-2,-12.5,45,101610,0,0,257,0,0,0,0,0,0,0,200,2.1,9,0,0,0,0,0,0,0,0,0,0,0,0
2000,12,12,22,0,,-2,-12,49,101600,0,0,254,0,0,0,0,0,0,0,180,1.2,8,0,0,0,0,0,0,0,0,0,0,0,0
2000,12,12,23,0,,-2.1,-11.4,53,101600,0,0,251,0,0,0,0,0,0,0,200,1.2,8,0,0,0,0,0,0,0,0,0,0,0,0
2000,12,12,24,0,,-2.3,-10.9,53,101590,0,0,248,0,0,0,0,0,0,0,180,1.5,7,0,0,0,0,0,0,0,0,0,0,0,0
2000,12,13,1,0,,-2.6,-10.2,55,101550,0,0,245,0,0,0,0,0,0,0,180,0.8,6,0,0,0,0,0,0,0,0,0,0,0,0
2000,12,13,2,0,,-3.2,-9.4,57,101520,0,0,242,0,0,0,0,0,0,0,140,1.3,6,0,0,0,0,0,0,0,0,0,0,0,0
2000,12,13,3,0,,-4.6,-8.7,72,101480,0,0,236,0,0,0,0,0,0,0,70,0.4,5,0,0,0,0,0,0,0,0,0,0,0,0
2000,12,13,4,0,,-6.8,-9.3,81,101480,0,0,228,0,0,0,0,0,0,0,0,0.2,5,0,0,0,0,0,0,0,0,0,0,0,0
2000,12,13,5,0,,-7.9,-9.9,86,101470,0,0,223,0,0,0,0,0,0,0,140,0.8,4,0,0,0,0,0,0,0,0,0,0,0,0
2000,12,13,6,0,,-8.9,-10.5,88,101470,0,0,219,0,0,0,0,0,0,0,0,0.2,4,0,0,0,0,0,0,0,0,0,0,0,0
2000,12,13,7,0,,-8.5,-9.6,90,101500,0,0,220,0,0,0,0,0,0,0,0,0,3,0,0,0,0,0,0,0,0,0,0,0,0
2000,12,13,8,0,,-8.5,-8.6,90,101520,0,0,220,11,3,8,1087,221,1024,0,0,0,3,0,0,0,0,0,0,0,0,0,0,0,0
2000,12,13,9,0,,-6.7,-7.7,92,101550,0,0,225,101,62,40,7802,5949,5430,0,0,0,2,0,0,0,0,0,0,0,0,0,0,0,0
2000,12,13,10,0,,-4.1,-7.7,85,101520,0,0,235,234,569,69,36425,55879,10333,0,0,0.2,3,0,0,0,0,0,0,0,0,0,0,0,0
2000,12,13,11,0,,-1.9,-7.7,64,101490,0,0,244,356,683,81,44631,67171,11919,0,360,0.5,3,0,0,0,0,0,0,0,0,0,0,0,0
2000,12,13,12,0,,0.2,-7.7,54,101460,0,0,252,409,642,107,43746,62076,15343,0,360,0.3,4,0,0,0,0,0,0,0,0,0,0,0,0
2000,12,13,13,0,,0.7,-7.8,49,101420,0,0,256,390,501,143,35746,46487,18053,0,230,1,5,0,0,0,0,0,0,0,0,0,0,0,0
2000,12,13,14,0,,2.2,-8,42,101370,0,0,264,344,423,149,26024,34670,16961,0,230,1.6,6,0,0,0,0,0,0,0,0,0,0,0,0
2000,12,13,15,0,,1.8,-8.1,47,101330,0,0,266,244,272,139,16327,13565,14860,0,230,1.7,7,0,0,0,0,0,0,0,0,0,0,0,0
2000,12,13,16,0,,1.9,-7.5,48,101350,0,0,268,160,273,88,0,0,0,0,200,1,7,0,0,0,0,0,0,0,0,0,0,0,0
2000,12,13,17,0,,1.4,-7,52,101380,0,0,268,51,15,35,0,0,0,0,160,1.1,8,0,0,0,0,0,0,0,0,0,0,0,0
2000,12,13,18,0,,0.1,-6.4,60,101400,0,0,265,0,0,0,0,0,0,0,140,0.5,8,0,0,0,0,0,0,0,0,0,0,0,0
2000,12,13,19,0,,-0.6,-6.1,66,101430,0,0,263,0,0,0,0,0,0,0,140,1,8,0,0,0,0,0,0,0,0,0,0,0,0
2000,12,13,20,0,,-0.7,-5.7,68,101450,0,0,263,0,0,0,0,0,0,0,110,0.6,8,0,0,0,0,0,0,0,0,0,0,0,0
2000,12,13,21,0,,-1.6,-5.4,75,101480,0,0,260,0,0,0,0,0,0,0,0,0,8,0,0,0,0,0,0,0,0,0,0,0,0
2000,12,13,22,0,,-2.5,-5.4,81,101490,0,0,257,0,0,0,0,0,0,0,360,0.5,8,0,0,0,0,0,0,0,0,0,0,0,0
2000,12,13,23,0,,-3.3,-5.4,84,101500,0,0,254,0,0,0,0,0,0,0,0,0,8,0,0,0,0,0,0,0,0,0,0,0,0
2000,12,13,24,0,,-3.2,-5.4,84,101510,0,0,254,0,0,0,0,0,0,0,0,0,8,0,0,0,0,0,0,0,0,0,0,0,0
2000,12,14,1,0,,-3.1,-5.4,84,101530,0,0,252,0,0,0,0,0,0,0,20,0.4,7,0,0,0,0,0,0,0,0,0,0,0,0
2000,12,14,2,0,,-4.3,-5.4,89,101560,0,0,245,0,0,0,0,0,0,0,0,0,7,0,0,0,0,0,0,0,0,0,0,0,0
2000,12,14,3,0,,-3.6,-5.4,86,101580,0,0,246,0,0,0,0,0,0,0,0,0,6,0,0,0,0,0,0,0,0,0,0,0,0
2000,12,14,4,0,,-4.4,-6,91,101580,0,0,240,0,0,0,0,0,0,0,140,1,5,0,0,0,0,0,0,0,0,0,0,0,0
2000,12,14,5,0,,-6.3,-6.5,90,101570,0,0,232,0,0,0,0,0,0,0,110,0.3,4,0,0,0,0,0,0,0,0,0,0,0,0
2000,12,14,6,0,,-6.2,-7.1,93,101570,0,0,229,0,0,0,0,0,0,0,0,0,3,0,0,0,0,0,0,0,0,0,0,0,0
2000,12,14,7,0,,-5.7,-6.4,93,101600,0,0,236,0,0,0,0,0,0,0,110,1,5,0,0,0,0,0,0,0,0,0,0,0,0
2000,12,14,8,0,,-5.6,-5.6,95,101620,0,0,244,3,0,3,460,2,459,0,0,0,8,0,0,0,0,0,0,0,0,0,0,0,0
2000,12,14,9,0,,-4.2,-4.9,94,101650,0,0,264,30,2,28,3636,102,3596,0,0,0.2,10,0,0,0,0,0,0,0,0,0,0,0,0
2000,12,14,10,0,,-3.1,-4.4,95,101600,0,0,253,153,180,101,21016,17843,12707,0,340,0.6,7,0,0,0,0,0,0,0,0,0,0,0,0
2000,12,14,11,0,,-1.2,-3.8,86,101540,0,0,253,292,412,127,36501,40134,16989,0,340,0.9,5,0,0,0,0,0,0,0,0,0,0,0,0
2000,12,14,12,0,,1,-3.3,72,101490,0,0,256,404,628,109,43352,60491,15699,0,0,0.1,2,0,0,0,0,0,0,0,0,0,0,0,0
2000,12,14,13,0,,2.4,-2.9,66,101430,0,0,265,397,531,136,36114,48821,17532,0,0,0,4,0,0,0,0,0,0,0,0,0,0,0,0
2000,12,14,14,0,,4.3,-2.4,58,101380,0,0,277,365,506,132,26920,40668,16274,0,360,0.9,5,0,0,0,0,0,0,0,0,0,0,0,0
2000,12,14,15,0,,5.1,-2,59,101320,0,0,286,246,282,137,16347,13799,14847,0,250,0.5,7,0,0,0,0,0,0,0,0,0,0,0,0
2000,12,14,16,0,,5.1,-1.8,61,101350,0,0,286,164,294,86,0,0,0,0,180,1.9,7,0,0,0,0,0,0,0,0,0,0,0,0
2000,12,14,17,0,,4.2,-1.5,66,101380,0,0,282,58,23,35,0,0,0,0,160,2.4,7,0,0,0,0,0,0,0,0,0,0,0,0
2000,12,14,18,0,,3.6,-1.3,69,101410,0,0,280,0,0,0,0,0,0,0,180,1,7,0,0,0,0,0,0,0,0,0,0,0,0
2000,12,14,19,0,,2.9,-1.7,73,101410,0,0,278,0,0,0,0,0,0,0,200,1.1,7,0,0,0,0,0,0,0,0,0,0,0,0
2000,12,14,20,0,,-1.7,-2,89,101410,0,0,262,0,0,0,0,0,0,0,0,0.1,8,0,0,0,0,0,0,0,0,0,0,0,0
2000,12,14,21,0,,-0.9,-2.4,89,101410,0,0,266,0,0,0,0,0,0,0,110,0.4,8,0,0,0,0,0,0,0,0,0,0,0,0
2000,12,14,22,0,,-0.5,-1.8,90,101400,0,0,272,0,0,0,0,0,0,0,20,0.3,9,0,0,0,0,0,0,0,0,0,0,0,0
2000,12,14,23,0,,0,-1.1,89,101380,0,0,279,0,0,0,0,0,0,0,0,0.1,9,0,0,0,0,0,0,0,0,0,0,0,0
2000,12,14,24,0,,0.3,-0.5,94,101370,0,0,287,0,0,0,0,0,0,0,160,0.9,10,0,0,0,0,0,0,0,0,0,0,0,0
2000,12,15,1,0,,0.9,-0.2,94,101360,0,0,290,0,0,0,0,0,0,0,250,0.8,10,0,0,0,0,0,0,0,0,0,0,0,0
2000,12,15,2,0,,1,0.2,95,101360,0,0,290,0,0,0,0,0,0,0,90,1,10,0,0,0,0,0,0,0,0,0,0,0,0
2000,12,15,3,0,,1.1,0.5,95,101350,0,0,291,0,0,0,0,0,0,0,340,0.8,10,0,0,0,0,0,0,0,0,0,0,0,0
2000,12,15,4,0,,1.2,0.7,95,101290,0,0,292,0,0,0,0,0,0,0,0,0,10,0,0,0,0,0,0,0,0,0,0,0,0
2000,12,15,5,0,,1.3,0.9,95,101220,0,0,293,0,0,0,0,0,0,0,110,0.4,10,0,0,0,0,0,0,0,0,0,0,0,0
2000,12,15,6,0,,1.8,1.1,95,101160,0,0,295,0,0,0,0,0,0,0,360,0.7,10,0,0,0,0,0,0,0,0,0,0,0,0
2000,12,15,7,0,,2.7,1.4,94,101200,0,0,299,0,0,0,0,0,0,0,70,0.8,10,0,0,0,0,0,0,0,0,0,0,0,0
2000,12,15,8,0,,3.5,1.8,92,101250,0,0,303,0,0,0,0,0,0,0,140,2.5,10,0,0,0,0,0,0,0,0,0,0,0,0
2000,12,15,9,0,,3.5,2.1,90,101290,0,0,303,33,3,30,3878,129,3827,0,140,1.6,10,0,0,0,0,0,0,0,0,0,0,0,0
2000,12,15,10,0,,4.4,2.5,87,101240,0,0,304,83,32,74,10070,2993,8679,0,160,1.7,10,0,0,0,0,0,0,0,0,0,0,0,0
2000,12,15,11,0,,5.7,2.8,83,101200,0,0,307,163,74,133,19493,7282,15958,0,160,1.9,9,0,0,0,0,0,0,0,0,0,0,0,0
2000,12,15,12,0,,7,3.2,76,101150,0,0,311,222,105,173,24835,10061,20239,0,160,2.4,9,0,0,0,0,0,0,0,0,0,0,0,0
2000,12,15,13,0,,9.2,2.6,58,101110,0,0,315,294,204,195,29428,18669,22320,0,230,2.8,8,0,0,0,0,0,0,0,0,0,0,0,0
2000,12,15,14,0,,9.5,2.1,55,101070,0,0,312,265,184,180,24186,14831,20297,0,200,2.2,8,0,0,0,0,0,0,0,0,0,0,0,0
2000,12,15,15,0,,8.9,1.5,59,101030,0,0,305,236,248,141,16589,11899,15286,0,200,2.9,7,0,0,0,0,0,0,0,0,0,0,0,0
2000,12,15,16,0,,8.9,2,63,101040,0,0,307,147,206,92,0,0,0,0,200,1.7,7,0,0,0,0,0,0,0,0,0,0,0,0
2000,12,15,17,0,,6.3,2.4,80,101040,0,0,298,39,7,32,0,0,0,0,180,1.3,8,0,0,0,0,0,0,0,0,0,0,0,0
2000,12,15,18,0,,4.7,2.9,88,101050,0,0,294,0,0,0,0,0,0,0,140,0.5,8,0,0,0,0,0,0,0,0,0,0,0,0
2000,12,15,19,0,,7.8,3.5,69,101050,0,0,312,0,0,0,0,0,0,0,180,2.3,9,0,0,0,0,0,0,0,0,0,0,0,0
2000,12,15,20,0,,8,4,72,101040,0,0,319,0,0,0,0,0,0,0,200,2.3,9,0,0,0,0,0,0,0,0,0,0,0,0
2000,12,15,21,0,,7.1,4.6,84,101040,0,0,322,0,0,0,0,0,0,0,230,2.1,10,0,0,0,0,0,0,0,0,0,0,0,0
2000,12,15,22,0,,7.7,3.3,78,101080,0,0,317,0,0,0,0,0,0,0,200,2.7,9,0,0,0,0,0,0,0,0,0,0,0,0
2000,12,15,23,0,,7.2,2.1,65,101120,0,0,308,0,0,0,0,0,0,0,230,2.4,9,0,0,0,0,0,0,0,0,0,0,0,0
2000,12,15,24,0,,6.8,0.8,65,101160,0,0,300,0,0,0,0,0,0,0,230,2.2,8,0,0,0,0,0,0,0,0,0,0,0,0
2000,12,16,1,0,,6.2,-2.1,63,101280,0,0,286,0,0,0,0,0,0,0,250,2,6,0,0,0,0,0,0,0,0,0,0,0,0
2000,12,16,2,0,,5.1,-4.9,54,101390,0,0,273,0,0,0,0,0,0,0,250,4.4,3,0,0,0,0,0,0,0,0,0,0,0,0
2000,12,16,3,0,,2.7,-7.8,45,101510,0,0,254,0,0,0,0,0,0,0,250,3,1,0,0,0,0,0,0,0,0,0,0,0,0
2000,12,16,4,0,,1.6,-9.2,44,101580,0,0,247,0,0,0,0,0,0,0,290,1.6,1,0,0,0,0,0,0,0,0,0,0,0,0
2000,12,16,5,0,,0.3,-10.5,41,101640,0,0,239,0,0,0,0,0,0,0,230,2.4,0,0,0,0,0,0,0,0,0,0,0,0,0
2000,12,16,6,0,,-0.4,-11.9,41,101710,0,0,236,0,0,0,0,0,0,0,200,1.7,0,0,0,0,0,0,0,0,0,0,0,0,0
2000,12,16,7,0,,-1.3,-13.6,38,101820,0,0,231,0,0,0,0,0,0,0,180,2.1,0,0,0,0,0,0,0,0,0,0,0,0,0
2000,12,16,8,0,,-2.2,-15.2,33,101920,0,0,227,12,5,8,1051,401,938,0,200,1.6,0,0,0,0,0,0,0,0,0,0,0,0,0
2000,12,16,9,0,,-1.2,-16.9,29,102030,0,0,230,110,81,29,7821,7719,4777,0,200,1.4,0,0,0,0,0,0,0,0,0,0,0,0,0
2000,12,16,10,0,,-0.2,-16.8,26,102000,0,0,234,251,698,53,39446,67866,7981,0,180,1.3,0,0,0,0,0,0,0,0,0,0,0,0,0
2000,12,16,11,0,,0.8,-16.7,24,101960,0,0,236,363,733,72,45674,72197,10667,0,250,0.7,0,0,0,0,0,0,0,0,0,0,0,0,0
2000,12,16,12,0,,1.3,-16.6,24,101930,0,0,238,425,714,91,45279,69677,13460,0,160,0.6,0,0,0,0,0,0,0,0,0,0,0,0,0
2000,12,16,13,0,,2.6,-16.8,22,101880,0,0,244,452,736,92,39536,68795,13331,0,140,0.7,0,0,0,0,0,0,0,0,0,0,0,0,0
2000,12,16,14,0,,3.7,-17,23,101840,0,0,249,439,787,76,28176,65634,10928,0,270,1.3,1,0,0,0,0,0,0,0,0,0,0,0,0
2000,12,16,15,0,,3.7,-17.2,19,101790,0,0,251,361,773,63,12797,40904,8283,0,200,1.4,1,0,0,0,0,0,0,0,0,0,0,0,0
2000,12,16,16,0,,3.3,-16.3,21,101810,0,0,251,235,698,49,0,0,0,0,230,1.5,1,0,0,0,0,0,0,0,0,0,0,0,0
2000,12,16,17,0,,1.8,-15.5,25,101820,0,0,247,87,58,28,0,0,0,0,230,1.2,2,0,0,0,0,0,0,0,0,0,0,0,0
2000,12,16,18,0,,0.6,-14.6,30,101840,0,0,244,0,0,0,0,0,0,0,200,0.8,2,0,0,0,0,0,0,0,0,0,0,0,0
2000,12,16,19,0,,-2.4,-12.4,70,101870,0,0,234,0,0,0,0,0,0,0,0,0.1,2,0,0,0,0,0,0,0,0,0,0,0,0
2000,12,16,20,0,,-3.9,-10.2,79,101890,0,0,229,0,0,0,0,0,0,0,320,0.3,1,0,0,0,0,0,0,0,0,0,0,0,0
2000,12,16,21,0,,-4.2,-8,74,101920,0,0,229,0,0,0,0,0,0,0,360,0.4,1,0,0,0,0,0,0,0,0,0,0,0,0
2000,12,16,22,0,,-4.3,-8.1,72,101920,0,0,229,0,0,0,0,0,0,0,0,0,1,0,0,0,0,0,0,0,0,0,0,0,0
2000,12,16,23,0,,-4.9,-8.1,73,101920,0,0,227,0,0,0,0,0,0,0,0,0,1,0,0,0,0,0,0,0,0,0,0,0,0
2000,12,16,24,0,,-5,-8.2,78,101920,0,0,226,0,0,0,0,0,0,0,110,0.8,1,0,0,0,0,0,0,0,0,0,0,0,0
2000,12,17,1,0,,-5.7,-8.4,80,101920,0,0,223,0,0,0,0,0,0,0,0,0,1,0,0,0,0,0,0,0,0,0,0,0,0
2000,12,17,2,0,,-6.7,-8.7,82,101930,0,0,218,0,0,0,0,0,0,0,0,0,0,0,0,0,0,0,0,0,0,0,0,0,0
2000,12,17,3,0,,-6.4,-8.9,82,101930,0,0,217,0,0,0,0,0,0,0,0,0.1,0,0,0,0,0,0,0,0,0,0,0,0,0
2000,12,17,4,0,,-6.8,-9.1,85,101950,0,0,216,0,0,0,0,0,0,0,90,0.4,0,0,0,0,0,0,0,0,0,0,0,0,0
2000,12,17,5,0,,-7.4,-9.3,86,101960,0,0,214,0,0,0,0,0,0,0,0,0.2,0,0,0,0,0,0,0,0,0,0,0,0,0
2000,12,17,6,0,,-7.6,-9.5,86,101980,0,0,213,0,0,0,0,0,0,0,360,0.3,0,0,0,0,0,0,0,0,0,0,0,0,0
2000,12,17,7,0,,-7.7,-9,90,102010,0,0,221,0,0,0,0,0,0,0,90,0.8,2,0,0,0,0,0,0,0,0,0,0,0,0
2000,12,17,8,0,,-7.8,-8.4,88,102050,0,0,226,7,1,6,793,20,788,0,0,0,5,0,0,0,0,0,0,0,0,0,0,0,0
2000,12,17,9,0,,-5.9,-7.9,85,102080,0,0,238,67,24,43,5924,2239,5044,0,340,0.9,7,0,0,0,0,0,0,0,0,0,0,0,0
2000,12,17,10,0,,-4.6,-7.9,79,102030,0,0,244,143,157,99,19623,15745,12337,0,0,0.2,8,0,0,0,0,0,0,0,0,0,0,0,0
2000,12,17,11,0,,-3.5,-8,73,101970,0,0,251,220,180,149,26504,18068,17751,0,360,0.6,8,0,0,0,0,0,0,0,0,0,0,0,0
2000,12,17,12,0,,-2.1,-8,63,101920,0,0,261,219,103,171,24420,10182,19771,0,0,0,9,0,0,0,0,0,0,0,0,0,0,0,0
2000,12,17,13,0,,-0.5,-9,51,101860,0,0,268,243,118,185,25307,11173,21047,0,270,0.6,9,0,0,0,0,0,0,0,0,0,0,0,0
2000,12,17,14,0,,0.2,-9.9,42,101810,0,0,272,184,65,154,18634,5771,17113,0,0,0,10,0,0,0,0,0,0,0,0,0,0,0,0
2000,12,17,15,0,,0.8,-10.9,40,101750,0,0,276,155,73,127,14423,5244,13839,0,320,0.3,10,0,0,0,0,0,0,0,0,0,0,0,0
2000,12,17,16,0,,0.7,-9.4,36,101760,0,0,264,140,175,93,0,0,0,0,0,0,8,0,0,0,0,0,0,0,0,0,0,0,0
2000,12,17,17,0,,0.2,-8,33,101780,0,0,256,67,35,32,0,0,0,0,0,0,6,0,0,0,0,0,0,0,0,0,0,0,0
2000,12,17,18,0,,-1.7,-6.5,69,101790,0,0,247,0,0,0,0,0,0,0,0,0,4,0,0,0,0,0,0,0,0,0,0,0,0
2000,12,17,19,0,,-2.5,-6.5,80,101780,0,0,242,0,0,0,0,0,0,0,320,0.9,3,0,0,0,0,0,0,0,0,0,0,0,0
2000,12,17,20,0,,-3,-6.6,77,101760,0,0,236,0,0,0,0,0,0,0,140,0.8,1,0,0,0,0,0,0,0,0,0,0,0,0
2000,12,17,21,0,,-4.1,-6.6,82,101750,0,0,227,0,0,0,0,0,0,0,340,0.7,0,0,0,0,0,0,0,0,0,0,0,0,0
2000,12,17,22,0,,-4,-6.6,83,101730,0,0,227,0,0,0,0,0,0,0,140,1,0,0,0,0,0,0,0,0,0,0,0,0,0
2000,12,17,23,0,,-4.6,-6.7,81,101720,0,0,225,0,0,0,0,0,0,0,290,0.4,0,0,0,0,0,0,0,0,0,0,0,0,0
2000,12,17,24,0,,-4.8,-6.7,86,101700,0,0,225,0,0,0,0,0,0,0,110,1,0,0,0,0,0,0,0,0,0,0,0,0,0
2000,12,18,1,0,,-5.4,-7,83,101710,0,0,222,0,0,0,0,0,0,0,50,0.9,0,0,0,0,0,0,0,0,0,0,0,0,0
2000,12,18,2,0,,-5.4,-7.4,83,101710,0,0,222,0,0,0,0,0,0,0,50,0.7,0,0,0,0,0,0,0,0,0,0,0,0,0
2000,12,18,3,0,,-6,-7.7,87,101720,0,0,220,0,0,0,0,0,0,0,360,0.7,0,0,0,0,0,0,0,0,0,0,0,0,0
2000,12,18,4,0,,-6,-7.9,86,101660,0,0,220,0,0,0,0,0,0,0,340,1.3,0,0,0,0,0,0,0,0,0,0,0,0,0
2000,12,18,5,0,,-6.4,-8,90,101600,0,0,218,0,0,0,0,0,0,0,140,0.8,0,0,0,0,0,0,0,0,0,0,0,0,0
2000,12,18,6,0,,-6.7,-8.2,89,101540,0,0,217,0,0,0,0,0,0,0,360,1,0,0,0,0,0,0,0,0,0,0,0,0,0
2000,12,18,7,0,,-6.5,-7.5,91,101560,0,0,227,0,0,0,0,0,0,0,140,1,3,0,0,0,0,0,0,0,0,0,0,0,0
2000,12,18,8,0,,-7.1,-6.9,90,101570,0,0,231,6,1,5,713,14,709,0,0,0.1,5,0,0,0,0,0,0,0,0,0,0,0,0
2000,12,18,9,0,,-4.7,-6.2,89,101590,0,0,248,57,15,42,5448,1372,4910,0,0,0.1,8,0,0,0,0,0,0,0,0,0,0,0,0
2000,12,18,10,0,,-3.6,-6,84,101510,0,0,255,118,91,92,15362,9042,11185,0,110,0.4,9,0,0,0,0,0,0,0,0,0,0,0,0
2000,12,18,11,0,,-2.5,-5.7,77,101420,0,0,264,180,102,140,21402,10183,16474,0,0,0.2,9,0,0,0,0,0,0,0,0,0,0,0,0
2000,12,18,12,0,,-1.1,-5.5,71,101340,0,0,275,160,43,140,17886,4120,16005,0,0,0.1,10,0,0,0,0,0,0,0,0,0,0,0,0
2000,12,18,13,0,,-0.1,-4.9,64,101240,0,0,280,177,49,153,19038,4541,17305,0,320,0.9,10,0,0,0,0,0,0,0,0,0,0,0,0
2000,12,18,14,0,,0.5,-4.3,61,101130,0,0,282,157,42,137,16333,3634,15373,0,0,0.1,10,0,0,0,0,0,0,0,0,0,0,0,0
2000,12,18,15,0,,-0.1,-3.7,76,101030,0,0,281,116,32,104,11666,2243,11414,0,200,0.4,10,0,0,0,0,0,0,0,0,0,0,0,0
2000,12,18,16,0,,-0.6,-2.8,89,101000,0,0,280,63,18,58,0,0,0,0,0,0,10,0,0,0,0,0,0,0,0,0,0,0,0
2000,12,18,17,0,,-1.1,-1.9,93,100970,0,0,280,18,1,17,0,0,0,0,360,0.9,10,0,0,0,0,0,0,0,0,0,0,0,0
2000,12,18,18,0,,-0.2,-1,94,100940,0,0,284,0,0,0,0,0,0,0,290,1.7,10,0,0,0,0,0,0,0,0,0,0,0,0
2000,12,18,19,0,,0,-0.8,94,100910,0,0,285,0,0,0,0,0,0,0,140,1.1,10,0,0,0,0,0,0,0,0,0,0,0,0
2000,12,18,20,0,,0.1,-0.6,94,100880,0,0,286,0,0,0,0,0,0,0,360,0.6,10,0,0,0,0,0,0,0,0,0,0,0,0
2000,12,18,21,0,,0.2,-0.4,94,100850,0,0,287,0,0,0,0,0,0,0,140,0.3,10,0,0,0,0,0,0,0,0,0,0,0,0
2000,12,18,22,0,,0,-0.3,95,100850,0,0,286,0,0,0,0,0,0,0,360,0.3,10,0,0,0,0,0,0,0,0,0,0,0,0
2000,12,18,23,0,,0.3,-0.3,95,100850,0,0,287,0,0,0,0,0,0,0,110,0.9,10,0,0,0,0,0,0,0,0,0,0,0,0
2000,12,18,24,0,,0.5,-0.2,94,100850,0,0,288,0,0,0,0,0,0,0,0,0.1,10,0,0,0,0,0,0,0,0,0,0,0,0
2000,12,19,1,0,,0.8,-0.4,94,100870,0,0,281,0,0,0,0,0,0,0,140,1.2,9,0,0,0,0,0,0,0,0,0,0,0,0
2000,12,19,2,0,,1.5,-0.6,93,100900,0,0,277,0,0,0,0,0,0,0,160,1.1,8,0,0,0,0,0,0,0,0,0,0,0,0
2000,12,19,3,0,,-0.1,-0.8,94,100920,0,0,267,0,0,0,0,0,0,0,0,0.1,7,0,0,0,0,0,0,0,0,0,0,0,0
2000,12,19,4,0,,-1.8,-1,95,101000,0,0,259,0,0,0,0,0,0,0,340,0.8,6,0,0,0,0,0,0,0,0,0,0,0,0
2000,12,19,5,0,,-0.5,-1.1,95,101070,0,0,261,0,0,0,0,0,0,0,90,1.1,6,0,0,0,0,0,0,0,0,0,0,0,0
2000,12,19,6,0,,1.5,-1.3,81,101150,0,0,267,0,0,0,0,0,0,0,160,0.9,5,0,0,0,0,0,0,0,0,0,0,0,0
2000,12,19,7,0,,1,-1.8,79,101270,0,0,263,0,0,0,0,0,0,0,180,1.6,4,0,0,0,0,0,0,0,0,0,0,0,0
2000,12,19,8,0,,-1.4,-2.4,88,101400,0,0,252,6,1,5,753,18,748,0,230,0.9,4,0,0,0,0,0,0,0,0,0,0,0,0
2000,12,19,9,0,,1.5,-2.9,72,101520,0,0,261,90,52,39,7223,4912,5302,0,200,1.1,3,0,0,0,0,0,0,0,0,0,0,0,0
2000,12,19,10,0,,1.5,-3.5,69,101570,0,0,261,206,452,80,32610,44253,12194,0,0,0,3,0,0,0,0,0,0,0,0,0,0,0,0
2000,12,19,11,0,,3.4,-4.2,63,101610,0,0,268,327,590,95,42027,57916,14007,0,250,1.2,4,0,0,0,0,0,0,0,0,0,0,0,0
2000,12,19,12,0,,2.3,-4.8,58,101660,0,0,264,344,413,152,37590,39783,19417,0,0,0.1,4,0,0,0,0,0,0,0,0,0,0,0,0
2000,12,19,13,0,,3.3,-4.5,55,101630,0,0,270,354,385,167,33281,36137,19467,0,70,0.6,5,0,0,0,0,0,0,0,0,0,0,0,0
2000,12,19,14,0,,4,-4.3,53,101610,0,0,275,301,275,174,25573,22730,19546,0,320,0.6,6,0,0,0,0,0,0,0,0,0,0,0,0
2000,12,19,15,0,,3.1,-4,59,101580,0,0,275,227,217,143,16675,11026,15423,0,320,0.6,7,0,0,0,0,0,0,0,0,0,0,0,0
2000,12,19,16,0,,2.6,-3.5,63,101610,0,0,276,123,118,91,0,0,0,0,0,0,8,0,0,0,0,0,0,0,0,0,0,0,0
2000,12,19,17,0,,1.6,-3.1,77,101650,0,0,276,45,10,35,0,0,0,0,110,0.8,8,0,0,0,0,0,0,0,0,0,0,0,0
2000,12,19,18,0,,0.2,-2.6,81,101680,0,0,276,0,0,0,0,0,0,0,290,0.4,9,0,0,0,0,0,0,0,0,0,0,0,0
2000,12,19,19,0,,-0.1,-2.5,87,101720,0,0,271,0,0,0,0,0,0,0,70,0.4,8,0,0,0,0,0,0,0,0,0,0,0,0
2000,12,19,20,0,,-0.7,-2.4,89,101760,0,0,265,0,0,0,0,0,0,0,340,0.4,8,0,0,0,0,0,0,0,0,0,0,0,0
2000,12,19,21,0,,-1.1,-2.3,91,101800,0,0,261,0,0,0,0,0,0,0,270,0.7,7,0,0,0,0,0,0,0,0,0,0,0,0
2000,12,19,22,0,,-1.1,-2.3,91,101800,0,0,263,0,0,0,0,0,0,0,110,0.5,7,0,0,0,0,0,0,0,0,0,0,0,0
2000,12,19,23,0,,-0.6,-2.4,92,101800,0,0,266,0,0,0,0,0,0,0,70,0.4,8,0,0,0,0,0,0,0,0,0,0,0,0
2000,12,19,24,0,,-1.3,-2.4,91,101800,0,0,265,0,0,0,0,0,0,0,0,0.1,8,0,0,0,0,0,0,0,0,0,0,0,0
2000,12,20,1,0,,-1.3,-2.6,92,101710,0,0,259,0,0,0,0,0,0,0,0,0,7,0,0,0,0,0,0,0,0,0,0,0,0
2000,12,20,2,0,,-2,-2.8,94,101630,0,0,253,0,0,0,0,0,0,0,0,0,5,0,0,0,0,0,0,0,0,0,0,0,0
2000,12,20,3,0,,-2.2,-3,94,101540,0,0,250,0,0,0,0,0,0,0,160,0.3,4,0,0,0,0,0,0,0,0,0,0,0,0
2000,12,20,4,0,,-1.7,-2.8,95,101490,0,0,256,0,0,0,0,0,0,0,200,0.4,6,0,0,0,0,0,0,0,0,0,0,0,0
2000,12,20,5,0,,-1.6,-2.5,95,101450,0,0,263,0,0,0,0,0,0,0,110,0.3,8,0,0,0,0,0,0,0,0,0,0,0,0
2000,12,20,6,0,,-1.7,-2.3,95,101400,0,0,277,0,0,0,0,0,0,0,50,0.4,10,0,0,0,0,0,0,0,0,0,0,0,0
2000,12,20,7,0,,-1.6,-2.1,95,101370,0,0,277,0,0,0,0,0,0,0,360,0.9,10,0,0,0,0,0,0,0,0,0,0,0,0
2000,12,20,8,0,,-1.4,-1.8,95,101330,0,0,279,0,0,0,0,0,0,0,0,0,10,0,0,0,0,0,0,0,0,0,0,0,0
2000,12,20,9,0,,-1,-1.6,95,101300,0,0,280,25,2,24,3085,68,3059,0,110,0.7,10,0,0,0,0,0,0,0,0,0,0,0,0
2000,12,20,10,0,,-0.8,-1.6,95,101250,0,0,281,72,23,65,8664,2154,7671,0,110,0.8,10,0,0,0,0,0,0,0,0,0,0,0,0
2000,12,20,11,0,,-0.2,-1.6,90,101210,0,0,283,109,26,99,12701,2417,11532,0,70,0.3,10,0,0,0,0,0,0,0,0,0,0,0,0
2000,12,20,12,0,,0,-1.6,88,101160,0,0,284,124,21,114,14089,2015,13168,0,0,0,10,0,0,0,0,0,0,0,0,0,0,0,0
2000,12,20,13,0,,1.3,-2.1,73,101100,0,0,286,154,34,138,16876,3105,15687,0,180,1.3,10,0,0,0,0,0,0,0,0,0,0,0,0
2000,12,20,14,0,,1.4,-2.7,67,101050,0,0,283,199,82,162,19926,7188,18013,0,230,2.6,9,0,0,0,0,0,0,0,0,0,0,0,0
2000,12,20,15,0,,1.5,-3.2,70,100990,0,0,280,164,84,131,15017,6009,14327,0,200,1.6,9,0,0,0,0,0,0,0,0,0,0,0,0
2000,12,20,16,0,,1.6,-3.2,65,101010,0,0,278,106,77,85,0,0,0,0,200,1.8,9,0,0,0,0,0,0,0,0,0,0,0,0
2000,12,20,17,0,,1.1,-3.2,70,101030,0,0,274,49,13,36,0,0,0,0,180,2,8,0,0,0,0,0,0,0,0,0,0,0,0
2000,12,20,18,0,,0.8,-3.2,73,101050,0,0,271,0,0,0,0,0,0,0,180,1.6,8,0,0,0,0,0,0,0,0,0,0,0,0
2000,12,20,19,0,,0.8,-3,74,101060,0,0,272,0,0,0,0,0,0,0,180,2.3,8,0,0,0,0,0,0,0,0,0,0,0,0
2000,12,20,20,0,,0.8,-2.9,75,101060,0,0,272,0,0,0,0,0,0,0,180,1.6,8,0,0,0,0,0,0,0,0,0,0,0,0
2000,12,20,21,0,,0.8,-2.7,76,101070,0,0,272,0,0,0,0,0,0,0,180,1,8,0,0,0,0,0,0,0,0,0,0,0,0
2000,12,20,22,0,,0.2,-2.9,79,101090,0,0,261,0,0,0,0,0,0,0,160,0.3,5,0,0,0,0,0,0,0,0,0,0,0,0
2000,12,20,23,0,,-1.7,-3.1,90,101100,0,0,248,0,0,0,0,0,0,0,250,0.4,3,0,0,0,0,0,0,0,0,0,0,0,0
2000,12,20,24,0,,-2.3,-3.3,92,101120,0,0,237,0,0,0,0,0,0,0,50,0.8,0,0,0,0,0,0,0,0,0,0,0,0,0
2000,12,21,1,0,,-3.2,-4.3,89,101180,0,0,233,0,0,0,0,0,0,0,110,1,0,0,0,0,0,0,0,0,0,0,0,0,0
2000,12,21,2,0,,-3.7,-5.3,86,101240,0,0,230,0,0,0,0,0,0,0,0,0.2,0,0,0,0,0,0,0,0,0,0,0,0,0
2000,12,21,3,0,,-1.9,-6.3,71,101300,0,0,235,0,0,0,0,0,0,0,230,1.6,0,0,0,0,0,0,0,0,0,0,0,0,0
2000,12,21,4,0,,-5.5,-6.9,91,101320,0,0,222,0,0,0,0,0,0,0,0,0.2,0,0,0,0,0,0,0,0,0,0,0,0,0
2000,12,21,5,0,,-5.9,-7.5,91,101330,0,0,220,0,0,0,0,0,0,0,50,0.6,0,0,0,0,0,0,0,0,0,0,0,0,0
2000,12,21,6,0,,-7,-8.1,91,101350,0,0,216,0,0,0,0,0,0,0,0,0,0,0,0,0,0,0,0,0,0,0,0,0,0
2000,12,21,7,0,,-7.2,-7.6,91,101370,0,0,216,0,0,0,0,0,0,0,0,0.1,0,0,0,0,0,0,0,0,0,0,0,0,0
2000,12,21,8,0,,-7,-7.1,91,101400,0,0,218,6,1,5,741,23,735,0,340,0.3,0,0,0,0,0,0,0,0,0,0,0,0,0
2000,12,21,9,0,,-5.2,-6.6,90,101420,0,0,224,92,58,35,6946,5544,4788,0,0,0.2,0,0,0,0,0,0,0,0,0,0,0,0,0
2000,12,21,10,0,,-3.4,-6.8,82,101400,0,0,229,229,601,62,36599,59126,9379,0,360,0.3,0,0,0,0,0,0,0,0,0,0,0,0,0
2000,12,21,11,0,,-1.4,-7,69,101370,0,0,236,351,705,75,44698,69406,11130,0,360,0.9,0,0,0,0,0,0,0,0,0,0,0,0,0
2000,12,21,12,0,,0.3,-7.2,56,101350,0,0,241,423,719,89,45355,70092,13289,0,360,0.5,0,0,0,0,0,0,0,0,0,0,0,0,0
2000,12,21,13,0,,2,-8.4,47,101290,0,0,246,453,745,90,39862,69703,13117,0,340,0.3,0,0,0,0,0,0,0,0,0,0,0,0,0
2000,12,21,14,0,,3.3,-9.6,39,101230,0,0,250,430,754,82,28507,62908,11693,0,90,0.7,0,0,0,0,0,0,0,0,0,0,0,0,0
2000,12,21,15,0,,3.9,-10.8,33,101170,0,0,251,354,736,69,13603,39553,9008,0,160,1.1,0,0,0,0,0,0,0,0,0,0,0,0,0
2000,12,21,16,0,,3.5,-9.6,31,101190,0,0,254,233,666,53,0,0,0,0,200,2.1,1,0,0,0,0,0,0,0,0,0,0,0,0
2000,12,21,17,0,,2.5,-8.4,37,101220,0,0,254,92,63,29,0,0,0,0,200,1.7,1,0,0,0,0,0,0,0,0,0,0,0,0
2000,12,21,18,0,,0,-7.2,58,101240,0,0,248,0,0,0,0,0,0,0,140,1.3,2,0,0,0,0,0,0,0,0,0,0,0,0
2000,12,21,19,0,,-0.3,-6.2,65,101250,0,0,252,0,0,0,0,0,0,0,110,0.4,4,0,0,0,0,0,0,0,0,0,0,0,0
2000,12,21,20,0,,-1,-5.3,69,101270,0,0,254,0,0,0,0,0,0,0,0,0,5,0,0,0,0,0,0,0,0,0,0,0,0
2000,12,21,21,0,,-0.9,-4.3,77,101280,0,0,260,0,0,0,0,0,0,0,340,0.3,7,0,0,0,0,0,0,0,0,0,0,0,0
2000,12,21,22,0,,-0.8,-4.4,71,101250,0,0,260,0,0,0,0,0,0,0,0,0,7,0,0,0,0,0,0,0,0,0,0,0,0
2000,12,21,23,0,,-1.2,-4.4,79,101230,0,0,258,0,0,0,0,0,0,0,0,0,7,0,0,0,0,0,0,0,0,0,0,0,0
2000,12,21,24,0,,-1.6,-4.5,80,101200,0,0,257,0,0,0,0,0,0,0,0,0,7,0,0,0,0,0,0,0,0,0,0,0,0
2000,12,22,1,0,,-1.7,-4.6,79,101180,0,0,261,0,0,0,0,0,0,0,0,0.1,8,0,0,0,0,0,0,0,0,0,0,0,0
2000,12,22,2,0,,-2.3,-4.7,82,101160,0,0,264,0,0,0,0,0,0,0,0,0,9,0,0,0,0,0,0,0,0,0,0,0,0
2000,12,22,3,0,,-2.7,-4.8,85,101140,0,0,270,0,0,0,0,0,0,0,0,0.1,10,0,0,0,0,0,0,0,0,0,0,0,0
2000,12,22,4,0,,-1.7,-4.4,82,101100,0,0,274,0,0,0,0,0,0,0,0,0,10,0,0,0,0,0,0,0,0,0,0,0,0
2000,12,22,5,0,,-1.2,-4,83,101070,0,0,276,0,0,0,0,0,0,0,0,0,10,0,0,0,0,0,0,0,0,0,0,0,0
2000,12,22,6,0,,-0.7,-3.6,80,101030,0,0,279,0,0,0,0,0,0,0,90,0.6,10,0,0,0,0,0,0,0,0,0,0,0,0
2000,12,22,7,0,,-0.7,-3.5,81,101030,0,0,279,0,0,0,0,0,0,0,340,1,10,0,0,0,0,0,0,0,0,0,0,0,0
2000,12,22,8,0,,-0.3,-3.4,75,101020,0,0,281,0,0,0,0,0,0,0,0,0,10,0,0,0,0,0,0,0,0,0,0,0,0
2000,12,22,9,0,,-0.1,-3.3,78,101020,0,0,282,29,2,26,3412,104,3372,0,0,0,10,0,0,0,0,0,0,0,0,0,0,0,0
2000,12,22,10,0,,1.1,-4.4,69,100970,0,0,277,116,91,90,15166,9097,10981,0,340,0.8,9,0,0,0,0,0,0,0,0,0,0,0,0
2000,12,22,11,0,,3.5,-5.4,47,100910,0,0,280,226,204,146,27403,20371,17548,0,320,0.7,8,0,0,0,0,0,0,0,0,0,0,0,0
2000,12,22,12,0,,4.1,-6.5,45,100860,0,0,277,311,301,172,33814,29766,20180,0,340,1,7,0,0,0,0,0,0,0,0,0,0,0,0
2000,12,22,13,0,,5.6,-5.6,38,100790,0,0,289,298,217,193,29729,20400,21883,0,230,1.2,8,0,0,0,0,0,0,0,0,0,0,0,0
2000,12,22,14,0,,5.7,-4.6,39,100720,0,0,296,216,102,169,21188,9021,18766,0,0,0.2,9,0,0,0,0,0,0,0,0,0,0,0,0
2000,12,22,15,0,,4.4,-3.7,54,100650,0,0,300,130,44,113,12813,3115,12447,0,340,0.8,10,0,0,0,0,0,0,0,0,0,0,0,0
2000,12,22,16,0,,4.6,-2.3,59,100660,0,0,302,75,28,67,0,0,0,0,340,0.8,10,0,0,0,0,0,0,0,0,0,0,0,0
2000,12,22,17,0,,3,-0.9,78,100670,0,0,297,22,1,21,0,0,0,0,340,2,10,0,0,0,0,0,0,0,0,0,0,0,0
2000,12,22,18,0,,2.5,0.5,86,100680,0,0,297,0,0,0,0,0,0,0,320,1.8,10,0,0,0,0,0,0,0,0,0,0,0,0
2000,12,22,19,0,,2.7,0.7,90,100660,0,0,298,0,0,0,0,0,0,0,70,0.7,10,0,0,0,0,0,0,0,0,0,0,0,0
2000,12,22,20,0,,2.7,1,92,100650,0,0,298,0,0,0,0,0,0,0,0,0,10,0,0,0,0,0,0,0,0,0,0,0,0
2000,12,22,21,0,,2,1.2,93,100630,0,0,296,0,0,0,0,0,0,0,20,0.7,10,0,0,0,0,0,0,0,0,0,0,0,0
2000,12,22,22,0,,1.9,1.2,94,100590,0,0,295,0,0,0,0,0,0,0,320,1,10,0,0,0,0,0,0,0,0,0,0,0,0
2000,12,22,23,0,,1.8,1.1,94,100550,0,0,295,0,0,0,0,0,0,0,320,0.7,10,0,0,0,0,0,0,0,0,0,0,0,0
2000,12,22,24,0,,1.8,1.1,95,100510,0,0,295,0,0,0,0,0,0,0,0,0.2,10,0,0,0,0,0,0,0,0,0,0,0,0
2000,12,23,1,0,,1.3,1,95,100440,0,0,293,0,0,0,0,0,0,0,320,0.6,10,0,0,0,0,0,0,0,0,0,0,0,0
2000,12,23,2,0,,1.6,0.9,95,100370,0,0,294,0,0,0,0,0,0,0,0,0,10,0,0,0,0,0,0,0,0,0,0,0,0
2000,12,23,3,0,,1.6,0.8,94,100300,0,0,294,0,0,0,0,0,0,0,340,2,10,0,0,0,0,0,0,0,0,0,0,0,0
2000,12,23,4,0,,1.7,0.5,92,100220,0,0,294,0,0,0,0,0,0,0,360,1.7,10,0,0,0,0,0,0,0,0,0,0,0,0
2000,12,23,5,0,,1.5,0.3,93,100150,0,0,292,0,0,0,0,0,0,0,340,1.1,10,0,0,0,0,0,0,0,0,0,0,0,0
2000,12,23,6,0,,0.7,0,94,100070,0,0,289,0,0,0,0,0,0,0,140,1.2,10,0,0,0,0,0,0,0,0,0,0,0,0
2000,12,23,7,0,,0,-0.1,94,100090,0,0,286,0,0,0,0,0,0,0,360,1,10,0,0,0,0,0,0,0,0,0,0,0,0
2000,12,23,8,0,,0.1,-0.1,95,100110,0,0,287,0,0,0,0,0,0,0,0,0,10,0,0,0,0,0,0,0,0,0,0,0,0
2000,12,23,9,0,,0.3,-0.2,95,100130,0,0,287,22,1,21,2761,49,2741,0,0,0,10,0,0,0,0,0,0,0,0,0,0,0,0
2000,12,23,10,0,,0.6,-0.2,95,100160,0,0,283,90,46,78,11647,4489,9582,0,360,0.6,9,0,0,0,0,0,0,0,0,0,0,0,0
2000,12,23,11,0,,1.2,-0.2,91,100190,0,0,280,137,49,118,15863,4658,13609,0,0,0.1,9,0,0,0,0,0,0,0,0,0,0,0,0
2000,12,23,12,0,,2.8,-0.2,80,100220,0,0,283,234,128,175,26067,12408,20376,0,230,2.5,8,0,0,0,0,0,0,0,0,0,0,0,0
2000,12,23,13,0,,2.5,-2,78,100270,0,0,276,296,213,193,29646,19863,21987,0,200,2.8,7,0,0,0,0,0,0,0,0,0,0,0,0
2000,12,23,14,0,,3.4,-3.8,64,100310,0,0,276,284,227,179,25165,18825,20086,0,230,1.2,7,0,0,0,0,0,0,0,0,0,0,0,0
2000,12,23,15,0,,2.5,-5.6,54,100360,0,0,268,261,336,131,16124,16433,14165,0,290,3.5,6,0,0,0,0,0,0,0,0,0,0,0,0
2000,12,23,16,0,,3,-6.4,50,100460,0,0,265,205,479,75,0,0,0,0,250,2.1,4,0,0,0,0,0,0,0,0,0,0,0,0
2000,12,23,17,0,,2,-7.1,52,100550,0,0,255,92,61,30,0,0,0,0,250,3.1,2,0,0,0,0,0,0,0,0,0,0,0,0
2000,12,23,18,0,,1.3,-7.9,49,100650,0,0,244,0,0,0,0,0,0,0,250,2.4,0,0,0,0,0,0,0,0,0,0,0,0,0
2000,12,23,19,0,,0.6,-8.8,51,100750,0,0,240,0,0,0,0,0,0,0,250,1.9,0,0,0,0,0,0,0,0,0,0,0,0,0
2000,12,23,20,0,,0.2,-9.8,49,100840,0,0,238,0,0,0,0,0,0,0,250,2.3,0,0,0,0,0,0,0,0,0,0,0,0,0
2000,12,23,21,0,,-0.1,-10.7,44,100940,0,0,238,0,0,0,0,0,0,0,250,2.9,0,0,0,0,0,0,0,0,0,0,0,0,0
2000,12,23,22,0,,-0.6,-10.9,36,100980,0,0,235,0,0,0,0,0,0,0,230,2.9,0,0,0,0,0,0,0,0,0,0,0,0,0
2000,12,23,23,0,,-1.1,-11.1,42,101010,0,0,233,0,0,0,0,0,0,0,200,1,0,0,0,0,0,0,0,0,0,0,0,0,0
2000,12,23,24,0,,-2,-11.3,48,101050,0,0,230,0,0,0,0,0,0,0,160,1,0,0,0,0,0,0,0,0,0,0,0,0,0
2000,12,24,1,0,,-3.5,-10.1,61,101060,0,0,230,0,0,0,0,0,0,0,90,0.7,1,0,0,0,0,0,0,0,0,0,0,0,0
2000,12,24,2,0,,-4.9,-9,81,101070,0,0,229,0,0,0,0,0,0,0,0,0,2,0,0,0,0,0,0,0,0,0,0,0,0
2000,12,24,3,0,,-5.5,-7.8,83,101080,0,0,231,0,0,0,0,0,0,0,360,0.9,3,0,0,0,0,0,0,0,0,0,0,0,0
2000,12,24,4,0,,-5.6,-7.6,87,101080,0,0,229,0,0,0,0,0,0,0,50,0.3,2,0,0,0,0,0,0,0,0,0,0,0,0
2000,12,24,5,0,,-5.4,-7.3,86,101090,0,0,228,0,0,0,0,0,0,0,20,0.4,2,0,0,0,0,0,0,0,0,0,0,0,0
2000,12,24,6,0,,-5.7,-7.1,89,101090,0,0,226,0,0,0,0,0,0,0,20,0.7,1,0,0,0,0,0,0,0,0,0,0,0,0
2000,12,24,7,0,,-6.4,-6.8,91,101120,0,0,227,0,0,0,0,0,0,0,0,0.2,2,0,0,0,0,0,0,0,0,0,0,0,0
2000,12,24,8,0,,-6.8,-6.4,91,101160,0,0,229,0,0,0,0,0,0,0,0,0.2,3,0,0,0,0,0,0,0,0,0,0,0,0
2000,12,24,9,0,,-4.9,-6.1,91,101190,0,0,237,76,33,43,6670,3205,5428,0,50,0.3,4,0,0,0,0,0,0,0,0,0,0,0,0
2000,12,24,10,0,,-1.2,-8.6,58,101170,0,0,248,217,546,67,35295,53785,10565,0,180,1.3,5,0,0,0,0,0,0,0,0,0,0,0,0
2000,12,24,11,0,,0.1,-11.2,37,101150,0,0,251,334,640,85,43416,63212,12802,0,200,2.2,5,0,0,0,0,0,0,0,0,0,0,0,0
2000,12,24,12,0,,1.3,-13.7,31,101130,0,0,256,379,557,121,41585,53734,16900,0,200,1.7,6,0,0,0,0,0,0,0,0,0,0,0,0
2000,12,24,13,0,,2.1,-13.8,30,101110,0,0,257,407,582,124,37115,54568,16013,0,230,2.7,5,0,0,0,0,0,0,0,0,0,0,0,0
2000,12,24,14,0,,1.5,-13.8,32,101080,0,0,254,373,535,126,27554,44512,15480,0,230,3.3,5,0,0,0,0,0,0,0,0,0,0,0,0
2000,12,24,15,0,,1,-13.9,31,101060,0,0,250,317,564,98,14840,30474,11157,0,230,3.3,4,0,0,0,0,0,0,0,0,0,0,0,0
2000,12,24,16,0,,0.5,-12.7,36,101030,0,0,251,195,411,83,0,0,0,0,200,2.3,5,0,0,0,0,0,0,0,0,0,0,0,0
2000,12,24,17,0,,0,-11.5,44,100990,0,0,252,75,42,32,0,0,0,0,200,2.2,6,0,0,0,0,0,0,0,0,0,0,0,0
2000,12,24,18,0,,-0.2,-10.3,46,100960,0,0,257,0,0,0,0,0,0,0,200,2.1,7,0,0,0,0,0,0,0,0,0,0,0,0
2000,12,24,19,0,,-0.9,-9.2,55,100940,0,0,259,0,0,0,0,0,0,0,140,0.9,8,0,0,0,0,0,0,0,0,0,0,0,0
2000,12,24,20,0,,-1.5,-8.1,68,100930,0,0,263,0,0,0,0,0,0,0,340,0.4,9,0,0,0,0,0,0,0,0,0,0,0,0
2000,12,24,21,0,,-1,-7,63,100910,0,0,274,0,0,0,0,0,0,0,250,0.8,10,0,0,0,0,0,0,0,0,0,0,0,0
2000,12,24,22,0,,-2.3,-6,83,100860,0,0,270,0,0,0,0,0,0,0,320,1,10,0,0,0,0,0,0,0,0,0,0,0,0
2000,12,24,23,0,,-2.7,-5,90,100810,0,0,269,0,0,0,0,0,0,0,340,1.1,10,0,0,0,0,0,0,0,0,0,0,0,0
2000,12,24,24,0,,-2.9,-4,91,100760,0,0,270,0,0,0,0,0,0,0,320,3,10,0,0,0,0,0,0,0,0,0,0,0,0
2000,12,25,1,0,,-3.4,-4.3,91,100740,0,0,268,0,0,0,0,0,0,0,340,1.6,10,0,0,0,0,0,0,0,0,0,0,0,0
2000,12,25,2,0,,-3.5,-4.7,89,100730,0,0,267,0,0,0,0,0,0,0,360,1.4,10,0,0,0,0,0,0,0,0,0,0,0,0
2000,12,25,3,0,,-3.6,-5,89,100710,0,0,266,0,0,0,0,0,0,0,0,0.1,10,0,0,0,0,0,0,0,0,0,0,0,0
2000,12,25,4,0,,-3.2,-7,86,100790,0,0,254,0,0,0,0,0,0,0,140,0.6,8,0,0,0,0,0,0,0,0,0,0,0,0
2000,12,25,5,0,,-3.3,-9,80,100860,0,0,245,0,0,0,0,0,0,0,200,2.3,7,0,0,0,0,0,0,0,0,0,0,0,0
2000,12,25,6,0,,-5.8,-11,66,100940,0,0,230,0,0,0,0,0,0,0,270,1.8,5,0,0,0,0,0,0,0,0,0,0,0,0
2000,12,25,7,0,,-6.8,-12.7,57,101070,0,0,222,0,0,0,0,0,0,0,250,2.5,3,0,0,0,0,0,0,0,0,0,0,0,0
2000,12,25,8,0,,-7.2,-14.3,47,101200,0,0,215,0,0,0,0,0,0,0,250,2.9,2,0,0,0,0,0,0,0,0,0,0,0,0
2000,12,25,9,0,,-6.3,-16,45,101330,0,0,211,97,70,27,7077,6673,4494,0,250,3.6,0,0,0,0,0,0,0,0,0,0,0,0,0
2000,12,25,10,0,,-5.6,-16.6,38,101390,0,0,214,237,675,53,38137,65542,8000,0,230,2.9,0,0,0,0,0,0,0,0,0,0,0,0,0
2000,12,25,11,0,,-5.3,-17.2,36,101450,0,0,215,352,718,73,44997,70682,10733,0,230,3.4,0,0,0,0,0,0,0,0,0,0,0,0,0
2000,12,25,12,0,,-4.4,-17.8,34,101510,0,0,218,419,712,91,45380,69574,13359,0,230,2.9,0,0,0,0,0,0,0,0,0,0,0,0,0
2000,12,25,13,0,,-4.2,-17.5,33,101530,0,0,219,440,700,99,39566,65465,14170,0,230,3.6,0,0,0,0,0,0,0,0,0,0,0,0,0
2000,12,25,14,0,,-4.3,-17.1,37,101560,0,0,219,417,703,93,28856,58670,12852,0,200,3.5,0,0,0,0,0,0,0,0,0,0,0,0,0
2000,12,25,15,0,,-4.6,-16.8,37,101580,0,0,218,337,651,84,14786,34993,10497,0,180,2.9,0,0,0,0,0,0,0,0,0,0,0,0,0
2000,12,25,16,0,,-5.5,-17.3,36,101660,0,0,216,231,631,58,0,0,0,0,200,3.5,0,0,0,0,0,0,0,0,0,0,0,0,0
2000,12,25,17,0,,-6.9,-17.7,39,101730,0,0,212,96,67,30,0,0,0,0,230,3.7,1,0,0,0,0,0,0,0,0,0,0,0,0
2000,12,25,18,0,,-7.6,-18.2,41,101810,0,0,210,0,0,0,0,0,0,0,200,3.1,1,0,0,0,0,0,0,0,0,0,0,0,0
2000,12,25,19,0,,-8.1,-17.8,41,101860,0,0,208,0,0,0,0,0,0,0,200,3.3,1,0,0,0,0,0,0,0,0,0,0,0,0
2000,12,25,20,0,,-8.4,-17.5,44,101900,0,0,207,0,0,0,0,0,0,0,230,3.8,1,0,0,0,0,0,0,0,0,0,0,0,0
2000,12,25,21,0,,-8.7,-17.1,50,101950,0,0,206,0,0,0,0,0,0,0,230,2.7,1,0,0,0,0,0,0,0,0,0,0,0,0
2000,12,25,22,0,,-9.2,-17.3,50,101980,0,0,203,0,0,0,0,0,0,0,230,2.1,1,0,0,0,0,0,0,0,0,0,0,0,0
2000,12,25,23,0,,-9.9,-17.4,52,102020,0,0,199,0,0,0,0,0,0,0,250,3.7,0,0,0,0,0,0,0,0,0,0,0,0,0
2000,12,25,24,0,,-10.4,-17.6,55,102050,0,0,196,0,0,0,0,0,0,0,250,2.3,0,0,0,0,0,0,0,0,0,0,0,0,0
2000,12,26,1,0,,-13.5,-17.5,75,102100,0,0,186,0,0,0,0,0,0,0,360,1,0,0,0,0,0,0,0,0,0,0,0,0,0
2000,12,26,2,0,,-14.2,-17.4,77,102160,0,0,184,0,0,0,0,0,0,0,360,0.6,0,0,0,0,0,0,0,0,0,0,0,0,0
2000,12,26,3,0,,-14.4,-17.3,78,102210,0,0,184,0,0,0,0,0,0,0,320,0.5,0,0,0,0,0,0,0,0,0,0,0,0,0
2000,12,26,4,0,,-15.6,-17.3,81,102230,0,0,181,0,0,0,0,0,0,0,340,0.7,0,0,0,0,0,0,0,0,0,0,0,0,0
2000,12,26,5,0,,-13.8,-17.2,78,102240,0,0,186,0,0,0,0,0,0,0,0,0.2,0,0,0,0,0,0,0,0,0,0,0,0,0
2000,12,26,6,0,,-14.4,-17.2,79,102260,0,0,184,0,0,0,0,0,0,0,340,0.6,0,0,0,0,0,0,0,0,0,0,0,0,0
2000,12,26,7,0,,-15.2,-17,82,102320,0,0,183,0,0,0,0,0,0,0,0,0.1,0,0,0,0,0,0,0,0,0,0,0,0,0
2000,12,26,8,0,,-15.3,-16.9,83,102390,0,0,183,0,0,0,0,0,0,0,20,0.7,0,0,0,0,0,0,0,0,0,0,0,0,0
2000,12,26,9,0,,-13.3,-16.7,74,102450,0,0,188,87,54,34,6610,5224,4589,0,0,0,0,0,0,0,0,0,0,0,0,0,0,0,0
2000,12,26,10,0,,-10.2,-17.8,43,102430,0,0,197,244,720,48,39400,69833,7279,0,140,1,0,0,0,0,0,0,0,0,0,0,0,0,0
2000,12,26,11,0,,-8.8,-18.9,34,102410,0,0,202,373,810,58,47016,78976,8687,0,200,0.9,0,0,0,0,0,0,0,0,0,0,0,0,0
2000,12,26,12,0,,-7.9,-20,37,102390,0,0,205,443,801,73,46956,78199,10890,0,50,1.2,0,0,0,0,0,0,0,0,0,0,0,0,0
2000,12,26,13,0,,-7.2,-20,33,102340,0,0,208,442,705,98,39766,66100,14036,0,50,0.6,0,0,0,0,0,0,0,0,0,0,0,0,0
2000,12,26,14,0,,-5.6,-19.9,31,102280,0,0,214,428,738,86,29151,62144,12100,0,250,0.6,0,0,0,0,0,0,0,0,0,0,0,0,0
2000,12,26,15,0,,-4.7,-19.9,29,102230,0,0,217,365,768,65,14099,43868,8641,0,250,1.3,0,0,0,0,0,0,0,0,0,0,0,0,0
2000,12,26,16,0,,-4.9,-19.4,30,102240,0,0,216,245,708,50,0,0,0,0,250,1.2,0,0,0,0,0,0,0,0,0,0,0,0,0
2000,12,26,17,0,,-6,-18.8,36,102260,0,0,212,100,72,28,0,0,0,0,230,1.6,0,0,0,0,0,0,0,0,0,0,0,0,0
2000,12,26,18,0,,-6.7,-18.3,38,102270,0,0,209,8,2,6,0,0,0,0,250,1.8,0,0,0,0,0,0,0,0,0,0,0,0,0
2000,12,26,19,0,,-7.5,-17.3,41,102320,0,0,207,0,0,0,0,0,0,0,180,0.9,0,0,0,0,0,0,0,0,0,0,0,0,0
2000,12,26,20,0,,-10.8,-16.2,69,102360,0,0,196,0,0,0,0,0,0,0,50,0.5,0,0,0,0,0,0,0,0,0,0,0,0,0
2000,12,26,21,0,,-11.3,-15.2,72,102410,0,0,195,0,0,0,0,0,0,0,0,0,0,0,0,0,0,0,0,0,0,0,0,0,0
2000,12,26,22,0,,-10.9,-14.8,73,102410,0,0,197,0,0,0,0,0,0,0,110,1,0,0,0,0,0,0,0,0,0,0,0,0,0
2000,12,26,23,0,,-12.1,-14.3,79,102410,0,0,194,0,0,0,0,0,0,0,0,0,0,0,0,0,0,0,0,0,0,0,0,0,0
2000,12,26,24,0,,-11.8,-13.9,84,102410,0,0,195,0,0,0,0,0,0,0,110,0.5,0,0,0,0,0,0,0,0,0,0,0,0,0
2000,12,27,1,0,,-12.1,-14,78,102420,0,0,195,0,0,0,0,0,0,0,0,0,0,0,0,0,0,0,0,0,0,0,0,0,0
2000,12,27,2,0,,-12.2,-14.1,82,102430,0,0,194,0,0,0,0,0,0,0,320,0.3,0,0,0,0,0,0,0,0,0,0,0,0,0
2000,12,27,3,0,,-12.4,-14.2,86,102440,0,0,193,0,0,0,0,0,0,0,140,0.9,0,0,0,0,0,0,0,0,0,0,0,0,0
2000,12,27,4,0,,-12.6,-14,83,102430,0,0,200,0,0,0,0,0,0,0,50,0.4,2,0,0,0,0,0,0,0,0,0,0,0,0
2000,12,27,5,0,,-12.7,-13.8,82,102420,0,0,204,0,0,0,0,0,0,0,360,0.5,5,0,0,0,0,0,0,0,0,0,0,0,0
2000,12,27,6,0,,-11.3,-13.6,82,102410,0,0,213,0,0,0,0,0,0,0,360,1,7,0,0,0,0,0,0,0,0,0,0,0,0
2000,12,27,7,0,,-11.2,-13.7,79,102410,0,0,214,0,0,0,0,0,0,0,340,1.2,7,0,0,0,0,0,0,0,0,0,0,0,0
2000,12,27,8,0,,-10.5,-13.7,78,102410,0,0,217,0,0,0,0,0,0,0,20,0.6,8,0,0,0,0,0,0,0,0,0,0,0,0
2000,12,27,9,0,,-10.1,-13.8,74,102410,0,0,220,54,16,38,5043,1446,4484,0,360,1.4,8,0,0,0,0,0,0,0,0,0,0,0,0
2000,12,27,10,0,,-8.7,-13.7,68,102360,0,0,217,194,411,82,30894,40292,12350,0,360,1,5,0,0,0,0,0,0,0,0,0,0,0,0
2000,12,27,11,0,,-7.3,-13.6,58,102320,0,0,218,318,570,96,41415,56215,14094,0,340,0.4,3,0,0,0,0,0,0,0,0,0,0,0,0
2000,12,27,12,0,,-5.7,-13.5,53,102270,0,0,215,413,687,95,44960,67105,13938,0,360,0.3,0,0,0,0,0,0,0,0,0,0,0,0,0
2000,12,27,13,0,,-4.8,-14.2,41,102160,0,0,219,434,675,105,39430,63046,14797,0,0,0.2,0,0,0,0,0,0,0,0,0,0,0,0,0
2000,12,27,14,0,,-3.8,-15,42,102060,0,0,224,421,710,91,29224,59633,12758,0,340,1,1,0,0,0,0,0,0,0,0,0,0,0,0
2000,12,27,15,0,,-3,-15.7,36,101950,0,0,228,349,692,77,14828,38633,9947,0,0,0.1,1,0,0,0,0,0,0,0,0,0,0,0,0
2000,12,27,16,0,,-3,-14.7,41,101930,0,0,235,231,611,61,0,0,0,0,0,0.2,3,0,0,0,0,0,0,0,0,0,0,0,0
2000,12,27,17,0,,-3.6,-13.8,45,101900,0,0,237,80,37,43,0,0,0,0,340,0.7,6,0,0,0,0,0,0,0,0,0,0,0,0
2000,12,27,18,0,,-3.6,-12.8,48,101880,0,0,245,2,0,2,0,0,0,0,0,0,8,0,0,0,0,0,0,0,0,0,0,0,0
2000,12,27,19,0,,-3.7,-11.7,60,101890,0,0,249,0,0,0,0,0,0,0,0,0,9,0,0,0,0,0,0,0,0,0,0,0,0
2000,12,27,20,0,,-3.2,-10.5,56,101890,0,0,256,0,0,0,0,0,0,0,0,0,9,0,0,0,0,0,0,0,0,0,0,0,0
2000,12,27,21,0,,-3.4,-9.4,62,101900,0,0,261,0,0,0,0,0,0,0,20,0.5,10,0,0,0,0,0,0,0,0,0,0,0,0
2000,12,27,22,0,,-3.5,-8.5,65,101890,0,0,262,0,0,0,0,0,0,0,360,0.8,10,0,0,0,0,0,0,0,0,0,0,0,0
2000,12,27,23,0,,-3.8,-7.5,74,101880,0,0,262,0,0,0,0,0,0,0,340,0.9,10,0,0,0,0,0,0,0,0,0,0,0,0
2000,12,27,24,0,,-4.3,-6.6,83,101870,0,0,261,0,0,0,0,0,0,0,0,0,10,0,0,0,0,0,0,0,0,0,0,0,0
2000,12,28,1,0,,-4.3,-6.3,87,101850,0,0,262,0,0,0,0,0,0,0,0,0,10,0,0,0,0,0,0,0,0,0,0,0,0
2000,12,28,2,0,,-4.3,-5.9,89,101830,0,0,262,0,0,0,0,0,0,0,340,1,10,0,0,0,0,0,0,0,0,0,0,0,0
2000,12,28,3,0,,-4.2,-5.6,89,101810,0,0,263,0,0,0,0,0,0,0,360,0.5,10,0,0,0,0,0,0,0,0,0,0,0,0
2000,12,28,4,0,,-3.9,-5.6,86,101820,0,0,264,0,0,0,0,0,0,0,0,0.2,10,0,0,0,0,0,0,0,0,0,0,0,0
2000,12,28,5,0,,-4,-5.7,86,101830,0,0,264,0,0,0,0,0,0,0,90,0.6,10,0,0,0,0,0,0,0,0,0,0,0,0
2000,12,28,6,0,,-4,-5.7,88,101840,0,0,264,0,0,0,0,0,0,0,0,0,10,0,0,0,0,0,0,0,0,0,0,0,0
2000,12,28,7,0,,-3.8,-5.7,86,101890,0,0,264,0,0,0,0,0,0,0,0,0,10,0,0,0,0,0,0,0,0,0,0,0,0
2000,12,28,8,0,,-3.6,-5.6,84,101950,0,0,265,0,0,0,0,0,0,0,90,0.7,10,0,0,0,0,0,0,0,0,0,0,0,0
2000,12,28,9,0,,-3.7,-5.6,86,102000,0,0,265,24,2,23,2966,73,2938,0,360,0.7,10,0,0,0,0,0,0,0,0,0,0,0,0
2000,12,28,10,0,,-3.5,-6.8,79,102000,0,0,251,123,115,92,16808,11429,11543,0,0,0,8,0,0,0,0,0,0,0,0,0,0,0,0
2000,12,28,11,0,,-1.3,-8.1,59,102000,0,0,251,263,342,130,33463,33550,17131,0,0,0.1,6,0,0,0,0,0,0,0,0,0,0,0,0
2000,12,28,12,0,,-1.7,-9.3,55,102000,0,0,244,362,493,134,39744,48041,17478,0,200,0.5,4,0,0,0,0,0,0,0,0,0,0,0,0
2000,12,28,13,0,,0.2,-9.1,52,101960,0,0,249,415,606,120,38519,56157,16492,0,230,1.2,3,0,0,0,0,0,0,0,0,0,0,0,0
2000,12,28,14,0,,0.7,-8.8,48,101910,0,0,249,390,589,116,28319,49393,14591,0,90,0.3,2,0,0,0,0,0,0,0,0,0,0,0,0
2000,12,28,15,0,,1.2,-8.6,47,101870,0,0,247,343,659,83,15274,36586,10578,0,160,0.5,1,0,0,0,0,0,0,0,0,0,0,0,0
2000,12,28,16,0,,0.9,-8.5,45,101880,0,0,246,233,620,60,0,0,0,0,110,1,1,0,0,0,0,0,0,0,0,0,0,0,0
2000,12,28,17,0,,-0.2,-8.3,50,101900,0,0,243,97,64,33,0,0,0,0,0,0,1,0,0,0,0,0,0,0,0,0,0,0,0
2000,12,28,18,0,,-3.7,-8.2,71,101910,0,0,231,7,1,6,0,0,0,0,320,1,1,0,0,0,0,0,0,0,0,0,0,0,0
2000,12,28,19,0,,-4.2,-8.2,78,101940,0,0,228,0,0,0,0,0,0,0,360,0.9,1,0,0,0,0,0,0,0,0,0,0,0,0
2000,12,28,20,0,,-5.7,-8.2,82,101980,0,0,222,0,0,0,0,0,0,0,320,0.5,0,0,0,0,0,0,0,0,0,0,0,0,0
2000,12,28,21,0,,-6.6,-8.2,88,102010,0,0,217,0,0,0,0,0,0,0,0,0,0,0,0,0,0,0,0,0,0,0,0,0,0
2000,12,28,22,0,,-7.1,-8.5,88,102040,0,0,216,0,0,0,0,0,0,0,0,0.2,0,0,0,0,0,0,0,0,0,0,0,0,0
2000,12,28,23,0,,-7.7,-8.7,89,102060,0,0,214,0,0,0,0,0,0,0,290,0.4,0,0,0,0,0,0,0,0,0,0,0,0,0
2000,12,28,24,0,,-7.8,-9,91,102090,0,0,213,0,0,0,0,0,0,0,0,0,0,0,0,0,0,0,0,0,0,0,0,0,0
2000,12,29,1,0,,-8.1,-9,89,102090,0,0,212,0,0,0,0,0,0,0,0,0.2,0,0,0,0,0,0,0,0,0,0,0,0,0
2000,12,29,2,0,,-8.8,-9,90,102080,0,0,210,0,0,0,0,0,0,0,320,0.3,0,0,0,0,0,0,0,0,0,0,0,0,0
2000,12,29,3,0,,-7.9,-9,91,102080,0,0,213,0,0,0,0,0,0,0,140,0.3,0,0,0,0,0,0,0,0,0,0,0,0,0
2000,12,29,4,0,,-8.5,-8.9,90,102080,0,0,214,0,0,0,0,0,0,0,0,0,1,0,0,0,0,0,0,0,0,0,0,0,0
2000,12,29,5,0,,-7.8,-8.9,91,102080,0,0,218,0,0,0,0,0,0,0,20,0.8,1,0,0,0,0,0,0,0,0,0,0,0,0
2000,12,29,6,0,,-7.7,-8.8,91,102080,0,0,220,0,0,0,0,0,0,0,360,1.6,2,0,0,0,0,0,0,0,0,0,0,0,0
2000,12,29,7,0,,-8.2,-8.9,91,102090,0,0,222,0,0,0,0,0,0,0,340,2.1,3,0,0,0,0,0,0,0,0,0,0,0,0
2000,12,29,8,0,,-8.1,-8.9,91,102110,0,0,224,0,0,0,0,0,0,0,320,2,5,0,0,0,0,0,0,0,0,0,0,0,0
2000,12,29,9,0,,-7.8,-9,91,102120,0,0,228,62,25,37,5669,2436,4727,0,340,2,6,0,0,0,0,0,0,0,0,0,0,0,0
2000,12,29,10,0,,-7.3,-8.7,90,102090,0,0,233,142,177,94,19938,17657,11796,0,340,1.6,7,0,0,0,0,0,0,0,0,0,0,0,0
2000,12,29,11,0,,-6.7,-8.3,87,102060,0,0,242,151,66,125,18080,6609,14856,0,20,1.2,9,0,0,0,0,0,0,0,0,0,0,0,0
2000,12,29,12,0,,-5.3,-8,81,102030,0,0,256,140,30,126,15732,2868,14399,0,0,0.1,10,0,0,0,0,0,0,0,0,0,0,0,0
2000,12,29,13,0,,-3.5,-8,74,101970,0,0,260,180,50,155,19392,4756,17519,0,290,0.6,10,0,0,0,0,0,0,0,0,0,0,0,0
2000,12,29,14,0,,-2.8,-8,71,101900,0,0,260,221,106,172,21785,9486,19130,0,360,0.8,9,0,0,0,0,0,0,0,0,0,0,0,0
2000,12,29,15,0,,-1.8,-8,62,101840,0,0,262,191,120,143,16798,9026,15620,0,320,1,9,0,0,0,0,0,0,0,0,0,0,0,0
2000,12,29,16,0,,-1.9,-8,63,101820,0,0,252,164,242,96,0,0,0,0,0,0,7,0,0,0,0,0,0,0,0,0,0,0,0
2000,12,29,17,0,,-2.7,-8,68,101790,0,0,244,82,37,45,0,0,0,0,0,0,5,0,0,0,0,0,0,0,0,0,0,0,0
2000,12,29,18,0,,-4.6,-8,76,101770,0,0,233,7,1,6,0,0,0,0,20,0.4,3,0,0,0,0,0,0,0,0,0,0,0,0
2000,12,29,19,0,,-5.4,-8.2,85,101760,0,0,230,0,0,0,0,0,0,0,0,0.1,3,0,0,0,0,0,0,0,0,0,0,0,0
2000,12,29,20,0,,-5.8,-8.3,86,101760,0,0,228,0,0,0,0,0,0,0,140,0.3,2,0,0,0,0,0,0,0,0,0,0,0,0
2000,12,29,21,0,,-7.1,-8.5,89,101750,0,0,223,0,0,0,0,0,0,0,230,0.9,2,0,0,0,0,0,0,0,0,0,0,0,0
2000,12,29,22,0,,-6.6,-8.7,90,101730,0,0,222,0,0,0,0,0,0,0,0,0.1,1,0,0,0,0,0,0,0,0,0,0,0,0
2000,12,29,23,0,,-7.1,-9,91,101720,0,0,218,0,0,0,0,0,0,0,140,0.7,1,0,0,0,0,0,0,0,0,0,0,0,0
2000,12,29,24,0,,-7.8,-9.2,89,101700,0,0,213,0,0,0,0,0,0,0,20,0.6,0,0,0,0,0,0,0,0,0,0,0,0,0
2000,12,30,1,0,,-7,-8.5,91,101690,0,0,216,0,0,0,0,0,0,0,90,0.4,0,0,0,0,0,0,0,0,0,0,0,0,0
2000,12,30,2,0,,-5.7,-7.8,88,101670,0,0,221,0,0,0,0,0,0,0,290,0.6,0,0,0,0,0,0,0,0,0,0,0,0,0
2000,12,30,3,0,,-5.7,-7.1,89,101660,0,0,221,0,0,0,0,0,0,0,0,0,0,0,0,0,0,0,0,0,0,0,0,0,0
2000,12,30,4,0,,-5.2,-7.3,89,101590,0,0,228,0,0,0,0,0,0,0,0,0,1,0,0,0,0,0,0,0,0,0,0,0,0
2000,12,30,5,0,,-5.6,-7.5,86,101530,0,0,230,0,0,0,0,0,0,0,20,0.5,3,0,0,0,0,0,0,0,0,0,0,0,0
2000,12,30,6,0,,-5.7,-7.7,85,101460,0,0,232,0,0,0,0,0,0,0,0,0.1,4,0,0,0,0,0,0,0,0,0,0,0,0
2000,12,30,7,0,,-6.4,-7.8,88,101460,0,0,229,0,0,0,0,0,0,0,320,0.4,4,0,0,0,0,0,0,0,0,0,0,0,0
2000,12,30,8,0,,-7.1,-7.8,89,101450,0,0,226,0,0,0,0,0,0,0,0,0.2,3,0,0,0,0,0,0,0,0,0,0,0,0
2000,12,30,9,0,,-6,-7.9,85,101450,0,0,229,76,37,39,6330,3580,4945,0,20,0.3,3,0,0,0,0,0,0,0,0,0,0,0,0
2000,12,30,10,0,,-4.3,-7.2,80,101370,0,0,235,202,470,75,32858,46192,11530,0,0,0.2,3,0,0,0,0,0,0,0,0,0,0,0,0
2000,12,30,11,0,,-2.6,-6.6,74,101280,0,0,240,326,610,90,42793,60149,13396,0,360,0.4,2,0,0,0,0,0,0,0,0,0,0,0,0
2000,12,30,12,0,,0.2,-5.9,62,101200,0,0,250,415,693,94,45441,67605,13923,0,110,0.9,2,0,0,0,0,0,0,0,0,0,0,0,0
2000,12,30,13,0,,1,-5.8,55,101090,0,0,258,408,574,127,37730,53685,16490,0,360,0.7,4,0,0,0,0,0,0,0,0,0,0,0,0
2000,12,30,14,0,,1.4,-5.8,55,100970,0,0,265,303,264,179,26400,22465,20067,0,0,0,7,0,0,0,0,0,0,0,0,0,0,0,0
2000,12,30,15,0,,2.5,-5.7,54,100860,0,0,281,187,112,143,16700,8446,15579,0,340,0.9,9,0,0,0,0,0,0,0,0,0,0,0,0
2000,12,30,16,0,,2.3,-5.3,51,100840,0,0,283,119,91,93,0,0,0,0,0,0.2,9,0,0,0,0,0,0,0,0,0,0,0,0
2000,12,30,17,0,,2,-5,62,100810,0,0,285,37,4,32,0,0,0,0,0,0,10,0,0,0,0,0,0,0,0,0,0,0,0
2000,12,30,18,0,,1.5,-4.6,63,100790,0,0,286,0,0,0,0,0,0,0,70,0.4,10,0,0,0,0,0,0,0,0,0,0,0,0
2000,12,30,19,0,,1.4,-4.5,66,100790,0,0,286,0,0,0,0,0,0,0,110,0.7,10,0,0,0,0,0,0,0,0,0,0,0,0
2000,12,30,20,0,,1.6,-4.3,67,100780,0,0,287,0,0,0,0,0,0,0,140,0.8,10,0,0,0,0,0,0,0,0,0,0,0,0
2000,12,30,21,0,,2.3,-4.2,61,100780,0,0,290,0,0,0,0,0,0,0,140,1,10,0,0,0,0,0,0,0,0,0,0,0,0
2000,12,30,22,0,,2.9,-3.1,63,100750,0,0,294,0,0,0,0,0,0,0,180,0.8,10,0,0,0,0,0,0,0,0,0,0,0,0
2000,12,30,23,0,,2.5,-2,71,100730,0,0,294,0,0,0,0,0,0,0,140,0.3,10,0,0,0,0,0,0,0,0,0,0,0,0
2000,12,30,24,0,,1.8,-0.9,81,100700,0,0,292,0,0,0,0,0,0,0,0,0.2,10,0,0,0,0,0,0,0,0,0,0,0,0
2000,12,31,1,0,,1.3,-3,83,100710,0,0,271,0,0,0,0,0,0,0,290,0.7,7,0,0,0,0,0,0,0,0,0,0,0,0
2000,12,31,2,0,,1.5,-5.1,54,100720,0,0,261,0,0,0,0,0,0,0,270,3.5,5,0,0,0,0,0,0,0,0,0,0,0,0
2000,12,31,3,0,,0.7,-7.2,54,100730,0,0,250,0,0,0,0,0,0,0,200,2.7,2,0,0,0,0,0,0,0,0,0,0,0,0
2000,12,31,4,0,,0,-8.4,51,100750,0,0,244,0,0,0,0,0,0,0,200,3.3,1,0,0,0,0,0,0,0,0,0,0,0,0
2000,12,31,5,0,,-1.6,-9.6,54,100780,0,0,236,0,0,0,0,0,0,0,230,3.4,1,0,0,0,0,0,0,0,0,0,0,0,0
2000,12,31,6,0,,-2.9,-10.8,54,100800,0,0,227,0,0,0,0,0,0,0,230,2.5,0,0,0,0,0,0,0,0,0,0,0,0,0
2000,12,31,7,0,,-4,-12.2,53,100860,0,0,222,0,0,0,0,0,0,0,230,2.7,0,0,0,0,0,0,0,0,0,0,0,0,0
2000,12,31,8,0,,-5.2,-13.6,47,100910,0,0,217,0,0,0,0,0,0,0,230,2.4,0,0,0,0,0,0,0,0,0,0,0,0,0
2000,12,31,9,0,,-5.3,-15,46,100970,0,0,216,86,55,31,6390,5350,4318,0,200,2.2,0,0,0,0,0,0,0,0,0,0,0,0,0
2000,12,31,10,0,,-4.6,-15.2,46,100980,0,0,218,223,605,60,36579,59500,9063,0,230,2,0,0,0,0,0,0,0,0,0,0,0,0,0
2000,12,31,11,0,,-4,-15.3,42,100990,0,0,220,339,666,81,43858,65456,11793,0,200,2.1,0,0,0,0,0,0,0,0,0,0,0,0,0
2000,12,31,12,0,,-3.5,-15.5,38,101000,0,0,222,419,705,92,45887,69059,13587,0,230,2.5,0,0,0,0,0,0,0,0,0,0,0,0,0
2000,12,31,13,0,,-2.5,-15.4,37,100990,0,0,226,447,712,98,40698,67110,14022,0,200,2.6,0,0,0,0,0,0,0,0,0,0,0,0,0
2000,12,31,14,0,,-2.4,-15.3,37,100970,0,0,226,421,696,95,29966,58855,13252,0,200,2.5,0,0,0,0,0,0,0,0,0,0,0,0,0
2000,12,31,15,0,,-2.4,-15.2,36,100960,0,0,226,353,686,80,15671,39873,10292,0,200,2.4,0,0,0,0,0,0,0,0,0,0,0,0,0
2000,12,31,16,0,,-3,-15.1,36,101000,0,0,224,239,626,61,0,0,0,0,200,2.1,0,0,0,0,0,0,0,0,0,0,0,0,0
2000,12,31,17,0,,-4.3,-15,40,101050,0,0,219,104,71,33,0,0,0,0,250,2.6,0,0,0,0,0,0,0,0,0,0,0,0,0
2000,12,31,18,0,,-5.5,-14.9,47,101090,0,0,215,11,4,8,0,0,0,0,20,0.5,0,0,0,0,0,0,0,0,0,0,0,0,0
2000,12,31,19,0,,-6.4,-14.3,48,101120,0,0,212,0,0,0,0,0,0,0,20,1.6,0,0,0,0,0,0,0,0,0,0,0,0,0
2000,12,31,20,0,,-7.4,-13.7,56,101140,0,0,209,0,0,0,0,0,0,0,70,0.5,0,0,0,0,0,0,0,0,0,0,0,0,0
2000,12,31,21,0,,-8.6,-13.1,69,101170,0,0,206,0,0,0,0,0,0,0,0,0,0,0,0,0,0,0,0,0,0,0,0,0,0
2000,12,31,22,0,,-9.6,-13.1,72,101200,0,0,202,0,0,0,0,0,0,0,140,0.8,0,0,0,0,0,0,0,0,0,0,0,0,0
2000,12,31,23,0,,-9.6,-13.2,79,101220,0,0,202,0,0,0,0,0,0,0,70,0.4,0,0,0,0,0,0,0,0,0,0,0,0,0
2000,12,31,24,0,,-10.5,-13.2,80,101250,0,0,200,0,0,0,0,0,0,0,140,1,0,0,0,0,0,0,0,0,0,0,0,0,0
