LOCATION,JEJU,<not available>,<not available>,<not available>,<not available>,33.5,-126.53,-9,27
DESIGN CONDITIONS,0
TYPICAL/EXTREME PERIODS,0
GROUND TEMPERATURES,0
HOLIDAYS/DAYLIGHT SAVINGS,No,0,0,0
COMMENTS 1, NA
COMMENTS 2, NA
DATA PERIODS,1,1,Data,Sunday,1/1,12/31
2008,1,1,1,0,,2,-1.2,84,101810,0,0,278,0,0,0,0,0,0,0,320,9.6,8,0,0,0,0,0,0,0,0,0,0,0,0
2008,1,1,2,0,,2.9,-1.6,78,101830,0,0,282,0,0,0,0,0,0,0,340,8.5,8,0,0,0,0,0,0,0,0,0,0,0,0
2008,1,1,3,0,,2,-1.9,74,101850,0,0,278,0,0,0,0,0,0,0,320,10.3,8,0,0,0,0,0,0,0,0,0,0,0,0
2008,1,1,4,0,,3.4,-1.4,76,101830,0,0,284,0,0,0,0,0,0,0,340,10,8,0,0,0,0,0,0,0,0,0,0,0,0
2008,1,1,5,0,,2,-1,83,101820,0,0,279,0,0,0,0,0,0,0,320,9.1,8,0,0,0,0,0,0,0,0,0,0,0,0
2008,1,1,6,0,,2.2,-0.5,81,101800,0,0,280,0,0,0,0,0,0,0,320,9.2,8,0,0,0,0,0,0,0,0,0,0,0,0
2008,1,1,7,0,,1.7,-0.5,85,101840,0,0,278,0,0,0,0,0,0,0,320,9.8,8,0,0,0,0,0,0,0,0,0,0,0,0
2008,1,1,8,0,,2,-0.6,80,101880,0,0,279,7,1,6,830,18,824,0,320,9.1,8,0,0,0,0,0,0,0,0,0,0,0,0
2008,1,1,9,0,,2.4,-0.6,79,101920,0,0,281,71,23,47,6585,2146,5624,0,320,8,8,0,0,0,0,0,0,0,0,0,0,0,0
2008,1,1,10,0,,2.5,-1,80,101940,0,0,281,171,198,110,24257,19883,13839,0,320,8.9,8,0,0,0,0,0,0,0,0,0,0,0,0
2008,1,1,11,0,,3.2,-1.5,69,101950,0,0,283,254,198,168,31129,19965,20153,0,290,9.7,8,0,0,0,0,0,0,0,0,0,0,0,0
2008,1,1,12,0,,4,-1.9,64,101970,0,0,286,306,186,209,33834,18553,24123,0,320,8.7,8,0,0,0,0,0,0,0,0,0,0,0,0
2008,1,1,13,0,,4,-2,67,101950,0,0,286,328,184,226,33635,17718,25720,0,320,9.4,8,0,0,0,0,0,0,0,0,0,0,0,0
2008,1,1,14,0,,4.1,-2,58,101940,0,0,286,312,182,216,29355,16001,24155,0,320,9.6,8,0,0,0,0,0,0,0,0,0,0,0,0
2008,1,1,15,0,,4,-2.1,63,101920,0,0,285,263,181,180,21457,11564,19533,0,320,9.5,8,0,0,0,0,0,0,0,0,0,0,0,0
2008,1,1,16,0,,4,-1.5,60,101970,0,0,286,191,193,125,0,0,0,0,320,9.5,8,0,0,0,0,0,0,0,0,0,0,0,0
2008,1,1,17,0,,4.3,-0.8,54,102020,0,0,288,102,213,62,0,0,0,0,320,9.3,8,0,0,0,0,0,0,0,0,0,0,0,0
2008,1,1,18,0,,3.7,-0.2,74,102070,0,0,286,19,4,15,0,0,0,0,340,7.6,8,0,0,0,0,0,0,0,0,0,0,0,0
2008,1,1,19,0,,4,-1.2,59,102110,0,0,286,0,0,0,0,0,0,0,320,8.4,8,0,0,0,0,0,0,0,0,0,0,0,0
2008,1,1,20,0,,4.4,-2.2,56,102160,0,0,287,0,0,0,0,0,0,0,320,7.1,8,0,0,0,0,0,0,0,0,0,0,0,0
2008,1,1,21,0,,4.1,-3.2,58,102200,0,0,285,0,0,0,0,0,0,0,320,7.8,8,0,0,0,0,0,0,0,0,0,0,0,0
2008,1,1,22,0,,4.4,-2.9,54,102220,0,0,286,0,0,0,0,0,0,0,320,8.5,8,0,0,0,0,0,0,0,0,0,0,0,0
2008,1,1,23,0,,4.1,-2.6,57,102250,0,0,285,0,0,0,0,0,0,0,320,7.1,8,0,0,0,0,0,0,0,0,0,0,0,0
2008,1,1,24,0,,4.5,-2.3,60,102270,0,0,287,0,0,0,0,0,0,0,320,6.8,8,0,0,0,0,0,0,0,0,0,0,0,0
2008,1,2,1,0,,4.5,-3,59,102270,0,0,286,0,0,0,0,0,0,0,320,7.5,8,0,0,0,0,0,0,0,0,0,0,0,0
2008,1,2,2,0,,4.6,-3.6,51,102270,0,0,286,0,0,0,0,0,0,0,320,7.3,8,0,0,0,0,0,0,0,0,0,0,0,0
2008,1,2,3,0,,5,-4.3,50,102270,0,0,287,0,0,0,0,0,0,0,320,6.6,8,0,0,0,0,0,0,0,0,0,0,0,0
2008,1,2,4,0,,5.4,-4.1,53,102270,0,0,289,0,0,0,0,0,0,0,320,7.1,8,0,0,0,0,0,0,0,0,0,0,0,0
2008,1,2,5,0,,5.3,-4,55,102270,0,0,289,0,0,0,0,0,0,0,320,6.8,8,0,0,0,0,0,0,0,0,0,0,0,0
2008,1,2,6,0,,5.3,-3.8,51,102270,0,0,289,0,0,0,0,0,0,0,320,7.2,8,0,0,0,0,0,0,0,0,0,0,0,0
2008,1,2,7,0,,5.4,-3.7,57,102310,0,0,289,0,0,0,0,0,0,0,320,7,8,0,0,0,0,0,0,0,0,0,0,0,0
2008,1,2,8,0,,5.5,-3.5,56,102360,0,0,296,5,0,5,656,9,653,0,320,6.1,9,0,0,0,0,0,0,0,0,0,0,0,0
2008,1,2,9,0,,5.1,-3.4,53,102400,0,0,288,75,28,47,7209,2746,5978,0,320,6.2,8,0,0,0,0,0,0,0,0,0,0,0,0
2008,1,2,10,0,,5.3,-3.3,55,102410,0,0,289,172,200,110,24382,20259,13750,0,320,6.4,8,0,0,0,0,0,0,0,0,0,0,0,0
2008,1,2,11,0,,5.3,-3.1,54,102430,0,0,290,246,179,168,30097,18196,20071,0,320,6.3,8,0,0,0,0,0,0,0,0,0,0,0,0
2008,1,2,12,0,,5.3,-3,54,102440,0,0,290,298,171,209,33045,17153,24039,0,320,6.6,8,0,0,0,0,0,0,0,0,0,0,0,0
2008,1,2,13,0,,5.4,-3.3,51,102420,0,0,290,314,160,225,32516,15558,25535,0,320,6.3,8,0,0,0,0,0,0,0,0,0,0,0,0
2008,1,2,14,0,,5.5,-3.6,49,102390,0,0,290,302,164,215,28803,14512,24055,0,320,6.3,8,0,0,0,0,0,0,0,0,0,0,0,0
2008,1,2,15,0,,5.5,-3.9,50,102370,0,0,290,268,189,181,21683,12249,19616,0,320,7.3,8,0,0,0,0,0,0,0,0,0,0,0,0
2008,1,2,16,0,,5.6,-3.4,53,102390,0,0,291,190,184,126,0,0,0,0,320,5.1,8,0,0,0,0,0,0,0,0,0,0,0,0
2008,1,2,17,0,,5.8,-2.9,50,102410,0,0,292,101,201,63,0,0,0,0,320,6.2,8,0,0,0,0,0,0,0,0,0,0,0,0
2008,1,2,18,0,,5.9,-2.4,54,102430,0,0,288,26,10,16,0,0,0,0,320,5.9,7,0,0,0,0,0,0,0,0,0,0,0,0
2008,1,2,19,0,,5.8,-2.3,54,102460,0,0,289,0,0,0,0,0,0,0,320,4.3,7,0,0,0,0,0,0,0,0,0,0,0,0
2008,1,2,20,0,,6,-2.2,51,102500,0,0,292,0,0,0,0,0,0,0,320,4.6,8,0,0,0,0,0,0,0,0,0,0,0,0
2008,1,2,21,0,,6.3,-2.1,54,102530,0,0,295,0,0,0,0,0,0,0,320,4.4,8,0,0,0,0,0,0,0,0,0,0,0,0
2008,1,2,22,0,,6.3,-2.3,53,102500,0,0,295,0,0,0,0,0,0,0,320,3.8,8,0,0,0,0,0,0,0,0,0,0,0,0
2008,1,2,23,0,,6.3,-2.5,53,102470,0,0,295,0,0,0,0,0,0,0,290,3,8,0,0,0,0,0,0,0,0,0,0,0,0
2008,1,2,24,0,,6.5,-2.7,51,102440,0,0,295,0,0,0,0,0,0,0,290,3.6,8,0,0,0,0,0,0,0,0,0,0,0,0
2008,1,3,1,0,,6.5,-2.4,52,102440,0,0,291,0,0,0,0,0,0,0,290,2.7,7,0,0,0,0,0,0,0,0,0,0,0,0
2008,1,3,2,0,,6.5,-2.1,54,102430,0,0,288,0,0,0,0,0,0,0,290,2.5,6,0,0,0,0,0,0,0,0,0,0,0,0
2008,1,3,3,0,,6.3,-1.8,55,102430,0,0,285,0,0,0,0,0,0,0,250,3,5,0,0,0,0,0,0,0,0,0,0,0,0
2008,1,3,4,0,,6.5,-1.6,54,102420,0,0,286,0,0,0,0,0,0,0,270,3.8,5,0,0,0,0,0,0,0,0,0,0,0,0
2008,1,3,5,0,,6.9,-1.5,52,102420,0,0,288,0,0,0,0,0,0,0,290,4,5,0,0,0,0,0,0,0,0,0,0,0,0
2008,1,3,6,0,,7.4,-1.3,53,102410,0,0,292,0,0,0,0,0,0,0,290,4.8,6,0,0,0,0,0,0,0,0,0,0,0,0
2008,1,3,7,0,,7.5,-1.3,49,102400,0,0,293,0,0,0,0,0,0,0,290,4.7,6,0,0,0,0,0,0,0,0,0,0,0,0
2008,1,3,8,0,,7.3,-1.4,52,102380,0,0,300,7,1,6,858,25,850,0,320,4.4,8,0,0,0,0,0,0,0,0,0,0,0,0
2008,1,3,9,0,,7.9,-1.4,51,102370,0,0,303,75,29,47,7223,2821,5957,0,290,4.8,8,0,0,0,0,0,0,0,0,0,0,0,0
2008,1,3,10,0,,8.1,-1.5,50,102350,0,0,303,171,199,110,24352,20054,13809,0,320,4.7,8,0,0,0,0,0,0,0,0,0,0,0,0
2008,1,3,11,0,,8.6,-1.5,49,102340,0,0,306,252,192,168,30934,19457,20187,0,290,5.1,8,0,0,0,0,0,0,0,0,0,0,0,0
2008,1,3,12,0,,9.8,-1.6,44,102320,0,0,283,474,705,107,52356,69808,15582,0,270,4.6,0,0,0,0,0,0,0,0,0,0,0,0,0
2008,1,3,13,0,,10,-1.7,46,102290,0,0,303,406,376,198,39466,36498,23014,0,270,4.2,6,0,0,0,0,0,0,0,0,0,0,0,0
2008,1,3,14,0,,10.1,-1.7,48,102270,0,0,304,394,390,186,32658,34408,21321,0,290,4.7,6,0,0,0,0,0,0,0,0,0,0,0,0
2008,1,3,15,0,,9.6,-1.8,44,102240,0,0,301,322,333,167,21902,20762,18348,0,290,5.1,6,0,0,0,0,0,0,0,0,0,0,0,0
2008,1,3,16,0,,9.3,-1.5,46,102260,0,0,298,256,435,105,0,0,0,0,290,4.8,5,0,0,0,0,0,0,0,0,0,0,0,0
2008,1,3,17,0,,9.3,-1.1,46,102280,0,0,298,139,432,55,0,0,0,0,290,5.2,5,0,0,0,0,0,0,0,0,0,0,0,0
2008,1,3,18,0,,9.1,-0.8,49,102300,0,0,309,21,5,16,0,0,0,0,290,4.1,8,0,0,0,0,0,0,0,0,0,0,0,0
2008,1,3,19,0,,9.1,-1.2,50,102320,0,0,302,0,0,0,0,0,0,0,320,5.2,7,0,0,0,0,0,0,0,0,0,0,0,0
2008,1,3,20,0,,8.6,-1.5,49,102350,0,0,295,0,0,0,0,0,0,0,320,4.8,5,0,0,0,0,0,0,0,0,0,0,0,0
2008,1,3,21,0,,8.5,-1.9,47,102370,0,0,292,0,0,0,0,0,0,0,290,3.5,4,0,0,0,0,0,0,0,0,0,0,0,0
2008,1,3,22,0,,8.1,-2.2,49,102370,0,0,289,0,0,0,0,0,0,0,320,4.1,4,0,0,0,0,0,0,0,0,0,0,0,0
2008,1,3,23,0,,7.6,-2.5,46,102370,0,0,286,0,0,0,0,0,0,0,320,3.4,3,0,0,0,0,0,0,0,0,0,0,0,0
2008,1,3,24,0,,7.5,-2.8,47,102370,0,0,284,0,0,0,0,0,0,0,320,3.3,3,0,0,0,0,0,0,0,0,0,0,0,0
2008,1,4,1,0,,7.3,-2.6,50,102380,0,0,284,0,0,0,0,0,0,0,290,3.4,3,0,0,0,0,0,0,0,0,0,0,0,0
2008,1,4,2,0,,7,-2.3,50,102390,0,0,283,0,0,0,0,0,0,0,290,3,3,0,0,0,0,0,0,0,0,0,0,0,0
2008,1,4,3,0,,6.8,-2.1,52,102400,0,0,282,0,0,0,0,0,0,0,340,2.1,3,0,0,0,0,0,0,0,0,0,0,0,0
2008,1,4,4,0,,6,-1.8,56,102400,0,0,279,0,0,0,0,0,0,0,290,2.7,3,0,0,0,0,0,0,0,0,0,0,0,0
2008,1,4,5,0,,5.8,-1.4,59,102390,0,0,281,0,0,0,0,0,0,0,180,1.7,4,0,0,0,0,0,0,0,0,0,0,0,0
2008,1,4,6,0,,5.3,-1.1,62,102390,0,0,277,0,0,0,0,0,0,0,160,1.7,3,0,0,0,0,0,0,0,0,0,0,0,0
2008,1,4,7,0,,4.8,-1.3,63,102410,0,0,277,0,0,0,0,0,0,0,160,1.9,4,0,0,0,0,0,0,0,0,0,0,0,0
2008,1,4,8,0,,4.9,-1.6,62,102440,0,0,277,11,3,8,1100,287,1006,0,160,1.8,4,0,0,0,0,0,0,0,0,0,0,0,0
2008,1,4,9,0,,5.5,-1.8,58,102460,0,0,279,102,59,43,8479,5787,5878,0,160,1.4,4,0,0,0,0,0,0,0,0,0,0,0,0
2008,1,4,10,0,,7.9,-1.7,51,102440,0,0,294,217,382,98,34604,37966,14606,0,180,1.3,6,0,0,0,0,0,0,0,0,0,0,0,0
2008,1,4,11,0,,8.6,-1.5,51,102430,0,0,292,366,592,107,48340,59001,15665,0,320,3.3,4,0,0,0,0,0,0,0,0,0,0,0,0
2008,1,4,12,0,,9.1,-1.4,47,102410,0,0,290,471,692,110,52155,68464,15962,0,320,3.7,2,0,0,0,0,0,0,0,0,0,0,0,0
2008,1,4,13,0,,9.8,-1.2,45,102330,0,0,296,477,607,140,45217,57541,19154,0,290,3.3,3,0,0,0,0,0,0,0,0,0,0,0,0
2008,1,4,14,0,,9.8,-1,46,102250,0,0,296,458,601,136,34753,52739,17250,0,320,3.7,3,0,0,0,0,0,0,0,0,0,0,0,0
2008,1,4,15,0,,10,-0.8,46,102170,0,0,294,393,597,115,20529,38939,13766,0,290,2.2,2,0,0,0,0,0,0,0,0,0,0,0,0
2008,1,4,16,0,,9.8,-0.4,48,102180,0,0,296,281,550,88,0,0,0,0,270,3.1,3,0,0,0,0,0,0,0,0,0,0,0,0
2008,1,4,17,0,,8.8,-0.1,54,102190,0,0,292,148,494,51,0,0,0,0,250,3.5,3,0,0,0,0,0,0,0,0,0,0,0,0
2008,1,4,18,0,,7.8,0.3,58,102200,0,0,277,35,17,18,0,0,0,0,270,3.3,0,0,0,0,0,0,0,0,0,0,0,0,0
2008,1,4,19,0,,7.3,0.1,60,102210,0,0,280,0,0,0,0,0,0,0,180,2.6,1,0,0,0,0,0,0,0,0,0,0,0,0
2008,1,4,20,0,,6.5,0,61,102210,0,0,280,0,0,0,0,0,0,0,200,2.6,2,0,0,0,0,0,0,0,0,0,0,0,0
2008,1,4,21,0,,6.8,-0.2,60,102220,0,0,284,0,0,0,0,0,0,0,180,3.1,3,0,0,0,0,0,0,0,0,0,0,0,0
2008,1,4,22,0,,6.5,-0.1,63,102200,0,0,283,0,0,0,0,0,0,0,200,3.5,3,0,0,0,0,0,0,0,0,0,0,0,0
2008,1,4,23,0,,6,0,65,102190,0,0,281,0,0,0,0,0,0,0,200,2.4,3,0,0,0,0,0,0,0,0,0,0,0,0
2008,1,4,24,0,,5.9,0.1,65,102170,0,0,281,0,0,0,0,0,0,0,200,2.6,3,0,0,0,0,0,0,0,0,0,0,0,0
2008,1,5,1,0,,6.1,0.4,66,102140,0,0,284,0,0,0,0,0,0,0,200,2.8,4,0,0,0,0,0,0,0,0,0,0,0,0
2008,1,5,2,0,,6.4,0.6,65,102100,0,0,288,0,0,0,0,0,0,0,200,3.4,5,0,0,0,0,0,0,0,0,0,0,0,0
2008,1,5,3,0,,7,0.9,64,102070,0,0,293,0,0,0,0,0,0,0,200,3.4,6,0,0,0,0,0,0,0,0,0,0,0,0
2008,1,5,4,0,,7.3,1,63,102050,0,0,303,0,0,0,0,0,0,0,200,3.8,8,0,0,0,0,0,0,0,0,0,0,0,0
2008,1,5,5,0,,7.4,1,62,102040,0,0,290,0,0,0,0,0,0,0,200,3,4,0,0,0,0,0,0,0,0,0,0,0,0
2008,1,5,6,0,,7,1.1,65,102020,0,0,280,0,0,0,0,0,0,0,200,2.8,1,0,0,0,0,0,0,0,0,0,0,0,0
2008,1,5,7,0,,6.5,1,67,102080,0,0,278,0,0,0,0,0,0,0,270,0.6,1,0,0,0,0,0,0,0,0,0,0,0,0
2008,1,5,8,0,,6.5,0.8,66,102130,0,0,284,12,4,8,1112,320,1008,0,180,1.2,3,0,0,0,0,0,0,0,0,0,0,0,0
2008,1,5,9,0,,6.8,0.7,64,102190,0,0,292,84,40,44,7366,3941,5592,0,160,0.9,6,0,0,0,0,0,0,0,0,0,0,0,0
2008,1,5,10,0,,8,0.9,61,102190,0,0,297,198,316,100,30536,30966,14189,0,320,1.6,6,0,0,0,0,0,0,0,0,0,0,0,0
2008,1,5,11,0,,9.3,1,58,102190,0,0,298,353,540,117,46656,53585,16896,0,340,2.8,4,0,0,0,0,0,0,0,0,0,0,0,0
2008,1,5,12,0,,10.1,1.2,53,102190,0,0,299,443,593,133,49494,58119,18657,0,340,2.3,3,0,0,0,0,0,0,0,0,0,0,0,0
2008,1,5,13,0,,10.6,0.8,48,102140,0,0,301,480,612,139,45532,57986,19137,0,290,3.4,3,0,0,0,0,0,0,0,0,0,0,0,0
2008,1,5,14,0,,10.8,0.5,45,102100,0,0,304,432,509,158,34522,44432,19666,0,290,4.1,4,0,0,0,0,0,0,0,0,0,0,0,0
2008,1,5,15,0,,11,0.1,46,102050,0,0,304,381,543,126,21211,35440,14964,0,290,3.9,4,0,0,0,0,0,0,0,0,0,0,0,0
2008,1,5,16,0,,10.5,0.2,48,102080,0,0,302,274,506,96,0,0,0,0,320,3.5,4,0,0,0,0,0,0,0,0,0,0,0,0
2008,1,5,17,0,,10.1,0.2,52,102110,0,0,301,145,450,55,0,0,0,0,270,2.1,4,0,0,0,0,0,0,0,0,0,0,0,0
2008,1,5,18,0,,9.1,0.3,53,102140,0,0,296,32,18,15,0,0,0,0,290,2.6,4,0,0,0,0,0,0,0,0,0,0,0,0
2008,1,5,19,0,,8.5,0.3,58,102170,0,0,293,0,0,0,0,0,0,0,200,2,4,0,0,0,0,0,0,0,0,0,0,0,0
2008,1,5,20,0,,7.6,0.2,61,102190,0,0,289,0,0,0,0,0,0,0,180,1.3,3,0,0,0,0,0,0,0,0,0,0,0,0
2008,1,5,21,0,,6.9,0.2,61,102220,0,0,285,0,0,0,0,0,0,0,160,1.5,3,0,0,0,0,0,0,0,0,0,0,0,0
2008,1,5,22,0,,6.3,0,64,102230,0,0,281,0,0,0,0,0,0,0,160,2.1,3,0,0,0,0,0,0,0,0,0,0,0,0
2008,1,5,23,0,,5.8,-0.1,65,102230,0,0,278,0,0,0,0,0,0,0,160,2.1,2,0,0,0,0,0,0,0,0,0,0,0,0
2008,1,5,24,0,,5.5,-0.3,65,102240,0,0,276,0,0,0,0,0,0,0,160,2.7,2,0,0,0,0,0,0,0,0,0,0,0,0
2008,1,6,1,0,,5.1,-0.6,69,102220,0,0,272,0,0,0,0,0,0,0,160,2.2,1,0,0,0,0,0,0,0,0,0,0,0,0
2008,1,6,2,0,,4.6,-0.9,69,102190,0,0,267,0,0,0,0,0,0,0,160,2.4,1,0,0,0,0,0,0,0,0,0,0,0,0
2008,1,6,3,0,,4.1,-1.2,67,102170,0,0,261,0,0,0,0,0,0,0,160,2.9,0,0,0,0,0,0,0,0,0,0,0,0,0
2008,1,6,4,0,,3.7,-1.3,64,102190,0,0,259,0,0,0,0,0,0,0,140,2.4,0,0,0,0,0,0,0,0,0,0,0,0,0
2008,1,6,5,0,,3.7,-1.3,68,102200,0,0,259,0,0,0,0,0,0,0,160,2.2,0,0,0,0,0,0,0,0,0,0,0,0,0
2008,1,6,6,0,,4.3,-1.4,65,102220,0,0,262,0,0,0,0,0,0,0,160,2.7,0,0,0,0,0,0,0,0,0,0,0,0,0
2008,1,6,7,0,,4.6,-0.9,59,102250,0,0,263,0,0,0,0,0,0,0,160,2.5,0,0,0,0,0,0,0,0,0,0,0,0,0
2008,1,6,8,0,,4.5,-0.5,63,102270,0,0,263,13,5,8,1130,451,983,0,140,2.5,0,0,0,0,0,0,0,0,0,0,0,0,0
2008,1,6,9,0,,6,0,64,102300,0,0,269,115,81,34,9077,7763,5578,0,160,2,0,0,0,0,0,0,0,0,0,0,0,0,0
2008,1,6,10,0,,9.8,0.9,55,102240,0,0,291,283,744,52,47036,74084,7834,0,160,0.9,1,0,0,0,0,0,0,0,0,0,0,0,0
2008,1,6,11,0,,11.6,1.8,50,102180,0,0,294,412,771,74,53715,76960,10845,0,180,0.5,0,0,0,0,0,0,0,0,0,0,0,0,0
2008,1,6,12,0,,12.6,2.7,50,102120,0,0,299,502,790,88,54832,78808,12858,0,360,2.8,0,0,0,0,0,0,0,0,0,0,0,0,0
2008,1,6,13,0,,13,3,51,102060,0,0,301,489,638,133,46290,60579,18574,0,360,2.4,0,0,0,0,0,0,0,0,0,0,0,0,0
2008,1,6,14,0,,14.1,3.4,47,102010,0,0,306,471,634,129,35408,55230,16802,0,320,2.4,0,0,0,0,0,0,0,0,0,0,0,0,0
2008,1,6,15,0,,14,3.7,49,101950,0,0,316,395,589,118,21194,38313,14339,0,290,2.4,2,0,0,0,0,0,0,0,0,0,0,0,0
2008,1,6,16,0,,14.1,3.8,48,101940,0,0,313,298,612,81,0,0,0,0,320,2.1,1,0,0,0,0,0,0,0,0,0,0,0,0
2008,1,6,17,0,,13.3,4,54,101930,0,0,303,157,540,49,0,0,0,0,360,2.1,0,0,0,0,0,0,0,0,0,0,0,0,0
2008,1,6,18,0,,11.8,4.1,58,101920,0,0,297,36,17,19,0,0,0,0,20,1.4,0,0,0,0,0,0,0,0,0,0,0,0,0
2008,1,6,19,0,,10.5,4,65,101930,0,0,301,0,0,0,0,0,0,0,140,2,2,0,0,0,0,0,0,0,0,0,0,0,0
2008,1,6,20,0,,10.1,3.9,64,101940,0,0,305,0,0,0,0,0,0,0,160,2.1,4,0,0,0,0,0,0,0,0,0,0,0,0
2008,1,6,21,0,,10.3,3.8,63,101950,0,0,311,0,0,0,0,0,0,0,110,1.1,6,0,0,0,0,0,0,0,0,0,0,0,0
2008,1,6,22,0,,10.3,3.6,64,101900,0,0,311,0,0,0,0,0,0,0,160,2.1,6,0,0,0,0,0,0,0,0,0,0,0,0
2008,1,6,23,0,,10.1,3.3,63,101840,0,0,311,0,0,0,0,0,0,0,140,1.1,7,0,0,0,0,0,0,0,0,0,0,0,0
2008,1,6,24,0,,9.8,3.1,62,101790,0,0,311,0,0,0,0,0,0,0,160,1.3,7,0,0,0,0,0,0,0,0,0,0,0,0
2008,1,7,1,0,,9.8,1.7,52,101740,0,0,307,0,0,0,0,0,0,0,140,1,6,0,0,0,0,0,0,0,0,0,0,0,0
2008,1,7,2,0,,9.8,0.4,47,101690,0,0,304,0,0,0,0,0,0,0,140,1.6,6,0,0,0,0,0,0,0,0,0,0,0,0
2008,1,7,3,0,,9.8,-1,46,101640,0,0,300,0,0,0,0,0,0,0,160,1.6,5,0,0,0,0,0,0,0,0,0,0,0,0
2008,1,7,4,0,,9.8,-0.8,46,101640,0,0,303,0,0,0,0,0,0,0,140,2.4,6,0,0,0,0,0,0,0,0,0,0,0,0
2008,1,7,5,0,,9.8,-0.7,45,101640,0,0,303,0,0,0,0,0,0,0,160,1.6,6,0,0,0,0,0,0,0,0,0,0,0,0
2008,1,7,6,0,,10,-0.5,47,101640,0,0,329,0,0,0,0,0,0,0,160,2.2,10,0,0,0,0,0,0,0,0,0,0,0,0
2008,1,7,7,0,,10.3,1.3,54,101630,0,0,332,0,0,0,0,0,0,0,140,2.1,10,0,0,0,0,0,0,0,0,0,0,0,0
2008,1,7,8,0,,10.3,3,62,101630,0,0,334,1,0,1,126,0,126,0,140,2.3,10,0,0,0,0,0,0,0,0,0,0,0,0
2008,1,7,9,0,,10.6,4.8,66,101620,0,0,338,39,4,35,4522,202,4431,0,140,1.5,10,0,0,0,0,0,0,0,0,0,0,0,0
2008,1,7,10,0,,11.5,2.5,56,101610,0,0,323,162,166,110,22782,16484,14036,0,20,0.9,8,0,0,0,0,0,0,0,0,0,0,0,0
2008,1,7,11,0,,12.8,0.1,39,101610,0,0,326,260,206,169,32036,20786,20420,0,360,2.9,8,0,0,0,0,0,0,0,0,0,0,0,0
2008,1,7,12,0,,13.1,-2.2,34,101600,0,0,332,274,131,206,30777,13095,23774,0,20,1.8,9,0,0,0,0,0,0,0,0,0,0,0,0
2008,1,7,13,0,,13.6,-2.6,31,101590,0,0,313,460,540,159,44070,51720,20281,0,360,1.2,4,0,0,0,0,0,0,0,0,0,0,0,0
2008,1,7,14,0,,14.3,-3.1,33,101580,0,0,330,330,200,222,30919,17907,24840,0,340,2.7,8,0,0,0,0,0,0,0,0,0,0,0,0
2008,1,7,15,0,,13.5,-3.5,30,101570,0,0,326,270,179,186,22427,12083,20232,0,320,2.5,8,0,0,0,0,0,0,0,0,0,0,0,0
2008,1,7,16,0,,13.1,-3.5,33,101590,0,0,310,289,557,89,0,0,0,0,250,3,4,0,0,0,0,0,0,0,0,0,0,0,0
2008,1,7,17,0,,12.8,-3.5,32,101620,0,0,306,159,539,50,0,0,0,0,270,2.7,3,0,0,0,0,0,0,0,0,0,0,0,0
2008,1,7,18,0,,11.6,-3.5,34,101640,0,0,301,39,21,18,0,0,0,0,250,2.3,3,0,0,0,0,0,0,0,0,0,0,0,0
2008,1,7,19,0,,10.6,-3.1,42,101680,0,0,297,0,0,0,0,0,0,0,200,2.6,3,0,0,0,0,0,0,0,0,0,0,0,0
2008,1,7,20,0,,9.8,-2.8,43,101730,0,0,294,0,0,0,0,0,0,0,200,2.3,3,0,0,0,0,0,0,0,0,0,0,0,0
2008,1,7,21,0,,9.3,-2.4,43,101770,0,0,292,0,0,0,0,0,0,0,200,2.7,3,0,0,0,0,0,0,0,0,0,0,0,0
2008,1,7,22,0,,8.8,-1.7,49,101770,0,0,288,0,0,0,0,0,0,0,200,3,2,0,0,0,0,0,0,0,0,0,0,0,0
2008,1,7,23,0,,8.6,-1,54,101770,0,0,284,0,0,0,0,0,0,0,200,3.1,1,0,0,0,0,0,0,0,0,0,0,0,0
2008,1,7,24,0,,8.5,-0.3,53,101770,0,0,279,0,0,0,0,0,0,0,200,2.7,0,0,0,0,0,0,0,0,0,0,0,0,0
2008,1,8,1,0,,8.3,0.5,52,101760,0,0,284,0,0,0,0,0,0,0,200,2.9,1,0,0,0,0,0,0,0,0,0,0,0,0
2008,1,8,2,0,,8.1,1.4,58,101760,0,0,288,0,0,0,0,0,0,0,200,2.8,2,0,0,0,0,0,0,0,0,0,0,0,0
2008,1,8,3,0,,8.1,2.2,65,101750,0,0,292,0,0,0,0,0,0,0,200,2.6,3,0,0,0,0,0,0,0,0,0,0,0,0
2008,1,8,4,0,,8.3,2.8,69,101750,0,0,298,0,0,0,0,0,0,0,200,1.9,5,0,0,0,0,0,0,0,0,0,0,0,0
2008,1,8,5,0,,9.1,3.4,69,101740,0,0,305,0,0,0,0,0,0,0,200,2.8,6,0,0,0,0,0,0,0,0,0,0,0,0
2008,1,8,6,0,,10.5,4,63,101740,0,0,312,0,0,0,0,0,0,0,320,4.7,6,0,0,0,0,0,0,0,0,0,0,0,0
2008,1,8,7,0,,10.3,3.7,60,101780,0,0,303,0,0,0,0,0,0,0,320,3.9,3,0,0,0,0,0,0,0,0,0,0,0,0
2008,1,8,8,0,,10.1,3.5,61,101830,0,0,304,13,5,8,1124,386,998,0,320,4.2,4,0,0,0,0,0,0,0,0,0,0,0,0
2008,1,8,9,0,,10.1,3.2,61,101870,0,0,304,103,61,42,8520,5880,5858,0,290,4.2,4,0,0,0,0,0,0,0,0,0,0,0,0
2008,1,8,10,0,,10.6,2.9,58,101850,0,0,306,233,467,88,38126,46405,13438,0,290,3.2,4,0,0,0,0,0,0,0,0,0,0,0,0
2008,1,8,11,0,,11,2.6,55,101820,0,0,312,299,320,158,38435,31343,20861,0,320,2.9,6,0,0,0,0,0,0,0,0,0,0,0,0
2008,1,8,12,0,,11.3,2.3,53,101800,0,0,313,356,282,207,39565,27961,24551,0,320,2.5,6,0,0,0,0,0,0,0,0,0,0,0,0
2008,1,8,13,0,,12,2.2,51,101710,0,0,316,398,314,222,39765,30164,25815,0,320,2.6,6,0,0,0,0,0,0,0,0,0,0,0,0
2008,1,8,14,0,,12.6,2,45,101610,0,0,319,382,312,213,33732,27471,24331,0,290,2.4,6,0,0,0,0,0,0,0,0,0,0,0,0
2008,1,8,15,0,,12.3,1.9,48,101520,0,0,321,297,235,186,23314,15646,20428,0,340,2.2,7,0,0,0,0,0,0,0,0,0,0,0,0
2008,1,8,16,0,,11.8,2.2,53,101560,0,0,324,187,153,132,0,0,0,0,360,3.4,8,0,0,0,0,0,0,0,0,0,0,0,0
2008,1,8,17,0,,11,2.4,52,101600,0,0,321,100,151,69,0,0,0,0,340,3.6,8,0,0,0,0,0,0,0,0,0,0,0,0
2008,1,8,18,0,,10.1,2.7,59,101640,0,0,308,29,11,18,0,0,0,0,340,3.1,6,0,0,0,0,0,0,0,0,0,0,0,0
2008,1,8,19,0,,9.8,2.1,48,101670,0,0,305,0,0,0,0,0,0,0,360,2.8,6,0,0,0,0,0,0,0,0,0,0,0,0
2008,1,8,20,0,,9.5,1.4,51,101690,0,0,302,0,0,0,0,0,0,0,360,2.8,5,0,0,0,0,0,0,0,0,0,0,0,0
2008,1,8,21,0,,9.1,0.8,55,101720,0,0,299,0,0,0,0,0,0,0,320,1.6,5,0,0,0,0,0,0,0,0,0,0,0,0
2008,1,8,22,0,,8.8,0.8,57,101700,0,0,298,0,0,0,0,0,0,0,340,1.2,5,0,0,0,0,0,0,0,0,0,0,0,0
2008,1,8,23,0,,8,0.9,63,101670,0,0,295,0,0,0,0,0,0,0,160,1.4,5,0,0,0,0,0,0,0,0,0,0,0,0
2008,1,8,24,0,,7,0.9,64,101650,0,0,291,0,0,0,0,0,0,0,160,1.9,5,0,0,0,0,0,0,0,0,0,0,0,0
2008,1,9,1,0,,6.3,0.4,65,101630,0,0,285,0,0,0,0,0,0,0,140,1.9,4,0,0,0,0,0,0,0,0,0,0,0,0
2008,1,9,2,0,,5.8,-0.2,64,101620,0,0,280,0,0,0,0,0,0,0,160,2.5,3,0,0,0,0,0,0,0,0,0,0,0,0
2008,1,9,3,0,,5.5,-0.7,63,101600,0,0,276,0,0,0,0,0,0,0,160,2.4,2,0,0,0,0,0,0,0,0,0,0,0,0
2008,1,9,4,0,,5.4,-0.8,64,101620,0,0,266,0,0,0,0,0,0,0,160,2.5,0,0,0,0,0,0,0,0,0,0,0,0,0
2008,1,9,5,0,,5.1,-1,63,101630,0,0,265,0,0,0,0,0,0,0,160,3.4,0,0,0,0,0,0,0,0,0,0,0,0,0
2008,1,9,6,0,,5.1,-1.1,63,101650,0,0,274,0,0,0,0,0,0,0,140,2.7,2,0,0,0,0,0,0,0,0,0,0,0,0
2008,1,9,7,0,,5.1,-1.2,67,101660,0,0,276,0,0,0,0,0,0,0,140,2.3,3,0,0,0,0,0,0,0,0,0,0,0,0
2008,1,9,8,0,,5.3,-1.4,65,101660,0,0,270,14,6,8,1267,582,1075,0,140,3.6,1,0,0,0,0,0,0,0,0,0,0,0,0
2008,1,9,9,0,,6.4,-1.5,56,101670,0,0,270,117,84,33,9091,8110,5409,0,140,1.8,0,0,0,0,0,0,0,0,0,0,0,0,0
2008,1,9,10,0,,9.6,-0.9,48,101700,0,0,283,277,708,57,46045,70360,8503,0,110,0.5,0,0,0,0,0,0,0,0,0,0,0,0,0
2008,1,9,11,0,,12.1,-0.2,44,101720,0,0,294,421,795,70,54926,79304,10304,0,50,1,0,0,0,0,0,0,0,0,0,0,0,0,0
2008,1,9,12,0,,13.5,0.4,40,101750,0,0,300,506,792,89,55498,79018,12883,0,290,0.7,0,0,0,0,0,0,0,0,0,0,0,0,0
2008,1,9,13,0,,13.8,0.7,45,101720,0,0,302,526,741,109,49048,71491,15802,0,290,2.7,0,0,0,0,0,0,0,0,0,0,0,0,0
2008,1,9,14,0,,13.8,1.1,45,101680,0,0,302,488,671,122,37200,59296,16744,0,270,3.7,0,0,0,0,0,0,0,0,0,0,0,0,0
2008,1,9,15,0,,13.8,1.4,42,101650,0,0,303,419,654,106,21486,44271,13196,0,270,4.2,0,0,0,0,0,0,0,0,0,0,0,0,0
2008,1,9,16,0,,13.6,-0.4,37,101680,0,0,300,311,643,78,7009,0,7009,0,270,3.9,0,0,0,0,0,0,0,0,0,0,0,0,0
2008,1,9,17,0,,12.6,-2.3,37,101720,0,0,294,171,603,46,0,0,0,0,270,2.6,0,0,0,0,0,0,0,0,0,0,0,0,0
2008,1,9,18,0,,11.3,-4.1,33,101750,0,0,287,42,24,18,0,0,0,0,230,2,0,0,0,0,0,0,0,0,0,0,0,0,0
2008,1,9,19,0,,10.1,-2.9,45,101810,0,0,283,0,0,0,0,0,0,0,180,1.3,0,0,0,0,0,0,0,0,0,0,0,0,0
2008,1,9,20,0,,9.3,-1.6,50,101860,0,0,281,0,0,0,0,0,0,0,160,1.6,0,0,0,0,0,0,0,0,0,0,0,0,0
2008,1,9,21,0,,8.6,-0.4,52,101920,0,0,279,0,0,0,0,0,0,0,160,1.9,0,0,0,0,0,0,0,0,0,0,0,0,0
2008,1,9,22,0,,8.1,-0.4,57,101930,0,0,277,0,0,0,0,0,0,0,160,2.4,0,0,0,0,0,0,0,0,0,0,0,0,0
2008,1,9,23,0,,7.9,-0.3,58,101940,0,0,277,0,0,0,0,0,0,0,160,1.9,0,0,0,0,0,0,0,0,0,0,0,0,0
2008,1,9,24,0,,7.9,-0.3,55,101950,0,0,277,0,0,0,0,0,0,0,160,2.1,0,0,0,0,0,0,0,0,0,0,0,0,0
2008,1,10,1,0,,7.5,0,58,101950,0,0,275,0,0,0,0,0,0,0,160,1.8,0,0,0,0,0,0,0,0,0,0,0,0,0
2008,1,10,2,0,,7.1,0.3,63,101950,0,0,274,0,0,0,0,0,0,0,160,1.9,0,0,0,0,0,0,0,0,0,0,0,0,0
2008,1,10,3,0,,7.1,0.6,62,101950,0,0,274,0,0,0,0,0,0,0,160,2,0,0,0,0,0,0,0,0,0,0,0,0,0
2008,1,10,4,0,,7.4,0.3,61,101970,0,0,275,0,0,0,0,0,0,0,160,2.5,0,0,0,0,0,0,0,0,0,0,0,0,0
2008,1,10,5,0,,7,0.1,61,101980,0,0,273,0,0,0,0,0,0,0,140,2.6,0,0,0,0,0,0,0,0,0,0,0,0,0
2008,1,10,6,0,,6.5,-0.2,61,102000,0,0,271,0,0,0,0,0,0,0,140,2.5,0,0,0,0,0,0,0,0,0,0,0,0,0
2008,1,10,7,0,,6.5,0.1,60,102020,0,0,271,0,0,0,0,0,0,0,160,3,0,0,0,0,0,0,0,0,0,0,0,0,0
2008,1,10,8,0,,6.8,0.3,62,102050,0,0,285,12,4,8,1125,355,1008,0,140,2.6,3,0,0,0,0,0,0,0,0,0,0,0,0
2008,1,10,9,0,,7.4,0.6,61,102070,0,0,290,101,58,44,8582,5640,6015,0,160,1,4,0,0,0,0,0,0,0,0,0,0,0,0
2008,1,10,10,0,,10.3,1,48,101990,0,0,302,258,600,71,42783,60295,10510,0,70,2.6,4,0,0,0,0,0,0,0,0,0,0,0,0
2008,1,10,11,0,,12.1,1.4,44,101900,0,0,308,403,721,84,53166,72561,12188,0,50,2.9,3,0,0,0,0,0,0,0,0,0,0,0,0
2008,1,10,12,0,,13.6,1.8,44,101820,0,0,315,495,750,99,54559,74538,14181,0,70,3.4,3,0,0,0,0,0,0,0,0,0,0,0,0
2008,1,10,13,0,,14.1,2.8,48,101780,0,0,353,243,73,202,26165,6934,22921,0,20,3.7,10,0,0,0,0,0,0,0,0,0,0,0,0
2008,1,10,14,0,,14.1,3.9,51,101740,0,0,354,213,56,183,22342,5073,20577,0,20,3.8,10,0,0,0,0,0,0,0,0,0,0,0,0
2008,1,10,15,0,,14.1,4.9,53,101700,0,0,355,173,49,150,17410,3856,16676,0,50,4.3,10,0,0,0,0,0,0,0,0,0,0,0,0
2008,1,10,16,0,,14.6,5.2,49,101730,0,0,358,124,46,107,11282,2838,11267,0,70,2.8,10,0,0,0,0,0,0,0,0,0,0,0,0
2008,1,10,17,0,,14.1,5.5,55,101770,0,0,356,69,47,59,0,0,0,0,70,3.7,10,0,0,0,0,0,0,0,0,0,0,0,0
2008,1,10,18,0,,13.6,5.8,58,101800,0,0,354,12,1,12,0,0,0,0,110,2.5,10,0,0,0,0,0,0,0,0,0,0,0,0
2008,1,10,19,0,,13.5,6,58,101820,0,0,354,0,0,0,0,0,0,0,70,2.1,10,0,0,0,0,0,0,0,0,0,0,0,0
2008,1,10,20,0,,13.1,6.2,61,101850,0,0,352,0,0,0,0,0,0,0,110,2.2,10,0,0,0,0,0,0,0,0,0,0,0,0
2008,1,10,21,0,,13.5,6.4,61,101870,0,0,354,0,0,0,0,0,0,0,50,2.6,10,0,0,0,0,0,0,0,0,0,0,0,0
2008,1,10,22,0,,13.5,7.4,66,101800,0,0,356,0,0,0,0,0,0,0,70,3.1,10,0,0,0,0,0,0,0,0,0,0,0,0
2008,1,10,23,0,,13.8,8.4,71,101740,0,0,358,0,0,0,0,0,0,0,70,4.5,10,0,0,0,0,0,0,0,0,0,0,0,0
2008,1,10,24,0,,14.1,9.4,72,101670,0,0,361,0,0,0,0,0,0,0,110,4.6,10,0,0,0,0,0,0,0,0,0,0,0,0
2008,1,11,1,0,,14.5,8.9,73,101610,0,0,363,0,0,0,0,0,0,0,70,4.3,10,0,0,0,0,0,0,0,0,0,0,0,0
2008,1,11,2,0,,13.3,8.3,67,101560,0,0,356,0,0,0,0,0,0,0,50,2.1,10,0,0,0,0,0,0,0,0,0,0,0,0
2008,1,11,3,0,,13.5,7.8,67,101500,0,0,356,0,0,0,0,0,0,0,140,3.3,10,0,0,0,0,0,0,0,0,0,0,0,0
2008,1,11,4,0,,13.8,7.4,75,101440,0,0,357,0,0,0,0,0,0,0,160,2.7,10,0,0,0,0,0,0,0,0,0,0,0,0
2008,1,11,5,0,,12.6,7,66,101380,0,0,351,0,0,0,0,0,0,0,160,1.6,10,0,0,0,0,0,0,0,0,0,0,0,0
2008,1,11,6,0,,12.5,6.6,66,101320,0,0,333,0,0,0,0,0,0,0,110,2.2,8,0,0,0,0,0,0,0,0,0,0,0,0
2008,1,11,7,0,,12.1,7.3,70,101260,0,0,332,0,0,0,0,0,0,0,200,2.1,8,0,0,0,0,0,0,0,0,0,0,0,0
2008,1,11,8,0,,12,7.9,74,101200,0,0,302,12,4,8,1129,346,1014,0,250,1.8,0,0,0,0,0,0,0,0,0,0,0,0,0
2008,1,11,9,0,,13.3,8.6,72,101140,0,0,309,108,69,39,8565,6463,5613,0,250,0.7,0,0,0,0,0,0,0,0,0,0,0,0,0
2008,1,11,10,0,,15.8,10.3,68,101140,0,0,322,257,589,73,42862,59611,10848,0,230,0.9,0,0,0,0,0,0,0,0,0,0,0,0,0
2008,1,11,11,0,,18.1,12,71,101150,0,0,375,224,128,167,27181,12186,20273,0,160,0.6,9,0,0,0,0,0,0,0,0,0,0,0,0
2008,1,11,12,0,,18.2,13.7,74,101150,0,0,377,256,104,201,29508,9629,24268,0,360,1.9,9,0,0,0,0,0,0,0,0,0,0,0,0
2008,1,11,13,0,,18.1,13.8,80,101080,0,0,377,255,82,208,27392,7405,23908,0,360,2.7,9,0,0,0,0,0,0,0,0,0,0,0,0
2008,1,11,14,0,,17.1,13.8,86,101020,0,0,382,152,21,140,16053,1242,15618,0,20,2.9,10,0,0,0,0,0,0,0,0,0,0,0,0
2008,1,11,15,0,,15.5,13.9,89,100950,0,0,374,113,14,106,11460,536,11356,0,50,4.3,10,0,0,0,0,0,0,0,0,0,0,0,0
2008,1,11,16,0,,15.6,13.7,91,100950,0,0,375,75,11,71,6527,799,6521,0,50,1.8,10,0,0,0,0,0,0,0,0,0,0,0,0
2008,1,11,17,0,,15.3,13.4,91,100950,0,0,373,44,13,42,0,0,0,0,50,0.7,10,0,0,0,0,0,0,0,0,0,0,0,0
2008,1,11,18,0,,14.3,13.2,92,100950,0,0,367,9,0,9,0,0,0,0,360,4.7,10,0,0,0,0,0,0,0,0,0,0,0,0
2008,1,11,19,0,,13.8,13,92,100970,0,0,365,0,0,0,0,0,0,0,20,3,10,0,0,0,0,0,0,0,0,0,0,0,0
2008,1,11,20,0,,14.1,12.9,92,101000,0,0,366,0,0,0,0,0,0,0,20,3.2,10,0,0,0,0,0,0,0,0,0,0,0,0
2008,1,11,21,0,,13.6,12.7,93,101020,0,0,363,0,0,0,0,0,0,0,20,4.6,10,0,0,0,0,0,0,0,0,0,0,0,0
2008,1,11,22,0,,13.6,12.2,93,101030,0,0,363,0,0,0,0,0,0,0,20,5.3,10,0,0,0,0,0,0,0,0,0,0,0,0
2008,1,11,23,0,,13.8,11.6,93,101030,0,0,363,0,0,0,0,0,0,0,50,4.7,10,0,0,0,0,0,0,0,0,0,0,0,0
2008,1,11,24,0,,12.1,11.1,92,101040,0,0,354,0,0,0,0,0,0,0,20,7.3,10,0,0,0,0,0,0,0,0,0,0,0,0
2008,1,12,1,0,,11.3,10.4,92,101070,0,0,349,0,0,0,0,0,0,0,20,5.3,10,0,0,0,0,0,0,0,0,0,0,0,0
2008,1,12,2,0,,10.8,9.7,90,101110,0,0,346,0,0,0,0,0,0,0,50,4.2,10,0,0,0,0,0,0,0,0,0,0,0,0
2008,1,12,3,0,,10.6,9,88,101140,0,0,344,0,0,0,0,0,0,0,50,3.9,10,0,0,0,0,0,0,0,0,0,0,0,0
2008,1,12,4,0,,10.6,8.7,88,101190,0,0,343,0,0,0,0,0,0,0,20,3.6,10,0,0,0,0,0,0,0,0,0,0,0,0
2008,1,12,5,0,,10.6,8.5,82,101250,0,0,343,0,0,0,0,0,0,0,20,4.7,10,0,0,0,0,0,0,0,0,0,0,0,0
2008,1,12,6,0,,10.5,8.2,84,101300,0,0,342,0,0,0,0,0,0,0,360,5.6,10,0,0,0,0,0,0,0,0,0,0,0,0
2008,1,12,7,0,,9.1,8,90,101420,0,0,335,0,0,0,0,0,0,0,360,5.8,10,0,0,0,0,0,0,0,0,0,0,0,0
2008,1,12,8,0,,8.8,7.7,91,101550,0,0,334,0,0,0,0,0,0,0,360,7.3,10,0,0,0,0,0,0,0,0,0,0,0,0
2008,1,12,9,0,,8.6,7.5,91,101670,0,0,333,32,2,29,3844,103,3797,0,340,6.4,10,0,0,0,0,0,0,0,0,0,0,0,0
2008,1,12,10,0,,8.3,7.2,90,101700,0,0,331,92,33,82,11325,3011,9702,0,360,7.8,10,0,0,0,0,0,0,0,0,0,0,0,0
2008,1,12,11,0,,8.3,7,89,101740,0,0,330,130,28,118,15203,2596,13725,0,360,6.9,10,0,0,0,0,0,0,0,0,0,0,0,0
2008,1,12,12,0,,8.6,6.7,86,101770,0,0,331,154,25,141,17579,2330,16305,0,360,5,10,0,0,0,0,0,0,0,0,0,0,0,0
2008,1,12,13,0,,8.3,6.5,88,101770,0,0,330,174,28,158,19346,2599,18116,0,360,5,10,0,0,0,0,0,0,0,0,0,0,0,0
2008,1,12,14,0,,8.1,6.4,89,101770,0,0,329,163,26,149,17206,1677,16613,0,340,4,10,0,0,0,0,0,0,0,0,0,0,0,0
2008,1,12,15,0,,8.1,6.2,86,101770,0,0,328,147,30,133,14325,1578,14015,0,340,5.3,10,0,0,0,0,0,0,0,0,0,0,0,0
2008,1,12,16,0,,8,6.2,87,101860,0,0,328,103,26,93,8496,3285,8458,0,360,5.5,10,0,0,0,0,0,0,0,0,0,0,0,0
2008,1,12,17,0,,8.1,6.3,85,101950,0,0,329,60,29,53,0,0,0,0,360,4.6,10,0,0,0,0,0,0,0,0,0,0,0,0
2008,1,12,18,0,,8.1,6.3,87,102040,0,0,329,13,1,12,0,0,0,0,360,6,10,0,0,0,0,0,0,0,0,0,0,0,0
2008,1,12,19,0,,8.5,5.8,83,102080,0,0,330,0,0,0,0,0,0,0,360,5.6,10,0,0,0,0,0,0,0,0,0,0,0,0
2008,1,12,20,0,,8.3,5.4,81,102110,0,0,328,0,0,0,0,0,0,0,360,6.9,10,0,0,0,0,0,0,0,0,0,0,0,0
2008,1,12,21,0,,8,4.9,79,102150,0,0,326,0,0,0,0,0,0,0,360,7.7,10,0,0,0,0,0,0,0,0,0,0,0,0
2008,1,12,22,0,,7.5,4.3,77,102200,0,0,323,0,0,0,0,0,0,0,360,7.2,10,0,0,0,0,0,0,0,0,0,0,0,0
2008,1,12,23,0,,7.4,3.8,78,102240,0,0,322,0,0,0,0,0,0,0,360,6.9,10,0,0,0,0,0,0,0,0,0,0,0,0
2008,1,12,24,0,,7.1,3.2,75,102290,0,0,320,0,0,0,0,0,0,0,340,7.3,10,0,0,0,0,0,0,0,0,0,0,0,0
2008,1,13,1,0,,6.9,2.7,74,102330,0,0,318,0,0,0,0,0,0,0,360,6.8,10,0,0,0,0,0,0,0,0,0,0,0,0
2008,1,13,2,0,,6.5,2.2,74,102360,0,0,316,0,0,0,0,0,0,0,360,6.8,10,0,0,0,0,0,0,0,0,0,0,0,0
2008,1,13,3,0,,6.1,1.7,72,102400,0,0,313,0,0,0,0,0,0,0,340,6,10,0,0,0,0,0,0,0,0,0,0,0,0
2008,1,13,4,0,,5.5,0.2,71,102440,0,0,309,0,0,0,0,0,0,0,340,5,10,0,0,0,0,0,0,0,0,0,0,0,0
2008,1,13,5,0,,5.1,-1.2,58,102470,0,0,305,0,0,0,0,0,0,0,340,5.2,10,0,0,0,0,0,0,0,0,0,0,0,0
2008,1,13,6,0,,4.9,-2.7,57,102510,0,0,303,0,0,0,0,0,0,0,340,5.1,10,0,0,0,0,0,0,0,0,0,0,0,0
2008,1,13,7,0,,4.5,-3.3,59,102550,0,0,286,0,0,0,0,0,0,0,340,5,8,0,0,0,0,0,0,0,0,0,0,0,0
2008,1,13,8,0,,4.1,-4,59,102590,0,0,284,6,1,6,779,16,773,0,360,4.6,8,0,0,0,0,0,0,0,0,0,0,0,0
2008,1,13,9,0,,4.1,-4.6,52,102630,0,0,283,71,23,48,6669,2189,5663,0,340,4.7,8,0,0,0,0,0,0,0,0,0,0,0,0
2008,1,13,10,0,,4.6,-5.2,46,102600,0,0,277,213,341,106,33071,34000,14680,0,340,3.6,6,0,0,0,0,0,0,0,0,0,0,0,0
2008,1,13,11,0,,4.8,-5.9,48,102580,0,0,285,261,198,173,32181,20391,20528,0,340,4.2,8,0,0,0,0,0,0,0,0,0,0,0,0
2008,1,13,12,0,,4.8,-6.5,43,102550,0,0,284,319,190,217,35502,19263,24918,0,320,4.5,8,0,0,0,0,0,0,0,0,0,0,0,0
2008,1,13,13,0,,5,-6.1,39,102500,0,0,285,324,157,235,33897,15461,26534,0,340,3.3,8,0,0,0,0,0,0,0,0,0,0,0,0
2008,1,13,14,0,,5.5,-5.8,47,102450,0,0,288,322,170,228,30985,15586,25425,0,340,4.4,8,0,0,0,0,0,0,0,0,0,0,0,0
2008,1,13,15,0,,6,-5.4,43,102400,0,0,290,287,191,194,23832,13664,21111,0,340,4,8,0,0,0,0,0,0,0,0,0,0,0,0
2008,1,13,16,0,,5.6,-4.8,44,102430,0,0,289,213,199,138,13531,0,13531,0,360,4.5,8,0,0,0,0,0,0,0,0,0,0,0,0
2008,1,13,17,0,,5.1,-4.3,50,102450,0,0,288,113,176,75,0,0,0,0,340,3.5,8,0,0,0,0,0,0,0,0,0,0,0,0
2008,1,13,18,0,,4.8,-3.7,53,102480,0,0,287,27,7,20,0,0,0,0,320,2.6,8,0,0,0,0,0,0,0,0,0,0,0,0
2008,1,13,19,0,,4.8,-3,54,102510,0,0,283,0,0,0,0,0,0,0,250,0.7,7,0,0,0,0,0,0,0,0,0,0,0,0
2008,1,13,20,0,,4.5,-2.4,56,102550,0,0,279,0,0,0,0,0,0,0,180,2.8,6,0,0,0,0,0,0,0,0,0,0,0,0
2008,1,13,21,0,,4.9,-1.7,61,102580,0,0,279,0,0,0,0,0,0,0,320,4.6,5,0,0,0,0,0,0,0,0,0,0,0,0
2008,1,13,22,0,,4.9,-1.4,64,102570,0,0,281,0,0,0,0,0,0,0,340,3.7,6,0,0,0,0,0,0,0,0,0,0,0,0
2008,1,13,23,0,,4.6,-1.2,65,102570,0,0,282,0,0,0,0,0,0,0,340,3.6,6,0,0,0,0,0,0,0,0,0,0,0,0
2008,1,13,24,0,,4.6,-0.9,66,102560,0,0,285,0,0,0,0,0,0,0,340,3,7,0,0,0,0,0,0,0,0,0,0,0,0
2008,1,14,1,0,,4.6,-0.9,65,102560,0,0,285,0,0,0,0,0,0,0,320,1.8,7,0,0,0,0,0,0,0,0,0,0,0,0
2008,1,14,2,0,,4.9,-0.9,64,102560,0,0,286,0,0,0,0,0,0,0,290,1.9,7,0,0,0,0,0,0,0,0,0,0,0,0
2008,1,14,3,0,,4.9,-0.9,65,102560,0,0,286,0,0,0,0,0,0,0,180,3.3,7,0,0,0,0,0,0,0,0,0,0,0,0
2008,1,14,4,0,,5,-0.5,67,102560,0,0,291,0,0,0,0,0,0,0,290,1.7,8,0,0,0,0,0,0,0,0,0,0,0,0
2008,1,14,5,0,,5.4,-0.1,68,102550,0,0,293,0,0,0,0,0,0,0,320,4,8,0,0,0,0,0,0,0,0,0,0,0,0
2008,1,14,6,0,,5.3,0.3,69,102550,0,0,293,0,0,0,0,0,0,0,360,4.2,8,0,0,0,0,0,0,0,0,0,0,0,0
2008,1,14,7,0,,5.3,0.2,69,102590,0,0,293,0,0,0,0,0,0,0,360,4.8,8,0,0,0,0,0,0,0,0,0,0,0,0
2008,1,14,8,0,,5.1,0,69,102640,0,0,307,1,0,1,111,0,111,0,340,4.8,10,0,0,0,0,0,0,0,0,0,0,0,0
2008,1,14,9,0,,5.1,-0.1,68,102680,0,0,307,40,5,36,4669,222,4567,0,360,3.8,10,0,0,0,0,0,0,0,0,0,0,0,0
2008,1,14,10,0,,5,-0.6,66,102680,0,0,306,100,39,87,12220,3731,10194,0,340,4.6,10,0,0,0,0,0,0,0,0,0,0,0,0
2008,1,14,11,0,,5.1,-1,63,102690,0,0,306,150,41,132,17499,3922,15247,0,340,4,10,0,0,0,0,0,0,0,0,0,0,0,0
2008,1,14,12,0,,5.1,-1.5,61,102690,0,0,305,188,42,165,21194,4102,18929,0,340,4.5,10,0,0,0,0,0,0,0,0,0,0,0,0
2008,1,14,13,0,,5,-2.2,61,102660,0,0,304,198,39,176,21784,3773,19976,0,340,3.8,10,0,0,0,0,0,0,0,0,0,0,0,0
2008,1,14,14,0,,5.1,-2.9,60,102640,0,0,304,198,43,174,20978,3957,19554,0,320,4,10,0,0,0,0,0,0,0,0,0,0,0,0
2008,1,14,15,0,,5.5,-3.6,51,102610,0,0,290,270,157,193,23865,13213,21192,0,320,3.7,8,0,0,0,0,0,0,0,0,0,0,0,0
2008,1,14,16,0,,5.6,-3.4,50,102630,0,0,283,260,347,129,12068,0,12068,0,320,4,6,0,0,0,0,0,0,0,0,0,0,0,0
2008,1,14,17,0,,5.1,-3.1,55,102640,0,0,281,146,320,75,0,0,0,0,320,3.4,6,0,0,0,0,0,0,0,0,0,0,0,0
2008,1,14,18,0,,4.9,-2.9,56,102660,0,0,280,38,18,20,0,0,0,0,340,3.7,6,0,0,0,0,0,0,0,0,0,0,0,0
2008,1,14,19,0,,4.5,-3.1,57,102690,0,0,277,0,0,0,0,0,0,0,320,2.3,5,0,0,0,0,0,0,0,0,0,0,0,0
2008,1,14,20,0,,4.5,-3.3,55,102720,0,0,275,0,0,0,0,0,0,0,340,3.5,5,0,0,0,0,0,0,0,0,0,0,0,0
2008,1,14,21,0,,4.3,-3.5,56,102750,0,0,273,0,0,0,0,0,0,0,340,4,4,0,0,0,0,0,0,0,0,0,0,0,0
2008,1,14,22,0,,4.1,-3.4,56,102770,0,0,271,0,0,0,0,0,0,0,340,3.9,4,0,0,0,0,0,0,0,0,0,0,0,0
2008,1,14,23,0,,4.1,-3.4,59,102780,0,0,271,0,0,0,0,0,0,0,320,3.1,3,0,0,0,0,0,0,0,0,0,0,0,0
2008,1,14,24,0,,3.5,-3.3,60,102800,0,0,268,0,0,0,0,0,0,0,140,0.7,3,0,0,0,0,0,0,0,0,0,0,0,0
2008,1,15,1,0,,2.9,-3.2,62,102800,0,0,268,0,0,0,0,0,0,0,140,1.5,4,0,0,0,0,0,0,0,0,0,0,0,0
2008,1,15,2,0,,3.4,-3,60,102800,0,0,272,0,0,0,0,0,0,0,340,4,5,0,0,0,0,0,0,0,0,0,0,0,0
2008,1,15,3,0,,4.1,-2.9,59,102800,0,0,277,0,0,0,0,0,0,0,340,4,6,0,0,0,0,0,0,0,0,0,0,0,0
2008,1,15,4,0,,4,-2.7,61,102790,0,0,277,0,0,0,0,0,0,0,340,3.6,6,0,0,0,0,0,0,0,0,0,0,0,0
2008,1,15,5,0,,4,-2.5,60,102770,0,0,277,0,0,0,0,0,0,0,320,3.3,6,0,0,0,0,0,0,0,0,0,0,0,0
2008,1,15,6,0,,4.3,-2.3,61,102760,0,0,279,0,0,0,0,0,0,0,360,3.9,6,0,0,0,0,0,0,0,0,0,0,0,0
2008,1,15,7,0,,4.3,-3,61,102820,0,0,278,0,0,0,0,0,0,0,340,3.7,6,0,0,0,0,0,0,0,0,0,0,0,0
2008,1,15,8,0,,4.3,-3.6,55,102880,0,0,271,15,6,8,1341,598,1140,0,320,3.4,3,0,0,0,0,0,0,0,0,0,0,0,0
2008,1,15,9,0,,4.5,-4.3,52,102940,0,0,264,120,87,33,9388,8509,5447,0,340,4.2,1,0,0,0,0,0,0,0,0,0,0,0,0
2008,1,15,10,0,,5.5,-4.8,48,102890,0,0,268,283,708,58,46987,70324,8647,0,360,6,1,0,0,0,0,0,0,0,0,0,0,0,0
2008,1,15,11,0,,6.4,-5.4,44,102830,0,0,271,418,753,80,55306,75910,11542,0,360,6.2,1,0,0,0,0,0,0,0,0,0,0,0,0
2008,1,15,12,0,,6.1,-5.9,41,102780,0,0,278,455,586,140,51436,57896,19302,0,360,4.5,4,0,0,0,0,0,0,0,0,0,0,0,0
2008,1,15,13,0,,6.3,-5.8,41,102720,0,0,306,227,56,194,24610,5446,21984,0,360,3.5,10,0,0,0,0,0,0,0,0,0,0,0,0
2008,1,15,14,0,,6.3,-5.7,35,102670,0,0,306,197,42,174,20962,3894,19549,0,320,1.3,10,0,0,0,0,0,0,0,0,0,0,0,0
2008,1,15,15,0,,6.1,-5.6,42,102610,0,0,305,180,49,156,18046,4086,17207,0,320,2.3,10,0,0,0,0,0,0,0,0,0,0,0,0
2008,1,15,16,0,,6,-4.5,45,102690,0,0,306,140,57,119,12526,3671,12451,0,340,4.3,10,0,0,0,0,0,0,0,0,0,0,0,0
2008,1,15,17,0,,5.3,-3.4,52,102770,0,0,304,75,50,64,0,0,0,0,320,4.3,10,0,0,0,0,0,0,0,0,0,0,0,0
2008,1,15,18,0,,4.5,-2.3,60,102850,0,0,302,13,1,12,0,0,0,0,160,2,10,0,0,0,0,0,0,0,0,0,0,0,0
2008,1,15,19,0,,3.7,-3,67,102880,0,0,297,0,0,0,0,0,0,0,200,2.5,10,0,0,0,0,0,0,0,0,0,0,0,0
2008,1,15,20,0,,3.5,-3.6,70,102900,0,0,296,0,0,0,0,0,0,0,180,1.8,10,0,0,0,0,0,0,0,0,0,0,0,0
2008,1,15,21,0,,4.5,-4.3,52,102930,0,0,299,0,0,0,0,0,0,0,340,4.8,10,0,0,0,0,0,0,0,0,0,0,0,0
2008,1,15,22,0,,4.5,-3.8,50,102930,0,0,297,0,0,0,0,0,0,0,340,6.2,10,0,0,0,0,0,0,0,0,0,0,0,0
2008,1,15,23,0,,4.5,-3.2,46,102940,0,0,295,0,0,0,0,0,0,0,360,6.2,9,0,0,0,0,0,0,0,0,0,0,0,0
2008,1,15,24,0,,4.4,-2.7,59,102940,0,0,292,0,0,0,0,0,0,0,360,6.3,9,0,0,0,0,0,0,0,0,0,0,0,0
2008,1,16,1,0,,4,-3.1,60,102970,0,0,293,0,0,0,0,0,0,0,360,5.7,9,0,0,0,0,0,0,0,0,0,0,0,0
2008,1,16,2,0,,4,-3.6,56,103000,0,0,295,0,0,0,0,0,0,0,320,4.9,10,0,0,0,0,0,0,0,0,0,0,0,0
2008,1,16,3,0,,3.7,-4,56,103030,0,0,296,0,0,0,0,0,0,0,320,5.4,10,0,0,0,0,0,0,0,0,0,0,0,0
2008,1,16,4,0,,3.9,-3.8,59,103020,0,0,297,0,0,0,0,0,0,0,340,6.7,10,0,0,0,0,0,0,0,0,0,0,0,0
2008,1,16,5,0,,3.7,-3.7,58,103010,0,0,297,0,0,0,0,0,0,0,340,5.9,10,0,0,0,0,0,0,0,0,0,0,0,0
2008,1,16,6,0,,3.5,-3.5,59,103000,0,0,296,0,0,0,0,0,0,0,340,7.1,10,0,0,0,0,0,0,0,0,0,0,0,0
2008,1,16,7,0,,3.5,-3.9,57,103070,0,0,295,0,0,0,0,0,0,0,320,5.6,10,0,0,0,0,0,0,0,0,0,0,0,0
2008,1,16,8,0,,3.5,-4.3,57,103130,0,0,295,2,0,2,314,0,314,0,340,6.2,10,0,0,0,0,0,0,0,0,0,0,0,0
2008,1,16,9,0,,3.5,-4.7,54,103200,0,0,286,65,116,48,12715,11332,7445,0,340,6,9,0,0,0,0,0,0,0,0,0,0,0,0
2008,1,16,10,0,,3.7,-4.9,58,103180,0,0,287,157,139,113,21855,14229,14065,0,340,7,9,0,0,0,0,0,0,0,0,0,0,0,0
2008,1,16,11,0,,3.9,-5.1,53,103150,0,0,288,217,111,167,26151,11390,19555,0,340,5.4,9,0,0,0,0,0,0,0,0,0,0,0,0
2008,1,16,12,0,,3.7,-5.3,51,103130,0,0,287,266,109,208,30070,11045,23907,0,340,5.8,9,0,0,0,0,0,0,0,0,0,0,0,0
2008,1,16,13,0,,3.5,-5,56,103110,0,0,286,273,93,220,29132,9054,24738,0,340,6,9,0,0,0,0,0,0,0,0,0,0,0,0
2008,1,16,14,0,,3.4,-4.6,56,103080,0,0,286,264,92,212,26880,8687,23699,0,340,6.5,9,0,0,0,0,0,0,0,0,0,0,0,0
2008,1,16,15,0,,3.2,-4.3,57,103060,0,0,286,235,101,185,22092,8557,20306,0,340,7.1,9,0,0,0,0,0,0,0,0,0,0,0,0
2008,1,16,16,0,,2.9,-5.3,54,103120,0,0,283,178,108,136,14408,7297,14237,0,320,6,9,0,0,0,0,0,0,0,0,0,0,0,0
2008,1,16,17,0,,2.5,-6.2,58,103170,0,0,280,102,112,76,0,0,0,0,340,5.1,9,0,0,0,0,0,0,0,0,0,0,0,0
2008,1,16,18,0,,2.2,-7.2,49,103230,0,0,268,37,16,22,0,0,0,0,320,5.9,7,0,0,0,0,0,0,0,0,0,0,0,0
2008,1,16,19,0,,2,-6.8,53,103270,0,0,269,0,0,0,0,0,0,0,320,5.5,7,0,0,0,0,0,0,0,0,0,0,0,0
2008,1,16,20,0,,2,-6.5,53,103310,0,0,271,0,0,0,0,0,0,0,340,6.1,8,0,0,0,0,0,0,0,0,0,0,0,0
2008,1,16,21,0,,2,-6.1,54,103350,0,0,273,0,0,0,0,0,0,0,340,6.1,8,0,0,0,0,0,0,0,0,0,0,0,0
2008,1,16,22,0,,1.7,-6.4,52,103350,0,0,271,0,0,0,0,0,0,0,340,5.7,8,0,0,0,0,0,0,0,0,0,0,0,0
2008,1,16,23,0,,1.7,-6.6,58,103340,0,0,271,0,0,0,0,0,0,0,320,5.1,8,0,0,0,0,0,0,0,0,0,0,0,0
2008,1,16,24,0,,1.2,-6.9,54,103340,0,0,268,0,0,0,0,0,0,0,320,4.9,8,0,0,0,0,0,0,0,0,0,0,0,0
2008,1,17,1,0,,1,-7.1,56,103300,0,0,263,0,0,0,0,0,0,0,360,5.6,7,0,0,0,0,0,0,0,0,0,0,0,0
2008,1,17,2,0,,0.6,-7.2,58,103250,0,0,258,0,0,0,0,0,0,0,360,4.2,6,0,0,0,0,0,0,0,0,0,0,0,0
2008,1,17,3,0,,0.4,-7.4,55,103210,0,0,255,0,0,0,0,0,0,0,360,3.8,5,0,0,0,0,0,0,0,0,0,0,0,0
2008,1,17,4,0,,0.3,-7.1,57,103200,0,0,251,0,0,0,0,0,0,0,340,3.8,3,0,0,0,0,0,0,0,0,0,0,0,0
2008,1,17,5,0,,0.2,-6.7,57,103190,0,0,253,0,0,0,0,0,0,0,320,3.5,4,0,0,0,0,0,0,0,0,0,0,0,0
2008,1,17,6,0,,0.2,-6.4,60,103180,0,0,254,0,0,0,0,0,0,0,340,3.6,4,0,0,0,0,0,0,0,0,0,0,0,0
2008,1,17,7,0,,0.4,-6.8,61,103190,0,0,258,0,0,0,0,0,0,0,360,5,6,0,0,0,0,0,0,0,0,0,0,0,0
2008,1,17,8,0,,0.3,-7.3,62,103190,0,0,257,12,3,9,1164,292,1065,0,340,4.4,6,0,0,0,0,0,0,0,0,0,0,0,0
2008,1,17,9,0,,0.6,-7.7,53,103200,0,0,254,115,506,38,28976,49386,5910,0,360,4.4,4,0,0,0,0,0,0,0,0,0,0,0,0
2008,1,17,10,0,,1.7,-7.9,44,103150,0,0,258,247,504,86,40921,50755,13014,0,160,1.1,4,0,0,0,0,0,0,0,0,0,0,0,0
2008,1,17,11,0,,2.7,-8.1,37,103090,0,0,260,387,621,106,51909,62626,15470,0,20,1.9,3,0,0,0,0,0,0,0,0,0,0,0,0
2008,1,17,12,0,,3.5,-8.3,41,103040,0,0,263,470,624,132,53222,62087,18395,0,360,1.6,3,0,0,0,0,0,0,0,0,0,0,0,0
2008,1,17,13,0,,4,-7.9,43,102950,0,0,265,506,622,145,48940,59999,19631,0,340,3.2,3,0,0,0,0,0,0,0,0,0,0,0,0
2008,1,17,14,0,,3.7,-7.4,45,102850,0,0,271,410,332,221,36189,30942,24757,0,360,3.5,6,0,0,0,0,0,0,0,0,0,0,0,0
2008,1,17,15,0,,3.9,-7,44,102760,0,0,272,347,317,188,25628,23608,20624,0,20,1.9,6,0,0,0,0,0,0,0,0,0,0,0,0
2008,1,17,16,0,,4,-6.8,47,102770,0,0,273,259,331,131,12438,1497,12398,0,50,1.7,6,0,0,0,0,0,0,0,0,0,0,0,0
2008,1,17,17,0,,4,-6.5,47,102790,0,0,273,149,353,67,0,0,0,0,0,0,6,0,0,0,0,0,0,0,0,0,0,0,0
2008,1,17,18,0,,3.5,-6.3,48,102800,0,0,271,40,19,21,0,0,0,0,50,0.5,6,0,0,0,0,0,0,0,0,0,0,0,0
2008,1,17,19,0,,3.4,-6.6,48,102830,0,0,270,0,0,0,0,0,0,0,180,2.8,6,0,0,0,0,0,0,0,0,0,0,0,0
2008,1,17,20,0,,3.5,-7,46,102870,0,0,270,0,0,0,0,0,0,0,180,2.8,6,0,0,0,0,0,0,0,0,0,0,0,0
2008,1,17,21,0,,3,-7.3,46,102900,0,0,268,0,0,0,0,0,0,0,180,2.6,6,0,0,0,0,0,0,0,0,0,0,0,0
2008,1,17,22,0,,3,-7.1,46,102910,0,0,269,0,0,0,0,0,0,0,180,2.1,6,0,0,0,0,0,0,0,0,0,0,0,0
2008,1,17,23,0,,3,-6.8,53,102920,0,0,270,0,0,0,0,0,0,0,320,1.8,7,0,0,0,0,0,0,0,0,0,0,0,0
2008,1,17,24,0,,3.7,-6.6,46,102930,0,0,275,0,0,0,0,0,0,0,320,4.6,7,0,0,0,0,0,0,0,0,0,0,0,0
2008,1,18,1,0,,3.5,-6.6,42,102940,0,0,273,0,0,0,0,0,0,0,340,3.6,7,0,0,0,0,0,0,0,0,0,0,0,0
2008,1,18,2,0,,3.4,-6.5,39,102950,0,0,271,0,0,0,0,0,0,0,340,4,6,0,0,0,0,0,0,0,0,0,0,0,0
2008,1,18,3,0,,3.2,-6.5,48,102960,0,0,270,0,0,0,0,0,0,0,320,4,6,0,0,0,0,0,0,0,0,0,0,0,0
2008,1,18,4,0,,3,-6.1,51,102920,0,0,277,0,0,0,0,0,0,0,340,4.3,8,0,0,0,0,0,0,0,0,0,0,0,0
2008,1,18,5,0,,2.5,-5.6,51,102890,0,0,268,0,0,0,0,0,0,0,340,4.1,6,0,0,0,0,0,0,0,0,0,0,0,0
2008,1,18,6,0,,2.7,-5.2,55,102850,0,0,269,0,0,0,0,0,0,0,360,4.7,6,0,0,0,0,0,0,0,0,0,0,0,0
2008,1,18,7,0,,2.3,-5.5,56,102930,0,0,267,0,0,0,0,0,0,0,340,4.4,6,0,0,0,0,0,0,0,0,0,0,0,0
2008,1,18,8,0,,2.3,-5.8,53,103020,0,0,264,13,4,9,1234,389,1102,0,340,4.5,5,0,0,0,0,0,0,0,0,0,0,0,0
2008,1,18,9,0,,2.5,-6.1,52,103100,0,0,275,79,193,49,16467,18866,7617,0,360,4.4,8,0,0,0,0,0,0,0,0,0,0,0,0
2008,1,18,10,0,,3,-5.8,49,103100,0,0,277,178,197,115,25470,20205,14311,0,360,4.9,8,0,0,0,0,0,0,0,0,0,0,0,0
2008,1,18,11,0,,3.4,-5.4,49,103100,0,0,267,371,550,120,49457,55184,17193,0,360,5.2,4,0,0,0,0,0,0,0,0,0,0,0,0
2008,1,18,12,0,,3.9,-5.1,51,103100,0,0,267,463,592,141,52472,58626,19408,0,340,5.1,3,0,0,0,0,0,0,0,0,0,0,0,0
2008,1,18,13,0,,4.5,-6,48,103030,0,0,273,466,488,181,45990,47604,22582,0,360,5.3,5,0,0,0,0,0,0,0,0,0,0,0,0
2008,1,18,14,0,,4.5,-6.8,41,102950,0,0,272,448,469,181,37123,43882,20765,0,340,4.5,5,0,0,0,0,0,0,0,0,0,0,0,0
2008,1,18,15,0,,4.9,-7.7,39,102880,0,0,276,372,400,170,25118,29474,18775,0,360,4.2,6,0,0,0,0,0,0,0,0,0,0,0,0
2008,1,18,16,0,,4.5,-7.2,41,102860,0,0,282,222,195,146,14531,1802,14477,0,340,4.4,8,0,0,0,0,0,0,0,0,0,0,0,0
2008,1,18,17,0,,4,-6.6,47,102830,0,0,280,122,174,81,0,0,0,0,320,2.7,8,0,0,0,0,0,0,0,0,0,0,0,0
2008,1,18,18,0,,4,-6.1,47,102810,0,0,273,43,22,21,0,0,0,0,360,3.7,6,0,0,0,0,0,0,0,0,0,0,0,0
2008,1,18,19,0,,4,-5.6,49,102850,0,0,274,0,0,0,0,0,0,0,340,3.2,6,0,0,0,0,0,0,0,0,0,0,0,0
2008,1,18,20,0,,4.1,-5.2,52,102900,0,0,275,0,0,0,0,0,0,0,360,2,6,0,0,0,0,0,0,0,0,0,0,0,0
2008,1,18,21,0,,4,-4.7,52,102940,0,0,275,0,0,0,0,0,0,0,320,1.8,6,0,0,0,0,0,0,0,0,0,0,0,0
2008,1,18,22,0,,3.9,-4.5,54,102920,0,0,277,0,0,0,0,0,0,0,140,1.2,7,0,0,0,0,0,0,0,0,0,0,0,0
2008,1,18,23,0,,3.5,-4.2,56,102910,0,0,278,0,0,0,0,0,0,0,160,1.1,7,0,0,0,0,0,0,0,0,0,0,0,0
2008,1,18,24,0,,3.2,-4,58,102890,0,0,280,0,0,0,0,0,0,0,160,1.8,8,0,0,0,0,0,0,0,0,0,0,0,0
2008,1,19,1,0,,3.2,-4,59,102880,0,0,282,0,0,0,0,0,0,0,160,1.6,8,0,0,0,0,0,0,0,0,0,0,0,0
2008,1,19,2,0,,3,-3.9,60,102860,0,0,283,0,0,0,0,0,0,0,160,1.3,9,0,0,0,0,0,0,0,0,0,0,0,0
2008,1,19,3,0,,2.9,-3.9,60,102850,0,0,285,0,0,0,0,0,0,0,160,1.4,9,0,0,0,0,0,0,0,0,0,0,0,0
2008,1,19,4,0,,3.2,-4.1,58,102830,0,0,280,0,0,0,0,0,0,0,160,1.8,8,0,0,0,0,0,0,0,0,0,0,0,0
2008,1,19,5,0,,2.7,-4.3,59,102820,0,0,270,0,0,0,0,0,0,0,160,2.1,6,0,0,0,0,0,0,0,0,0,0,0,0
2008,1,19,6,0,,2.5,-4.5,59,102800,0,0,276,0,0,0,0,0,0,0,180,1,8,0,0,0,0,0,0,0,0,0,0,0,0
2008,1,19,7,0,,3.4,-3.9,59,102830,0,0,281,0,0,0,0,0,0,0,160,1.9,8,0,0,0,0,0,0,0,0,0,0,0,0
2008,1,19,8,0,,4,-3.2,59,102870,0,0,284,8,1,7,942,27,933,0,160,1.6,8,0,0,0,0,0,0,0,0,0,0,0,0
2008,1,19,9,0,,4.5,-2.6,59,102900,0,0,301,49,47,42,7585,4735,5353,0,160,1.8,10,0,0,0,0,0,0,0,0,0,0,0,0
2008,1,19,10,0,,5.9,-2.4,57,102870,0,0,299,152,120,113,20965,12247,14170,0,70,1.8,9,0,0,0,0,0,0,0,0,0,0,0,0
2008,1,19,11,0,,7,-2.3,52,102830,0,0,304,234,132,174,28323,13490,20397,0,50,3,9,0,0,0,0,0,0,0,0,0,0,0,0
2008,1,19,12,0,,7.4,-2.1,50,102800,0,0,306,273,112,212,30875,11276,24480,0,50,2.5,9,0,0,0,0,0,0,0,0,0,0,0,0
2008,1,19,13,0,,7.9,-2,44,102720,0,0,308,285,100,227,30370,9702,25567,0,50,3.1,9,0,0,0,0,0,0,0,0,0,0,0,0
2008,1,19,14,0,,8.1,-1.8,45,102640,0,0,310,271,94,217,27591,8814,24275,0,50,2.7,9,0,0,0,0,0,0,0,0,0,0,0,0
2008,1,19,15,0,,8.1,-1.7,49,102560,0,0,310,244,106,191,22962,8996,20996,0,50,3.6,9,0,0,0,0,0,0,0,0,0,0,0,0
2008,1,19,16,0,,8.1,-0.9,54,102550,0,0,319,143,55,122,13026,3453,12912,0,50,3.4,10,0,0,0,0,0,0,0,0,0,0,0,0
2008,1,19,17,0,,8.1,-0.1,56,102550,0,0,320,78,46,67,0,0,0,0,70,2.9,10,0,0,0,0,0,0,0,0,0,0,0,0
2008,1,19,18,0,,8,0.7,59,102540,0,0,321,16,1,15,0,0,0,0,70,1.9,10,0,0,0,0,0,0,0,0,0,0,0,0
2008,1,19,19,0,,7.5,1.8,70,102520,0,0,320,0,0,0,0,0,0,0,160,1.8,10,0,0,0,0,0,0,0,0,0,0,0,0
2008,1,19,20,0,,6.9,3,75,102510,0,0,319,0,0,0,0,0,0,0,160,1.9,10,0,0,0,0,0,0,0,0,0,0,0,0
2008,1,19,21,0,,7,4.1,80,102490,0,0,321,0,0,0,0,0,0,0,160,1.4,10,0,0,0,0,0,0,0,0,0,0,0,0
2008,1,19,22,0,,7.3,4.7,83,102450,0,0,323,0,0,0,0,0,0,0,140,1.4,10,0,0,0,0,0,0,0,0,0,0,0,0
2008,1,19,23,0,,7.1,5.2,87,102410,0,0,323,0,0,0,0,0,0,0,230,1.2,10,0,0,0,0,0,0,0,0,0,0,0,0
2008,1,19,24,0,,7.4,5.8,88,102370,0,0,325,0,0,0,0,0,0,0,110,1.4,10,0,0,0,0,0,0,0,0,0,0,0,0
2008,1,20,1,0,,7.4,5.9,89,102310,0,0,325,0,0,0,0,0,0,0,90,1.9,10,0,0,0,0,0,0,0,0,0,0,0,0
2008,1,20,2,0,,7.5,5.9,90,102260,0,0,325,0,0,0,0,0,0,0,70,2.3,10,0,0,0,0,0,0,0,0,0,0,0,0
2008,1,20,3,0,,7.6,6,88,102200,0,0,326,0,0,0,0,0,0,0,110,2.5,10,0,0,0,0,0,0,0,0,0,0,0,0
2008,1,20,4,0,,7.6,6,86,102150,0,0,326,0,0,0,0,0,0,0,110,2.2,10,0,0,0,0,0,0,0,0,0,0,0,0
2008,1,20,5,0,,7.9,6,85,102100,0,0,327,0,0,0,0,0,0,0,50,2.2,10,0,0,0,0,0,0,0,0,0,0,0,0
2008,1,20,6,0,,8.1,6,85,102050,0,0,328,0,0,0,0,0,0,0,70,2.3,10,0,0,0,0,0,0,0,0,0,0,0,0
2008,1,20,7,0,,8.8,6.3,85,102030,0,0,332,0,0,0,0,0,0,0,90,3.2,10,0,0,0,0,0,0,0,0,0,0,0,0
2008,1,20,8,0,,8.3,6.7,88,102020,0,0,330,0,0,0,50,0,50,0,90,1.8,10,0,0,0,0,0,0,0,0,0,0,0,0
2008,1,20,9,0,,8.6,7,88,102000,0,0,332,34,16,31,4491,1468,3795,0,70,2.3,10,0,0,0,0,0,0,0,0,0,0,0,0
2008,1,20,10,0,,8.6,6.9,88,101960,0,0,332,79,19,73,9609,1729,8645,0,70,2.5,10,0,0,0,0,0,0,0,0,0,0,0,0
2008,1,20,11,0,,8.5,6.7,84,101910,0,0,331,127,23,116,14880,2200,13581,0,70,4,10,0,0,0,0,0,0,0,0,0,0,0,0
2008,1,20,12,0,,8.5,6.6,86,101870,0,0,331,147,20,137,16932,1865,15868,0,90,3.2,10,0,0,0,0,0,0,0,0,0,0,0,0
2008,1,20,13,0,,8.6,6.5,84,101810,0,0,331,168,23,155,18869,2115,17814,0,70,4.4,10,0,0,0,0,0,0,0,0,0,0,0,0
2008,1,20,14,0,,8.6,6.3,85,101760,0,0,331,170,25,156,18093,1706,17446,0,50,4,10,0,0,0,0,0,0,0,0,0,0,0,0
2008,1,20,15,0,,8.3,6.2,85,101700,0,0,329,152,28,138,15084,1573,14735,0,50,4.7,10,0,0,0,0,0,0,0,0,0,0,0,0
2008,1,20,16,0,,8.3,6.4,86,101700,0,0,330,116,30,105,9911,2538,9819,0,20,4.8,10,0,0,0,0,0,0,0,0,0,0,0,0
2008,1,20,17,0,,8.5,6.6,86,101700,0,0,331,63,25,57,0,0,0,0,50,4.3,10,0,0,0,0,0,0,0,0,0,0,0,0
2008,1,20,18,0,,8.6,6.8,87,101700,0,0,332,15,1,14,0,0,0,0,50,4.1,10,0,0,0,0,0,0,0,0,0,0,0,0
2008,1,20,19,0,,8.8,6.8,86,101710,0,0,332,0,0,0,0,0,0,0,50,3.9,10,0,0,0,0,0,0,0,0,0,0,0,0
2008,1,20,20,0,,8.6,6.7,87,101730,0,0,331,0,0,0,0,0,0,0,90,1.6,10,0,0,0,0,0,0,0,0,0,0,0,0
2008,1,20,21,0,,8.8,6.7,85,101740,0,0,332,0,0,0,0,0,0,0,50,3.9,10,0,0,0,0,0,0,0,0,0,0,0,0
2008,1,20,22,0,,8.8,6.6,83,101740,0,0,332,0,0,0,0,0,0,0,50,3.5,10,0,0,0,0,0,0,0,0,0,0,0,0
2008,1,20,23,0,,8.8,6.6,82,101740,0,0,332,0,0,0,0,0,0,0,70,2.9,10,0,0,0,0,0,0,0,0,0,0,0,0
2008,1,20,24,0,,9,6.5,83,101740,0,0,333,0,0,0,0,0,0,0,50,2.5,10,0,0,0,0,0,0,0,0,0,0,0,0
2008,1,21,1,0,,8.6,6.6,85,101730,0,0,331,0,0,0,0,0,0,0,90,1.3,10,0,0,0,0,0,0,0,0,0,0,0,0
2008,1,21,2,0,,8.5,6.6,86,101710,0,0,331,0,0,0,0,0,0,0,140,1.9,10,0,0,0,0,0,0,0,0,0,0,0,0
2008,1,21,3,0,,8.5,6.7,87,101700,0,0,331,0,0,0,0,0,0,0,110,2.2,10,0,0,0,0,0,0,0,0,0,0,0,0
2008,1,21,4,0,,8.5,6.8,88,101700,0,0,331,0,0,0,0,0,0,0,140,1.1,10,0,0,0,0,0,0,0,0,0,0,0,0
2008,1,21,5,0,,8.5,6.9,88,101700,0,0,331,0,0,0,0,0,0,0,110,2.3,10,0,0,0,0,0,0,0,0,0,0,0,0
2008,1,21,6,0,,8.6,7,88,101700,0,0,332,0,0,0,0,0,0,0,140,1.7,10,0,0,0,0,0,0,0,0,0,0,0,0
2008,1,21,7,0,,8.6,7.2,89,101740,0,0,332,0,0,0,0,0,0,0,110,2.3,10,0,0,0,0,0,0,0,0,0,0,0,0
2008,1,21,8,0,,8.6,7.3,90,101780,0,0,332,0,0,0,0,0,0,0,90,1.7,10,0,0,0,0,0,0,0,0,0,0,0,0
2008,1,21,9,0,,8.8,7.5,90,101820,0,0,333,36,19,33,5234,1786,4384,0,140,2.2,10,0,0,0,0,0,0,0,0,0,0,0,0
2008,1,21,10,0,,9.1,7.6,90,101810,0,0,335,86,23,78,10461,2143,9261,0,110,2.7,10,0,0,0,0,0,0,0,0,0,0,0,0
2008,1,21,11,0,,9.3,7.6,88,101810,0,0,336,134,27,121,15666,2495,14185,0,140,2.1,10,0,0,0,0,0,0,0,0,0,0,0,0
2008,1,21,12,0,,9.3,7.7,88,101800,0,0,336,159,24,146,18223,2264,16924,0,70,2.6,10,0,0,0,0,0,0,0,0,0,0,0,0
2008,1,21,13,0,,9.3,7.2,87,101790,0,0,335,184,29,167,20493,2668,19154,0,70,4.7,10,0,0,0,0,0,0,0,0,0,0,0,0
2008,1,21,14,0,,9.1,6.6,85,101780,0,0,334,174,27,159,18495,1805,17803,0,50,6.4,10,0,0,0,0,0,0,0,0,0,0,0,0
2008,1,21,15,0,,8.6,6.1,83,101770,0,0,331,153,28,139,15193,1576,14838,0,20,6.6,10,0,0,0,0,0,0,0,0,0,0,0,0
2008,1,21,16,0,,8.5,6.1,84,101800,0,0,330,117,29,105,10024,2376,9931,0,20,6.5,10,0,0,0,0,0,0,0,0,0,0,0,0
2008,1,21,17,0,,7.9,6.1,86,101820,0,0,327,68,29,61,0,0,0,0,20,7.7,10,0,0,0,0,0,0,0,0,0,0,0,0
2008,1,21,18,0,,8,6.1,86,101850,0,0,328,16,1,15,0,0,0,0,20,6.5,10,0,0,0,0,0,0,0,0,0,0,0,0
2008,1,21,19,0,,8.1,6.3,85,101850,0,0,329,0,0,0,0,0,0,0,50,5.3,10,0,0,0,0,0,0,0,0,0,0,0,0
2008,1,21,20,0,,8.3,6.5,86,101850,0,0,330,0,0,0,0,0,0,0,70,5.4,10,0,0,0,0,0,0,0,0,0,0,0,0
2008,1,21,21,0,,8.6,6.7,86,101850,0,0,331,0,0,0,0,0,0,0,90,4.1,10,0,0,0,0,0,0,0,0,0,0,0,0
2008,1,21,22,0,,8.6,6.9,88,101830,0,0,332,0,0,0,0,0,0,0,90,3.9,10,0,0,0,0,0,0,0,0,0,0,0,0
2008,1,21,23,0,,8.8,7,87,101820,0,0,333,0,0,0,0,0,0,0,90,3.3,10,0,0,0,0,0,0,0,0,0,0,0,0
2008,1,21,24,0,,9,7.2,87,101800,0,0,334,0,0,0,0,0,0,0,90,3,10,0,0,0,0,0,0,0,0,0,0,0,0
2008,1,22,1,0,,8.8,7.3,88,101790,0,0,333,0,0,0,0,0,0,0,70,1.8,10,0,0,0,0,0,0,0,0,0,0,0,0
2008,1,22,2,0,,8.8,7.3,88,101780,0,0,333,0,0,0,0,0,0,0,90,1.4,10,0,0,0,0,0,0,0,0,0,0,0,0
2008,1,22,3,0,,9,7.4,88,101770,0,0,334,0,0,0,0,0,0,0,50,1.3,10,0,0,0,0,0,0,0,0,0,0,0,0
2008,1,22,4,0,,9.3,7.4,89,101780,0,0,336,0,0,0,0,0,0,0,70,4.2,10,0,0,0,0,0,0,0,0,0,0,0,0
2008,1,22,5,0,,9.3,7.3,89,101790,0,0,335,0,0,0,0,0,0,0,20,5.5,10,0,0,0,0,0,0,0,0,0,0,0,0
2008,1,22,6,0,,9.1,7.3,87,101800,0,0,335,0,0,0,0,0,0,0,20,6.2,10,0,0,0,0,0,0,0,0,0,0,0,0
2008,1,22,7,0,,9,7.3,86,101840,0,0,334,0,0,0,0,0,0,0,360,6.7,10,0,0,0,0,0,0,0,0,0,0,0,0
2008,1,22,8,0,,8.6,7.2,89,101880,0,0,332,1,0,1,81,0,81,0,20,5.9,10,0,0,0,0,0,0,0,0,0,0,0,0
2008,1,22,9,0,,8.8,7.2,88,101920,0,0,333,42,29,38,6309,2786,4976,0,20,5.7,10,0,0,0,0,0,0,0,0,0,0,0,0
2008,1,22,10,0,,9,7.1,88,101900,0,0,334,97,32,87,11911,3008,10217,0,20,5.5,10,0,0,0,0,0,0,0,0,0,0,0,0
2008,1,22,11,0,,8.8,7.1,88,101890,0,0,333,143,32,128,16715,2965,14946,0,360,5.1,10,0,0,0,0,0,0,0,0,0,0,0,0
2008,1,22,12,0,,8.6,7,88,101870,0,0,332,150,20,139,17216,1883,16130,0,340,4.2,10,0,0,0,0,0,0,0,0,0,0,0,0
2008,1,22,13,0,,7.6,6.6,89,101850,0,0,327,156,18,145,17543,1175,16949,0,320,4,10,0,0,0,0,0,0,0,0,0,0,0,0
2008,1,22,14,0,,7.5,6.3,89,101840,0,0,326,156,19,145,16887,1253,16403,0,340,3.5,10,0,0,0,0,0,0,0,0,0,0,0,0
2008,1,22,15,0,,7.5,5.9,88,101820,0,0,325,140,21,129,14113,1114,13858,0,320,3.2,10,0,0,0,0,0,0,0,0,0,0,0,0
2008,1,22,16,0,,7.5,5.7,90,101840,0,0,325,114,26,103,9883,1930,9801,0,340,3.8,10,0,0,0,0,0,0,0,0,0,0,0,0
2008,1,22,17,0,,7.5,5.4,89,101870,0,0,325,70,30,62,0,0,0,0,340,4.4,10,0,0,0,0,0,0,0,0,0,0,0,0
2008,1,22,18,0,,7.8,5.2,82,101890,0,0,326,17,1,16,0,0,0,0,340,4.5,10,0,0,0,0,0,0,0,0,0,0,0,0
2008,1,22,19,0,,7.6,5.2,82,101880,0,0,325,0,0,0,0,0,0,0,320,3.6,10,0,0,0,0,0,0,0,0,0,0,0,0
2008,1,22,20,0,,7.6,5.1,82,101880,0,0,325,0,0,0,0,0,0,0,320,3.2,10,0,0,0,0,0,0,0,0,0,0,0,0
2008,1,22,21,0,,7.9,5.1,81,101870,0,0,326,0,0,0,0,0,0,0,320,2,10,0,0,0,0,0,0,0,0,0,0,0,0
2008,1,22,22,0,,8,4.9,81,101880,0,0,326,0,0,0,0,0,0,0,250,1.1,10,0,0,0,0,0,0,0,0,0,0,0,0
2008,1,22,23,0,,8,4.6,79,101890,0,0,326,0,0,0,0,0,0,0,290,4,10,0,0,0,0,0,0,0,0,0,0,0,0
2008,1,22,24,0,,7.9,4.4,77,101900,0,0,325,0,0,0,0,0,0,0,320,4.8,10,0,0,0,0,0,0,0,0,0,0,0,0
2008,1,23,1,0,,7,3.5,83,101920,0,0,320,0,0,0,0,0,0,0,320,5.1,10,0,0,0,0,0,0,0,0,0,0,0,0
2008,1,23,2,0,,7,2.7,77,101930,0,0,319,0,0,0,0,0,0,0,340,5.8,10,0,0,0,0,0,0,0,0,0,0,0,0
2008,1,23,3,0,,7.3,1.8,67,101950,0,0,303,0,0,0,0,0,0,0,320,5.3,8,0,0,0,0,0,0,0,0,0,0,0,0
2008,1,23,4,0,,7,1.6,69,101980,0,0,302,0,0,0,0,0,0,0,320,5.6,8,0,0,0,0,0,0,0,0,0,0,0,0
2008,1,23,5,0,,6.6,1.5,67,102010,0,0,292,0,0,0,0,0,0,0,340,6.4,6,0,0,0,0,0,0,0,0,0,0,0,0
2008,1,23,6,0,,6.5,1.3,68,102040,0,0,300,0,0,0,0,0,0,0,320,5.4,8,0,0,0,0,0,0,0,0,0,0,0,0
2008,1,23,7,0,,6.4,1.4,69,102080,0,0,299,0,0,0,0,0,0,0,320,4.6,8,0,0,0,0,0,0,0,0,0,0,0,0
2008,1,23,8,0,,6.5,1.6,68,102130,0,0,300,9,1,8,1090,37,1077,0,320,5.5,8,0,0,0,0,0,0,0,0,0,0,0,0
2008,1,23,9,0,,6.5,1.7,70,102170,0,0,300,78,163,52,15751,15795,8153,0,320,6,8,0,0,0,0,0,0,0,0,0,0,0,0
2008,1,23,10,0,,7.3,1.1,59,102180,0,0,303,183,191,119,25951,19294,15030,0,320,7.3,8,0,0,0,0,0,0,0,0,0,0,0,0
2008,1,23,11,0,,7.1,0.6,60,102180,0,0,301,263,174,182,32489,17669,21889,0,320,7.9,8,0,0,0,0,0,0,0,0,0,0,0,0
2008,1,23,12,0,,6.5,0,62,102190,0,0,298,310,150,226,34907,15107,26140,0,320,7.4,8,0,0,0,0,0,0,0,0,0,0,0,0
2008,1,23,13,0,,6,-0.6,61,102150,0,0,295,321,129,243,34203,12746,27718,0,320,7.1,8,0,0,0,0,0,0,0,0,0,0,0,0
2008,1,23,14,0,,6,-1.3,60,102110,0,0,301,261,79,215,27008,7432,24109,0,320,6.4,9,0,0,0,0,0,0,0,0,0,0,0,0
2008,1,23,15,0,,6,-1.9,56,102070,0,0,300,244,97,194,23337,8387,21389,0,320,7.1,9,0,0,0,0,0,0,0,0,0,0,0,0
2008,1,23,16,0,,5.5,-1.9,66,102150,0,0,307,147,52,126,13544,3358,13390,0,320,7.4,10,0,0,0,0,0,0,0,0,0,0,0,0
2008,1,23,17,0,,5.3,-1.8,60,102220,0,0,306,89,58,75,0,0,0,0,320,7.8,10,0,0,0,0,0,0,0,0,0,0,0,0
2008,1,23,18,0,,4.6,-1.8,62,102300,0,0,303,21,2,19,0,0,0,0,320,7.5,10,0,0,0,0,0,0,0,0,0,0,0,0
2008,1,23,19,0,,4.4,-2.3,58,102360,0,0,301,0,0,0,0,0,0,0,320,7.8,10,0,0,0,0,0,0,0,0,0,0,0,0
2008,1,23,20,0,,4.1,-2.9,56,102430,0,0,299,0,0,0,0,0,0,0,320,7.4,10,0,0,0,0,0,0,0,0,0,0,0,0
2008,1,23,21,0,,3.9,-3.4,58,102490,0,0,298,0,0,0,0,0,0,0,320,8.5,10,0,0,0,0,0,0,0,0,0,0,0,0
2008,1,23,22,0,,3.7,-3.9,56,102530,0,0,293,0,0,0,0,0,0,0,320,7.4,10,0,0,0,0,0,0,0,0,0,0,0,0
2008,1,23,23,0,,3.5,-4.5,57,102560,0,0,289,0,0,0,0,0,0,0,320,7.2,9,0,0,0,0,0,0,0,0,0,0,0,0
2008,1,23,24,0,,3.3,-5,54,102600,0,0,285,0,0,0,0,0,0,0,320,8,9,0,0,0,0,0,0,0,0,0,0,0,0
2008,1,24,1,0,,3,-4.5,56,102600,0,0,285,0,0,0,0,0,0,0,320,7.4,9,0,0,0,0,0,0,0,0,0,0,0,0
2008,1,24,2,0,,2.9,-3.9,58,102610,0,0,285,0,0,0,0,0,0,0,320,7.8,9,0,0,0,0,0,0,0,0,0,0,0,0
2008,1,24,3,0,,2.7,-3.4,63,102610,0,0,285,0,0,0,0,0,0,0,320,7.2,9,0,0,0,0,0,0,0,0,0,0,0,0
2008,1,24,4,0,,2.5,-3.9,62,102640,0,0,283,0,0,0,0,0,0,0,340,7.7,9,0,0,0,0,0,0,0,0,0,0,0,0
2008,1,24,5,0,,2.2,-4.5,67,102670,0,0,281,0,0,0,0,0,0,0,340,7.9,9,0,0,0,0,0,0,0,0,0,0,0,0
2008,1,24,6,0,,2.2,-5,58,102700,0,0,281,0,0,0,0,0,0,0,340,7.5,9,0,0,0,0,0,0,0,0,0,0,0,0
2008,1,24,7,0,,2,-5.5,56,102740,0,0,279,0,0,0,0,0,0,0,360,7.5,9,0,0,0,0,0,0,0,0,0,0,0,0
2008,1,24,8,0,,1.7,-5.9,55,102790,0,0,277,8,1,7,997,25,988,0,340,7,9,0,0,0,0,0,0,0,0,0,0,0,0
2008,1,24,9,0,,1.7,-6.4,54,102830,0,0,271,84,195,53,17347,19194,8062,0,340,6.2,8,0,0,0,0,0,0,0,0,0,0,0,0
2008,1,24,10,0,,1.7,-6.1,55,102860,0,0,271,186,197,120,26442,20339,14869,0,360,7.6,8,0,0,0,0,0,0,0,0,0,0,0,0
2008,1,24,11,0,,1.7,-5.8,56,102900,0,0,272,263,170,183,32301,17622,21672,0,340,6.7,8,0,0,0,0,0,0,0,0,0,0,0,0
2008,1,24,12,0,,2.4,-5.5,55,102930,0,0,275,328,174,231,36796,17748,26434,0,340,7,8,0,0,0,0,0,0,0,0,0,0,0,0
2008,1,24,13,0,,2.5,-5.3,56,102850,0,0,276,354,169,253,37171,16828,28548,0,340,6.3,8,0,0,0,0,0,0,0,0,0,0,0,0
2008,1,24,14,0,,2.2,-5.2,59,102780,0,0,274,331,149,243,32639,14013,27123,0,340,5.4,8,0,0,0,0,0,0,0,0,0,0,0,0
2008,1,24,15,0,,2.9,-5,55,102700,0,0,278,299,169,211,26170,13095,23084,0,340,6.1,8,0,0,0,0,0,0,0,0,0,0,0,0
2008,1,24,16,0,,2.5,-4.6,57,102740,0,0,276,223,166,155,16939,11427,16375,0,340,5.8,8,0,0,0,0,0,0,0,0,0,0,0,0
2008,1,24,17,0,,2.5,-4.3,57,102790,0,0,277,140,202,88,0,0,0,0,340,6.2,8,0,0,0,0,0,0,0,0,0,0,0,0
2008,1,24,18,0,,2.4,-3.9,62,102830,0,0,283,30,6,24,0,0,0,0,340,5.3,9,0,0,0,0,0,0,0,0,0,0,0,0
2008,1,24,19,0,,2.2,-4.3,58,102870,0,0,279,0,0,0,0,0,0,0,340,5,9,0,0,0,0,0,0,0,0,0,0,0,0
2008,1,24,20,0,,2.2,-4.6,60,102900,0,0,277,0,0,0,0,0,0,0,340,4.7,8,0,0,0,0,0,0,0,0,0,0,0,0
2008,1,24,21,0,,2.2,-5,58,102940,0,0,275,0,0,0,0,0,0,0,340,4,8,0,0,0,0,0,0,0,0,0,0,0,0
2008,1,24,22,0,,2.5,-4.6,60,102910,0,0,276,0,0,0,0,0,0,0,340,3.6,8,0,0,0,0,0,0,0,0,0,0,0,0
2008,1,24,23,0,,2.7,-4.3,60,102890,0,0,278,0,0,0,0,0,0,0,340,5.1,8,0,0,0,0,0,0,0,0,0,0,0,0
2008,1,24,24,0,,2.9,-3.9,60,102860,0,0,279,0,0,0,0,0,0,0,320,4.1,8,0,0,0,0,0,0,0,0,0,0,0,0
2008,1,25,1,0,,2.9,-3.9,60,102860,0,0,281,0,0,0,0,0,0,0,340,5.9,8,0,0,0,0,0,0,0,0,0,0,0,0
2008,1,25,2,0,,3,-4,59,102850,0,0,283,0,0,0,0,0,0,0,340,4.9,9,0,0,0,0,0,0,0,0,0,0,0,0
2008,1,25,3,0,,3,-4,59,102850,0,0,285,0,0,0,0,0,0,0,340,4.9,9,0,0,0,0,0,0,0,0,0,0,0,0
2008,1,25,4,0,,3,-3.9,56,102830,0,0,285,0,0,0,0,0,0,0,340,4,9,0,0,0,0,0,0,0,0,0,0,0,0
2008,1,25,5,0,,2.9,-3.7,60,102820,0,0,285,0,0,0,0,0,0,0,340,5.5,9,0,0,0,0,0,0,0,0,0,0,0,0
2008,1,25,6,0,,2.7,-3.6,62,102800,0,0,284,0,0,0,0,0,0,0,320,2.3,9,0,0,0,0,0,0,0,0,0,0,0,0
2008,1,25,7,0,,3,-3.5,62,102850,0,0,286,0,0,0,0,0,0,0,360,5.1,9,0,0,0,0,0,0,0,0,0,0,0,0
2008,1,25,8,0,,3,-3.3,63,102900,0,0,286,7,1,7,957,21,949,0,360,5.6,9,0,0,0,0,0,0,0,0,0,0,0,0
2008,1,25,9,0,,2.7,-3.2,64,102950,0,0,285,67,98,51,11723,9805,6953,0,360,5.2,9,0,0,0,0,0,0,0,0,0,0,0,0
2008,1,25,10,0,,2.7,-3.2,61,102920,0,0,285,144,91,113,19036,9361,13680,0,360,4.2,9,0,0,0,0,0,0,0,0,0,0,0,0
2008,1,25,11,0,,2.7,-3.2,64,102880,0,0,285,206,83,167,24811,8511,19649,0,360,4,9,0,0,0,0,0,0,0,0,0,0,0,0
2008,1,25,12,0,,3.4,-3.2,61,102850,0,0,288,251,80,206,27993,7800,23411,0,340,3.3,9,0,0,0,0,0,0,0,0,0,0,0,0
2008,1,25,13,0,,3.7,-3.4,58,102800,0,0,283,336,143,250,35664,14181,28347,0,340,4.2,8,0,0,0,0,0,0,0,0,0,0,0,0
2008,1,25,14,0,,3.7,-3.5,59,102740,0,0,289,279,90,225,28576,8613,25154,0,340,3.9,9,0,0,0,0,0,0,0,0,0,0,0,0
2008,1,25,15,0,,3.5,-3.7,58,102690,0,0,288,234,82,191,22735,7129,21030,0,320,3.5,9,0,0,0,0,0,0,0,0,0,0,0,0
2008,1,25,16,0,,3.7,-3.6,56,102710,0,0,288,182,89,145,15666,6011,15350,0,340,3.8,9,0,0,0,0,0,0,0,0,0,0,0,0
2008,1,25,17,0,,3.5,-3.6,56,102730,0,0,288,109,92,85,0,0,0,0,360,4,9,0,0,0,0,0,0,0,0,0,0,0,0
2008,1,25,18,0,,3.5,-3.5,59,102750,0,0,288,31,6,25,0,0,0,0,340,3.8,9,0,0,0,0,0,0,0,0,0,0,0,0
2008,1,25,19,0,,3.5,-3.6,57,102760,0,0,285,0,0,0,0,0,0,0,320,4.3,9,0,0,0,0,0,0,0,0,0,0,0,0
2008,1,25,20,0,,3.5,-3.7,57,102780,0,0,283,0,0,0,0,0,0,0,320,3.4,8,0,0,0,0,0,0,0,0,0,0,0,0
2008,1,25,21,0,,3.4,-3.8,58,102790,0,0,281,0,0,0,0,0,0,0,340,3.6,8,0,0,0,0,0,0,0,0,0,0,0,0
2008,1,25,22,0,,3,-4,58,102740,0,0,279,0,0,0,0,0,0,0,360,4.3,8,0,0,0,0,0,0,0,0,0,0,0,0
2008,1,25,23,0,,2.9,-4.3,54,102700,0,0,278,0,0,0,0,0,0,0,340,3.1,8,0,0,0,0,0,0,0,0,0,0,0,0
2008,1,25,24,0,,2.9,-4.5,57,102650,0,0,278,0,0,0,0,0,0,0,320,3.1,8,0,0,0,0,0,0,0,0,0,0,0,0
2008,1,26,1,0,,2.9,-4.6,57,102670,0,0,278,0,0,0,0,0,0,0,340,3.9,8,0,0,0,0,0,0,0,0,0,0,0,0
2008,1,26,2,0,,2.9,-4.8,55,102680,0,0,278,0,0,0,0,0,0,0,320,3.9,8,0,0,0,0,0,0,0,0,0,0,0,0
2008,1,26,3,0,,3,-4.9,55,102700,0,0,278,0,0,0,0,0,0,0,340,2.4,8,0,0,0,0,0,0,0,0,0,0,0,0
2008,1,26,4,0,,3,-5,56,102670,0,0,292,0,0,0,0,0,0,0,320,3.4,10,0,0,0,0,0,0,0,0,0,0,0,0
2008,1,26,5,0,,3.2,-5.1,54,102630,0,0,293,0,0,0,0,0,0,0,290,2.9,10,0,0,0,0,0,0,0,0,0,0,0,0
2008,1,26,6,0,,3,-5.2,54,102600,0,0,292,0,0,0,0,0,0,0,290,3,10,0,0,0,0,0,0,0,0,0,0,0,0
2008,1,26,7,0,,3,-5.4,56,102620,0,0,292,0,0,0,0,0,0,0,340,3.7,10,0,0,0,0,0,0,0,0,0,0,0,0
2008,1,26,8,0,,2.9,-5.5,55,102630,0,0,291,4,0,4,565,4,564,0,320,3,10,0,0,0,0,0,0,0,0,0,0,0,0
2008,1,26,9,0,,3,-5.7,52,102650,0,0,291,52,45,44,7897,4532,5680,0,340,2.8,10,0,0,0,0,0,0,0,0,0,0,0,0
2008,1,26,10,0,,3.5,-7.2,48,102630,0,0,292,128,64,106,16666,6623,12856,0,340,3.4,10,0,0,0,0,0,0,0,0,0,0,0,0
2008,1,26,11,0,,4,-8.7,37,102620,0,0,292,190,65,159,22109,6353,18235,0,320,2.8,10,0,0,0,0,0,0,0,0,0,0,0,0
2008,1,26,12,0,,4.5,-10.2,33,102600,0,0,293,238,68,200,26681,6716,22712,0,320,2.8,10,0,0,0,0,0,0,0,0,0,0,0,0
2008,1,26,13,0,,4.8,-9.9,36,102560,0,0,287,323,125,247,34447,12618,27889,0,290,3.4,9,0,0,0,0,0,0,0,0,0,0,0,0
2008,1,26,14,0,,5.1,-9.7,29,102530,0,0,288,305,114,237,30842,11026,26421,0,320,3.1,9,0,0,0,0,0,0,0,0,0,0,0,0
2008,1,26,15,0,,5,-9.4,34,102490,0,0,296,214,63,181,21287,5482,19956,0,290,3.2,10,0,0,0,0,0,0,0,0,0,0,0,0
2008,1,26,16,0,,5.1,-9.4,40,102510,0,0,297,162,63,136,14657,4207,14421,0,290,3,10,0,0,0,0,0,0,0,0,0,0,0,0
2008,1,26,17,0,,5.1,-9.4,35,102530,0,0,297,101,71,82,0,0,0,0,320,3.4,10,0,0,0,0,0,0,0,0,0,0,0,0
2008,1,26,18,0,,5,-9.4,34,102550,0,0,296,29,5,24,0,0,0,0,340,4.3,10,0,0,0,0,0,0,0,0,0,0,0,0
2008,1,26,19,0,,4.9,-8.3,43,102550,0,0,291,0,0,0,0,0,0,0,340,4.4,9,0,0,0,0,0,0,0,0,0,0,0,0
2008,1,26,20,0,,4.9,-7.3,45,102550,0,0,288,0,0,0,0,0,0,0,340,4.9,9,0,0,0,0,0,0,0,0,0,0,0,0
2008,1,26,21,0,,4.8,-6.2,44,102550,0,0,284,0,0,0,0,0,0,0,360,5.7,8,0,0,0,0,0,0,0,0,0,0,0,0
2008,1,26,22,0,,4.8,-5.6,48,102540,0,0,280,0,0,0,0,0,0,0,360,6.6,7,0,0,0,0,0,0,0,0,0,0,0,0
2008,1,26,23,0,,4.6,-5.1,50,102520,0,0,277,0,0,0,0,0,0,0,360,5.7,6,0,0,0,0,0,0,0,0,0,0,0,0
2008,1,26,24,0,,4.5,-4.5,51,102510,0,0,275,0,0,0,0,0,0,0,340,6.2,5,0,0,0,0,0,0,0,0,0,0,0,0
2008,1,27,1,0,,4.3,-4.3,55,102520,0,0,275,0,0,0,0,0,0,0,360,4.6,5,0,0,0,0,0,0,0,0,0,0,0,0
2008,1,27,2,0,,4.4,-4.2,53,102540,0,0,276,0,0,0,0,0,0,0,360,4.2,6,0,0,0,0,0,0,0,0,0,0,0,0
2008,1,27,3,0,,4.5,-4,53,102550,0,0,278,0,0,0,0,0,0,0,340,4.1,6,0,0,0,0,0,0,0,0,0,0,0,0
2008,1,27,4,0,,4.4,-3.8,55,102540,0,0,277,0,0,0,0,0,0,0,340,2.7,6,0,0,0,0,0,0,0,0,0,0,0,0
2008,1,27,5,0,,4.4,-3.7,55,102540,0,0,278,0,0,0,0,0,0,0,320,2.3,6,0,0,0,0,0,0,0,0,0,0,0,0
2008,1,27,6,0,,4.5,-3.5,55,102530,0,0,278,0,0,0,0,0,0,0,340,3.5,6,0,0,0,0,0,0,0,0,0,0,0,0
2008,1,27,7,0,,4.5,-3.9,56,102540,0,0,278,0,0,0,0,0,0,0,340,3.8,6,0,0,0,0,0,0,0,0,0,0,0,0
2008,1,27,8,0,,4.2,-4.4,52,102540,0,0,272,20,10,10,1730,973,1379,0,340,3.4,4,0,0,0,0,0,0,0,0,0,0,0,0
2008,1,27,9,0,,4.8,-4.8,49,102550,0,0,276,119,415,49,28000,41580,7530,0,360,1.9,5,0,0,0,0,0,0,0,0,0,0,0,0
2008,1,27,10,0,,5.5,-5.1,45,102510,0,0,281,234,351,114,36080,35202,15715,0,340,1.7,6,0,0,0,0,0,0,0,0,0,0,0,0
2008,1,27,11,0,,6.8,-5.4,41,102470,0,0,286,356,420,155,46272,42336,20302,0,360,3.7,6,0,0,0,0,0,0,0,0,0,0,0,0
2008,1,27,12,0,,7.1,-5.7,39,102430,0,0,287,425,394,200,48370,39421,24930,0,360,2.9,6,0,0,0,0,0,0,0,0,0,0,0,0
2008,1,27,13,0,,8,-5.8,35,102370,0,0,290,462,399,218,46187,40318,25086,0,360,3.4,6,0,0,0,0,0,0,0,0,0,0,0,0
2008,1,27,14,0,,7.6,-6,31,102310,0,0,289,436,323,242,39475,30746,27034,0,340,2.5,6,0,0,0,0,0,0,0,0,0,0,0,0
2008,1,27,15,0,,7.8,-6.1,36,102250,0,0,293,347,244,217,28472,19352,23705,0,340,2.7,7,0,0,0,0,0,0,0,0,0,0,0,0
2008,1,27,16,0,,7,-7.2,35,102250,0,0,293,234,175,160,16645,4687,16367,0,320,2.7,8,0,0,0,0,0,0,0,0,0,0,0,0
2008,1,27,17,0,,6.9,-8.2,33,102250,0,0,279,206,513,69,0,0,0,0,320,2.5,4,0,0,0,0,0,0,0,0,0,0,0,0
2008,1,27,18,0,,6,-9.3,32,102250,0,0,274,64,38,26,0,0,0,0,320,2.5,4,0,0,0,0,0,0,0,0,0,0,0,0
2008,1,27,19,0,,5.6,-7.8,41,102220,0,0,278,0,0,0,0,0,0,0,320,2.7,6,0,0,0,0,0,0,0,0,0,0,0,0
2008,1,27,20,0,,5.5,-6.3,45,102180,0,0,284,0,0,0,0,0,0,0,320,2.3,7,0,0,0,0,0,0,0,0,0,0,0,0
2008,1,27,21,0,,4.8,-4.8,49,102150,0,0,292,0,0,0,0,0,0,0,200,1.1,9,0,0,0,0,0,0,0,0,0,0,0,0
2008,1,27,22,0,,4.5,-4.7,49,102110,0,0,291,0,0,0,0,0,0,0,180,2,9,0,0,0,0,0,0,0,0,0,0,0,0
2008,1,27,23,0,,4.6,-4.5,49,102080,0,0,291,0,0,0,0,0,0,0,180,2.8,9,0,0,0,0,0,0,0,0,0,0,0,0
2008,1,27,24,0,,4.9,-4.4,50,102040,0,0,293,0,0,0,0,0,0,0,180,2.4,9,0,0,0,0,0,0,0,0,0,0,0,0
2008,1,28,1,0,,5.1,-3.5,51,102020,0,0,297,0,0,0,0,0,0,0,180,2.5,9,0,0,0,0,0,0,0,0,0,0,0,0
2008,1,28,2,0,,5.3,-2.7,53,101990,0,0,302,0,0,0,0,0,0,0,200,2.3,10,0,0,0,0,0,0,0,0,0,0,0,0
2008,1,28,3,0,,5.5,-1.8,58,101970,0,0,307,0,0,0,0,0,0,0,320,3.2,10,0,0,0,0,0,0,0,0,0,0,0,0
2008,1,28,4,0,,5,-0.9,67,101950,0,0,306,0,0,0,0,0,0,0,290,2.9,10,0,0,0,0,0,0,0,0,0,0,0,0
2008,1,28,5,0,,4.3,0.1,74,101920,0,0,304,0,0,0,0,0,0,0,340,2.3,10,0,0,0,0,0,0,0,0,0,0,0,0
2008,1,28,6,0,,3.9,1,80,101900,0,0,303,0,0,0,0,0,0,0,20,0.8,10,0,0,0,0,0,0,0,0,0,0,0,0
2008,1,28,7,0,,3.2,1.1,85,101870,0,0,300,0,0,0,0,0,0,0,200,1.1,10,0,0,0,0,0,0,0,0,0,0,0,0
2008,1,28,8,0,,3.1,1.3,86,101830,0,0,300,1,0,1,186,0,186,0,230,1.1,10,0,0,0,0,0,0,0,0,0,0,0,0
2008,1,28,9,0,,3.2,1.4,86,101800,0,0,301,40,19,36,5692,1918,4742,0,180,1.9,10,0,0,0,0,0,0,0,0,0,0,0,0
2008,1,28,10,0,,3.2,1.6,86,101770,0,0,301,84,19,78,10239,1804,9190,0,180,1.8,10,0,0,0,0,0,0,0,0,0,0,0,0
2008,1,28,11,0,,3.5,1.8,86,101750,0,0,303,124,19,115,14543,1819,13420,0,200,2,10,0,0,0,0,0,0,0,0,0,0,0,0
2008,1,28,12,0,,3.9,2,86,101720,0,0,304,157,21,145,17971,1968,16793,0,340,2.8,10,0,0,0,0,0,0,0,0,0,0,0,0
2008,1,28,13,0,,3.9,2,86,101660,0,0,304,169,20,157,19092,1407,18350,0,320,2.8,10,0,0,0,0,0,0,0,0,0,0,0,0
2008,1,28,14,0,,4.3,1.9,83,101610,0,0,306,191,30,173,20722,2782,19586,0,320,3.7,10,0,0,0,0,0,0,0,0,0,0,0,0
2008,1,28,15,0,,4.3,1.9,83,101550,0,0,306,167,30,151,16694,1923,16213,0,290,4.2,10,0,0,0,0,0,0,0,0,0,0,0,0
2008,1,28,16,0,,4.1,1,82,101560,0,0,304,130,32,116,11374,2224,11234,0,320,5.1,10,0,0,0,0,0,0,0,0,0,0,0,0
2008,1,28,17,0,,4.1,0.1,71,101560,0,0,303,79,32,70,0,0,0,0,320,4.4,10,0,0,0,0,0,0,0,0,0,0,0,0
2008,1,28,18,0,,4.5,-0.8,67,101570,0,0,303,23,2,21,0,0,0,0,340,4,10,0,0,0,0,0,0,0,0,0,0,0,0
2008,1,28,19,0,,4.6,-1.4,67,101570,0,0,303,0,0,0,0,0,0,0,340,3.3,10,0,0,0,0,0,0,0,0,0,0,0,0
2008,1,28,20,0,,4.9,-1.9,61,101570,0,0,304,0,0,0,0,0,0,0,320,3.3,10,0,0,0,0,0,0,0,0,0,0,0,0
2008,1,28,21,0,,4.8,-2.5,58,101570,0,0,303,0,0,0,0,0,0,0,290,3.4,10,0,0,0,0,0,0,0,0,0,0,0,0
2008,1,28,22,0,,4.9,-2.3,53,101560,0,0,303,0,0,0,0,0,0,0,320,3.7,10,0,0,0,0,0,0,0,0,0,0,0,0
2008,1,28,23,0,,4.9,-2.1,55,101560,0,0,304,0,0,0,0,0,0,0,320,4.1,10,0,0,0,0,0,0,0,0,0,0,0,0
2008,1,28,24,0,,5,-1.9,60,101550,0,0,304,0,0,0,0,0,0,0,340,4.6,10,0,0,0,0,0,0,0,0,0,0,0,0
2008,1,29,1,0,,5,-1.8,62,101510,0,0,305,0,0,0,0,0,0,0,360,4.3,10,0,0,0,0,0,0,0,0,0,0,0,0
2008,1,29,2,0,,5.1,-1.6,62,101460,0,0,305,0,0,0,0,0,0,0,340,3.9,10,0,0,0,0,0,0,0,0,0,0,0,0
2008,1,29,3,0,,5.4,-1.5,60,101420,0,0,307,0,0,0,0,0,0,0,320,4.5,10,0,0,0,0,0,0,0,0,0,0,0,0
2008,1,29,4,0,,5.5,-0.8,60,101400,0,0,308,0,0,0,0,0,0,0,320,4.5,10,0,0,0,0,0,0,0,0,0,0,0,0
2008,1,29,5,0,,5.1,-0.2,69,101390,0,0,307,0,0,0,0,0,0,0,320,5,10,0,0,0,0,0,0,0,0,0,0,0,0
2008,1,29,6,0,,5.3,0.5,70,101370,0,0,308,0,0,0,0,0,0,0,320,4.6,10,0,0,0,0,0,0,0,0,0,0,0,0
2008,1,29,7,0,,5.3,0.2,71,101400,0,0,308,0,0,0,0,0,0,0,340,5.2,10,0,0,0,0,0,0,0,0,0,0,0,0
2008,1,29,8,0,,5.3,0,69,101420,0,0,308,5,0,5,689,7,686,0,340,4.2,10,0,0,0,0,0,0,0,0,0,0,0,0
2008,1,29,9,0,,5.5,-0.3,65,101450,0,0,308,52,40,45,7841,4063,5816,0,340,4.1,10,0,0,0,0,0,0,0,0,0,0,0,0
2008,1,29,10,0,,4.8,-0.1,78,101460,0,0,306,104,34,93,12712,3205,10836,0,340,3.6,10,0,0,0,0,0,0,0,0,0,0,0,0
2008,1,29,11,0,,4.6,0,82,101460,0,0,305,146,29,132,17006,2819,15257,0,340,4.8,10,0,0,0,0,0,0,0,0,0,0,0,0
2008,1,29,12,0,,5.4,0.2,68,101470,0,0,309,194,36,173,21938,3500,19830,0,320,4.7,10,0,0,0,0,0,0,0,0,0,0,0,0
2008,1,29,13,0,,5.5,-0.4,68,101440,0,0,308,222,42,196,24416,4016,22284,0,320,5.4,10,0,0,0,0,0,0,0,0,0,0,0,0
2008,1,29,14,0,,6,-1,59,101420,0,0,310,239,54,206,25241,5143,23121,0,320,5.1,10,0,0,0,0,0,0,0,0,0,0,0,0
2008,1,29,15,0,,6.3,-1.6,56,101390,0,0,310,208,54,179,21058,4734,19857,0,290,6.1,10,0,0,0,0,0,0,0,0,0,0,0,0
2008,1,29,16,0,,6.5,-1.6,55,101460,0,0,311,171,67,142,15492,4501,15194,0,290,6.6,10,0,0,0,0,0,0,0,0,0,0,0,0
2008,1,29,17,0,,6.5,-1.7,54,101520,0,0,311,103,67,85,0,0,0,0,320,6.7,10,0,0,0,0,0,0,0,0,0,0,0,0
2008,1,29,18,0,,6.4,-1.7,55,101590,0,0,311,30,5,26,0,0,0,0,320,7.3,10,0,0,0,0,0,0,0,0,0,0,0,0
2008,1,29,19,0,,6.3,-1.8,58,101650,0,0,310,0,0,0,0,0,0,0,320,7.4,10,0,0,0,0,0,0,0,0,0,0,0,0
2008,1,29,20,0,,6.4,-2,56,101710,0,0,310,0,0,0,0,0,0,0,320,6.2,10,0,0,0,0,0,0,0,0,0,0,0,0
2008,1,29,21,0,,6.5,-2.1,53,101770,0,0,311,0,0,0,0,0,0,0,290,5.9,10,0,0,0,0,0,0,0,0,0,0,0,0
2008,1,29,22,0,,6.5,-2.7,52,101780,0,0,310,0,0,0,0,0,0,0,320,7.2,10,0,0,0,0,0,0,0,0,0,0,0,0
2008,1,29,23,0,,5.9,-3.3,44,101790,0,0,307,0,0,0,0,0,0,0,320,5.8,10,0,0,0,0,0,0,0,0,0,0,0,0
2008,1,29,24,0,,6,-3.9,48,101800,0,0,307,0,0,0,0,0,0,0,290,5,10,0,0,0,0,0,0,0,0,0,0,0,0
2008,1,30,1,0,,6,-4.3,48,101850,0,0,306,0,0,0,0,0,0,0,290,6.3,10,0,0,0,0,0,0,0,0,0,0,0,0
2008,1,30,2,0,,6,-4.8,53,101890,0,0,306,0,0,0,0,0,0,0,320,6.5,10,0,0,0,0,0,0,0,0,0,0,0,0
2008,1,30,3,0,,5.6,-5.2,45,101940,0,0,303,0,0,0,0,0,0,0,290,4.8,10,0,0,0,0,0,0,0,0,0,0,0,0
2008,1,30,4,0,,5.5,-4.4,64,101950,0,0,304,0,0,0,0,0,0,0,320,6.1,10,0,0,0,0,0,0,0,0,0,0,0,0
2008,1,30,5,0,,5.5,-3.7,53,101960,0,0,305,0,0,0,0,0,0,0,320,5.5,10,0,0,0,0,0,0,0,0,0,0,0,0
2008,1,30,6,0,,5.4,-2.9,54,101970,0,0,305,0,0,0,0,0,0,0,320,5.1,10,0,0,0,0,0,0,0,0,0,0,0,0
2008,1,30,7,0,,5.1,-2.9,51,101980,0,0,304,0,0,0,0,0,0,0,290,6.9,10,0,0,0,0,0,0,0,0,0,0,0,0
2008,1,30,8,0,,5,-3,48,101990,0,0,303,6,0,6,810,7,807,0,320,5.2,10,0,0,0,0,0,0,0,0,0,0,0,0
2008,1,30,9,0,,5,-3,55,102000,0,0,303,58,52,49,8881,5290,6227,0,320,6.1,10,0,0,0,0,0,0,0,0,0,0,0,0
2008,1,30,10,0,,5.1,-3.4,52,102040,0,0,303,128,59,108,16634,6024,13088,0,290,5.6,10,0,0,0,0,0,0,0,0,0,0,0,0
2008,1,30,11,0,,5.5,-3.9,51,102080,0,0,304,188,58,160,21927,5694,18373,0,290,5.1,10,0,0,0,0,0,0,0,0,0,0,0,0
2008,1,30,12,0,,5.6,-4.3,48,102120,0,0,304,234,60,199,26236,5851,22691,0,320,6.4,10,0,0,0,0,0,0,0,0,0,0,0,0
2008,1,30,13,0,,5.4,-4.8,45,102080,0,0,303,257,61,219,27951,5993,24746,0,290,6.6,10,0,0,0,0,0,0,0,0,0,0,0,0
2008,1,30,14,0,,5,-5.2,46,102030,0,0,292,298,98,238,30484,9433,26561,0,290,6.9,9,0,0,0,0,0,0,0,0,0,0,0,0
2008,1,30,15,0,,5,-5.7,45,101990,0,0,292,264,102,208,25274,9107,22931,0,290,5.9,9,0,0,0,0,0,0,0,0,0,0,0,0
2008,1,30,16,0,,4.4,-4.4,55,102060,0,0,299,154,49,133,14482,3271,14255,0,290,5.6,10,0,0,0,0,0,0,0,0,0,0,0,0
2008,1,30,17,0,,4.4,-3.1,49,102130,0,0,300,98,55,82,0,0,0,0,290,6.4,10,0,0,0,0,0,0,0,0,0,0,0,0
2008,1,30,18,0,,3.7,-1.8,66,102200,0,0,299,27,3,23,0,0,0,0,320,8.2,10,0,0,0,0,0,0,0,0,0,0,0,0
2008,1,30,19,0,,3.5,-2.8,71,102250,0,0,283,0,0,0,0,0,0,0,340,6.3,8,0,0,0,0,0,0,0,0,0,0,0,0
2008,1,30,20,0,,3.7,-3.9,57,102300,0,0,282,0,0,0,0,0,0,0,340,5.4,8,0,0,0,0,0,0,0,0,0,0,0,0
2008,1,30,21,0,,3.5,-4.9,53,102350,0,0,294,0,0,0,0,0,0,0,320,6.1,10,0,0,0,0,0,0,0,0,0,0,0,0
2008,1,30,22,0,,3.2,-5.2,54,102360,0,0,293,0,0,0,0,0,0,0,340,6.5,10,0,0,0,0,0,0,0,0,0,0,0,0
2008,1,30,23,0,,3,-5.5,52,102360,0,0,291,0,0,0,0,0,0,0,340,5.4,10,0,0,0,0,0,0,0,0,0,0,0,0
2008,1,30,24,0,,2.9,-5.8,52,102370,0,0,291,0,0,0,0,0,0,0,340,7.2,10,0,0,0,0,0,0,0,0,0,0,0,0
2008,1,31,1,0,,2.9,-5.3,50,102370,0,0,291,0,0,0,0,0,0,0,340,5,10,0,0,0,0,0,0,0,0,0,0,0,0
2008,1,31,2,0,,3,-4.9,59,102370,0,0,292,0,0,0,0,0,0,0,340,5.7,10,0,0,0,0,0,0,0,0,0,0,0,0
2008,1,31,3,0,,3,-4.4,57,102370,0,0,293,0,0,0,0,0,0,0,320,5.2,10,0,0,0,0,0,0,0,0,0,0,0,0
2008,1,31,4,0,,3,-4.5,58,102340,0,0,293,0,0,0,0,0,0,0,340,5.3,10,0,0,0,0,0,0,0,0,0,0,0,0
2008,1,31,5,0,,3.2,-4.6,56,102300,0,0,293,0,0,0,0,0,0,0,340,5.2,10,0,0,0,0,0,0,0,0,0,0,0,0
2008,1,31,6,0,,3.2,-4.7,55,102270,0,0,293,0,0,0,0,0,0,0,340,6,10,0,0,0,0,0,0,0,0,0,0,0,0
2008,1,31,7,0,,3.2,-4.2,54,102330,0,0,294,0,0,0,0,0,0,0,340,3.6,10,0,0,0,0,0,0,0,0,0,0,0,0
2008,1,31,8,0,,3.4,-3.8,56,102380,0,0,295,6,0,6,852,11,848,0,340,4.2,10,0,0,0,0,0,0,0,0,0,0,0,0
2008,1,31,9,0,,3.5,-3.3,60,102440,0,0,288,75,103,56,12818,10396,7570,0,320,5.3,9,0,0,0,0,0,0,0,0,0,0,0,0
2008,1,31,10,0,,3.9,-3.8,58,102460,0,0,289,163,112,123,21646,11502,14834,0,340,5,9,0,0,0,0,0,0,0,0,0,0,0,0
2008,1,31,11,0,,4.1,-4.3,53,102470,0,0,289,230,100,181,27654,10293,21190,0,320,4.6,9,0,0,0,0,0,0,0,0,0,0,0,0
2008,1,31,12,0,,4.5,-4.8,50,102490,0,0,291,292,109,229,33059,11112,26284,0,320,4.9,9,0,0,0,0,0,0,0,0,0,0,0,0
2008,1,31,13,0,,4.4,-4,55,102440,0,0,291,307,98,246,32869,9654,27670,0,320,6.1,9,0,0,0,0,0,0,0,0,0,0,0,0
2008,1,31,14,0,,4.1,-3.1,58,102400,0,0,291,283,84,232,29310,8018,25945,0,340,4.9,9,0,0,0,0,0,0,0,0,0,0,0,0
2008,1,31,15,0,,4.1,-2.3,62,102350,0,0,292,240,76,198,23629,6750,21869,0,320,5.2,9,0,0,0,0,0,0,0,0,0,0,0,0
2008,1,31,16,0,,4,-3.1,54,102380,0,0,284,233,154,166,18531,10851,17738,0,320,5.9,8,0,0,0,0,0,0,0,0,0,0,0,0
2008,1,31,17,0,,3.7,-3.9,53,102420,0,0,288,129,117,96,0,0,0,0,320,6.2,9,0,0,0,0,0,0,0,0,0,0,0,0
2008,1,31,18,0,,3.5,-4.7,54,102450,0,0,286,38,9,29,0,0,0,0,320,5.8,9,0,0,0,0,0,0,0,0,0,0,0,0
2008,1,31,19,0,,3,-5.2,53,102500,0,0,284,0,0,0,0,0,0,0,340,4.6,9,0,0,0,0,0,0,0,0,0,0,0,0
2008,1,31,20,0,,2.9,-5.7,55,102560,0,0,283,0,0,0,0,0,0,0,340,5.5,9,0,0,0,0,0,0,0,0,0,0,0,0
2008,1,31,21,0,,2.7,-6.2,51,102610,0,0,281,0,0,0,0,0,0,0,320,5.3,9,0,0,0,0,0,0,0,0,0,0,0,0
2008,1,31,22,0,,2.6,-5.7,52,102610,0,0,281,0,0,0,0,0,0,0,320,4.1,9,0,0,0,0,0,0,0,0,0,0,0,0
2008,1,31,23,0,,2.7,-5.2,54,102600,0,0,282,0,0,0,0,0,0,0,340,3.4,9,0,0,0,0,0,0,0,0,0,0,0,0
2008,1,31,24,0,,2.7,-4.7,57,102600,0,0,283,0,0,0,0,0,0,0,360,4.6,9,0,0,0,0,0,0,0,0,0,0,0,0
1997,2,1,1,0,,4.8,-1,66,102420,0,0,287,0,0,0,0,0,0,0,340,4.3,7,0,0,0,0,0,0,0,0,0,0,0,0
1997,2,1,2,0,,4.3,-1.4,66,102450,0,0,286,0,0,0,0,0,0,0,340,3.7,8,0,0,0,0,0,0,0,0,0,0,0,0
1997,2,1,3,0,,4.1,-1.9,65,102470,0,0,286,0,0,0,0,0,0,0,360,3.3,8,0,0,0,0,0,0,0,0,0,0,0,0
1997,2,1,4,0,,3.8,-2,66,102480,0,0,285,0,0,0,0,0,0,0,20,4.7,8,0,0,0,0,0,0,0,0,0,0,0,0
1997,2,1,5,0,,3.4,-2.1,68,102490,0,0,283,0,0,0,0,0,0,0,20,3.8,8,0,0,0,0,0,0,0,0,0,0,0,0
1997,2,1,6,0,,2.8,-2.2,69,102500,0,0,280,0,0,0,0,0,0,0,20,1.3,8,0,0,0,0,0,0,0,0,0,0,0,0
1997,2,1,7,0,,2.9,-2.1,69,102580,0,0,278,0,0,0,0,0,0,0,360,3.7,7,0,0,0,0,0,0,0,0,0,0,0,0
1997,2,1,8,0,,2.7,-2,70,102650,0,0,275,15,3,12,1594,304,1479,0,360,2.8,7,0,0,0,0,0,0,0,0,0,0,0,0
1997,2,1,9,0,,3,-1.9,70,102730,0,0,274,107,292,54,23915,29315,8951,0,20,2.2,6,0,0,0,0,0,0,0,0,0,0,0,0
1997,2,1,10,0,,3.3,-2.2,67,102710,0,0,279,201,204,129,28563,20948,16032,0,360,1.5,7,0,0,0,0,0,0,0,0,0,0,0,0
1997,2,1,11,0,,4.4,-2.4,65,102690,0,0,290,224,91,179,27038,9399,21076,0,50,2.5,9,0,0,0,0,0,0,0,0,0,0,0,0
1997,2,1,12,0,,4.1,-2.7,62,102670,0,0,299,199,37,178,22559,3596,20344,0,50,1.3,10,0,0,0,0,0,0,0,0,0,0,0,0
1997,2,1,13,0,,4.4,-2.5,61,102560,0,0,293,279,74,232,30215,7238,26269,0,340,2,9,0,0,0,0,0,0,0,0,0,0,0,0
1997,2,1,14,0,,5.1,-2.4,60,102460,0,0,290,321,116,249,32636,11195,27866,0,70,1.5,8,0,0,0,0,0,0,0,0,0,0,0,0
1997,2,1,15,0,,5.1,-2.2,59,102350,0,0,285,340,202,229,29513,16393,25136,0,50,2.8,7,0,0,0,0,0,0,0,0,0,0,0,0
1997,2,1,16,0,,5.4,-2.2,59,102360,0,0,291,237,155,168,18862,11049,17990,0,50,2.5,8,0,0,0,0,0,0,0,0,0,0,0,0
1997,2,1,17,0,,5.3,-2.2,59,102380,0,0,297,121,94,95,0,0,0,0,90,2.3,9,0,0,0,0,0,0,0,0,0,0,0,0
1997,2,1,18,0,,5.1,-2.2,59,102390,0,0,304,26,3,23,0,0,0,0,140,2.2,10,0,0,0,0,0,0,0,0,0,0,0,0
1997,2,1,19,0,,5,-2.4,58,102400,0,0,304,0,0,0,0,0,0,0,180,1,10,0,0,0,0,0,0,0,0,0,0,0,0
1997,2,1,20,0,,5.1,-2.5,58,102420,0,0,304,0,0,0,0,0,0,0,160,1.2,10,0,0,0,0,0,0,0,0,0,0,0,0
1997,2,1,21,0,,5.1,-2.7,57,102430,0,0,304,0,0,0,0,0,0,0,180,1.7,10,0,0,0,0,0,0,0,0,0,0,0,0
1997,2,1,22,0,,4.6,-1,68,102410,0,0,304,0,0,0,0,0,0,0,160,1.2,10,0,0,0,0,0,0,0,0,0,0,0,0
1997,2,1,23,0,,3.3,0.6,80,102400,0,0,300,0,0,0,0,0,0,0,180,1.7,10,0,0,0,0,0,0,0,0,0,0,0,0
1997,2,1,24,0,,3.7,2.3,91,102380,0,0,304,0,0,0,0,0,0,0,160,0.7,10,0,0,0,0,0,0,0,0,0,0,0,0
1997,2,2,1,0,,3.6,2.2,91,102360,0,0,301,0,0,0,0,0,0,0,160,1,10,0,0,0,0,0,0,0,0,0,0,0,0
1997,2,2,2,0,,3.6,2.2,91,102330,0,0,298,0,0,0,0,0,0,0,160,1.7,9,0,0,0,0,0,0,0,0,0,0,0,0
1997,2,2,3,0,,3.5,2.1,91,102310,0,0,295,0,0,0,0,0,0,0,160,2.3,9,0,0,0,0,0,0,0,0,0,0,0,0
1997,2,2,4,0,,4.1,2.4,91,102260,0,0,300,0,0,0,0,0,0,0,180,1,9,0,0,0,0,0,0,0,0,0,0,0,0
1997,2,2,5,0,,4.2,2.7,91,102220,0,0,304,0,0,0,0,0,0,0,200,2,10,0,0,0,0,0,0,0,0,0,0,0,0
1997,2,2,6,0,,4.3,3,91,102170,0,0,308,0,0,0,0,0,0,0,200,1,10,0,0,0,0,0,0,0,0,0,0,0,0
1997,2,2,7,0,,4.4,3,91,102220,0,0,308,0,0,0,0,0,0,0,230,0.5,10,0,0,0,0,0,0,0,0,0,0,0,0
1997,2,2,8,0,,4.3,2.9,90,102260,0,0,307,3,0,3,387,0,387,0,200,0.7,10,0,0,0,0,0,0,0,0,0,0,0,0
1997,2,2,9,0,,4.4,2.9,90,102310,0,0,308,40,16,37,5255,1505,4481,0,230,1,10,0,0,0,0,0,0,0,0,0,0,0,0
1997,2,2,10,0,,5,2.2,84,102280,0,0,309,103,30,93,12590,2811,10898,0,360,3.3,10,0,0,0,0,0,0,0,0,0,0,0,0
1997,2,2,11,0,,5.7,1.6,78,102240,0,0,311,164,37,145,19089,3572,16809,0,360,4.3,10,0,0,0,0,0,0,0,0,0,0,0,0
1997,2,2,12,0,,5.4,0.9,72,102210,0,0,309,198,35,177,22426,3424,20302,0,360,2.7,10,0,0,0,0,0,0,0,0,0,0,0,0
1997,2,2,13,0,,5,-0.2,66,102150,0,0,300,263,62,224,28703,6010,25403,0,360,3.3,9,0,0,0,0,0,0,0,0,0,0,0,0
1997,2,2,14,0,,5.5,-1.4,60,102100,0,0,296,271,71,227,28351,6777,25437,0,340,3.3,9,0,0,0,0,0,0,0,0,0,0,0,0
1997,2,2,15,0,,6,-2.5,54,102040,0,0,293,306,144,225,28372,12987,24856,0,340,3.7,8,0,0,0,0,0,0,0,0,0,0,0,0
1997,2,2,16,0,,5.8,-1.9,58,102050,0,0,297,193,84,155,17169,5886,16685,0,340,2.7,9,0,0,0,0,0,0,0,0,0,0,0,0
1997,2,2,17,0,,5.2,-1.3,62,102070,0,0,300,118,83,94,0,0,0,0,340,3.7,9,0,0,0,0,0,0,0,0,0,0,0,0
1997,2,2,18,0,,5,-0.7,66,102080,0,0,306,26,3,24,0,0,0,0,340,5.3,10,0,0,0,0,0,0,0,0,0,0,0,0
1997,2,2,19,0,,4.7,-0.8,67,102120,0,0,304,0,0,0,0,0,0,0,360,5.3,10,0,0,0,0,0,0,0,0,0,0,0,0
1997,2,2,20,0,,4.2,-0.8,69,102170,0,0,302,0,0,0,0,0,0,0,360,4,10,0,0,0,0,0,0,0,0,0,0,0,0
1997,2,2,21,0,,3.9,-0.9,70,102210,0,0,301,0,0,0,0,0,0,0,360,5.5,10,0,0,0,0,0,0,0,0,0,0,0,0
1997,2,2,22,0,,3.3,-1.2,70,102230,0,0,298,0,0,0,0,0,0,0,360,4.7,10,0,0,0,0,0,0,0,0,0,0,0,0
1997,2,2,23,0,,3.1,-1.6,69,102240,0,0,297,0,0,0,0,0,0,0,360,3.3,10,0,0,0,0,0,0,0,0,0,0,0,0
1997,2,2,24,0,,3,-1.9,69,102260,0,0,296,0,0,0,0,0,0,0,360,5.7,10,0,0,0,0,0,0,0,0,0,0,0,0
1997,2,3,1,0,,2.8,-2.5,68,102280,0,0,294,0,0,0,0,0,0,0,360,4,10,0,0,0,0,0,0,0,0,0,0,0,0
1997,2,3,2,0,,2.6,-3,66,102290,0,0,293,0,0,0,0,0,0,0,20,4.7,10,0,0,0,0,0,0,0,0,0,0,0,0
1997,2,3,3,0,,2.4,-3.6,65,102310,0,0,291,0,0,0,0,0,0,0,360,5.8,10,0,0,0,0,0,0,0,0,0,0,0,0
1997,2,3,4,0,,2.4,-3.4,66,102300,0,0,281,0,0,0,0,0,0,0,360,4,9,0,0,0,0,0,0,0,0,0,0,0,0
1997,2,3,5,0,,2.3,-3.2,66,102300,0,0,274,0,0,0,0,0,0,0,360,5.3,7,0,0,0,0,0,0,0,0,0,0,0,0
1997,2,3,6,0,,2.1,-3,67,102290,0,0,269,0,0,0,0,0,0,0,360,6.7,6,0,0,0,0,0,0,0,0,0,0,0,0
1997,2,3,7,0,,2.2,-2.9,68,102340,0,0,270,0,0,0,0,0,0,0,20,5.7,6,0,0,0,0,0,0,0,0,0,0,0,0
1997,2,3,8,0,,2.1,-2.8,68,102380,0,0,269,22,9,13,2159,868,1826,0,20,7,6,0,0,0,0,0,0,0,0,0,0,0,0
1997,2,3,9,0,,2.3,-2.7,69,102430,0,0,270,119,299,63,25681,30027,10142,0,20,6,6,0,0,0,0,0,0,0,0,0,0,0,0
1997,2,3,10,0,,3,-2.4,66,102430,0,0,272,235,313,122,35787,31448,16739,0,20,4.3,6,0,0,0,0,0,0,0,0,0,0,0,0
1997,2,3,11,0,,3.6,-2.2,64,102420,0,0,274,370,405,167,47963,40748,21799,0,20,5,5,0,0,0,0,0,0,0,0,0,0,0,0
1997,2,3,12,0,,4.7,-1.9,61,102420,0,0,278,451,412,206,51528,41233,25792,0,20,4.3,5,0,0,0,0,0,0,0,0,0,0,0,0
1997,2,3,13,0,,5,-2.5,57,102390,0,0,277,525,520,194,52660,51376,24244,0,20,5,4,0,0,0,0,0,0,0,0,0,0,0,0
1997,2,3,14,0,,5.6,-3,54,102360,0,0,276,534,576,173,45231,54471,21601,0,20,4.3,3,0,0,0,0,0,0,0,0,0,0,0,0
1997,2,3,15,0,,6.2,-3.6,50,102330,0,0,275,488,623,138,31029,51223,16974,0,20,3.7,2,0,0,0,0,0,0,0,0,0,0,0,0
1997,2,3,16,0,,5.2,-4.8,50,102360,0,0,274,368,562,116,14172,22598,12235,0,360,4.3,3,0,0,0,0,0,0,0,0,0,0,0,0
1997,2,3,17,0,,4.7,-5.9,49,102390,0,0,273,212,423,88,0,0,0,0,20,4,5,0,0,0,0,0,0,0,0,0,0,0,0
1997,2,3,18,0,,3.8,-7.1,49,102420,0,0,272,62,31,31,0,0,0,0,360,1.7,6,0,0,0,0,0,0,0,0,0,0,0,0
1997,2,3,19,0,,3.5,-6.6,50,102470,0,0,269,0,0,0,0,0,0,0,360,3,5,0,0,0,0,0,0,0,0,0,0,0,0
1997,2,3,20,0,,3.3,-6.2,52,102520,0,0,267,0,0,0,0,0,0,0,340,3.2,5,0,0,0,0,0,0,0,0,0,0,0,0
1997,2,3,21,0,,3.1,-5.7,53,102570,0,0,266,0,0,0,0,0,0,0,340,2.7,4,0,0,0,0,0,0,0,0,0,0,0,0
1997,2,3,22,0,,2.8,-5.5,56,102550,0,0,263,0,0,0,0,0,0,0,360,2,3,0,0,0,0,0,0,0,0,0,0,0,0
1997,2,3,23,0,,2.2,-5.2,58,102530,0,0,260,0,0,0,0,0,0,0,360,0.5,3,0,0,0,0,0,0,0,0,0,0,0,0
1997,2,3,24,0,,1.7,-5,61,102510,0,0,256,0,0,0,0,0,0,0,180,0.5,2,0,0,0,0,0,0,0,0,0,0,0,0
1997,2,4,1,0,,1.3,-4.8,64,102460,0,0,258,0,0,0,0,0,0,0,230,0.7,3,0,0,0,0,0,0,0,0,0,0,0,0
1997,2,4,2,0,,1,-4.6,66,102420,0,0,260,0,0,0,0,0,0,0,180,1.2,5,0,0,0,0,0,0,0,0,0,0,0,0
1997,2,4,3,0,,0.6,-4.4,69,102370,0,0,262,0,0,0,0,0,0,0,180,1.3,6,0,0,0,0,0,0,0,0,0,0,0,0
1997,2,4,4,0,,0.2,-4.7,68,102360,0,0,257,0,0,0,0,0,0,0,180,2.7,5,0,0,0,0,0,0,0,0,0,0,0,0
1997,2,4,5,0,,0.1,-5.1,67,102360,0,0,254,0,0,0,0,0,0,0,180,2.2,3,0,0,0,0,0,0,0,0,0,0,0,0
1997,2,4,6,0,,0.1,-5.4,66,102350,0,0,250,0,0,0,0,0,0,0,160,1.7,2,0,0,0,0,0,0,0,0,0,0,0,0
1997,2,4,7,0,,0.3,-4.3,67,102360,0,0,253,0,0,0,0,0,0,0,160,1.8,2,0,0,0,0,0,0,0,0,0,0,0,0
1997,2,4,8,0,,1.1,-3.3,67,102370,0,0,258,28,11,16,2628,1084,2209,0,180,1.8,3,0,0,0,0,0,0,0,0,0,0,0,0
1997,2,4,9,0,,3.1,-2.2,68,102380,0,0,267,150,565,44,35799,56032,6600,0,160,2.3,3,0,0,0,0,0,0,0,0,0,0,0,0
1997,2,4,10,0,,6.3,-2.3,61,102390,0,0,284,291,543,93,47668,55125,14067,0,50,1,5,0,0,0,0,0,0,0,0,0,0,0,0
1997,2,4,11,0,,7.1,-2.4,55,102390,0,0,291,392,476,153,51792,47743,20947,0,50,2.2,6,0,0,0,0,0,0,0,0,0,0,0,0
1997,2,4,12,0,,7.8,-2.5,48,102400,0,0,301,377,208,253,42268,21158,28977,0,50,3.5,8,0,0,0,0,0,0,0,0,0,0,0,0
1997,2,4,13,0,,8,-2.1,49,102340,0,0,304,368,150,272,39140,15033,30764,0,50,3,8,0,0,0,0,0,0,0,0,0,0,0,0
1997,2,4,14,0,,8,-1.8,50,102270,0,0,307,291,82,239,30223,7937,26748,0,50,3.3,9,0,0,0,0,0,0,0,0,0,0,0,0
1997,2,4,15,0,,8.2,-1.4,51,102210,0,0,310,263,90,212,25754,8110,23499,0,50,3,9,0,0,0,0,0,0,0,0,0,0,0,0
1997,2,4,16,0,,8.3,-0.6,55,102220,0,0,314,200,88,160,17795,6261,17237,0,50,2,9,0,0,0,0,0,0,0,0,0,0,0,0
1997,2,4,17,0,,8.2,0.1,58,102220,0,0,318,102,51,87,0,0,0,0,50,3.3,10,0,0,0,0,0,0,0,0,0,0,0,0
1997,2,4,18,0,,7.6,0.9,62,102230,0,0,319,28,3,25,0,0,0,0,70,1.5,10,0,0,0,0,0,0,0,0,0,0,0,0
1997,2,4,19,0,,7.5,1.5,66,102250,0,0,311,0,0,0,0,0,0,0,140,1.5,9,0,0,0,0,0,0,0,0,0,0,0,0
1997,2,4,20,0,,7.2,2.1,71,102270,0,0,303,0,0,0,0,0,0,0,180,0.8,8,0,0,0,0,0,0,0,0,0,0,0,0
1997,2,4,21,0,,6.8,2.7,75,102290,0,0,298,0,0,0,0,0,0,0,160,2,7,0,0,0,0,0,0,0,0,0,0,0,0
1997,2,4,22,0,,6.6,2.6,76,102290,0,0,292,0,0,0,0,0,0,0,160,1,5,0,0,0,0,0,0,0,0,0,0,0,0
1997,2,4,23,0,,6.4,2.6,77,102290,0,0,287,0,0,0,0,0,0,0,180,1.3,4,0,0,0,0,0,0,0,0,0,0,0,0
1997,2,4,24,0,,6,2.5,78,102290,0,0,281,0,0,0,0,0,0,0,180,1.7,2,0,0,0,0,0,0,0,0,0,0,0,0
1997,2,5,1,0,,5.4,2.3,80,102240,0,0,281,0,0,0,0,0,0,0,160,2.3,3,0,0,0,0,0,0,0,0,0,0,0,0
1997,2,5,2,0,,4.9,2.1,83,102200,0,0,281,0,0,0,0,0,0,0,180,1.7,4,0,0,0,0,0,0,0,0,0,0,0,0
1997,2,5,3,0,,4.3,1.9,85,102150,0,0,281,0,0,0,0,0,0,0,180,0.7,5,0,0,0,0,0,0,0,0,0,0,0,0
1997,2,5,4,0,,5.4,2.2,85,102140,0,0,290,0,0,0,0,0,0,0,180,1.3,7,0,0,0,0,0,0,0,0,0,0,0,0
1997,2,5,5,0,,6.8,2.4,84,102130,0,0,304,0,0,0,0,0,0,0,20,1.7,8,0,0,0,0,0,0,0,0,0,0,0,0
1997,2,5,6,0,,6.9,2.7,84,102120,0,0,318,0,0,0,0,0,0,0,20,3.7,10,0,0,0,0,0,0,0,0,0,0,0,0
1997,2,5,7,0,,6.7,3.1,85,102160,0,0,318,0,0,0,0,0,0,0,20,3.3,10,0,0,0,0,0,0,0,0,0,0,0,0
1997,2,5,8,0,,6.3,3.4,85,102200,0,0,317,5,0,5,718,4,716,0,20,3,10,0,0,0,0,0,0,0,0,0,0,0,0
1997,2,5,9,0,,6,3.8,86,102240,0,0,316,42,16,39,5520,1524,4720,0,200,0.3,10,0,0,0,0,0,0,0,0,0,0,0,0
1997,2,5,10,0,,6,3,82,102260,0,0,315,94,21,87,11432,1997,10207,0,200,0.3,10,0,0,0,0,0,0,0,0,0,0,0,0
1997,2,5,11,0,,6.2,2.3,77,102290,0,0,315,151,28,137,17638,2658,15910,0,340,3,10,0,0,0,0,0,0,0,0,0,0,0,0
1997,2,5,12,0,,5.9,1.5,73,102310,0,0,312,185,28,169,21131,2682,19435,0,360,2,10,0,0,0,0,0,0,0,0,0,0,0,0
1997,2,5,13,0,,6,0.1,67,102250,0,0,311,213,32,192,23638,3112,21892,0,360,3,10,0,0,0,0,0,0,0,0,0,0,0,0
1997,2,5,14,0,,6.1,-1.3,60,102180,0,0,310,216,35,193,23299,3369,21812,0,340,3.3,10,0,0,0,0,0,0,0,0,0,0,0,0
1997,2,5,15,0,,6.2,-2.7,54,102120,0,0,309,207,45,181,21304,4040,20165,0,340,4.3,10,0,0,0,0,0,0,0,0,0,0,0,0
1997,2,5,16,0,,6.3,-2.9,53,102120,0,0,294,242,147,175,19760,10732,18767,0,320,3,8,0,0,0,0,0,0,0,0,0,0,0,0
1997,2,5,17,0,,6.3,-3.1,52,102120,0,0,286,201,326,103,0,0,0,0,320,3,6,0,0,0,0,0,0,0,0,0,0,0,0
1997,2,5,18,0,,6.1,-3.3,51,102120,0,0,280,82,50,32,0,0,0,0,340,3,4,0,0,0,0,0,0,0,0,0,0,0,0
1997,2,5,19,0,,5.5,-2.7,54,102140,0,0,280,0,0,0,0,0,0,0,320,4,5,0,0,0,0,0,0,0,0,0,0,0,0
1997,2,5,20,0,,5.6,-2,58,102170,0,0,282,0,0,0,0,0,0,0,320,3.3,5,0,0,0,0,0,0,0,0,0,0,0,0
1997,2,5,21,0,,5.7,-1.4,61,102190,0,0,285,0,0,0,0,0,0,0,340,4.5,6,0,0,0,0,0,0,0,0,0,0,0,0
1997,2,5,22,0,,5.6,-1.7,60,102240,0,0,282,0,0,0,0,0,0,0,360,3,5,0,0,0,0,0,0,0,0,0,0,0,0
1997,2,5,23,0,,5.5,-1.9,60,102290,0,0,279,0,0,0,0,0,0,0,320,4,4,0,0,0,0,0,0,0,0,0,0,0,0
1997,2,5,24,0,,5.3,-2.2,59,102340,0,0,276,0,0,0,0,0,0,0,340,4,3,0,0,0,0,0,0,0,0,0,0,0,0
1997,2,6,1,0,,5.3,-2.1,59,102340,0,0,277,0,0,0,0,0,0,0,340,3.3,3,0,0,0,0,0,0,0,0,0,0,0,0
1997,2,6,2,0,,5.5,-2,59,102350,0,0,278,0,0,0,0,0,0,0,340,2,4,0,0,0,0,0,0,0,0,0,0,0,0
1997,2,6,3,0,,5.5,-1.9,59,102350,0,0,279,0,0,0,0,0,0,0,360,5,4,0,0,0,0,0,0,0,0,0,0,0,0
1997,2,6,4,0,,5.5,-1.7,59,102350,0,0,284,0,0,0,0,0,0,0,360,4.3,6,0,0,0,0,0,0,0,0,0,0,0,0
1997,2,6,5,0,,5.5,-1.6,60,102350,0,0,292,0,0,0,0,0,0,0,360,4.3,8,0,0,0,0,0,0,0,0,0,0,0,0
1997,2,6,6,0,,5.8,-1.4,60,102350,0,0,308,0,0,0,0,0,0,0,360,6,10,0,0,0,0,0,0,0,0,0,0,0,0
1997,2,6,7,0,,6,-1.8,59,102410,0,0,309,0,0,0,0,0,0,0,340,5.7,10,0,0,0,0,0,0,0,0,0,0,0,0
1997,2,6,8,0,,6,-2.1,57,102460,0,0,308,11,1,10,1350,36,1335,0,360,5.3,10,0,0,0,0,0,0,0,0,0,0,0,0
1997,2,6,9,0,,5.7,-2.5,56,102520,0,0,307,71,68,58,11425,6880,7789,0,340,8,10,0,0,0,0,0,0,0,0,0,0,0,0
1997,2,6,10,0,,5.5,-2,58,102500,0,0,303,130,50,111,16700,5135,13529,0,340,5.7,10,0,0,0,0,0,0,0,0,0,0,0,0
1997,2,6,11,0,,5.8,-1.4,59,102480,0,0,302,235,92,188,28219,9468,22026,0,340,6.7,9,0,0,0,0,0,0,0,0,0,0,0,0
1997,2,6,12,0,,6.1,-0.9,61,102460,0,0,302,299,102,237,33947,10383,27340,0,340,7.7,9,0,0,0,0,0,0,0,0,0,0,0,0
1997,2,6,13,0,,6.1,-1.1,61,102400,0,0,292,412,199,283,43233,19918,31976,0,340,5.7,7,0,0,0,0,0,0,0,0,0,0,0,0
1997,2,6,14,0,,5.9,-1.2,60,102350,0,0,285,443,265,274,41961,25313,30684,0,340,5,6,0,0,0,0,0,0,0,0,0,0,0,0
1997,2,6,15,0,,6.3,-1.4,60,102290,0,0,283,449,459,185,31886,38215,20976,0,340,5.3,4,0,0,0,0,0,0,0,0,0,0,0,0
1997,2,6,16,0,,5.9,-2.3,58,102280,0,0,283,343,428,147,17014,16687,15412,0,340,5.7,5,0,0,0,0,0,0,0,0,0,0,0,0
1997,2,6,17,0,,5.3,-3.2,55,102280,0,0,284,187,276,103,0,0,0,0,340,5.7,7,0,0,0,0,0,0,0,0,0,0,0,0
1997,2,6,18,0,,4.6,-4.1,53,102270,0,0,286,53,16,37,0,0,0,0,340,3.7,8,0,0,0,0,0,0,0,0,0,0,0,0
1997,2,6,19,0,,4.3,-4.3,54,102290,0,0,283,0,0,0,0,0,0,0,20,5.3,8,0,0,0,0,0,0,0,0,0,0,0,0
1997,2,6,20,0,,3.9,-4.5,54,102320,0,0,279,0,0,0,0,0,0,0,340,3,7,0,0,0,0,0,0,0,0,0,0,0,0
1997,2,6,21,0,,3.4,-4.7,55,102340,0,0,276,0,0,0,0,0,0,0,360,3.3,7,0,0,0,0,0,0,0,0,0,0,0,0
1997,2,6,22,0,,3.4,-4.2,58,102350,0,0,273,0,0,0,0,0,0,0,20,3.7,6,0,0,0,0,0,0,0,0,0,0,0,0
1997,2,6,23,0,,3.1,-3.8,60,102360,0,0,270,0,0,0,0,0,0,0,20,4.3,5,0,0,0,0,0,0,0,0,0,0,0,0
1997,2,6,24,0,,3,-3.3,63,102370,0,0,268,0,0,0,0,0,0,0,20,2.3,4,0,0,0,0,0,0,0,0,0,0,0,0
1997,2,7,1,0,,2.7,-3.4,64,102340,0,0,268,0,0,0,0,0,0,0,180,0.7,5,0,0,0,0,0,0,0,0,0,0,0,0
1997,2,7,2,0,,2.3,-3.5,65,102320,0,0,268,0,0,0,0,0,0,0,180,2,5,0,0,0,0,0,0,0,0,0,0,0,0
1997,2,7,3,0,,2.1,-3.6,66,102290,0,0,268,0,0,0,0,0,0,0,180,1.7,6,0,0,0,0,0,0,0,0,0,0,0,0
1997,2,7,4,0,,2.6,-2.7,68,102240,0,0,275,0,0,0,0,0,0,0,180,1,7,0,0,0,0,0,0,0,0,0,0,0,0
1997,2,7,5,0,,3,-1.8,71,102180,0,0,282,0,0,0,0,0,0,0,180,0.8,8,0,0,0,0,0,0,0,0,0,0,0,0
1997,2,7,6,0,,3.1,-0.9,73,102130,0,0,289,0,0,0,0,0,0,0,180,0.7,9,0,0,0,0,0,0,0,0,0,0,0,0
1997,2,7,7,0,,3.3,-0.4,73,102180,0,0,293,0,0,0,0,0,0,0,180,1.7,9,0,0,0,0,0,0,0,0,0,0,0,0
1997,2,7,8,0,,4.1,0.1,72,102220,0,0,300,8,0,8,1070,16,1063,0,140,2,10,0,0,0,0,0,0,0,0,0,0,0,0
1997,2,7,9,0,,5.3,0.6,72,102270,0,0,309,61,43,53,9063,4301,6773,0,140,1,10,0,0,0,0,0,0,0,0,0,0,0,0
1997,2,7,10,0,,6.5,1.5,73,102230,0,0,315,132,51,113,17042,5211,13804,0,110,1.7,10,0,0,0,0,0,0,0,0,0,0,0,0
1997,2,7,11,0,,7.3,2.3,73,102200,0,0,320,183,45,160,21363,4359,18494,0,20,1,10,0,0,0,0,0,0,0,0,0,0,0,0
1997,2,7,12,0,,7.4,3.2,74,102160,0,0,321,193,30,175,21957,2857,20127,0,50,1.3,10,0,0,0,0,0,0,0,0,0,0,0,0
1997,2,7,13,0,,7.5,3.4,75,102110,0,0,322,211,30,191,23545,2904,21891,0,50,2.3,10,0,0,0,0,0,0,0,0,0,0,0,0
1997,2,7,14,0,,7.2,3.7,76,102050,0,0,321,190,24,175,20624,1746,19840,0,20,2.7,10,0,0,0,0,0,0,0,0,0,0,0,0
1997,2,7,15,0,,7.7,3.9,77,102000,0,0,323,169,25,155,17330,1628,16860,0,50,1.7,10,0,0,0,0,0,0,0,0,0,0,0,0
1997,2,7,16,0,,7.8,3.9,78,101970,0,0,324,132,25,120,12160,1352,12026,0,20,2.3,10,0,0,0,0,0,0,0,0,0,0,0,0
1997,2,7,17,0,,7.5,3.9,78,101940,0,0,323,93,35,82,0,0,0,0,20,2.7,10,0,0,0,0,0,0,0,0,0,0,0,0
1997,2,7,18,0,,7.3,3.9,79,101910,0,0,322,26,2,24,0,0,0,0,50,0.8,10,0,0,0,0,0,0,0,0,0,0,0,0
1997,2,7,19,0,,7.1,4.2,82,101910,0,0,321,0,0,0,0,0,0,0,50,0.5,10,0,0,0,0,0,0,0,0,0,0,0,0
1997,2,7,20,0,,7.2,4.5,84,101900,0,0,322,0,0,0,0,0,0,0,200,0.7,10,0,0,0,0,0,0,0,0,0,0,0,0
1997,2,7,21,0,,6.9,4.8,87,101900,0,0,321,0,0,0,0,0,0,0,200,1.5,10,0,0,0,0,0,0,0,0,0,0,0,0
1997,2,7,22,0,,6.9,4.7,86,101900,0,0,321,0,0,0,0,0,0,0,200,1.7,10,0,0,0,0,0,0,0,0,0,0,0,0
1997,2,7,23,0,,6.8,4.7,86,101890,0,0,321,0,0,0,0,0,0,0,200,1,10,0,0,0,0,0,0,0,0,0,0,0,0
1997,2,7,24,0,,6.8,4.6,85,101890,0,0,320,0,0,0,0,0,0,0,20,2,10,0,0,0,0,0,0,0,0,0,0,0,0
1997,2,8,1,0,,6.8,4.6,86,101840,0,0,320,0,0,0,0,0,0,0,0,0.2,10,0,0,0,0,0,0,0,0,0,0,0,0
1997,2,8,2,0,,6.7,4.6,86,101780,0,0,320,0,0,0,0,0,0,0,180,1.5,10,0,0,0,0,0,0,0,0,0,0,0,0
1997,2,8,3,0,,6.7,4.6,87,101730,0,0,320,0,0,0,0,0,0,0,180,1.3,10,0,0,0,0,0,0,0,0,0,0,0,0
1997,2,8,4,0,,6.8,4.7,86,101680,0,0,321,0,0,0,0,0,0,0,180,1.3,10,0,0,0,0,0,0,0,0,0,0,0,0
1997,2,8,5,0,,6.8,4.7,86,101630,0,0,321,0,0,0,0,0,0,0,180,1.3,10,0,0,0,0,0,0,0,0,0,0,0,0
1997,2,8,6,0,,7.1,4.8,85,101580,0,0,322,0,0,0,0,0,0,0,180,0.3,10,0,0,0,0,0,0,0,0,0,0,0,0
1997,2,8,7,0,,7.4,5,85,101640,0,0,324,0,0,0,0,0,0,0,180,0.7,10,0,0,0,0,0,0,0,0,0,0,0,0
1997,2,8,8,0,,7.7,5.3,84,101690,0,0,325,8,0,7,1028,11,1023,0,50,2.7,10,0,0,0,0,0,0,0,0,0,0,0,0
1997,2,8,9,0,,8.2,5.5,84,101750,0,0,328,55,30,49,7929,2930,6357,0,180,1.3,10,0,0,0,0,0,0,0,0,0,0,0,0
1997,2,8,10,0,,8.2,5.6,82,101700,0,0,328,111,30,99,13482,2855,11696,0,140,1.3,10,0,0,0,0,0,0,0,0,0,0,0,0
1997,2,8,11,0,,8.7,5.7,80,101650,0,0,330,155,28,141,18165,2650,16410,0,180,1.7,10,0,0,0,0,0,0,0,0,0,0,0,0
1997,2,8,12,0,,9.6,5.8,78,101600,0,0,335,189,28,172,21608,2631,19913,0,90,2.3,10,0,0,0,0,0,0,0,0,0,0,0,0
1997,2,8,13,0,,10.1,5,72,101570,0,0,336,218,32,197,24326,3105,22546,0,110,2,10,0,0,0,0,0,0,0,0,0,0,0,0
1997,2,8,14,0,,10.3,4.2,67,101530,0,0,336,229,39,204,24785,3716,23100,0,70,2,10,0,0,0,0,0,0,0,0,0,0,0,0
1997,2,8,15,0,,10.5,3.4,61,101500,0,0,336,199,38,177,20800,3347,19820,0,110,2.3,10,0,0,0,0,0,0,0,0,0,0,0,0
1997,2,8,16,0,,10.5,3.8,63,101520,0,0,336,155,39,137,15240,2702,14962,0,70,2.7,10,0,0,0,0,0,0,0,0,0,0,0,0
1997,2,8,17,0,,10.3,4.2,66,101530,0,0,336,96,37,85,0,0,0,0,90,2,10,0,0,0,0,0,0,0,0,0,0,0,0
1997,2,8,18,0,,10.1,4.6,68,101550,0,0,335,30,3,28,0,0,0,0,110,1.3,10,0,0,0,0,0,0,0,0,0,0,0,0
1997,2,8,19,0,,9.7,5.1,72,101560,0,0,334,0,0,0,0,0,0,0,180,1,10,0,0,0,0,0,0,0,0,0,0,0,0
1997,2,8,20,0,,9.5,5.6,76,101570,0,0,334,0,0,0,0,0,0,0,180,0.7,10,0,0,0,0,0,0,0,0,0,0,0,0
1997,2,8,21,0,,9.4,6.1,80,101580,0,0,334,0,0,0,0,0,0,0,230,0.8,10,0,0,0,0,0,0,0,0,0,0,0,0
1997,2,8,22,0,,9.3,6.3,82,101590,0,0,334,0,0,0,0,0,0,0,180,0.3,10,0,0,0,0,0,0,0,0,0,0,0,0
1997,2,8,23,0,,9,6.5,84,101590,0,0,333,0,0,0,0,0,0,0,180,0.3,10,0,0,0,0,0,0,0,0,0,0,0,0
1997,2,8,24,0,,8.8,6.7,86,101600,0,0,332,0,0,0,0,0,0,0,180,0.7,10,0,0,0,0,0,0,0,0,0,0,0,0
1997,2,9,1,0,,8.6,6.5,86,101580,0,0,331,0,0,0,0,0,0,0,200,1.2,10,0,0,0,0,0,0,0,0,0,0,0,0
1997,2,9,2,0,,8.4,6.4,87,101560,0,0,330,0,0,0,0,0,0,0,200,1.5,10,0,0,0,0,0,0,0,0,0,0,0,0
1997,2,9,3,0,,8.2,6.2,87,101540,0,0,329,0,0,0,0,0,0,0,230,0.8,10,0,0,0,0,0,0,0,0,0,0,0,0
1997,2,9,4,0,,8.5,6.1,87,101540,0,0,330,0,0,0,0,0,0,0,250,1.3,10,0,0,0,0,0,0,0,0,0,0,0,0
1997,2,9,5,0,,8.3,5.9,87,101540,0,0,329,0,0,0,0,0,0,0,200,1.5,10,0,0,0,0,0,0,0,0,0,0,0,0
1997,2,9,6,0,,7.8,5.8,87,101540,0,0,327,0,0,0,0,0,0,0,360,2,10,0,0,0,0,0,0,0,0,0,0,0,0
1997,2,9,7,0,,7.9,5.4,85,101570,0,0,311,0,0,0,0,0,0,0,340,1.3,8,0,0,0,0,0,0,0,0,0,0,0,0
1997,2,9,8,0,,7.8,5,83,101610,0,0,301,23,7,16,2237,579,2003,0,200,0.8,6,0,0,0,0,0,0,0,0,0,0,0,0
1997,2,9,9,0,,7.7,4.6,81,101640,0,0,296,138,357,65,29858,35778,10532,0,200,1.7,4,0,0,0,0,0,0,0,0,0,0,0,0
1997,2,9,10,0,,8.9,4.4,74,101650,0,0,297,295,495,106,47262,49924,15835,0,200,3,3,0,0,0,0,0,0,0,0,0,0,0,0
1997,2,9,11,0,,9.9,4.1,68,101650,0,0,296,437,574,137,57938,57726,19461,0,50,2.3,1,0,0,0,0,0,0,0,0,0,0,0,0
1997,2,9,12,0,,11,3.9,61,101660,0,0,294,540,620,158,61792,61807,21694,0,20,2.5,0,0,0,0,0,0,0,0,0,0,0,0,0
1997,2,9,13,0,,11,2.1,55,101590,0,0,292,584,623,172,58201,60967,23000,0,360,3,0,0,0,0,0,0,0,0,0,0,0,0,0
1997,2,9,14,0,,10.8,0.4,48,101520,0,0,289,553,564,186,47670,53543,23187,0,340,3,0,0,0,0,0,0,0,0,0,0,0,0,0
1997,2,9,15,0,,11.2,-1.4,42,101450,0,0,289,499,583,157,33640,48918,19130,0,360,2.2,0,0,0,0,0,0,0,0,0,0,0,0,0
1997,2,9,16,0,,10.5,-1.9,42,101480,0,0,286,395,586,119,15947,27520,13020,0,360,2.7,0,0,0,0,0,0,0,0,0,0,0,0,0
1997,2,9,17,0,,10,-2.5,41,101510,0,0,283,261,599,72,0,0,0,0,320,2,0,0,0,0,0,0,0,0,0,0,0,0,0
1997,2,9,18,0,,9.4,-3,41,101540,0,0,280,99,67,31,0,0,0,0,270,2.5,0,0,0,0,0,0,0,0,0,0,0,0,0
1997,2,9,19,0,,8.7,-2.2,46,101580,0,0,278,0,0,0,0,0,0,0,250,2.3,0,0,0,0,0,0,0,0,0,0,0,0,0
1997,2,9,20,0,,7.7,-1.5,51,101630,0,0,275,0,0,0,0,0,0,0,250,2.3,0,0,0,0,0,0,0,0,0,0,0,0,0
1997,2,9,21,0,,7.5,-0.7,56,101670,0,0,275,0,0,0,0,0,0,0,230,1.5,0,0,0,0,0,0,0,0,0,0,0,0,0
1997,2,9,22,0,,7.2,-0.5,58,101670,0,0,274,0,0,0,0,0,0,0,250,2.7,0,0,0,0,0,0,0,0,0,0,0,0,0
1997,2,9,23,0,,6.7,-0.4,61,101680,0,0,272,0,0,0,0,0,0,0,230,1.7,0,0,0,0,0,0,0,0,0,0,0,0,0
1997,2,9,24,0,,6.1,-0.2,63,101680,0,0,270,0,0,0,0,0,0,0,230,2.5,0,0,0,0,0,0,0,0,0,0,0,0,0
1997,2,10,1,0,,5.6,-0.7,63,101680,0,0,267,0,0,0,0,0,0,0,200,3,0,0,0,0,0,0,0,0,0,0,0,0,0
1997,2,10,2,0,,5.2,-1.2,63,101670,0,0,265,0,0,0,0,0,0,0,200,2,0,0,0,0,0,0,0,0,0,0,0,0,0
1997,2,10,3,0,,4.7,-1.7,63,101670,0,0,263,0,0,0,0,0,0,0,180,1.5,0,0,0,0,0,0,0,0,0,0,0,0,0
1997,2,10,4,0,,4.4,-1.2,66,101660,0,0,262,0,0,0,0,0,0,0,180,1.7,0,0,0,0,0,0,0,0,0,0,0,0,0
1997,2,10,5,0,,4.3,-0.7,70,101640,0,0,262,0,0,0,0,0,0,0,180,2,0,0,0,0,0,0,0,0,0,0,0,0,0
1997,2,10,6,0,,4.1,-0.2,73,101630,0,0,262,0,0,0,0,0,0,0,200,1.3,0,0,0,0,0,0,0,0,0,0,0,0,0
1997,2,10,7,0,,4.2,-0.1,71,101660,0,0,263,0,0,0,0,0,0,0,180,0.8,0,0,0,0,0,0,0,0,0,0,0,0,0
1997,2,10,8,0,,4.2,-0.1,70,101690,0,0,263,35,17,18,3122,1670,2440,0,180,2,0,0,0,0,0,0,0,0,0,0,0,0,0
1997,2,10,9,0,,5.3,0,68,101720,0,0,267,165,558,49,37609,55624,7340,0,180,1.8,0,0,0,0,0,0,0,0,0,0,0,0,0
1997,2,10,10,0,,7.6,-0.1,62,101690,0,0,276,328,630,85,52781,64085,12174,0,180,0.7,0,0,0,0,0,0,0,0,0,0,0,0,0
1997,2,10,11,0,,8.4,-0.1,57,101670,0,0,279,465,658,119,62043,66812,17229,0,360,1.7,0,0,0,0,0,0,0,0,0,0,0,0,0
1997,2,10,12,0,,9.4,-0.2,51,101640,0,0,283,556,656,149,63560,65841,20569,0,360,1.7,0,0,0,0,0,0,0,0,0,0,0,0,0
1997,2,10,13,0,,9.5,-0.2,51,101590,0,0,295,551,517,206,55475,51098,25763,0,360,2.2,3,0,0,0,0,0,0,0,0,0,0,0,0
1997,2,10,14,0,,10.2,-0.2,51,101540,0,0,306,473,295,280,44482,28321,31421,0,340,4.3,6,0,0,0,0,0,0,0,0,0,0,0,0
1997,2,10,15,0,,9.4,-0.2,51,101490,0,0,317,280,93,225,27531,8482,24984,0,340,5.8,9,0,0,0,0,0,0,0,0,0,0,0,0
1997,2,10,16,0,,9.3,0.4,55,101500,0,0,320,217,93,173,19401,6885,18645,0,320,4.7,9,0,0,0,0,0,0,0,0,0,0,0,0
1997,2,10,17,0,,8.5,0.9,59,101520,0,0,320,107,47,93,0,0,0,0,340,7,10,0,0,0,0,0,0,0,0,0,0,0,0
1997,2,10,18,0,,8.1,1.5,63,101530,0,0,322,40,6,34,0,0,0,0,320,6.5,10,0,0,0,0,0,0,0,0,0,0,0,0
1997,2,10,19,0,,7.8,0.8,63,101550,0,0,311,0,0,0,0,0,0,0,340,5.7,9,0,0,0,0,0,0,0,0,0,0,0,0
1997,2,10,20,0,,7,0,62,101570,0,0,300,0,0,0,0,0,0,0,340,8.3,8,0,0,0,0,0,0,0,0,0,0,0,0
1997,2,10,21,0,,6.1,-0.7,62,101590,0,0,291,0,0,0,0,0,0,0,340,6.3,7,0,0,0,0,0,0,0,0,0,0,0,0
1997,2,10,22,0,,5.6,-0.7,64,101620,0,0,289,0,0,0,0,0,0,0,340,10,7,0,0,0,0,0,0,0,0,0,0,0,0
1997,2,10,23,0,,5.1,-0.7,65,101640,0,0,287,0,0,0,0,0,0,0,340,8.7,7,0,0,0,0,0,0,0,0,0,0,0,0
1997,2,10,24,0,,4.7,-0.7,67,101670,0,0,285,0,0,0,0,0,0,0,340,10.3,7,0,0,0,0,0,0,0,0,0,0,0,0
1997,2,11,1,0,,4.3,-1.4,66,101680,0,0,283,0,0,0,0,0,0,0,340,9.3,7,0,0,0,0,0,0,0,0,0,0,0,0
1997,2,11,2,0,,3.9,-2,65,101700,0,0,281,0,0,0,0,0,0,0,320,8.3,7,0,0,0,0,0,0,0,0,0,0,0,0
1997,2,11,3,0,,3.5,-2.7,64,101710,0,0,278,0,0,0,0,0,0,0,320,10.7,7,0,0,0,0,0,0,0,0,0,0,0,0
1997,2,11,4,0,,3.4,-2.3,68,101760,0,0,280,0,0,0,0,0,0,0,340,10,7,0,0,0,0,0,0,0,0,0,0,0,0
1997,2,11,5,0,,3,-1.8,71,101810,0,0,280,0,0,0,0,0,0,0,320,9,8,0,0,0,0,0,0,0,0,0,0,0,0
1997,2,11,6,0,,2.7,-1.4,75,101860,0,0,281,0,0,0,0,0,0,0,360,8.3,8,0,0,0,0,0,0,0,0,0,0,0,0
1997,2,11,7,0,,2.8,-2.4,69,101890,0,0,279,0,0,0,0,0,0,0,320,10.3,8,0,0,0,0,0,0,0,0,0,0,0,0
1997,2,11,8,0,,2.6,-3.4,64,101910,0,0,275,29,12,17,2795,1129,2330,0,320,8.3,7,0,0,0,0,0,0,0,0,0,0,0,0
1997,2,11,9,0,,3.2,-4.4,58,101940,0,0,275,137,315,71,28628,31836,11174,0,320,9.3,7,0,0,0,0,0,0,0,0,0,0,0,0
1997,2,11,10,0,,3.4,-3.5,61,101980,0,0,280,232,226,144,32565,23444,17612,0,320,10.3,8,0,0,0,0,0,0,0,0,0,0,0,0
1997,2,11,11,0,,3.6,-2.6,63,102020,0,0,285,304,170,214,36714,17521,24888,0,320,8.3,8,0,0,0,0,0,0,0,0,0,0,0,0
1997,2,11,12,0,,4,-1.7,66,102060,0,0,292,298,91,241,33310,8924,27445,0,320,7.7,9,0,0,0,0,0,0,0,0,0,0,0,0
1997,2,11,13,0,,4.3,-1.8,64,102030,0,0,289,402,165,291,42603,16608,32878,0,320,9.7,8,0,0,0,0,0,0,0,0,0,0,0,0
1997,2,11,14,0,,4.3,-1.8,63,102000,0,0,285,398,171,286,39616,16504,31940,0,320,10.3,8,0,0,0,0,0,0,0,0,0,0,0,0
1997,2,11,15,0,,4.7,-1.9,61,101970,0,0,284,386,227,251,33507,19320,27634,0,340,8,7,0,0,0,0,0,0,0,0,0,0,0,0
1997,2,11,16,0,,4.5,-2.9,58,102020,0,0,282,310,258,186,21047,12398,19644,0,320,8.3,7,0,0,0,0,0,0,0,0,0,0,0,0
1997,2,11,17,0,,4.4,-4,54,102060,0,0,281,211,333,104,0,0,0,0,320,8.7,7,0,0,0,0,0,0,0,0,0,0,0,0
1997,2,11,18,0,,4.3,-5,51,102110,0,0,279,87,41,45,0,0,0,0,320,10.5,7,0,0,0,0,0,0,0,0,0,0,0,0
1997,2,11,19,0,,4.2,-4.7,53,102150,0,0,278,0,0,0,0,0,0,0,320,8.7,7,0,0,0,0,0,0,0,0,0,0,0,0
1997,2,11,20,0,,4.1,-4.4,54,102190,0,0,277,0,0,0,0,0,0,0,320,8,6,0,0,0,0,0,0,0,0,0,0,0,0
1997,2,11,21,0,,3.9,-4.1,56,102230,0,0,275,0,0,0,0,0,0,0,340,9,6,0,0,0,0,0,0,0,0,0,0,0,0
1997,2,11,22,0,,4,-3.8,57,102240,0,0,278,0,0,0,0,0,0,0,340,8.3,7,0,0,0,0,0,0,0,0,0,0,0,0
1997,2,11,23,0,,3.9,-3.6,59,102260,0,0,280,0,0,0,0,0,0,0,340,6.7,7,0,0,0,0,0,0,0,0,0,0,0,0
1997,2,11,24,0,,3.7,-3.3,60,102270,0,0,283,0,0,0,0,0,0,0,340,6.8,8,0,0,0,0,0,0,0,0,0,0,0,0
1997,2,12,1,0,,3.4,-3.5,60,102310,0,0,283,0,0,0,0,0,0,0,340,7,8,0,0,0,0,0,0,0,0,0,0,0,0
1997,2,12,2,0,,3.6,-3.6,59,102350,0,0,286,0,0,0,0,0,0,0,340,7,9,0,0,0,0,0,0,0,0,0,0,0,0
1997,2,12,3,0,,3.7,-3.8,59,102390,0,0,288,0,0,0,0,0,0,0,340,6.7,9,0,0,0,0,0,0,0,0,0,0,0,0
1997,2,12,4,0,,3.8,-3.8,59,102390,0,0,284,0,0,0,0,0,0,0,320,8.2,8,0,0,0,0,0,0,0,0,0,0,0,0
1997,2,12,5,0,,3.8,-3.8,59,102380,0,0,281,0,0,0,0,0,0,0,340,7.5,8,0,0,0,0,0,0,0,0,0,0,0,0
1997,2,12,6,0,,3.7,-3.8,59,102380,0,0,278,0,0,0,0,0,0,0,360,5.3,7,0,0,0,0,0,0,0,0,0,0,0,0
1997,2,12,7,0,,3.6,-4.9,57,102410,0,0,279,0,0,0,0,0,0,0,340,5.8,8,0,0,0,0,0,0,0,0,0,0,0,0
1997,2,12,8,0,,4,-6,55,102450,0,0,283,25,7,18,2464,680,2181,0,360,4.5,8,0,0,0,0,0,0,0,0,0,0,0,0
1997,2,12,9,0,,4.1,-7.1,53,102480,0,0,286,102,142,72,18468,14255,10595,0,340,6,9,0,0,0,0,0,0,0,0,0,0,0,0
1997,2,12,10,0,,4.3,-5.8,54,102500,0,0,291,201,143,145,27213,14899,17647,0,340,6.7,9,0,0,0,0,0,0,0,0,0,0,0,0
1997,2,12,11,0,,4.1,-4.6,56,102510,0,0,294,205,55,176,23900,5397,20235,0,360,6.8,10,0,0,0,0,0,0,0,0,0,0,0,0
1997,2,12,12,0,,4.4,-3.3,57,102530,0,0,300,243,50,211,27349,4935,24086,0,340,5.7,10,0,0,0,0,0,0,0,0,0,0,0,0
1997,2,12,13,0,,4.8,-3.5,56,102510,0,0,293,332,95,268,35730,9365,30208,0,360,6,9,0,0,0,0,0,0,0,0,0,0,0,0
1997,2,12,14,0,,4.9,-3.6,54,102500,0,0,287,391,158,286,39097,15345,31900,0,320,6.2,8,0,0,0,0,0,0,0,0,0,0,0,0
1997,2,12,15,0,,4.7,-3.8,53,102480,0,0,282,383,216,254,33570,18592,27849,0,340,6,7,0,0,0,0,0,0,0,0,0,0,0,0
1997,2,12,16,0,,4.7,-3.4,56,102470,0,0,282,296,216,191,21393,10610,20155,0,340,5.2,7,0,0,0,0,0,0,0,0,0,0,0,0
1997,2,12,17,0,,4.5,-2.9,58,102450,0,0,282,196,248,115,0,0,0,0,340,5.5,7,0,0,0,0,0,0,0,0,0,0,0,0
1997,2,12,18,0,,4.3,-2.5,61,102440,0,0,282,80,39,41,0,0,0,0,340,6,7,0,0,0,0,0,0,0,0,0,0,0,0
1997,2,12,19,0,,4,-2.9,61,102500,0,0,279,0,0,0,0,0,0,0,320,4.7,7,0,0,0,0,0,0,0,0,0,0,0,0
1997,2,12,20,0,,3.5,-3.2,61,102570,0,0,275,0,0,0,0,0,0,0,360,5.3,6,0,0,0,0,0,0,0,0,0,0,0,0
1997,2,12,21,0,,3.4,-3.6,61,102630,0,0,274,0,0,0,0,0,0,0,340,3.3,6,0,0,0,0,0,0,0,0,0,0,0,0
1997,2,12,22,0,,3.4,-3.7,61,102630,0,0,273,0,0,0,0,0,0,0,340,3.7,6,0,0,0,0,0,0,0,0,0,0,0,0
1997,2,12,23,0,,3.1,-3.7,61,102640,0,0,271,0,0,0,0,0,0,0,360,6.3,5,0,0,0,0,0,0,0,0,0,0,0,0
1997,2,12,24,0,,2.9,-3.8,61,102640,0,0,269,0,0,0,0,0,0,0,360,3.3,5,0,0,0,0,0,0,0,0,0,0,0,0
1997,2,13,1,0,,2.9,-4.1,60,102670,0,0,269,0,0,0,0,0,0,0,340,4.3,5,0,0,0,0,0,0,0,0,0,0,0,0
1997,2,13,2,0,,2.8,-4.4,58,102700,0,0,269,0,0,0,0,0,0,0,340,3.3,6,0,0,0,0,0,0,0,0,0,0,0,0
1997,2,13,3,0,,2.9,-4.7,57,102730,0,0,270,0,0,0,0,0,0,0,340,3.3,6,0,0,0,0,0,0,0,0,0,0,0,0
1997,2,13,4,0,,2.9,-4.5,58,102730,0,0,272,0,0,0,0,0,0,0,20,4,6,0,0,0,0,0,0,0,0,0,0,0,0
1997,2,13,5,0,,2.9,-4.3,58,102730,0,0,273,0,0,0,0,0,0,0,20,3.7,7,0,0,0,0,0,0,0,0,0,0,0,0
1997,2,13,6,0,,3.1,-4.1,59,102730,0,0,275,0,0,0,0,0,0,0,20,4.2,7,0,0,0,0,0,0,0,0,0,0,0,0
1997,2,13,7,0,,3.1,-3.9,59,102750,0,0,277,0,0,0,0,0,0,0,360,3.3,7,0,0,0,0,0,0,0,0,0,0,0,0
1997,2,13,8,0,,3.4,-3.8,60,102760,0,0,279,27,8,19,2567,743,2255,0,20,6.7,8,0,0,0,0,0,0,0,0,0,0,0,0
1997,2,13,9,0,,3.6,-3.6,60,102780,0,0,282,112,174,74,20549,17370,10883,0,360,4.5,8,0,0,0,0,0,0,0,0,0,0,0,0
1997,2,13,10,0,,3.9,-3.6,58,102790,0,0,277,268,339,134,40257,34271,18108,0,360,4,6,0,0,0,0,0,0,0,0,0,0,0,0
1997,2,13,11,0,,4.7,-3.6,55,102810,0,0,276,399,396,186,51182,40155,23735,0,360,3.3,5,0,0,0,0,0,0,0,0,0,0,0,0
1997,2,13,12,0,,5.3,-3.6,53,102820,0,0,275,551,605,168,62872,60649,22503,0,20,5.2,3,0,0,0,0,0,0,0,0,0,0,0,0
1997,2,13,13,0,,5.7,-4.2,50,102760,0,0,279,531,430,240,54268,42826,28838,0,340,4.3,5,0,0,0,0,0,0,0,0,0,0,0,0
1997,2,13,14,0,,6.2,-4.8,48,102690,0,0,285,501,328,282,46542,32301,31264,0,340,5.3,6,0,0,0,0,0,0,0,0,0,0,0,0
1997,2,13,15,0,,5.7,-5.4,45,102630,0,0,289,370,190,255,33124,16439,28005,0,340,9,8,0,0,0,0,0,0,0,0,0,0,0,0
1997,2,13,16,0,,5.8,-4.9,47,102640,0,0,288,283,184,193,22512,14188,20809,0,360,6.3,8,0,0,0,0,0,0,0,0,0,0,0,0
1997,2,13,17,0,,5.4,-4.3,48,102660,0,0,286,208,288,113,0,0,0,0,360,6.3,7,0,0,0,0,0,0,0,0,0,0,0,0
1997,2,13,18,0,,5.7,-3.8,50,102670,0,0,286,89,39,50,0,0,0,0,360,8,7,0,0,0,0,0,0,0,0,0,0,0,0
1997,2,13,19,0,,5.5,-3.8,51,102710,0,0,284,5,1,4,0,0,0,0,360,7,7,0,0,0,0,0,0,0,0,0,0,0,0
1997,2,13,20,0,,5.4,-3.8,51,102750,0,0,282,0,0,0,0,0,0,0,340,8,6,0,0,0,0,0,0,0,0,0,0,0,0
1997,2,13,21,0,,5.3,-3.8,52,102790,0,0,281,0,0,0,0,0,0,0,360,5.7,6,0,0,0,0,0,0,0,0,0,0,0,0
1997,2,13,22,0,,5.1,-3.9,52,102780,0,0,278,0,0,0,0,0,0,0,360,5.3,5,0,0,0,0,0,0,0,0,0,0,0,0
1997,2,13,23,0,,4.9,-4,52,102780,0,0,275,0,0,0,0,0,0,0,360,3.3,4,0,0,0,0,0,0,0,0,0,0,0,0
1997,2,13,24,0,,4.9,-4.1,52,102770,0,0,272,0,0,0,0,0,0,0,20,4,3,0,0,0,0,0,0,0,0,0,0,0,0
1997,2,14,1,0,,4.4,-4.2,53,102770,0,0,269,0,0,0,0,0,0,0,360,3.3,3,0,0,0,0,0,0,0,0,0,0,0,0
1997,2,14,2,0,,3.8,-4.3,55,102770,0,0,266,0,0,0,0,0,0,0,20,2.5,2,0,0,0,0,0,0,0,0,0,0,0,0
1997,2,14,3,0,,3.5,-4.4,56,102770,0,0,264,0,0,0,0,0,0,0,20,2.3,2,0,0,0,0,0,0,0,0,0,0,0,0
1997,2,14,4,0,,3.5,-4.6,58,102790,0,0,264,0,0,0,0,0,0,0,340,2.5,2,0,0,0,0,0,0,0,0,0,0,0,0
1997,2,14,5,0,,2.6,-4.8,60,102820,0,0,260,0,0,0,0,0,0,0,200,1,2,0,0,0,0,0,0,0,0,0,0,0,0
1997,2,14,6,0,,1.6,-5,62,102840,0,0,256,0,0,0,0,0,0,0,200,2.2,2,0,0,0,0,0,0,0,0,0,0,0,0
1997,2,14,7,0,,1.5,-5,60,102850,0,0,260,0,0,0,0,0,0,0,180,1.7,4,0,0,0,0,0,0,0,0,0,0,0,0
1997,2,14,8,0,,1.7,-5,59,102850,0,0,264,36,19,17,3065,1856,2278,0,180,3,5,0,0,0,0,0,0,0,0,0,0,0,0
1997,2,14,9,0,,2.7,-5,57,102860,0,0,272,130,262,72,26118,26506,11256,0,180,1.2,7,0,0,0,0,0,0,0,0,0,0,0,0
1997,2,14,10,0,,4.8,-5.2,52,102810,0,0,281,264,309,141,39163,31310,18792,0,160,1,7,0,0,0,0,0,0,0,0,0,0,0,0
1997,2,14,11,0,,5.8,-5.5,46,102760,0,0,285,375,297,214,46401,31101,25009,0,50,2.3,7,0,0,0,0,0,0,0,0,0,0,0,0
1997,2,14,12,0,,6.3,-5.7,41,102710,0,0,287,440,259,275,49133,26924,31097,0,50,2,7,0,0,0,0,0,0,0,0,0,0,0,0
1997,2,14,13,0,,6.7,-6,40,102650,0,0,288,456,223,303,47583,22650,34040,0,50,2.5,7,0,0,0,0,0,0,0,0,0,0,0,0
1997,2,14,14,0,,7.7,-6.4,38,102590,0,0,292,455,236,297,43939,23055,32944,0,50,1.8,7,0,0,0,0,0,0,0,0,0,0,0,0
1997,2,14,15,0,,7,-6.7,37,102530,0,0,289,405,244,257,34895,21290,28187,0,340,3,7,0,0,0,0,0,0,0,0,0,0,0,0
1997,2,14,16,0,,7.8,-7.2,36,102480,0,0,292,325,272,191,21878,14177,20128,0,360,2.3,7,0,0,0,0,0,0,0,0,0,0,0,0
1997,2,14,17,0,,7.3,-7.7,34,102440,0,0,289,209,278,115,0,0,0,0,20,2.3,7,0,0,0,0,0,0,0,0,0,0,0,0
1997,2,14,18,0,,6.6,-8.2,33,102390,0,0,286,85,41,44,0,0,0,0,50,1,7,0,0,0,0,0,0,0,0,0,0,0,0
1997,2,14,19,0,,6.3,-7.7,37,102380,0,0,286,5,0,5,0,0,0,0,110,1.7,7,0,0,0,0,0,0,0,0,0,0,0,0
1997,2,14,20,0,,5.5,-7.2,40,102380,0,0,285,0,0,0,0,0,0,0,180,2.7,8,0,0,0,0,0,0,0,0,0,0,0,0
1997,2,14,21,0,,4.9,-6.7,44,102370,0,0,284,0,0,0,0,0,0,0,180,2,8,0,0,0,0,0,0,0,0,0,0,0,0
1997,2,14,22,0,,4.9,-6.1,46,102350,0,0,289,0,0,0,0,0,0,0,180,1.3,9,0,0,0,0,0,0,0,0,0,0,0,0
1997,2,14,23,0,,4.7,-5.6,47,102320,0,0,293,0,0,0,0,0,0,0,160,2.3,9,0,0,0,0,0,0,0,0,0,0,0,0
1997,2,14,24,0,,4.7,-5,49,102300,0,0,300,0,0,0,0,0,0,0,180,2,10,0,0,0,0,0,0,0,0,0,0,0,0
1997,2,15,1,0,,4.5,-4.3,52,102230,0,0,299,0,0,0,0,0,0,0,160,1.8,10,0,0,0,0,0,0,0,0,0,0,0,0
1997,2,15,2,0,,4.7,-3.7,54,102170,0,0,301,0,0,0,0,0,0,0,160,2,10,0,0,0,0,0,0,0,0,0,0,0,0
1997,2,15,3,0,,4.7,-3,57,102100,0,0,302,0,0,0,0,0,0,0,160,1.2,10,0,0,0,0,0,0,0,0,0,0,0,0
1997,2,15,4,0,,4.8,-2.6,58,102090,0,0,303,0,0,0,0,0,0,0,180,1.5,10,0,0,0,0,0,0,0,0,0,0,0,0
1997,2,15,5,0,,4.9,-2.3,59,102070,0,0,303,0,0,0,0,0,0,0,180,2,10,0,0,0,0,0,0,0,0,0,0,0,0
1997,2,15,6,0,,5,-1.9,60,102060,0,0,304,0,0,0,0,0,0,0,160,1.7,10,0,0,0,0,0,0,0,0,0,0,0,0
1997,2,15,7,0,,5.3,-1,62,102080,0,0,307,0,0,0,0,0,0,0,180,2.3,10,0,0,0,0,0,0,0,0,0,0,0,0
1997,2,15,8,0,,5.8,0,63,102100,0,0,310,13,1,12,1619,34,1604,0,180,1.5,10,0,0,0,0,0,0,0,0,0,0,0,0
1997,2,15,9,0,,6.3,0.9,65,102120,0,0,313,69,39,60,9857,3972,7613,0,180,2,10,0,0,0,0,0,0,0,0,0,0,0,0
1997,2,15,10,0,,7.5,1.2,63,102030,0,0,319,141,47,122,17973,4857,14792,0,180,0.3,10,0,0,0,0,0,0,0,0,0,0,0,0
1997,2,15,11,0,,8.8,1.6,60,101950,0,0,325,205,51,178,23926,4959,20494,0,20,1,10,0,0,0,0,0,0,0,0,0,0,0,0
1997,2,15,12,0,,9.7,1.9,58,101860,0,0,330,243,47,213,27460,4594,24363,0,50,0.8,10,0,0,0,0,0,0,0,0,0,0,0,0
1997,2,15,13,0,,10.6,2.9,62,101800,0,0,329,330,87,270,35690,8524,30558,0,360,1.8,9,0,0,0,0,0,0,0,0,0,0,0,0
1997,2,15,14,0,,10.5,4,65,101730,0,0,325,312,79,259,32784,7615,29123,0,290,3,9,0,0,0,0,0,0,0,0,0,0,0,0
1997,2,15,15,0,,10.4,5,69,101670,0,0,321,313,113,244,30440,10262,27169,0,50,2.3,8,0,0,0,0,0,0,0,0,0,0,0,0
1997,2,15,16,0,,10.3,4.9,70,101670,0,0,323,247,118,189,21646,8862,20523,0,20,3,8,0,0,0,0,0,0,0,0,0,0,0,0
1997,2,15,17,0,,9.9,4.7,71,101680,0,0,323,131,69,108,0,0,0,0,50,2.3,9,0,0,0,0,0,0,0,0,0,0,0,0
1997,2,15,18,0,,9.3,4.6,72,101680,0,0,323,49,8,41,0,0,0,0,360,1.3,9,0,0,0,0,0,0,0,0,0,0,0,0
1997,2,15,19,0,,9.2,4.7,73,101670,0,0,314,3,0,3,0,0,0,0,340,2.7,8,0,0,0,0,0,0,0,0,0,0,0,0
1997,2,15,20,0,,9.3,4.7,73,101650,0,0,308,0,0,0,0,0,0,0,230,2,6,0,0,0,0,0,0,0,0,0,0,0,0
1997,2,15,21,0,,9.1,4.8,74,101640,0,0,304,0,0,0,0,0,0,0,270,1.7,5,0,0,0,0,0,0,0,0,0,0,0,0
1997,2,15,22,0,,9,4.3,72,101630,0,0,304,0,0,0,0,0,0,0,250,2.3,5,0,0,0,0,0,0,0,0,0,0,0,0
1997,2,15,23,0,,8.4,3.9,70,101630,0,0,302,0,0,0,0,0,0,0,250,2.3,6,0,0,0,0,0,0,0,0,0,0,0,0
1997,2,15,24,0,,8.9,3.4,68,101620,0,0,304,0,0,0,0,0,0,0,340,4.3,6,0,0,0,0,0,0,0,0,0,0,0,0
1997,2,16,1,0,,8.5,3.2,70,101610,0,0,307,0,0,0,0,0,0,0,320,8.3,7,0,0,0,0,0,0,0,0,0,0,0,0
1997,2,16,2,0,,8,3.1,72,101600,0,0,312,0,0,0,0,0,0,0,320,10.7,9,0,0,0,0,0,0,0,0,0,0,0,0
1997,2,16,3,0,,7.1,2.9,74,101590,0,0,319,0,0,0,0,0,0,0,360,10,10,0,0,0,0,0,0,0,0,0,0,0,0
1997,2,16,4,0,,5.6,1.6,72,101620,0,0,308,0,0,0,0,0,0,0,340,9.5,10,0,0,0,0,0,0,0,0,0,0,0,0
1997,2,16,5,0,,4.8,0.4,70,101650,0,0,300,0,0,0,0,0,0,0,340,8,9,0,0,0,0,0,0,0,0,0,0,0,0
1997,2,16,6,0,,4.5,-0.9,68,101680,0,0,295,0,0,0,0,0,0,0,360,7.7,9,0,0,0,0,0,0,0,0,0,0,0,0
1997,2,16,7,0,,3.4,-1.8,67,101780,0,0,292,0,0,0,0,0,0,0,360,8,9,0,0,0,0,0,0,0,0,0,0,0,0
1997,2,16,8,0,,2.8,-2.7,66,101890,0,0,291,13,1,12,1662,39,1645,0,360,6,10,0,0,0,0,0,0,0,0,0,0,0,0
1997,2,16,9,0,,2.3,-3.6,65,101990,0,0,291,73,44,63,10454,4486,7901,0,360,8.3,10,0,0,0,0,0,0,0,0,0,0,0,0
1997,2,16,10,0,,2.2,-3.4,66,102000,0,0,291,144,49,124,18393,5136,15007,0,340,8.2,10,0,0,0,0,0,0,0,0,0,0,0,0
1997,2,16,11,0,,2,-3.2,66,102020,0,0,290,199,45,174,23081,4425,19999,0,340,7,10,0,0,0,0,0,0,0,0,0,0,0,0
1997,2,16,12,0,,2.2,-3,67,102030,0,0,291,245,47,214,27630,4632,24488,0,340,8.5,10,0,0,0,0,0,0,0,0,0,0,0,0
1997,2,16,13,0,,1.8,-3,68,102000,0,0,289,236,34,212,26182,3329,24164,0,340,6.7,10,0,0,0,0,0,0,0,0,0,0,0,0
1997,2,16,14,0,,1.5,-3,69,101970,0,0,288,243,39,216,26233,3763,24409,0,340,8.2,10,0,0,0,0,0,0,0,0,0,0,0,0
1997,2,16,15,0,,1.7,-3,70,101940,0,0,289,216,39,192,22528,3590,21370,0,320,7.7,10,0,0,0,0,0,0,0,0,0,0,0,0
1997,2,16,16,0,,1.7,-3.3,69,102000,0,0,289,181,48,157,17583,3643,17109,0,340,7.3,10,0,0,0,0,0,0,0,0,0,0,0,0
1997,2,16,17,0,,1.7,-3.5,67,102070,0,0,288,121,53,103,0,0,0,0,340,7,10,0,0,0,0,0,0,0,0,0,0,0,0
1997,2,16,18,0,,1.8,-3.8,66,102130,0,0,288,48,45,41,0,0,0,0,320,5.7,10,0,0,0,0,0,0,0,0,0,0,0,0
1997,2,16,19,0,,1.7,-4,64,102160,0,0,288,1,0,1,0,0,0,0,340,6.7,10,0,0,0,0,0,0,0,0,0,0,0,0
1997,2,16,20,0,,1.7,-4.2,63,102180,0,0,287,0,0,0,0,0,0,0,360,4.5,10,0,0,0,0,0,0,0,0,0,0,0,0
1997,2,16,21,0,,1.8,-4.4,61,102210,0,0,288,0,0,0,0,0,0,0,20,3.3,10,0,0,0,0,0,0,0,0,0,0,0,0
1997,2,16,22,0,,1.7,-4.2,63,102210,0,0,271,0,0,0,0,0,0,0,20,4,7,0,0,0,0,0,0,0,0,0,0,0,0
1997,2,16,23,0,,1.7,-4,64,102210,0,0,263,0,0,0,0,0,0,0,20,4.3,5,0,0,0,0,0,0,0,0,0,0,0,0
1997,2,16,24,0,,1.9,-3.8,66,102210,0,0,258,0,0,0,0,0,0,0,360,6,2,0,0,0,0,0,0,0,0,0,0,0,0
1997,2,17,1,0,,2.2,-3.9,65,102220,0,0,260,0,0,0,0,0,0,0,340,3.3,2,0,0,0,0,0,0,0,0,0,0,0,0
1997,2,17,2,0,,2.3,-4,63,102230,0,0,260,0,0,0,0,0,0,0,340,3.5,2,0,0,0,0,0,0,0,0,0,0,0,0
1997,2,17,3,0,,2.3,-4.1,62,102240,0,0,260,0,0,0,0,0,0,0,360,4,2,0,0,0,0,0,0,0,0,0,0,0,0
1997,2,17,4,0,,2.4,-3.7,64,102210,0,0,263,0,0,0,0,0,0,0,360,4,3,0,0,0,0,0,0,0,0,0,0,0,0
1997,2,17,5,0,,2.4,-3.4,66,102180,0,0,266,0,0,0,0,0,0,0,360,4.7,4,0,0,0,0,0,0,0,0,0,0,0,0
1997,2,17,6,0,,2.3,-3,68,102150,0,0,268,0,0,0,0,0,0,0,20,3.7,5,0,0,0,0,0,0,0,0,0,0,0,0
1997,2,17,7,0,,2.2,-2.8,68,102230,0,0,268,0,0,0,0,0,0,0,360,3.7,5,0,0,0,0,0,0,0,0,0,0,0,0
1997,2,17,8,0,,2.2,-2.7,68,102310,0,0,269,35,15,20,3384,1497,2730,0,360,2.7,6,0,0,0,0,0,0,0,0,0,0,0,0
1997,2,17,9,0,,2.7,-2.5,68,102390,0,0,272,150,361,66,31655,36688,10613,0,20,4.5,6,0,0,0,0,0,0,0,0,0,0,0,0
1997,2,17,10,0,,2.9,-3,64,102340,0,0,275,241,206,156,33205,21453,18967,0,360,3.2,7,0,0,0,0,0,0,0,0,0,0,0,0
1997,2,17,11,0,,3.6,-3.6,61,102290,0,0,282,303,143,224,36315,14835,25917,0,340,3.5,8,0,0,0,0,0,0,0,0,0,0,0,0
1997,2,17,12,0,,3.7,-4.1,57,102240,0,0,288,303,83,249,33897,8203,28297,0,340,3.3,9,0,0,0,0,0,0,0,0,0,0,0,0
1997,2,17,13,0,,3.8,-3.9,57,102170,0,0,289,339,90,276,36587,8936,31133,0,360,5,9,0,0,0,0,0,0,0,0,0,0,0,0
1997,2,17,14,0,,3.8,-3.8,57,102090,0,0,289,319,81,264,33429,7901,29569,0,340,4,9,0,0,0,0,0,0,0,0,0,0,0,0
1997,2,17,15,0,,3.9,-3.6,57,102020,0,0,289,276,76,229,27738,7084,25428,0,340,3.7,9,0,0,0,0,0,0,0,0,0,0,0,0
1997,2,17,16,0,,3.8,-3.7,58,102020,0,0,289,235,97,186,21184,7552,20175,0,340,5.7,9,0,0,0,0,0,0,0,0,0,0,0,0
1997,2,17,17,0,,3.7,-3.7,58,102030,0,0,288,159,110,121,0,0,0,0,340,5.7,9,0,0,0,0,0,0,0,0,0,0,0,0
1997,2,17,18,0,,3.7,-3.8,59,102030,0,0,288,67,111,50,0,0,0,0,340,5.8,9,0,0,0,0,0,0,0,0,0,0,0,0
1997,2,17,19,0,,3.5,-3.5,60,102060,0,0,282,6,1,6,0,0,0,0,340,6.2,8,0,0,0,0,0,0,0,0,0,0,0,0
1997,2,17,20,0,,3.8,-3.3,60,102090,0,0,279,0,0,0,0,0,0,0,360,5.8,7,0,0,0,0,0,0,0,0,0,0,0,0
1997,2,17,21,0,,3.7,-3,61,102120,0,0,275,0,0,0,0,0,0,0,340,5.7,6,0,0,0,0,0,0,0,0,0,0,0,0
1997,2,17,22,0,,3.3,-3.2,61,102110,0,0,272,0,0,0,0,0,0,0,340,3.7,5,0,0,0,0,0,0,0,0,0,0,0,0
1997,2,17,23,0,,3.2,-3.4,61,102110,0,0,270,0,0,0,0,0,0,0,360,3.5,5,0,0,0,0,0,0,0,0,0,0,0,0
1997,2,17,24,0,,3.1,-3.6,61,102100,0,0,268,0,0,0,0,0,0,0,360,3.7,4,0,0,0,0,0,0,0,0,0,0,0,0
1997,2,18,1,0,,2.7,-4.8,57,102110,0,0,263,0,0,0,0,0,0,0,340,3.3,3,0,0,0,0,0,0,0,0,0,0,0,0
1997,2,18,2,0,,2.7,-5.9,53,102120,0,0,259,0,0,0,0,0,0,0,360,2.7,2,0,0,0,0,0,0,0,0,0,0,0,0
1997,2,18,3,0,,2.7,-7.1,49,102130,0,0,255,0,0,0,0,0,0,0,360,3,1,0,0,0,0,0,0,0,0,0,0,0,0
1997,2,18,4,0,,2.7,-5.8,54,102120,0,0,258,0,0,0,0,0,0,0,360,4.7,2,0,0,0,0,0,0,0,0,0,0,0,0
1997,2,18,5,0,,3,-4.6,59,102120,0,0,263,0,0,0,0,0,0,0,340,3.3,2,0,0,0,0,0,0,0,0,0,0,0,0
1997,2,18,6,0,,3.1,-3.3,64,102110,0,0,266,0,0,0,0,0,0,0,340,4.2,3,0,0,0,0,0,0,0,0,0,0,0,0
1997,2,18,7,0,,5.1,-3.4,61,102160,0,0,275,0,0,0,0,0,0,0,320,4.3,4,0,0,0,0,0,0,0,0,0,0,0,0
1997,2,18,8,0,,3.5,-3.5,59,102220,0,0,270,46,25,22,3996,2449,2916,0,320,3.7,4,0,0,0,0,0,0,0,0,0,0,0,0
1997,2,18,9,0,,4.3,-3.6,56,102270,0,0,275,176,467,65,37027,47364,9655,0,320,5.3,5,0,0,0,0,0,0,0,0,0,0,0,0
1997,2,18,10,0,,4.9,-3.5,54,102240,0,0,277,309,431,130,47573,43718,18366,0,320,5,5,0,0,0,0,0,0,0,0,0,0,0,0
1997,2,18,11,0,,6,-3.4,52,102220,0,0,282,449,502,168,58317,50671,22581,0,320,4.7,5,0,0,0,0,0,0,0,0,0,0,0,0
1997,2,18,12,0,,6.5,-3.3,50,102190,0,0,284,533,492,210,60445,49788,26243,0,320,6,5,0,0,0,0,0,0,0,0,0,0,0,0
1997,2,18,13,0,,7.4,-4,46,102160,0,0,286,567,475,235,57656,47495,28476,0,320,5,5,0,0,0,0,0,0,0,0,0,0,0,0
1997,2,18,14,0,,7.9,-4.7,43,102140,0,0,287,606,609,186,52299,59221,23132,0,320,8.3,4,0,0,0,0,0,0,0,0,0,0,0,0
1997,2,18,15,0,,7.8,-5.4,39,102110,0,0,285,557,651,151,37504,57389,18585,0,340,9.7,4,0,0,0,0,0,0,0,0,0,0,0,0
1997,2,18,16,0,,7.5,-5.5,41,102150,0,0,286,424,574,133,19134,32440,14692,0,340,10,5,0,0,0,0,0,0,0,0,0,0,0,0
1997,2,18,17,0,,6.4,-5.6,42,102200,0,0,284,262,458,102,0,0,0,0,340,10.7,6,0,0,0,0,0,0,0,0,0,0,0,0
1997,2,18,18,0,,5.7,-5.7,44,102240,0,0,284,99,345,44,0,0,0,0,340,9.7,7,0,0,0,0,0,0,0,0,0,0,0,0
1997,2,18,19,0,,5.2,-5.5,46,102310,0,0,280,12,4,9,0,0,0,0,340,10.8,6,0,0,0,0,0,0,0,0,0,0,0,0
1997,2,18,20,0,,5,-5.2,48,102390,0,0,278,0,0,0,0,0,0,0,360,9,6,0,0,0,0,0,0,0,0,0,0,0,0
1997,2,18,21,0,,4.6,-5,50,102460,0,0,275,0,0,0,0,0,0,0,360,9,5,0,0,0,0,0,0,0,0,0,0,0,0
1997,2,18,22,0,,4.2,-5.3,49,102480,0,0,273,0,0,0,0,0,0,0,340,6.7,5,0,0,0,0,0,0,0,0,0,0,0,0
1997,2,18,23,0,,4,-5.7,49,102490,0,0,273,0,0,0,0,0,0,0,340,8.3,6,0,0,0,0,0,0,0,0,0,0,0,0
1997,2,18,24,0,,4,-6,48,102510,0,0,274,0,0,0,0,0,0,0,360,3.7,6,0,0,0,0,0,0,0,0,0,0,0,0
1997,2,19,1,0,,3.7,-5.9,49,102520,0,0,272,0,0,0,0,0,0,0,340,6.7,6,0,0,0,0,0,0,0,0,0,0,0,0
1997,2,19,2,0,,3.4,-5.8,49,102540,0,0,270,0,0,0,0,0,0,0,340,6.3,5,0,0,0,0,0,0,0,0,0,0,0,0
1997,2,19,3,0,,3.4,-5.7,50,102550,0,0,269,0,0,0,0,0,0,0,340,6.3,5,0,0,0,0,0,0,0,0,0,0,0,0
1997,2,19,4,0,,3.4,-5.4,52,102530,0,0,269,0,0,0,0,0,0,0,340,7.3,5,0,0,0,0,0,0,0,0,0,0,0,0
1997,2,19,5,0,,3.5,-5,53,102520,0,0,270,0,0,0,0,0,0,0,320,5.3,5,0,0,0,0,0,0,0,0,0,0,0,0
1997,2,19,6,0,,3.5,-4.7,55,102500,0,0,270,0,0,0,0,0,0,0,360,6,5,0,0,0,0,0,0,0,0,0,0,0,0
1997,2,19,7,0,,3.5,-4.6,55,102580,0,0,269,0,0,0,0,0,0,0,340,5.7,4,0,0,0,0,0,0,0,0,0,0,0,0
1997,2,19,8,0,,3.6,-4.5,55,102660,0,0,267,50,29,21,4345,2900,3054,0,320,3.7,3,0,0,0,0,0,0,0,0,0,0,0,0
1997,2,19,9,0,,4,-4.4,55,102740,0,0,266,197,593,54,42486,59236,7992,0,320,3.8,2,0,0,0,0,0,0,0,0,0,0,0,0
1997,2,19,10,0,,4.6,-4.2,53,102750,0,0,268,354,606,99,55185,61547,13795,0,320,3,2,0,0,0,0,0,0,0,0,0,0,0,0
1997,2,19,11,0,,5.3,-4,51,102770,0,0,271,497,647,133,65570,65998,18734,0,320,4,2,0,0,0,0,0,0,0,0,0,0,0,0
1997,2,19,12,0,,6,-3.8,49,102780,0,0,274,592,649,163,67291,65407,22080,0,340,4.5,2,0,0,0,0,0,0,0,0,0,0,0,0
1997,2,19,13,0,,6.1,-4.4,46,102730,0,0,274,623,615,190,62267,60753,24693,0,320,4.3,2,0,0,0,0,0,0,0,0,0,0,0,0
1997,2,19,14,0,,6.6,-5.1,44,102690,0,0,276,619,634,180,53163,61873,22449,0,320,5,2,0,0,0,0,0,0,0,0,0,0,0,0
1997,2,19,15,0,,6.7,-5.7,41,102640,0,0,275,542,595,168,37829,52517,20326,0,320,3.3,2,0,0,0,0,0,0,0,0,0,0,0,0
1997,2,19,16,0,,6.6,-5.1,44,102600,0,0,277,454,666,113,18440,38611,13024,0,320,6,2,0,0,0,0,0,0,0,0,0,0,0,0
1997,2,19,17,0,,6.7,-4.4,46,102570,0,0,279,290,583,84,0,0,0,0,290,4.3,3,0,0,0,0,0,0,0,0,0,0,0,0
1997,2,19,18,0,,6,-3.8,49,102530,0,0,277,128,543,39,0,0,0,0,290,4.8,3,0,0,0,0,0,0,0,0,0,0,0,0
1997,2,19,19,0,,5.6,-3.6,52,102540,0,0,276,15,6,9,0,0,0,0,290,2,3,0,0,0,0,0,0,0,0,0,0,0,0
1997,2,19,20,0,,5.2,-3.5,54,102560,0,0,274,0,0,0,0,0,0,0,230,1.3,3,0,0,0,0,0,0,0,0,0,0,0,0
1997,2,19,21,0,,4.5,-3.3,57,102570,0,0,272,0,0,0,0,0,0,0,200,3,3,0,0,0,0,0,0,0,0,0,0,0,0
1997,2,19,22,0,,4.3,-3,58,102530,0,0,269,0,0,0,0,0,0,0,200,2,2,0,0,0,0,0,0,0,0,0,0,0,0
1997,2,19,23,0,,4.2,-2.8,60,102500,0,0,267,0,0,0,0,0,0,0,200,2.3,2,0,0,0,0,0,0,0,0,0,0,0,0
1997,2,19,24,0,,4.3,-2.5,61,102460,0,0,265,0,0,0,0,0,0,0,200,2.3,1,0,0,0,0,0,0,0,0,0,0,0,0
1997,2,20,1,0,,4.3,-2,62,102440,0,0,265,0,0,0,0,0,0,0,200,2.8,1,0,0,0,0,0,0,0,0,0,0,0,0
1997,2,20,2,0,,4.7,-1.4,62,102420,0,0,265,0,0,0,0,0,0,0,230,3.3,0,0,0,0,0,0,0,0,0,0,0,0,0
1997,2,20,3,0,,4.7,-0.9,63,102400,0,0,264,0,0,0,0,0,0,0,230,3,0,0,0,0,0,0,0,0,0,0,0,0,0
1997,2,20,4,0,,4.8,-1,63,102400,0,0,264,0,0,0,0,0,0,0,230,3.3,0,0,0,0,0,0,0,0,0,0,0,0,0
1997,2,20,5,0,,4.7,-1.1,64,102390,0,0,263,0,0,0,0,0,0,0,230,4.7,0,0,0,0,0,0,0,0,0,0,0,0,0
1997,2,20,6,0,,4.9,-1.2,64,102390,0,0,264,0,0,0,0,0,0,0,230,2.7,0,0,0,0,0,0,0,0,0,0,0,0,0
1997,2,20,7,0,,5.2,-0.9,62,102390,0,0,265,0,0,0,0,0,0,0,230,4.7,0,0,0,0,0,0,0,0,0,0,0,0,0
1997,2,20,8,0,,6,-0.5,61,102380,0,0,269,57,39,18,4397,3775,2700,0,230,5,0,0,0,0,0,0,0,0,0,0,0,0,0
1997,2,20,9,0,,7.3,-0.2,59,102380,0,0,274,211,661,48,46095,66306,7190,0,230,4.7,0,0,0,0,0,0,0,0,0,0,0,0,0
1997,2,20,10,0,,9.3,-0.1,54,102320,0,0,282,397,766,72,62641,77363,10269,0,250,5,0,0,0,0,0,0,0,0,0,0,0,0,0
1997,2,20,11,0,,10.8,0.1,50,102260,0,0,289,547,790,99,70646,79788,13674,0,270,6.7,0,0,0,0,0,0,0,0,0,0,0,0,0
1997,2,20,12,0,,11.8,0.2,45,102200,0,0,293,643,779,125,71722,78741,16957,0,270,6.3,0,0,0,0,0,0,0,0,0,0,0,0,0
1997,2,20,13,0,,12.7,-0.5,41,102080,0,0,300,686,769,140,67543,77003,19604,0,270,7.3,1,0,0,0,0,0,0,0,0,0,0,0,0
1997,2,20,14,0,,13.1,-1.2,38,101960,0,0,304,681,786,132,56571,76296,18404,0,270,8,1,0,0,0,0,0,0,0,0,0,0,0,0
1997,2,20,15,0,,13.8,-1.9,34,101840,0,0,309,594,736,129,39068,64330,17397,0,250,6.7,2,0,0,0,0,0,0,0,0,0,0,0,0
1997,2,20,16,0,,13.7,-1.6,36,101820,0,0,311,470,707,105,18368,41233,12448,0,250,8.3,3,0,0,0,0,0,0,0,0,0,0,0,0
1997,2,20,17,0,,13.2,-1.2,37,101810,0,0,311,308,652,75,0,0,0,0,250,6.7,3,0,0,0,0,0,0,0,0,0,0,0,0
1997,2,20,18,0,,12.5,-0.9,39,101790,0,0,310,128,520,41,0,0,0,0,250,5.7,4,0,0,0,0,0,0,0,0,0,0,0,0
1997,2,20,19,0,,11.8,0.4,45,101870,0,0,307,17,7,9,0,0,0,0,270,6.7,4,0,0,0,0,0,0,0,0,0,0,0,0
1997,2,20,20,0,,11.8,1.6,51,101940,0,0,308,0,0,0,0,0,0,0,290,6.7,3,0,0,0,0,0,0,0,0,0,0,0,0
1997,2,20,21,0,,11,2.9,57,102020,0,0,305,0,0,0,0,0,0,0,320,8.7,3,0,0,0,0,0,0,0,0,0,0,0,0
1997,2,20,22,0,,10.1,2.2,57,102110,0,0,297,0,0,0,0,0,0,0,320,7.3,2,0,0,0,0,0,0,0,0,0,0,0,0
1997,2,20,23,0,,9.6,1.6,58,102200,0,0,291,0,0,0,0,0,0,0,320,8,1,0,0,0,0,0,0,0,0,0,0,0,0
1997,2,20,24,0,,8.6,0.9,58,102290,0,0,280,0,0,0,0,0,0,0,340,5.8,0,0,0,0,0,0,0,0,0,0,0,0,0
1997,2,21,1,0,,7.8,0.7,61,102350,0,0,279,0,0,0,0,0,0,0,340,7,0,0,0,0,0,0,0,0,0,0,0,0,0
1997,2,21,2,0,,7,0.4,63,102400,0,0,277,0,0,0,0,0,0,0,360,5.5,1,0,0,0,0,0,0,0,0,0,0,0,0
1997,2,21,3,0,,6.3,0.2,66,102460,0,0,276,0,0,0,0,0,0,0,340,4.8,1,0,0,0,0,0,0,0,0,0,0,0,0
1997,2,21,4,0,,6.3,-1.5,60,102510,0,0,273,0,0,0,0,0,0,0,20,4,1,0,0,0,0,0,0,0,0,0,0,0,0
1997,2,21,5,0,,6,-3.3,53,102550,0,0,268,0,0,0,0,0,0,0,20,6.3,0,0,0,0,0,0,0,0,0,0,0,0,0
1997,2,21,6,0,,5.7,-5,47,102600,0,0,263,0,0,0,0,0,0,0,20,4.3,0,0,0,0,0,0,0,0,0,0,0,0,0
1997,2,21,7,0,,5.5,-4.3,48,102670,0,0,263,0,0,0,0,0,0,0,20,5.7,0,0,0,0,0,0,0,0,0,0,0,0,0
1997,2,21,8,0,,5.5,-3.7,50,102750,0,0,264,57,38,19,4545,3769,2834,0,360,5,0,0,0,0,0,0,0,0,0,0,0,0,0
1997,2,21,9,0,,6.3,-3,51,102820,0,0,268,212,642,51,45566,64238,7587,0,20,4.7,0,0,0,0,0,0,0,0,0,0,0,0,0
1997,2,21,10,0,,7.1,-2.7,50,102830,0,0,280,372,649,94,58189,66162,13105,0,360,3.7,2,0,0,0,0,0,0,0,0,0,0,0,0
1997,2,21,11,0,,7.6,-2.5,50,102850,0,0,287,481,567,156,62649,57488,21347,0,340,5,4,0,0,0,0,0,0,0,0,0,0,0,0
1997,2,21,12,0,,7.8,-2.2,49,102860,0,0,293,498,320,284,55508,33106,32342,0,340,6,6,0,0,0,0,0,0,0,0,0,0,0,0
1997,2,21,13,0,,7.7,-2.1,50,102800,0,0,292,510,266,321,52876,26863,36042,0,340,5,6,0,0,0,0,0,0,0,0,0,0,0,0
1997,2,21,14,0,,7.5,-2,50,102750,0,0,290,548,417,255,49814,41417,28936,0,340,7.3,5,0,0,0,0,0,0,0,0,0,0,0,0
1997,2,21,15,0,,7.8,-1.9,51,102690,0,0,291,497,439,217,37822,39187,24481,0,340,7.7,5,0,0,0,0,0,0,0,0,0,0,0,0
1997,2,21,16,0,,7.2,-1.7,55,102730,0,0,289,398,444,167,21625,24786,17984,0,340,7.7,5,0,0,0,0,0,0,0,0,0,0,0,0
1997,2,21,17,0,,6.1,-1.4,58,102760,0,0,284,263,420,111,0,0,0,0,320,7.8,5,0,0,0,0,0,0,0,0,0,0,0,0
1997,2,21,18,0,,5.3,-1.2,62,102800,0,0,281,113,340,55,0,0,0,0,340,6.3,5,0,0,0,0,0,0,0,0,0,0,0,0
1997,2,21,19,0,,4.5,-2.4,60,102840,0,0,275,16,6,10,0,0,0,0,360,6,4,0,0,0,0,0,0,0,0,0,0,0,0
1997,2,21,20,0,,3.9,-3.5,57,102870,0,0,269,0,0,0,0,0,0,0,20,5,3,0,0,0,0,0,0,0,0,0,0,0,0
1997,2,21,21,0,,3.4,-4.7,55,102910,0,0,263,0,0,0,0,0,0,0,340,3.3,2,0,0,0,0,0,0,0,0,0,0,0,0
1997,2,21,22,0,,3.1,-4,59,102910,0,0,261,0,0,0,0,0,0,0,340,5,1,0,0,0,0,0,0,0,0,0,0,0,0
1997,2,21,23,0,,2.9,-3.4,63,102920,0,0,258,0,0,0,0,0,0,0,20,3.3,1,0,0,0,0,0,0,0,0,0,0,0,0
1997,2,21,24,0,,2.7,-2.7,67,102920,0,0,254,0,0,0,0,0,0,0,20,3.3,0,0,0,0,0,0,0,0,0,0,0,0,0
1997,2,22,1,0,,2.3,-2.7,69,102860,0,0,260,0,0,0,0,0,0,0,20,3.3,2,0,0,0,0,0,0,0,0,0,0,0,0
1997,2,22,2,0,,1.9,-2.7,70,102800,0,0,263,0,0,0,0,0,0,0,20,3.7,3,0,0,0,0,0,0,0,0,0,0,0,0
1997,2,22,3,0,,1.7,-2.7,72,102740,0,0,266,0,0,0,0,0,0,0,20,4,5,0,0,0,0,0,0,0,0,0,0,0,0
1997,2,22,4,0,,1.7,-2.7,72,102740,0,0,265,0,0,0,0,0,0,0,360,3,5,0,0,0,0,0,0,0,0,0,0,0,0
1997,2,22,5,0,,1.9,-2.7,73,102740,0,0,265,0,0,0,0,0,0,0,20,3.7,4,0,0,0,0,0,0,0,0,0,0,0,0
1997,2,22,6,0,,1.6,-2.7,73,102740,0,0,263,0,0,0,0,0,0,0,20,2.5,4,0,0,0,0,0,0,0,0,0,0,0,0
1997,2,22,7,0,,1.7,-3.2,68,102780,0,0,260,0,0,0,0,0,0,0,20,1.3,3,0,0,0,0,0,0,0,0,0,0,0,0
1997,2,22,8,0,,1.4,-3.6,63,102830,0,0,255,55,33,22,4738,3250,3248,0,180,2.7,1,0,0,0,0,0,0,0,0,0,0,0,0
1997,2,22,9,0,,3.4,-4.1,58,102870,0,0,255,209,602,56,44121,60172,8276,0,90,1.5,0,0,0,0,0,0,0,0,0,0,0,0,0
1997,2,22,10,0,,4.5,-3.4,58,102870,0,0,260,376,648,95,58526,65994,13259,0,50,2,0,0,0,0,0,0,0,0,0,0,0,0,0
1997,2,22,11,0,,5.5,-2.6,57,102860,0,0,265,523,689,126,67337,69794,16886,0,50,3,0,0,0,0,0,0,0,0,0,0,0,0,0
1997,2,22,12,0,,6.1,-1.9,57,102860,0,0,268,612,670,161,69525,67600,21932,0,50,5.5,0,0,0,0,0,0,0,0,0,0,0,0,0
1997,2,22,13,0,,7.5,-0.9,57,102780,0,0,276,661,679,173,65652,67480,23090,0,50,5,0,0,0,0,0,0,0,0,0,0,0,0,0
1997,2,22,14,0,,8.2,0.1,58,102710,0,0,282,650,683,168,55592,65516,22315,0,50,6.7,1,0,0,0,0,0,0,0,0,0,0,0,0
1997,2,22,15,0,,9,1.1,58,102630,0,0,288,581,673,150,39276,59275,18884,0,50,6.5,1,0,0,0,0,0,0,0,0,0,0,0,0
1997,2,22,16,0,,9.2,0.7,56,102640,0,0,294,456,635,124,19971,37573,14328,0,70,7,3,0,0,0,0,0,0,0,0,0,0,0,0
1997,2,22,17,0,,9.1,0.2,55,102650,0,0,297,288,526,96,0,0,0,0,70,5.3,4,0,0,0,0,0,0,0,0,0,0,0,0
1997,2,22,18,0,,8.9,-0.2,53,102660,0,0,300,115,339,56,0,0,0,0,110,5.5,6,0,0,0,0,0,0,0,0,0,0,0,0
1997,2,22,19,0,,8,-0.2,55,102700,0,0,291,18,7,11,0,0,0,0,110,3,4,0,0,0,0,0,0,0,0,0,0,0,0
1997,2,22,20,0,,7.4,-0.2,58,102730,0,0,284,0,0,0,0,0,0,0,140,2.3,2,0,0,0,0,0,0,0,0,0,0,0,0
1997,2,22,21,0,,7,-0.2,60,102770,0,0,273,0,0,0,0,0,0,0,160,2,0,0,0,0,0,0,0,0,0,0,0,0,0
1997,2,22,22,0,,6,-0.1,62,102760,0,0,269,0,0,0,0,0,0,0,160,1.3,0,0,0,0,0,0,0,0,0,0,0,0,0
1997,2,22,23,0,,5.7,-0.1,65,102760,0,0,268,0,0,0,0,0,0,0,160,2.3,0,0,0,0,0,0,0,0,0,0,0,0,0
1997,2,22,24,0,,5.7,0,67,102750,0,0,268,0,0,0,0,0,0,0,160,1.7,0,0,0,0,0,0,0,0,0,0,0,0,0
1997,2,23,1,0,,4.7,-0.2,68,102730,0,0,264,0,0,0,0,0,0,0,180,2,0,0,0,0,0,0,0,0,0,0,0,0,0
1997,2,23,2,0,,4.2,-0.5,68,102720,0,0,262,0,0,0,0,0,0,0,180,1.2,0,0,0,0,0,0,0,0,0,0,0,0,0
1997,2,23,3,0,,4.3,-0.7,69,102700,0,0,262,0,0,0,0,0,0,0,180,2.3,0,0,0,0,0,0,0,0,0,0,0,0,0
1997,2,23,4,0,,4,-1.7,66,102690,0,0,260,0,0,0,0,0,0,0,180,2,0,0,0,0,0,0,0,0,0,0,0,0,0
1997,2,23,5,0,,3.8,-2.6,63,102670,0,0,258,0,0,0,0,0,0,0,160,1.7,0,0,0,0,0,0,0,0,0,0,0,0,0
1997,2,23,6,0,,3.5,-3.6,60,102660,0,0,256,0,0,0,0,0,0,0,180,2.7,0,0,0,0,0,0,0,0,0,0,0,0,0
1997,2,23,7,0,,4.5,-1.3,62,102690,0,0,262,0,0,0,0,0,0,0,140,1,0,0,0,0,0,0,0,0,0,0,0,0,0
1997,2,23,8,0,,6.2,0.9,64,102720,0,0,271,60,40,20,4833,3906,3026,0,160,3,0,0,0,0,0,0,0,0,0,0,0,0,0
1997,2,23,9,0,,9.4,3.2,66,102750,0,0,286,230,716,46,50111,72192,6780,0,90,2,0,0,0,0,0,0,0,0,0,0,0,0,0
1997,2,23,10,0,,11.8,2.8,60,102720,0,0,298,418,795,70,65610,80682,9906,0,110,2.3,0,0,0,0,0,0,0,0,0,0,0,0,0
1997,2,23,11,0,,12.7,2.5,55,102700,0,0,303,558,782,104,72427,80037,14217,0,50,2.7,1,0,0,0,0,0,0,0,0,0,0,0,0
1997,2,23,12,0,,12.4,2.1,49,102670,0,0,303,631,709,151,71615,71585,20912,0,50,7,1,0,0,0,0,0,0,0,0,0,0,0,0
1997,2,23,13,0,,12.8,2.9,52,102620,0,0,312,617,553,218,62099,54661,27401,0,50,5.3,3,0,0,0,0,0,0,0,0,0,0,0,0
1997,2,23,14,0,,12.8,3.8,55,102560,0,0,317,569,452,247,51258,44019,28731,0,50,6.3,4,0,0,0,0,0,0,0,0,0,0,0,0
1997,2,23,15,0,,12.7,4.6,58,102510,0,0,322,438,247,279,38561,21422,31116,0,50,4.3,6,0,0,0,0,0,0,0,0,0,0,0,0
1997,2,23,16,0,,12.1,4.7,60,102490,0,0,315,392,401,180,23151,21949,19783,0,50,2.7,4,0,0,0,0,0,0,0,0,0,0,0,0
1997,2,23,17,0,,12,4.9,62,102460,0,0,311,290,523,98,0,0,0,0,50,4.7,3,0,0,0,0,0,0,0,0,0,0,0,0
1997,2,23,18,0,,11.4,5,64,102440,0,0,302,133,490,46,0,0,0,0,50,2.7,1,0,0,0,0,0,0,0,0,0,0,0,0
1997,2,23,19,0,,10.9,4.1,65,102480,0,0,297,20,10,10,0,0,0,0,200,0.7,1,0,0,0,0,0,0,0,0,0,0,0,0
1997,2,23,20,0,,9.2,3.2,65,102510,0,0,287,0,0,0,0,0,0,0,160,2.3,0,0,0,0,0,0,0,0,0,0,0,0,0
1997,2,23,21,0,,8.1,2.3,66,102550,0,0,280,0,0,0,0,0,0,0,180,0.3,0,0,0,0,0,0,0,0,0,0,0,0,0
1997,2,23,22,0,,7.4,1.8,67,102540,0,0,277,0,0,0,0,0,0,0,160,1.3,0,0,0,0,0,0,0,0,0,0,0,0,0
1997,2,23,23,0,,6.8,1.4,67,102540,0,0,274,0,0,0,0,0,0,0,160,2.7,0,0,0,0,0,0,0,0,0,0,0,0,0
1997,2,23,24,0,,6.3,0.9,68,102530,0,0,271,0,0,0,0,0,0,0,160,2,0,0,0,0,0,0,0,0,0,0,0,0,0
1997,2,24,1,0,,6.1,0.9,69,102510,0,0,271,0,0,0,0,0,0,0,160,2.5,0,0,0,0,0,0,0,0,0,0,0,0,0
1997,2,24,2,0,,5.8,0.9,70,102490,0,0,270,0,0,0,0,0,0,0,160,2.8,0,0,0,0,0,0,0,0,0,0,0,0,0
1997,2,24,3,0,,5.7,0.9,71,102470,0,0,269,0,0,0,0,0,0,0,160,3,0,0,0,0,0,0,0,0,0,0,0,0,0
1997,2,24,4,0,,5.5,1,73,102460,0,0,269,0,0,0,0,0,0,0,160,2.5,0,0,0,0,0,0,0,0,0,0,0,0,0
1997,2,24,5,0,,5.3,1.2,76,102450,0,0,268,0,0,0,0,0,0,0,160,3,0,0,0,0,0,0,0,0,0,0,0,0,0
1997,2,24,6,0,,5.1,1.3,78,102440,0,0,267,0,0,0,0,0,0,0,160,2.3,0,0,0,0,0,0,0,0,0,0,0,0,0
1997,2,24,7,0,,5.6,1.8,74,102480,0,0,281,0,0,0,0,0,0,0,160,2,3,0,0,0,0,0,0,0,0,0,0,0,0
1997,2,24,8,0,,6,2.2,71,102530,0,0,291,45,20,24,4203,1988,3274,0,180,2.5,6,0,0,0,0,0,0,0,0,0,0,0,0
1997,2,24,9,0,,8.4,2.7,67,102570,0,0,316,117,110,88,18245,11098,11534,0,200,0.8,9,0,0,0,0,0,0,0,0,0,0,0,0
1997,2,24,10,0,,10.3,3.3,62,102520,0,0,325,221,126,166,28735,12823,19825,0,140,1.3,9,0,0,0,0,0,0,0,0,0,0,0,0
1997,2,24,11,0,,12.3,3.9,57,102480,0,0,336,316,133,238,37712,13539,27805,0,70,2,9,0,0,0,0,0,0,0,0,0,0,0,0
1997,2,24,12,0,,14.2,4.5,52,102430,0,0,345,386,138,292,43504,13861,33628,0,200,3,9,0,0,0,0,0,0,0,0,0,0,0,0
1997,2,24,13,0,,15.1,4.4,51,102340,0,0,350,385,110,305,41383,10791,34490,0,340,1.3,9,0,0,0,0,0,0,0,0,0,0,0,0
1997,2,24,14,0,,14.6,4.2,49,102250,0,0,347,350,89,286,36597,8655,32135,0,290,2.7,9,0,0,0,0,0,0,0,0,0,0,0,0
1997,2,24,15,0,,14.8,4.1,48,102160,0,0,348,295,78,245,29827,7258,27279,0,270,1.3,9,0,0,0,0,0,0,0,0,0,0,0,0
1997,2,24,16,0,,14.8,4.2,50,102150,0,0,351,240,86,194,22287,6749,21229,0,320,2.7,9,0,0,0,0,0,0,0,0,0,0,0,0
1997,2,24,17,0,,14.2,4.2,51,102130,0,0,351,125,44,108,0,0,0,0,270,2,10,0,0,0,0,0,0,0,0,0,0,0,0
1997,2,24,18,0,,13.7,4.3,53,102120,0,0,353,50,32,45,0,0,0,0,20,1,10,0,0,0,0,0,0,0,0,0,0,0,0
1997,2,24,19,0,,13.5,4.7,55,102130,0,0,352,3,0,3,0,0,0,0,340,0.3,10,0,0,0,0,0,0,0,0,0,0,0,0
1997,2,24,20,0,,13.4,5.2,57,102150,0,0,352,0,0,0,0,0,0,0,180,1,10,0,0,0,0,0,0,0,0,0,0,0,0
1997,2,24,21,0,,13.4,5.6,59,102160,0,0,353,0,0,0,0,0,0,0,180,1,10,0,0,0,0,0,0,0,0,0,0,0,0
1997,2,24,22,0,,13.3,6.3,62,102130,0,0,353,0,0,0,0,0,0,0,180,0.5,10,0,0,0,0,0,0,0,0,0,0,0,0
1997,2,24,23,0,,13.2,7.1,66,102100,0,0,354,0,0,0,0,0,0,0,230,0.7,10,0,0,0,0,0,0,0,0,0,0,0,0
1997,2,24,24,0,,13.2,7.8,69,102070,0,0,355,0,0,0,0,0,0,0,180,1,10,0,0,0,0,0,0,0,0,0,0,0,0
1997,2,25,1,0,,13.2,8.5,73,101980,0,0,343,0,0,0,0,0,0,0,110,1.3,9,0,0,0,0,0,0,0,0,0,0,0,0
1997,2,25,2,0,,13.2,9.3,77,101900,0,0,336,0,0,0,0,0,0,0,180,1,7,0,0,0,0,0,0,0,0,0,0,0,0
1997,2,25,3,0,,13.2,10,81,101810,0,0,331,0,0,0,0,0,0,0,140,0.3,6,0,0,0,0,0,0,0,0,0,0,0,0
1997,2,25,4,0,,13.2,11.2,80,101770,0,0,337,0,0,0,0,0,0,0,180,1.3,7,0,0,0,0,0,0,0,0,0,0,0,0
1997,2,25,5,0,,15.2,12.4,78,101740,0,0,353,0,0,0,0,0,0,0,200,5.3,8,0,0,0,0,0,0,0,0,0,0,0,0
1997,2,25,6,0,,17.7,13.6,77,101700,0,0,375,0,0,0,0,0,0,0,230,8,9,0,0,0,0,0,0,0,0,0,0,0,0
1997,2,25,7,0,,17.8,13.8,77,101710,0,0,368,0,0,0,0,0,0,0,230,8,8,0,0,0,0,0,0,0,0,0,0,0,0
1997,2,25,8,0,,18,13.9,77,101720,0,0,363,47,23,24,4364,2094,3376,0,230,7,7,0,0,0,0,0,0,0,0,0,0,0,0
1997,2,25,9,0,,18.3,14.1,77,101730,0,0,360,184,370,85,36068,36813,13637,0,230,10,6,0,0,0,0,0,0,0,0,0,0,0,0
1997,2,25,10,0,,18.5,14.5,79,101730,0,0,368,280,245,171,38374,22952,22320,0,230,9.7,7,0,0,0,0,0,0,0,0,0,0,0,0
1997,2,25,11,0,,19.1,14.8,80,101720,0,0,381,292,104,230,35237,9836,27997,0,230,10.3,9,0,0,0,0,0,0,0,0,0,0,0,0
1997,2,25,12,0,,18.3,15.2,82,101720,0,0,391,244,38,218,27919,3494,25415,0,230,8.5,10,0,0,0,0,0,0,0,0,0,0,0,0
1997,2,25,13,0,,17.9,15.1,85,101690,0,0,388,242,30,220,27279,2754,25508,0,250,8.3,10,0,0,0,0,0,0,0,0,0,0,0,0
1997,2,25,14,0,,16.7,14.9,88,101660,0,0,382,187,16,176,20779,1039,20239,0,270,5.3,10,0,0,0,0,0,0,0,0,0,0,0,0
1997,2,25,15,0,,16.2,14.8,91,101630,0,0,379,182,20,169,19045,1301,18584,0,270,8.3,10,0,0,0,0,0,0,0,0,0,0,0,0
1997,2,25,16,0,,15,14,91,101660,0,0,372,127,14,119,12486,584,12393,0,250,5,10,0,0,0,0,0,0,0,0,0,0,0,0
1997,2,25,17,0,,14.5,13.3,91,101680,0,0,368,86,15,80,0,0,0,0,270,4,10,0,0,0,0,0,0,0,0,0,0,0,0
1997,2,25,18,0,,14,12.5,91,101710,0,0,365,36,12,34,0,0,0,0,270,3.7,10,0,0,0,0,0,0,0,0,0,0,0,0
1997,2,25,19,0,,13.2,11.8,91,101760,0,0,360,2,0,2,0,0,0,0,320,4.7,10,0,0,0,0,0,0,0,0,0,0,0,0
1997,2,25,20,0,,12.3,11,91,101810,0,0,355,0,0,0,0,0,0,0,320,1.7,10,0,0,0,0,0,0,0,0,0,0,0,0
1997,2,25,21,0,,11.7,10.3,91,101860,0,0,351,0,0,0,0,0,0,0,320,2,10,0,0,0,0,0,0,0,0,0,0,0,0
1997,2,25,22,0,,11.3,10.1,91,101880,0,0,349,0,0,0,0,0,0,0,250,2,10,0,0,0,0,0,0,0,0,0,0,0,0
1997,2,25,23,0,,11.2,9.9,91,101890,0,0,348,0,0,0,0,0,0,0,290,2,10,0,0,0,0,0,0,0,0,0,0,0,0
1997,2,25,24,0,,11.1,9.7,91,101910,0,0,347,0,0,0,0,0,0,0,320,2.7,10,0,0,0,0,0,0,0,0,0,0,0,0
1997,2,26,1,0,,11,9.6,91,101920,0,0,346,0,0,0,0,0,0,0,320,1.8,10,0,0,0,0,0,0,0,0,0,0,0,0
1997,2,26,2,0,,10.8,9.4,90,101940,0,0,345,0,0,0,0,0,0,0,290,1.8,10,0,0,0,0,0,0,0,0,0,0,0,0
1997,2,26,3,0,,10.7,9.3,90,101950,0,0,345,0,0,0,0,0,0,0,340,2,10,0,0,0,0,0,0,0,0,0,0,0,0
1997,2,26,4,0,,10.7,9.2,90,101980,0,0,344,0,0,0,0,0,0,0,290,1.3,10,0,0,0,0,0,0,0,0,0,0,0,0
1997,2,26,5,0,,10.5,9,91,102000,0,0,343,0,0,0,0,0,0,0,360,0.7,10,0,0,0,0,0,0,0,0,0,0,0,0
1997,2,26,6,0,,10.4,8.9,91,102030,0,0,343,0,0,0,0,0,0,0,270,2.2,10,0,0,0,0,0,0,0,0,0,0,0,0
1997,2,26,7,0,,10.1,8.6,90,102060,0,0,341,0,0,0,0,0,0,0,20,2,10,0,0,0,0,0,0,0,0,0,0,0,0
1997,2,26,8,0,,9.8,8.4,90,102080,0,0,339,15,1,14,1902,30,1888,0,290,0.8,10,0,0,0,0,0,0,0,0,0,0,0,0
1997,2,26,9,0,,9.8,8.1,89,102110,0,0,339,69,23,63,8855,2101,7565,0,20,3.3,10,0,0,0,0,0,0,0,0,0,0,0,0
1997,2,26,10,0,,9.5,8,89,102130,0,0,337,101,13,95,12105,1213,11251,0,0,0,10,0,0,0,0,0,0,0,0,0,0,0,0
1997,2,26,11,0,,9.8,7.9,89,102150,0,0,339,177,25,162,20674,2404,18894,0,20,4.5,10,0,0,0,0,0,0,0,0,0,0,0,0
1997,2,26,12,0,,9.5,7.8,89,102170,0,0,337,175,15,165,20740,1002,20017,0,360,1,10,0,0,0,0,0,0,0,0,0,0,0,0
1997,2,26,13,0,,10.6,8.1,86,102120,0,0,343,221,23,204,24946,2189,23530,0,20,2.7,10,0,0,0,0,0,0,0,0,0,0,0,0
1997,2,26,14,0,,12,8.5,83,102080,0,0,350,249,34,225,27308,3202,25633,0,50,2.7,10,0,0,0,0,0,0,0,0,0,0,0,0
1997,2,26,15,0,,12.1,8.8,80,102030,0,0,351,217,32,196,22280,2419,21414,0,50,1.3,10,0,0,0,0,0,0,0,0,0,0,0,0
1997,2,26,16,0,,12,9.4,82,102030,0,0,351,163,28,148,15440,1648,15171,0,90,1.2,10,0,0,0,0,0,0,0,0,0,0,0,0
1997,2,26,17,0,,12.5,10.1,85,102020,0,0,354,105,26,95,0,0,0,0,140,1.3,10,0,0,0,0,0,0,0,0,0,0,0,0
1997,2,26,18,0,,12.8,10.7,87,102020,0,0,357,45,21,41,0,0,0,0,20,1.3,10,0,0,0,0,0,0,0,0,0,0,0,0
1997,2,26,19,0,,12.8,10.6,87,102080,0,0,356,4,0,4,0,0,0,0,70,3.3,10,0,0,0,0,0,0,0,0,0,0,0,0
1997,2,26,20,0,,12.3,10.4,88,102140,0,0,354,0,0,0,0,0,0,0,90,3.5,10,0,0,0,0,0,0,0,0,0,0,0,0
1997,2,26,21,0,,12.2,10.3,88,102200,0,0,353,0,0,0,0,0,0,0,90,2,10,0,0,0,0,0,0,0,0,0,0,0,0
1997,2,26,22,0,,12.2,10.1,87,102260,0,0,353,0,0,0,0,0,0,0,90,2.7,10,0,0,0,0,0,0,0,0,0,0,0,0
1997,2,26,23,0,,12.2,10,86,102330,0,0,353,0,0,0,0,0,0,0,90,2.3,10,0,0,0,0,0,0,0,0,0,0,0,0
1997,2,26,24,0,,12.3,9.8,85,102390,0,0,353,0,0,0,0,0,0,0,90,2.5,10,0,0,0,0,0,0,0,0,0,0,0,0
1997,2,27,1,0,,12,9.5,85,102420,0,0,351,0,0,0,0,0,0,0,90,2.2,10,0,0,0,0,0,0,0,0,0,0,0,0
1997,2,27,2,0,,11.6,9.2,86,102440,0,0,349,0,0,0,0,0,0,0,90,1.7,10,0,0,0,0,0,0,0,0,0,0,0,0
1997,2,27,3,0,,11.1,8.9,86,102470,0,0,346,0,0,0,0,0,0,0,110,1,10,0,0,0,0,0,0,0,0,0,0,0,0
1997,2,27,4,0,,10.7,8.2,82,102470,0,0,331,0,0,0,0,0,0,0,110,1.7,9,0,0,0,0,0,0,0,0,0,0,0,0
1997,2,27,5,0,,11,7.5,78,102480,0,0,323,0,0,0,0,0,0,0,110,1.8,7,0,0,0,0,0,0,0,0,0,0,0,0
1997,2,27,6,0,,11.3,6.8,74,102480,0,0,319,0,0,0,0,0,0,0,160,2.5,6,0,0,0,0,0,0,0,0,0,0,0,0
1997,2,27,7,0,,11,6.8,73,102520,0,0,315,0,0,0,0,0,0,0,110,1.5,5,0,0,0,0,0,0,0,0,0,0,0,0
1997,2,27,8,0,,11,6.8,71,102560,0,0,314,51,27,25,4581,2620,3320,0,110,1.2,5,0,0,0,0,0,0,0,0,0,0,0,0
1997,2,27,9,0,,12,6.8,70,102600,0,0,317,206,464,77,41392,47024,12307,0,110,3.7,4,0,0,0,0,0,0,0,0,0,0,0,0
1997,2,27,10,0,,13.2,6.5,65,102570,0,0,319,379,578,115,58616,58659,17056,0,90,3.8,3,0,0,0,0,0,0,0,0,0,0,0,0
1997,2,27,11,0,,14.2,6.1,60,102530,0,0,320,542,677,136,69411,68842,18130,0,110,5.7,2,0,0,0,0,0,0,0,0,0,0,0,0
1997,2,27,12,0,,14.6,5.8,55,102500,0,0,317,614,612,188,69418,61071,25127,0,90,4,1,0,0,0,0,0,0,0,0,0,0,0,0
1997,2,27,13,0,,14.2,6.4,57,102390,0,0,314,646,582,215,64621,56974,27540,0,70,5.3,1,0,0,0,0,0,0,0,0,0,0,0,0
1997,2,27,14,0,,15.2,6.9,58,102280,0,0,317,616,536,226,55093,50902,28278,0,70,3.8,0,0,0,0,0,0,0,0,0,0,0,0,0
1997,2,27,15,0,,15.2,7.5,60,102170,0,0,316,569,582,184,41346,50551,23069,0,70,6,0,0,0,0,0,0,0,0,0,0,0,0,0
1997,2,27,16,0,,15.1,7.3,61,102150,0,0,315,466,607,136,22326,36661,16226,0,50,6.3,0,0,0,0,0,0,0,0,0,0,0,0,0
1997,2,27,17,0,,14.2,7.2,63,102130,0,0,311,310,557,97,0,0,0,0,90,4,0,0,0,0,0,0,0,0,0,0,0,0,0
1997,2,27,18,0,,13.6,7,64,102110,0,0,308,149,541,46,0,0,0,0,90,6.5,0,0,0,0,0,0,0,0,0,0,0,0,0
1997,2,27,19,0,,12.5,6.9,67,102090,0,0,307,27,12,15,0,0,0,0,110,6,1,0,0,0,0,0,0,0,0,0,0,0,0
1997,2,27,20,0,,12,6.9,69,102060,0,0,308,0,0,0,0,0,0,0,110,3.8,1,0,0,0,0,0,0,0,0,0,0,0,0
1997,2,27,21,0,,11.7,6.8,72,102040,0,0,310,0,0,0,0,0,0,0,110,2.3,2,0,0,0,0,0,0,0,0,0,0,0,0
1997,2,27,22,0,,11.4,6.8,75,102010,0,0,310,0,0,0,0,0,0,0,140,1.8,3,0,0,0,0,0,0,0,0,0,0,0,0
1997,2,27,23,0,,10.4,6.7,78,101970,0,0,308,0,0,0,0,0,0,0,180,1.3,3,0,0,0,0,0,0,0,0,0,0,0,0
1997,2,27,24,0,,9.9,6.7,81,101940,0,0,307,0,0,0,0,0,0,0,180,1,4,0,0,0,0,0,0,0,0,0,0,0,0
1997,2,28,1,0,,10.2,6.5,78,101920,0,0,305,0,0,0,0,0,0,0,230,2.8,3,0,0,0,0,0,0,0,0,0,0,0,0
1997,2,28,2,0,,10.5,6.3,75,101890,0,0,301,0,0,0,0,0,0,0,160,2,1,0,0,0,0,0,0,0,0,0,0,0,0
1997,2,28,3,0,,10.8,6.1,72,101870,0,0,295,0,0,0,0,0,0,0,180,2,0,0,0,0,0,0,0,0,0,0,0,0,0
1997,2,28,4,0,,10.5,5.8,72,101810,0,0,294,0,0,0,0,0,0,0,160,1.7,0,0,0,0,0,0,0,0,0,0,0,0,0
1997,2,28,5,0,,9.8,5.4,72,101760,0,0,290,0,0,0,0,0,0,0,180,0.7,0,0,0,0,0,0,0,0,0,0,0,0,0
1997,2,28,6,0,,10,5.1,72,101700,0,0,291,0,0,0,0,0,0,0,160,1.3,0,0,0,0,0,0,0,0,0,0,0,0,0
1997,2,28,7,0,,10.2,5.1,67,101640,0,0,296,0,0,0,0,0,0,0,160,2,1,0,0,0,0,0,0,0,0,0,0,0,0
1997,2,28,8,0,,10.7,5.1,62,101590,0,0,301,65,39,26,5643,3816,3790,0,160,1,1,0,0,0,0,0,0,0,0,0,0,0,0
1997,2,28,9,0,,13.3,5.1,57,101530,0,0,315,237,634,59,48631,64182,8639,0,90,1.2,2,0,0,0,0,0,0,0,0,0,0,0,0
1997,2,28,10,0,,15.2,6.4,55,101440,0,0,325,416,704,92,64465,72389,12850,0,50,3,2,0,0,0,0,0,0,0,0,0,0,0,0
1997,2,28,11,0,,16.6,7.6,54,101360,0,0,333,551,692,133,70711,70588,17820,0,50,1,2,0,0,0,0,0,0,0,0,0,0,0,0
1997,2,28,12,0,,18.7,8.9,52,101270,0,0,344,650,698,161,73458,69852,22506,0,50,3.3,2,0,0,0,0,0,0,0,0,0,0,0,0
1997,2,28,13,0,,22.2,10.9,58,101210,0,0,365,752,840,126,73213,85088,17497,0,230,7.3,2,0,0,0,0,0,0,0,0,0,0,0,0
1997,2,28,14,0,,22,12.9,63,101150,0,0,368,703,752,153,59714,71804,21622,0,230,8,3,0,0,0,0,0,0,0,0,0,0,0,0
1997,2,28,15,0,,20.7,14.9,69,101090,0,0,365,564,559,193,42087,46170,25235,0,230,8.3,3,0,0,0,0,0,0,0,0,0,0,0,0
1997,2,28,16,0,,20.9,14.6,77,101090,0,0,372,402,382,193,25959,19535,22646,0,230,8,5,0,0,0,0,0,0,0,0,0,0,0,0
1997,2,28,17,0,,18.9,14.4,84,101090,0,0,372,175,101,136,0,0,0,0,270,6.7,8,0,0,0,0,0,0,0,0,0,0,0,0
1997,2,28,18,0,,15.4,14.1,92,101090,0,0,374,34,9,32,0,0,0,0,270,5.3,10,0,0,0,0,0,0,0,0,0,0,0,0
1997,2,28,19,0,,13.9,12.5,92,101180,0,0,364,0,0,0,0,0,0,0,290,5.3,10,0,0,0,0,0,0,0,0,0,0,0,0
1997,2,28,20,0,,11.2,10.8,92,101280,0,0,349,0,0,0,0,0,0,0,320,4.7,10,0,0,0,0,0,0,0,0,0,0,0,0
1997,2,28,21,0,,10.5,9.2,92,101370,0,0,344,0,0,0,0,0,0,0,320,3.3,10,0,0,0,0,0,0,0,0,0,0,0,0
1997,2,28,22,0,,9.6,8.3,90,101430,0,0,338,0,0,0,0,0,0,0,320,3.3,10,0,0,0,0,0,0,0,0,0,0,0,0
1997,2,28,23,0,,9.3,7.4,88,101490,0,0,336,0,0,0,0,0,0,0,320,4,10,0,0,0,0,0,0,0,0,0,0,0,0
1997,2,28,24,0,,8.7,6.5,86,101550,0,0,332,0,0,0,0,0,0,0,320,3.3,10,0,0,0,0,0,0,0,0,0,0,0,0
2014,3,1,1,0,,11.4,10.3,93,101670,0,0,349,0,0,0,0,0,0,0,0,0.4,10,0,0,0,0,0,0,0,0,0,0,0,0
2014,3,1,2,0,,11,9.9,93,101660,0,0,347,0,0,0,0,0,0,0,180,1.5,10,0,0,0,0,0,0,0,0,0,0,0,0
2014,3,1,3,0,,10.9,9.3,90,101600,0,0,346,0,0,0,0,0,0,0,200,1.1,10,0,0,0,0,0,0,0,0,0,0,0,0
2014,3,1,4,0,,11,8.9,87,101570,0,0,346,0,0,0,0,0,0,0,200,0.6,10,0,0,0,0,0,0,0,0,0,0,0,0
2014,3,1,5,0,,11.1,9.1,88,101580,0,0,346,0,0,0,0,0,0,0,230,2.1,10,0,0,0,0,0,0,0,0,0,0,0,0
2014,3,1,6,0,,11,9.4,90,101560,0,0,346,0,0,0,0,0,0,0,200,1.1,10,0,0,0,0,0,0,0,0,0,0,0,0
2014,3,1,7,0,,10.9,9.1,89,101580,0,0,345,0,0,0,0,0,0,0,230,1.5,10,0,0,0,0,0,0,0,0,0,0,0,0
2014,3,1,8,0,,10.7,9.2,91,101600,0,0,345,17,1,16,2165,39,2146,0,320,2.9,10,0,0,0,0,0,0,0,0,0,0,0,0
2014,3,1,9,0,,10.5,9.2,92,101630,0,0,344,69,19,63,8688,1750,7590,0,270,3,10,0,0,0,0,0,0,0,0,0,0,0,0
2014,3,1,10,0,,10.3,9.2,93,101590,0,0,343,121,20,112,14567,1847,13242,0,270,2.8,10,0,0,0,0,0,0,0,0,0,0,0,0
2014,3,1,11,0,,9.7,8.6,93,101580,0,0,339,159,17,148,18610,1636,17378,0,270,4,10,0,0,0,0,0,0,0,0,0,0,0,0
2014,3,1,12,0,,9.7,8.6,93,101530,0,0,339,182,15,171,21481,1047,20713,0,230,3.5,10,0,0,0,0,0,0,0,0,0,0,0,0
2014,3,1,13,0,,9.9,8.8,93,101430,0,0,340,213,20,199,24357,1421,23421,0,200,5,10,0,0,0,0,0,0,0,0,0,0,0,0
2014,3,1,14,0,,10.2,8.9,92,101360,0,0,342,202,18,189,22411,1300,21717,0,230,2.1,10,0,0,0,0,0,0,0,0,0,0,0,0
2014,3,1,15,0,,10.1,9.1,94,101250,0,0,342,207,26,189,21445,1943,20730,0,360,5.5,10,0,0,0,0,0,0,0,0,0,0,0,0
2014,3,1,16,0,,10.5,9.7,95,101220,0,0,344,158,24,145,15209,1390,14970,0,360,4.3,10,0,0,0,0,0,0,0,0,0,0,0,0
2014,3,1,17,0,,11.1,10.1,94,101200,0,0,348,118,32,105,0,0,0,0,20,5.1,10,0,0,0,0,0,0,0,0,0,0,0,0
2014,3,1,18,0,,10.3,9.5,95,101240,0,0,343,55,31,49,0,0,0,0,360,6.4,10,0,0,0,0,0,0,0,0,0,0,0,0
2014,3,1,19,0,,9.5,8.7,95,101330,0,0,338,5,0,5,0,0,0,0,360,6.9,10,0,0,0,0,0,0,0,0,0,0,0,0
2014,3,1,20,0,,9.1,8.3,95,101420,0,0,336,0,0,0,0,0,0,0,20,5.4,10,0,0,0,0,0,0,0,0,0,0,0,0
2014,3,1,21,0,,8.7,7.6,93,101490,0,0,333,0,0,0,0,0,0,0,360,6.6,10,0,0,0,0,0,0,0,0,0,0,0,0
2014,3,1,22,0,,8.4,7,91,101530,0,0,331,0,0,0,0,0,0,0,20,5.4,10,0,0,0,0,0,0,0,0,0,0,0,0
2014,3,1,23,0,,8.5,6.9,90,101500,0,0,331,0,0,0,0,0,0,0,250,1.4,10,0,0,0,0,0,0,0,0,0,0,0,0
2014,3,1,24,0,,8.6,5.6,82,101520,0,0,330,0,0,0,0,0,0,0,360,4.5,10,0,0,0,0,0,0,0,0,0,0,0,0
2014,3,2,1,0,,8.4,5.4,82,101520,0,0,329,0,0,0,0,0,0,0,360,4.7,10,0,0,0,0,0,0,0,0,0,0,0,0
2014,3,2,2,0,,7.9,4.8,81,101540,0,0,326,0,0,0,0,0,0,0,360,3.6,10,0,0,0,0,0,0,0,0,0,0,0,0
2014,3,2,3,0,,7.9,2.9,71,101590,0,0,323,0,0,0,0,0,0,0,360,3.7,10,0,0,0,0,0,0,0,0,0,0,0,0
2014,3,2,4,0,,7.9,1,62,101600,0,0,312,0,0,0,0,0,0,0,320,2.8,9,0,0,0,0,0,0,0,0,0,0,0,0
2014,3,2,5,0,,7.3,1.7,68,101650,0,0,299,0,0,0,0,0,0,0,320,2.7,7,0,0,0,0,0,0,0,0,0,0,0,0
2014,3,2,6,0,,6.9,-1,57,101680,0,0,294,0,0,0,0,0,0,0,360,3,7,0,0,0,0,0,0,0,0,0,0,0,0
2014,3,2,7,0,,6.7,-0.9,58,101700,0,0,290,0,0,0,0,0,0,0,360,3.4,6,0,0,0,0,0,0,0,0,0,0,0,0
2014,3,2,8,0,,6.8,0.8,66,101720,0,0,279,68,41,27,5940,4076,3924,0,360,2.9,1,0,0,0,0,0,0,0,0,0,0,0,0
2014,3,2,9,0,,7.9,1.2,63,101850,0,0,283,240,602,65,47761,60687,9418,0,360,4.2,1,0,0,0,0,0,0,0,0,0,0,0,0
2014,3,2,10,0,,8.7,2,63,101830,0,0,287,417,676,100,63644,69210,13705,0,360,6,1,0,0,0,0,0,0,0,0,0,0,0,0
2014,3,2,11,0,,9.6,1.9,59,101870,0,0,291,542,636,152,69874,64533,20988,0,360,4.3,1,0,0,0,0,0,0,0,0,0,0,0,0
2014,3,2,12,0,,10.3,3.5,63,101880,0,0,300,632,624,189,71078,62481,25014,0,360,6.4,2,0,0,0,0,0,0,0,0,0,0,0,0
2014,3,2,13,0,,11,1.5,52,101860,0,0,303,657,577,222,65781,57552,27672,0,360,4.9,3,0,0,0,0,0,0,0,0,0,0,0,0
2014,3,2,14,0,,11.3,2,53,101870,0,0,305,634,550,227,56359,53280,27730,0,360,4.4,3,0,0,0,0,0,0,0,0,0,0,0,0
2014,3,2,15,0,,11.5,0.5,47,101820,0,0,305,573,561,195,42223,50357,23524,0,360,4.6,3,0,0,0,0,0,0,0,0,0,0,0,0
2014,3,2,16,0,,10,-2.3,42,101870,0,0,311,306,148,224,26484,12322,24322,0,340,4.5,8,0,0,0,0,0,0,0,0,0,0,0,0
2014,3,2,17,0,,9.6,-2,44,101830,0,0,310,209,158,146,0,0,0,0,360,4.6,8,0,0,0,0,0,0,0,0,0,0,0,0
2014,3,2,18,0,,9.5,-2.7,42,101880,0,0,308,100,169,67,0,0,0,0,360,4.8,8,0,0,0,0,0,0,0,0,0,0,0,0
2014,3,2,19,0,,9.6,-0.6,49,101870,0,0,311,20,5,14,0,0,0,0,360,7.5,8,0,0,0,0,0,0,0,0,0,0,0,0
2014,3,2,20,0,,9.4,-0.2,51,101890,0,0,311,0,0,0,0,0,0,0,360,7.5,8,0,0,0,0,0,0,0,0,0,0,0,0
2014,3,2,21,0,,9.2,-0.1,52,102070,0,0,310,0,0,0,0,0,0,0,20,5.3,8,0,0,0,0,0,0,0,0,0,0,0,0
2014,3,2,22,0,,9.2,-0.1,52,102100,0,0,310,0,0,0,0,0,0,0,360,6,8,0,0,0,0,0,0,0,0,0,0,0,0
2014,3,2,23,0,,9.3,1.2,57,102140,0,0,312,0,0,0,0,0,0,0,20,6.7,8,0,0,0,0,0,0,0,0,0,0,0,0
2014,3,2,24,0,,9.3,1.2,57,102160,0,0,312,0,0,0,0,0,0,0,20,8,8,0,0,0,0,0,0,0,0,0,0,0,0
2014,3,3,1,0,,9.1,0.7,56,102200,0,0,307,0,0,0,0,0,0,0,20,5.7,7,0,0,0,0,0,0,0,0,0,0,0,0
2014,3,3,2,0,,8.6,1.7,62,102190,0,0,303,0,0,0,0,0,0,0,360,6.2,7,0,0,0,0,0,0,0,0,0,0,0,0
2014,3,3,3,0,,8.8,0.2,55,102190,0,0,300,0,0,0,0,0,0,0,20,6.7,6,0,0,0,0,0,0,0,0,0,0,0,0
2014,3,3,4,0,,8.8,-1,50,102200,0,0,292,0,0,0,0,0,0,0,20,5.4,3,0,0,0,0,0,0,0,0,0,0,0,0
2014,3,3,5,0,,8.6,-0.4,53,102200,0,0,291,0,0,0,0,0,0,0,20,5.9,3,0,0,0,0,0,0,0,0,0,0,0,0
2014,3,3,6,0,,8.6,-0.4,53,102250,0,0,291,0,0,0,0,0,0,0,20,5.1,3,0,0,0,0,0,0,0,0,0,0,0,0
2014,3,3,7,0,,8.4,-1.7,49,102290,0,0,282,0,0,0,0,0,0,0,50,4.7,1,0,0,0,0,0,0,0,0,0,0,0,0
2014,3,3,8,0,,7.8,-0.9,54,102380,0,0,287,69,41,28,6102,4077,4068,0,110,1.3,3,0,0,0,0,0,0,0,0,0,0,0,0
2014,3,3,9,0,,9.5,-0.4,50,102420,0,0,283,256,671,58,51470,67641,8420,0,50,5.1,0,0,0,0,0,0,0,0,0,0,0,0,0
2014,3,3,10,0,,10.5,-1.8,42,102490,0,0,286,431,708,94,65682,72562,12996,0,50,4.2,0,0,0,0,0,0,0,0,0,0,0,0,0
2014,3,3,11,0,,10.7,-1.7,42,102530,0,0,287,576,725,128,73106,73697,16958,0,50,5,0,0,0,0,0,0,0,0,0,0,0,0,0
2014,3,3,12,0,,10.9,-2.8,38,102450,0,0,286,663,694,167,74544,70244,22466,0,50,5.6,0,0,0,0,0,0,0,0,0,0,0,0,0
2014,3,3,13,0,,11.3,-1.4,41,102430,0,0,289,680,626,206,67712,61980,26430,0,50,5.4,0,0,0,0,0,0,0,0,0,0,0,0,0
2014,3,3,14,0,,11.6,-0.5,43,102360,0,0,291,667,624,202,58120,61100,25067,0,50,4.6,0,0,0,0,0,0,0,0,0,0,0,0,0
2014,3,3,15,0,,11.5,-3,36,102300,0,0,289,610,655,167,42940,59676,20579,0,50,4.9,0,0,0,0,0,0,0,0,0,0,0,0,0
2014,3,3,16,0,,11.3,-3.2,36,102320,0,0,288,495,657,129,22820,43584,15036,0,50,4.7,0,0,0,0,0,0,0,0,0,0,0,0,0
2014,3,3,17,0,,11,-2.7,38,102320,0,0,292,345,661,83,0,0,0,0,50,5,1,0,0,0,0,0,0,0,0,0,0,0,0
2014,3,3,18,0,,10.5,-2.2,41,102380,0,0,285,166,601,44,0,0,0,0,70,3.7,0,0,0,0,0,0,0,0,0,0,0,0,0
2014,3,3,19,0,,9.3,-1.4,47,102370,0,0,281,32,17,16,0,0,0,0,110,2.7,0,0,0,0,0,0,0,0,0,0,0,0,0
2014,3,3,20,0,,8.5,-1.6,49,102360,0,0,278,0,0,0,0,0,0,0,90,2.5,0,0,0,0,0,0,0,0,0,0,0,0,0
2014,3,3,21,0,,8.2,-0.8,53,102390,0,0,277,0,0,0,0,0,0,0,110,2.2,0,0,0,0,0,0,0,0,0,0,0,0,0
2014,3,3,22,0,,8.1,-0.1,56,102350,0,0,278,0,0,0,0,0,0,0,110,3.2,0,0,0,0,0,0,0,0,0,0,0,0,0
2014,3,3,23,0,,8.1,0,57,102330,0,0,278,0,0,0,0,0,0,0,110,2.8,0,0,0,0,0,0,0,0,0,0,0,0,0
2014,3,3,24,0,,8.1,-1.1,52,102330,0,0,277,0,0,0,0,0,0,0,140,2.8,0,0,0,0,0,0,0,0,0,0,0,0,0
2014,3,4,1,0,,7.9,-1.3,52,102270,0,0,276,0,0,0,0,0,0,0,110,2.5,0,0,0,0,0,0,0,0,0,0,0,0,0
2014,3,4,2,0,,7.7,-2.9,47,102210,0,0,273,0,0,0,0,0,0,0,110,2.1,0,0,0,0,0,0,0,0,0,0,0,0,0
2014,3,4,3,0,,7.8,-1.9,50,102200,0,0,275,0,0,0,0,0,0,0,140,3.3,0,0,0,0,0,0,0,0,0,0,0,0,0
2014,3,4,4,0,,7.6,0,59,102090,0,0,276,0,0,0,0,0,0,0,90,1.4,0,0,0,0,0,0,0,0,0,0,0,0,0
2014,3,4,5,0,,7.3,1.3,66,102040,0,0,285,0,0,0,0,0,0,0,90,2.4,2,0,0,0,0,0,0,0,0,0,0,0,0
2014,3,4,6,0,,7.7,1.5,65,102100,0,0,290,0,0,0,0,0,0,0,140,2.6,3,0,0,0,0,0,0,0,0,0,0,0,0
2014,3,4,7,0,,7.6,2,68,102080,0,0,297,0,0,0,0,0,0,0,180,0.9,6,0,0,0,0,0,0,0,0,0,0,0,0
2014,3,4,8,0,,8.4,2.6,67,102040,0,0,301,59,31,28,5587,3020,4065,0,90,1.6,6,0,0,0,0,0,0,0,0,0,0,0,0
2014,3,4,9,0,,10.1,3.3,63,102030,0,0,334,104,53,88,14484,5387,11030,0,90,1.8,10,0,0,0,0,0,0,0,0,0,0,0,0
2014,3,4,10,0,,11,3.7,61,101960,0,0,339,190,63,160,23908,6420,19218,0,70,2.7,10,0,0,0,0,0,0,0,0,0,0,0,0
2014,3,4,11,0,,11.3,5.5,68,101900,0,0,342,228,44,201,26503,4258,23241,0,90,2.7,10,0,0,0,0,0,0,0,0,0,0,0,0
2014,3,4,12,0,,10.6,8,84,101880,0,0,342,198,18,184,22720,1725,21434,0,50,0.9,10,0,0,0,0,0,0,0,0,0,0,0,0
2014,3,4,13,0,,10.7,8.9,89,101780,0,0,344,186,13,177,21662,876,21075,0,70,1.5,10,0,0,0,0,0,0,0,0,0,0,0,0
2014,3,4,14,0,,10.4,8.8,90,101640,0,0,343,204,17,191,22724,1269,22033,0,70,3,10,0,0,0,0,0,0,0,0,0,0,0,0
2014,3,4,15,0,,10.3,8.8,91,101620,0,0,342,186,18,173,19688,1299,19197,0,70,2.3,10,0,0,0,0,0,0,0,0,0,0,0,0
2014,3,4,16,0,,9.9,8.6,92,101670,0,0,340,163,24,149,15717,1471,15449,0,50,6.1,10,0,0,0,0,0,0,0,0,0,0,0,0
2014,3,4,17,0,,9.5,8.2,92,101690,0,0,338,103,21,95,0,0,0,0,50,4.7,10,0,0,0,0,0,0,0,0,0,0,0,0
2014,3,4,18,0,,9.3,7.9,91,101700,0,0,336,52,23,47,0,0,0,0,50,4.8,10,0,0,0,0,0,0,0,0,0,0,0,0
2014,3,4,19,0,,9.1,7.3,89,101720,0,0,335,6,0,6,0,0,0,0,50,5.2,10,0,0,0,0,0,0,0,0,0,0,0,0
2014,3,4,20,0,,9.1,6.7,85,101790,0,0,334,0,0,0,0,0,0,0,50,3.9,10,0,0,0,0,0,0,0,0,0,0,0,0
2014,3,4,21,0,,9.2,6.1,81,101790,0,0,333,0,0,0,0,0,0,0,20,3.8,10,0,0,0,0,0,0,0,0,0,0,0,0
2014,3,4,22,0,,9.2,5.5,78,101820,0,0,323,0,0,0,0,0,0,0,50,3,9,0,0,0,0,0,0,0,0,0,0,0,0
2014,3,4,23,0,,9.1,4.3,72,101800,0,0,314,0,0,0,0,0,0,0,50,3.4,8,0,0,0,0,0,0,0,0,0,0,0,0
2014,3,4,24,0,,9.1,3.7,69,101820,0,0,309,0,0,0,0,0,0,0,20,3.3,7,0,0,0,0,0,0,0,0,0,0,0,0
2014,3,5,1,0,,8.6,3,68,102270,0,0,302,0,0,0,0,0,0,0,360,3.1,6,0,0,0,0,0,0,0,0,0,0,0,0
2014,3,5,2,0,,8.6,-0.2,54,102210,0,0,296,0,0,0,0,0,0,0,360,5.5,5,0,0,0,0,0,0,0,0,0,0,0,0
2014,3,5,3,0,,8.2,1.7,64,102200,0,0,294,0,0,0,0,0,0,0,360,4.2,4,0,0,0,0,0,0,0,0,0,0,0,0
2014,3,5,4,0,,7.9,2.7,70,102090,0,0,299,0,0,0,0,0,0,0,340,4.9,6,0,0,0,0,0,0,0,0,0,0,0,0
2014,3,5,5,0,,7.7,2.9,72,102040,0,0,307,0,0,0,0,0,0,0,360,5.1,8,0,0,0,0,0,0,0,0,0,0,0,0
2014,3,5,6,0,,7.2,2.8,74,102100,0,0,304,0,0,0,0,0,0,0,340,6.2,8,0,0,0,0,0,0,0,0,0,0,0,0
2014,3,5,7,0,,6.7,1.9,72,102080,0,0,308,0,0,0,0,0,0,0,340,3.7,9,0,0,0,0,0,0,0,0,0,0,0,0
2014,3,5,8,0,,6.7,1.9,72,102040,0,0,308,34,6,28,3686,521,3421,0,340,3.8,9,0,0,0,0,0,0,0,0,0,0,0,0
2014,3,5,9,0,,6.2,-1.4,58,102030,0,0,278,242,550,75,47069,56166,10802,0,340,4.5,2,0,0,0,0,0,0,0,0,0,0,0,0
2014,3,5,10,0,,6.3,-5,44,101960,0,0,271,415,620,115,61835,63071,15471,0,340,4.8,1,0,0,0,0,0,0,0,0,0,0,0,0
2014,3,5,11,0,,7.3,-3.2,47,101900,0,0,277,555,635,157,71171,64650,21357,0,360,4.9,1,0,0,0,0,0,0,0,0,0,0,0,0
2014,3,5,12,0,,7.8,-3.1,46,101880,0,0,273,654,646,186,73302,65140,24473,0,360,4.8,0,0,0,0,0,0,0,0,0,0,0,0,0
2014,3,5,13,0,,8.1,-3.4,44,101780,0,0,280,700,654,199,69477,65019,25670,0,360,4.1,1,0,0,0,0,0,0,0,0,0,0,0,0
2014,3,5,14,0,,8.8,-3.7,41,101640,0,0,282,691,666,190,59765,65780,23707,0,360,5.2,1,0,0,0,0,0,0,0,0,0,0,0,0
2014,3,5,15,0,,8.7,-3.8,41,101620,0,0,276,625,673,164,43823,61756,20271,0,360,5.8,0,0,0,0,0,0,0,0,0,0,0,0,0
2014,3,5,16,0,,8.1,-4.7,40,101670,0,0,273,506,668,128,23388,45414,14996,0,360,6.2,0,0,0,0,0,0,0,0,0,0,0,0,0
2014,3,5,17,0,,7.3,-5.4,40,101690,0,0,275,348,647,88,0,0,0,0,360,6.6,1,0,0,0,0,0,0,0,0,0,0,0,0
2014,3,5,18,0,,6.2,-5.4,43,101780,0,0,270,172,602,46,0,0,0,0,360,6.8,1,0,0,0,0,0,0,0,0,0,0,0,0
2014,3,5,19,0,,5.1,-4.4,50,101880,0,0,272,33,16,18,0,0,0,0,360,6.3,3,0,0,0,0,0,0,0,0,0,0,0,0
2014,3,5,20,0,,4.6,-3.6,55,101970,0,0,275,0,0,0,0,0,0,0,360,6.6,4,0,0,0,0,0,0,0,0,0,0,0,0
2014,3,5,21,0,,4.4,-3.6,56,102070,0,0,278,0,0,0,0,0,0,0,360,6.2,6,0,0,0,0,0,0,0,0,0,0,0,0
2014,3,5,22,0,,4.3,-4.2,54,102160,0,0,277,0,0,0,0,0,0,0,360,5.5,6,0,0,0,0,0,0,0,0,0,0,0,0
2014,3,5,23,0,,4.3,-3.9,55,102250,0,0,277,0,0,0,0,0,0,0,360,5.2,6,0,0,0,0,0,0,0,0,0,0,0,0
2014,3,5,24,0,,4.3,-2.3,62,102350,0,0,279,0,0,0,0,0,0,0,360,4.8,6,0,0,0,0,0,0,0,0,0,0,0,0
2014,3,6,1,0,,4.1,-3.9,56,102440,0,0,276,0,0,0,0,0,0,0,20,5.9,6,0,0,0,0,0,0,0,0,0,0,0,0
2014,3,6,2,0,,4.1,-3.6,57,102400,0,0,276,0,0,0,0,0,0,0,360,5.8,6,0,0,0,0,0,0,0,0,0,0,0,0
2014,3,6,3,0,,4.2,-3.8,56,102420,0,0,277,0,0,0,0,0,0,0,360,4.8,6,0,0,0,0,0,0,0,0,0,0,0,0
2014,3,6,4,0,,4.2,-3.3,58,102450,0,0,277,0,0,0,0,0,0,0,360,5.8,6,0,0,0,0,0,0,0,0,0,0,0,0
2014,3,6,5,0,,4.1,-5.1,51,102470,0,0,275,0,0,0,0,0,0,0,20,6.3,6,0,0,0,0,0,0,0,0,0,0,0,0
2014,3,6,6,0,,4,-8.4,40,102470,0,0,271,0,0,0,0,0,0,0,20,7.6,6,0,0,0,0,0,0,0,0,0,0,0,0
2014,3,6,7,0,,3.6,-8.4,41,102500,0,0,269,0,0,0,0,0,0,0,20,7.1,6,0,0,0,0,0,0,0,0,0,0,0,0
2014,3,6,8,0,,4.1,-8,41,102580,0,0,272,72,40,32,6585,4066,4498,0,20,7.7,6,0,0,0,0,0,0,0,0,0,0,0,0
2014,3,6,9,0,,4.6,-6.9,43,102580,0,0,275,227,444,90,43202,45464,13635,0,20,7.4,6,0,0,0,0,0,0,0,0,0,0,0,0
2014,3,6,10,0,,5.2,-7.6,39,102570,0,0,277,380,476,148,56208,48601,20263,0,20,7.1,6,0,0,0,0,0,0,0,0,0,0,0,0
2014,3,6,11,0,,6,-9.4,32,102650,0,0,279,496,448,213,62079,46045,26403,0,50,5.4,6,0,0,0,0,0,0,0,0,0,0,0,0
2014,3,6,12,0,,6.9,-8.6,32,102550,0,0,283,578,434,262,64610,44359,31178,0,50,6.3,6,0,0,0,0,0,0,0,0,0,0,0,0
2014,3,6,13,0,,7.4,-8.6,31,102540,0,0,285,607,338,346,61744,35314,37817,0,20,5.3,6,0,0,0,0,0,0,0,0,0,0,0,0
2014,3,6,14,0,,7.8,-7.5,33,102490,0,0,291,535,244,350,52084,24387,38630,0,20,5.2,7,0,0,0,0,0,0,0,0,0,0,0,0
2014,3,6,15,0,,8,-8.5,30,102450,0,0,288,518,322,296,43874,29934,32360,0,20,3.5,6,0,0,0,0,0,0,0,0,0,0,0,0
2014,3,6,16,0,,7.9,-7.8,32,102460,0,0,288,424,393,200,26259,26420,21296,0,20,4.4,6,0,0,0,0,0,0,0,0,0,0,0,0
2014,3,6,17,0,,7.4,-6.7,36,102480,0,0,287,291,387,134,0,0,0,0,360,5,6,0,0,0,0,0,0,0,0,0,0,0,0
2014,3,6,18,0,,6.7,-6.3,39,102520,0,0,284,144,363,67,0,0,0,0,360,5.4,6,0,0,0,0,0,0,0,0,0,0,0,0
2014,3,6,19,0,,6,-6.2,41,102590,0,0,279,33,13,19,0,0,0,0,360,4.9,5,0,0,0,0,0,0,0,0,0,0,0,0
2014,3,6,20,0,,5.8,-7.7,37,102630,0,0,275,0,0,0,0,0,0,0,360,4.5,4,0,0,0,0,0,0,0,0,0,0,0,0
2014,3,6,21,0,,5.3,-4.5,49,102680,0,0,274,0,0,0,0,0,0,0,360,4.5,3,0,0,0,0,0,0,0,0,0,0,0,0
2014,3,6,22,0,,5.1,-3.7,53,102760,0,0,274,0,0,0,0,0,0,0,20,4.3,3,0,0,0,0,0,0,0,0,0,0,0,0
2014,3,6,23,0,,5.1,-4.2,51,102790,0,0,273,0,0,0,0,0,0,0,360,3.8,3,0,0,0,0,0,0,0,0,0,0,0,0
2014,3,6,24,0,,5.5,-3,54,102780,0,0,276,0,0,0,0,0,0,0,320,4,3,0,0,0,0,0,0,0,0,0,0,0,0
2014,3,7,1,0,,5.7,-2.9,54,102790,0,0,276,0,0,0,0,0,0,0,320,3.9,3,0,0,0,0,0,0,0,0,0,0,0,0
2014,3,7,2,0,,6.1,-2,56,102790,0,0,278,0,0,0,0,0,0,0,320,4.4,2,0,0,0,0,0,0,0,0,0,0,0,0
2014,3,7,3,0,,6.2,-3.2,51,102770,0,0,276,0,0,0,0,0,0,0,320,4,2,0,0,0,0,0,0,0,0,0,0,0,0
2014,3,7,4,0,,6.3,-2.3,54,102730,0,0,295,0,0,0,0,0,0,0,320,5.3,8,0,0,0,0,0,0,0,0,0,0,0,0
2014,3,7,5,0,,5.4,0,68,102770,0,0,300,0,0,0,0,0,0,0,270,4,9,0,0,0,0,0,0,0,0,0,0,0,0
2014,3,7,6,0,,5.5,1.7,77,102800,0,0,296,0,0,0,0,0,0,0,360,5.3,8,0,0,0,0,0,0,0,0,0,0,0,0
2014,3,7,7,0,,5.5,0.4,70,102820,0,0,294,0,0,0,0,0,0,0,360,5.1,8,0,0,0,0,0,0,0,0,0,0,0,0
2014,3,7,8,0,,5.3,-0.9,64,102900,0,0,292,51,17,34,4915,1560,4107,0,360,5.2,8,0,0,0,0,0,0,0,0,0,0,0,0
2014,3,7,9,0,,5.4,-0.8,64,102950,0,0,285,205,338,99,37369,34469,14793,0,360,4.4,6,0,0,0,0,0,0,0,0,0,0,0,0
2014,3,7,10,0,,5.9,-2.7,54,102980,0,0,285,346,333,182,48681,33874,23477,0,360,4.4,6,0,0,0,0,0,0,0,0,0,0,0,0
2014,3,7,11,0,,6.2,-6.7,39,103010,0,0,275,553,603,169,70402,61360,22596,0,20,4.9,3,0,0,0,0,0,0,0,0,0,0,0,0
2014,3,7,12,0,,6.8,-6.5,38,102960,0,0,266,667,656,186,74648,66416,24324,0,20,4.8,0,0,0,0,0,0,0,0,0,0,0,0,0
2014,3,7,13,0,,7.1,-5.9,39,102860,0,0,268,702,636,209,69677,63283,26561,0,360,4.1,0,0,0,0,0,0,0,0,0,0,0,0,0
2014,3,7,14,0,,7,-7,36,102770,0,0,275,677,610,213,59531,60534,25923,0,340,3,2,0,0,0,0,0,0,0,0,0,0,0,0
2014,3,7,15,0,,7,-6.3,38,102740,0,0,279,586,545,208,43955,50202,24480,0,320,2.8,3,0,0,0,0,0,0,0,0,0,0,0,0
2014,3,7,16,0,,7.2,-6.9,36,102710,0,0,289,376,243,237,28479,16610,25308,0,360,4.3,7,0,0,0,0,0,0,0,0,0,0,0,0
2014,3,7,17,0,,6.7,-8.8,32,102710,0,0,280,315,480,119,0,0,0,0,360,4.3,5,0,0,0,0,0,0,0,0,0,0,0,0
2014,3,7,18,0,,6,-8.3,35,102740,0,0,283,134,327,64,0,0,0,0,360,4.4,7,0,0,0,0,0,0,0,0,0,0,0,0
2014,3,7,19,0,,5.9,-8,36,102770,0,0,283,28,11,17,0,0,0,0,360,4.3,7,0,0,0,0,0,0,0,0,0,0,0,0
2014,3,7,20,0,,5.9,-8.7,34,102820,0,0,282,0,0,0,0,0,0,0,360,5.3,7,0,0,0,0,0,0,0,0,0,0,0,0
2014,3,7,21,0,,6,-9,33,102830,0,0,282,0,0,0,0,0,0,0,360,5,7,0,0,0,0,0,0,0,0,0,0,0,0
2014,3,7,22,0,,5.8,-10,31,102840,0,0,275,0,0,0,0,0,0,0,360,4.7,5,0,0,0,0,0,0,0,0,0,0,0,0
2014,3,7,23,0,,5.5,-9.1,34,102810,0,0,272,0,0,0,0,0,0,0,20,4.2,4,0,0,0,0,0,0,0,0,0,0,0,0
2014,3,7,24,0,,5.4,-10.8,30,102760,0,0,266,0,0,0,0,0,0,0,20,4.7,2,0,0,0,0,0,0,0,0,0,0,0,0
2014,3,8,1,0,,5.1,-10.2,32,102760,0,0,263,0,0,0,0,0,0,0,20,3.5,1,0,0,0,0,0,0,0,0,0,0,0,0
2014,3,8,2,0,,4.5,-11.2,31,102720,0,0,257,0,0,0,0,0,0,0,20,3.3,1,0,0,0,0,0,0,0,0,0,0,0,0
2014,3,8,3,0,,3.8,-8.5,40,102690,0,0,253,0,0,0,0,0,0,0,50,1.6,0,0,0,0,0,0,0,0,0,0,0,0,0
2014,3,8,4,0,,2.5,-8.5,44,102640,0,0,248,0,0,0,0,0,0,0,200,1.2,0,0,0,0,0,0,0,0,0,0,0,0,0
2014,3,8,5,0,,2.1,-8.9,44,102610,0,0,246,0,0,0,0,0,0,0,180,1.1,0,0,0,0,0,0,0,0,0,0,0,0,0
2014,3,8,6,0,,2,-7.6,49,102570,0,0,247,0,0,0,0,0,0,0,250,1,0,0,0,0,0,0,0,0,0,0,0,0,0
2014,3,8,7,0,,2.1,-8,47,102630,0,0,255,0,0,0,0,0,0,0,160,1.8,2,0,0,0,0,0,0,0,0,0,0,0,0
2014,3,8,8,0,,2.1,-8.6,45,102660,0,0,251,88,61,27,7722,6159,4503,0,160,1.6,1,0,0,0,0,0,0,0,0,0,0,0,0
2014,3,8,9,0,,5.3,-10.5,31,102590,0,0,268,286,718,57,55785,72014,8285,0,50,2.8,3,0,0,0,0,0,0,0,0,0,0,0,0
2014,3,8,10,0,,6.8,-9.1,31,102510,0,0,275,467,755,90,69373,76020,12471,0,20,3.7,3,0,0,0,0,0,0,0,0,0,0,0,0
2014,3,8,11,0,,6.9,-7.1,36,102530,0,0,282,544,565,182,68870,57370,23928,0,20,3.3,5,0,0,0,0,0,0,0,0,0,0,0,0
2014,3,8,12,0,,7.4,-7.8,33,102490,0,0,294,452,164,331,50176,17085,37162,0,20,2.9,8,0,0,0,0,0,0,0,0,0,0,0,0
2014,3,8,13,0,,7.9,-3.3,45,102360,0,0,301,446,130,344,47651,13258,38568,0,360,2.5,8,0,0,0,0,0,0,0,0,0,0,0,0
2014,3,8,14,0,,7.9,-1.9,50,102240,0,0,302,422,119,331,43549,11807,36953,0,360,2.1,8,0,0,0,0,0,0,0,0,0,0,0,0
2014,3,8,15,0,,7.3,-2.4,50,102180,0,0,299,370,115,290,36475,11095,32135,0,320,2.2,8,0,0,0,0,0,0,0,0,0,0,0,0
2014,3,8,16,0,,7.7,-2.3,49,102120,0,0,301,310,134,233,27513,11420,25297,0,340,2.4,8,0,0,0,0,0,0,0,0,0,0,0,0
2014,3,8,17,0,,7.1,-1.8,53,102080,0,0,299,208,132,153,0,0,0,0,290,1.5,8,0,0,0,0,0,0,0,0,0,0,0,0
2014,3,8,18,0,,7,-0.9,57,102090,0,0,299,108,158,74,0,0,0,0,290,2.3,8,0,0,0,0,0,0,0,0,0,0,0,0
2014,3,8,19,0,,7.1,-0.6,58,102140,0,0,300,21,5,17,0,0,0,0,340,2.7,8,0,0,0,0,0,0,0,0,0,0,0,0
2014,3,8,20,0,,7.1,-0.3,59,102160,0,0,300,0,0,0,0,0,0,0,360,3.3,8,0,0,0,0,0,0,0,0,0,0,0,0
2014,3,8,21,0,,6.9,-0.5,59,102150,0,0,299,0,0,0,0,0,0,0,360,3.6,8,0,0,0,0,0,0,0,0,0,0,0,0
2014,3,8,22,0,,6.7,-0.3,61,102170,0,0,289,0,0,0,0,0,0,0,360,3,5,0,0,0,0,0,0,0,0,0,0,0,0
2014,3,8,23,0,,6.7,-1.9,54,102180,0,0,281,0,0,0,0,0,0,0,340,2.6,3,0,0,0,0,0,0,0,0,0,0,0,0
2014,3,8,24,0,,6.5,-1.4,57,102150,0,0,270,0,0,0,0,0,0,0,340,2.9,0,0,0,0,0,0,0,0,0,0,0,0,0
2014,3,9,1,0,,6.2,-2.1,55,102140,0,0,268,0,0,0,0,0,0,0,290,2.1,0,0,0,0,0,0,0,0,0,0,0,0,0
2014,3,9,2,0,,6.4,-1.2,58,102110,0,0,270,0,0,0,0,0,0,0,340,2.5,0,0,0,0,0,0,0,0,0,0,0,0,0
2014,3,9,3,0,,6.5,-2.1,54,102100,0,0,269,0,0,0,0,0,0,0,320,3.4,0,0,0,0,0,0,0,0,0,0,0,0,0
2014,3,9,4,0,,6.5,-0.2,62,102070,0,0,271,0,0,0,0,0,0,0,320,2.4,0,0,0,0,0,0,0,0,0,0,0,0,0
2014,3,9,5,0,,4.8,-1,66,102050,0,0,264,0,0,0,0,0,0,0,200,1,0,0,0,0,0,0,0,0,0,0,0,0,0
2014,3,9,6,0,,7,0.8,65,102070,0,0,286,0,0,0,0,0,0,0,320,3.3,3,0,0,0,0,0,0,0,0,0,0,0,0
2014,3,9,7,0,,7,0.6,64,102060,0,0,288,0,0,0,0,0,0,0,290,3.5,4,0,0,0,0,0,0,0,0,0,0,0,0
2014,3,9,8,0,,7.3,-1.4,54,102080,0,0,285,93,67,27,8054,6606,4570,0,290,3.9,3,0,0,0,0,0,0,0,0,0,0,0,0
2014,3,9,9,0,,8.2,-0.3,55,102090,0,0,290,268,603,73,51593,61818,10534,0,290,4.9,3,0,0,0,0,0,0,0,0,0,0,0,0
2014,3,9,10,0,,9,0.4,55,102080,0,0,294,428,602,125,64270,61538,17934,0,290,5.1,3,0,0,0,0,0,0,0,0,0,0,0,0
2014,3,9,11,0,,9.3,-1.4,47,102080,0,0,304,453,271,278,54103,28264,31843,0,320,6.8,7,0,0,0,0,0,0,0,0,0,0,0,0
2014,3,9,12,0,,9.6,0.9,55,102040,0,0,304,544,279,337,59968,28753,37952,0,290,7.1,6,0,0,0,0,0,0,0,0,0,0,0,0
2014,3,9,13,0,,10.2,2.2,58,101970,0,0,308,564,250,368,58595,25107,41302,0,290,6.5,6,0,0,0,0,0,0,0,0,0,0,0,0
2014,3,9,14,0,,9.9,2.9,62,101930,0,0,308,549,248,358,53630,24228,40010,0,320,7.2,6,0,0,0,0,0,0,0,0,0,0,0,0
2014,3,9,15,0,,9.7,2.2,60,101910,0,0,306,480,237,314,43193,21563,34689,0,290,5.9,6,0,0,0,0,0,0,0,0,0,0,0,0
2014,3,9,16,0,,9.2,2,61,101910,0,0,304,398,277,238,29398,18748,25705,0,320,7,6,0,0,0,0,0,0,0,0,0,0,0,0
2014,3,9,17,0,,8.3,1.8,64,101980,0,0,303,242,202,158,0,0,0,0,320,6.9,7,0,0,0,0,0,0,0,0,0,0,0,0
2014,3,9,18,0,,7.6,1.2,64,102040,0,0,299,126,242,73,0,0,0,0,320,7.2,7,0,0,0,0,0,0,0,0,0,0,0,0
2014,3,9,19,0,,6.7,-1.2,57,102090,0,0,288,34,18,16,0,0,0,0,320,7.3,5,0,0,0,0,0,0,0,0,0,0,0,0
2014,3,9,20,0,,5.9,-1.9,57,102190,0,0,280,0,0,0,0,0,0,0,320,7.3,4,0,0,0,0,0,0,0,0,0,0,0,0
2014,3,9,21,0,,5.3,-2.7,56,102300,0,0,273,0,0,0,0,0,0,0,320,6.5,2,0,0,0,0,0,0,0,0,0,0,0,0
2014,3,9,22,0,,5.1,-3.9,52,102360,0,0,270,0,0,0,0,0,0,0,340,4.6,2,0,0,0,0,0,0,0,0,0,0,0,0
2014,3,9,23,0,,5.1,-5,48,102400,0,0,267,0,0,0,0,0,0,0,320,5.9,1,0,0,0,0,0,0,0,0,0,0,0,0
2014,3,9,24,0,,5,-4.3,51,102390,0,0,266,0,0,0,0,0,0,0,340,5.3,1,0,0,0,0,0,0,0,0,0,0,0,0
2014,3,10,1,0,,4.8,-4.7,50,102400,0,0,264,0,0,0,0,0,0,0,340,6.1,1,0,0,0,0,0,0,0,0,0,0,0,0
2014,3,10,2,0,,4.5,-4.5,52,102420,0,0,261,0,0,0,0,0,0,0,340,4.3,0,0,0,0,0,0,0,0,0,0,0,0,0
2014,3,10,3,0,,4.4,-4.1,54,102380,0,0,259,0,0,0,0,0,0,0,340,3.8,0,0,0,0,0,0,0,0,0,0,0,0,0
2014,3,10,4,0,,4.1,-5.6,49,102400,0,0,257,0,0,0,0,0,0,0,340,4.4,0,0,0,0,0,0,0,0,0,0,0,0,0
2014,3,10,5,0,,3.9,-4.5,54,102430,0,0,257,0,0,0,0,0,0,0,320,3.5,0,0,0,0,0,0,0,0,0,0,0,0,0
2014,3,10,6,0,,3.8,-3.2,60,102470,0,0,258,0,0,0,0,0,0,0,340,3.3,0,0,0,0,0,0,0,0,0,0,0,0,0
2014,3,10,7,0,,3.5,-3.1,62,102530,0,0,265,0,0,0,0,0,0,0,290,1.7,2,0,0,0,0,0,0,0,0,0,0,0,0
2014,3,10,8,0,,3.8,-3.9,57,102620,0,0,266,93,62,31,8445,6167,5164,0,360,2.6,2,0,0,0,0,0,0,0,0,0,0,0,0
2014,3,10,9,0,,5.2,-3.1,55,102670,0,0,277,254,509,88,46987,51860,12303,0,360,2.5,4,0,0,0,0,0,0,0,0,0,0,0,0
2014,3,10,10,0,,6,-2.6,54,102710,0,0,276,442,636,119,64927,64834,15823,0,320,2.5,2,0,0,0,0,0,0,0,0,0,0,0,0
2014,3,10,11,0,,6,-3.1,52,102710,0,0,275,570,614,171,72327,62508,22835,0,290,3.3,2,0,0,0,0,0,0,0,0,0,0,0,0
2014,3,10,12,0,,7,-1.6,54,102700,0,0,272,663,611,207,73862,61393,26612,0,320,3.6,0,0,0,0,0,0,0,0,0,0,0,0,0
2014,3,10,13,0,,7,-2.4,51,102660,0,0,271,691,577,236,69172,58151,28905,0,290,4,0,0,0,0,0,0,0,0,0,0,0,0,0
2014,3,10,14,0,,7.9,-1.3,52,102570,0,0,276,680,587,227,60272,57802,27582,0,320,4.3,0,0,0,0,0,0,0,0,0,0,0,0,0
2014,3,10,15,0,,7.8,-1.4,52,102550,0,0,280,608,576,202,45322,52983,24257,0,290,4.3,1,0,0,0,0,0,0,0,0,0,0,0,0
2014,3,10,16,0,,7.8,-1.2,53,102550,0,0,281,492,572,159,26121,39846,18153,0,290,3.3,1,0,0,0,0,0,0,0,0,0,0,0,0
2014,3,10,17,0,,7.6,-0.8,55,102530,0,0,280,345,572,105,0,0,0,0,290,3.3,1,0,0,0,0,0,0,0,0,0,0,0,0
2014,3,10,18,0,,7.3,-1.1,55,102530,0,0,273,178,554,54,0,0,0,0,270,2.8,0,0,0,0,0,0,0,0,0,0,0,0,0
2014,3,10,19,0,,6.2,-1.2,59,102580,0,0,269,39,20,19,0,0,0,0,270,2.5,0,0,0,0,0,0,0,0,0,0,0,0,0
2014,3,10,20,0,,5.7,-1.2,61,102630,0,0,267,0,0,0,0,0,0,0,230,2.5,0,0,0,0,0,0,0,0,0,0,0,0,0
2014,3,10,21,0,,5.1,-1.1,64,102680,0,0,265,0,0,0,0,0,0,0,200,2.6,0,0,0,0,0,0,0,0,0,0,0,0,0
2014,3,10,22,0,,4.5,-1.5,65,102690,0,0,262,0,0,0,0,0,0,0,180,2.5,0,0,0,0,0,0,0,0,0,0,0,0,0
2014,3,10,23,0,,3.9,-2.7,62,102690,0,0,259,0,0,0,0,0,0,0,180,2.4,0,0,0,0,0,0,0,0,0,0,0,0,0
2014,3,10,24,0,,3.2,-4.2,58,102670,0,0,255,0,0,0,0,0,0,0,180,2,0,0,0,0,0,0,0,0,0,0,0,0,0
2014,3,11,1,0,,3.2,-4.5,57,102400,0,0,254,0,0,0,0,0,0,0,180,2.8,0,0,0,0,0,0,0,0,0,0,0,0,0
2014,3,11,2,0,,2.8,-4.4,59,102420,0,0,253,0,0,0,0,0,0,0,180,2.7,0,0,0,0,0,0,0,0,0,0,0,0,0
2014,3,11,3,0,,2.8,-4.4,59,102380,0,0,253,0,0,0,0,0,0,0,180,2.2,0,0,0,0,0,0,0,0,0,0,0,0,0
2014,3,11,4,0,,2.6,-3.5,64,102400,0,0,253,0,0,0,0,0,0,0,160,2.4,0,0,0,0,0,0,0,0,0,0,0,0,0
2014,3,11,5,0,,2.3,-3,68,102430,0,0,253,0,0,0,0,0,0,0,180,1.1,0,0,0,0,0,0,0,0,0,0,0,0,0
2014,3,11,6,0,,2.1,-4.4,62,102470,0,0,250,0,0,0,0,0,0,0,160,2.7,0,0,0,0,0,0,0,0,0,0,0,0,0
2014,3,11,7,0,,1.9,-5.2,59,102530,0,0,249,0,0,0,0,0,0,0,160,1.8,0,0,0,0,0,0,0,0,0,0,0,0,0
2014,3,11,8,0,,2.6,-6.8,50,102620,0,0,250,101,72,29,8741,7210,4871,0,160,2.1,0,0,0,0,0,0,0,0,0,0,0,0,0
2014,3,11,9,0,,6,-2.6,54,102670,0,0,267,290,674,66,55196,67902,9472,0,180,0.5,0,0,0,0,0,0,0,0,0,0,0,0,0
2014,3,11,10,0,,8.6,-1.5,49,102710,0,0,278,488,781,88,72376,79054,12153,0,20,1.4,0,0,0,0,0,0,0,0,0,0,0,0,0
2014,3,11,11,0,,9.7,-0.2,50,102710,0,0,284,625,757,129,78397,77199,16951,0,340,1.9,0,0,0,0,0,0,0,0,0,0,0,0,0
2014,3,11,12,0,,10.7,2,55,102700,0,0,290,681,647,195,75993,65122,25618,0,360,2.8,0,0,0,0,0,0,0,0,0,0,0,0,0
2014,3,11,13,0,,10.7,0.9,51,102660,0,0,289,694,573,239,69450,57425,29476,0,340,2.1,0,0,0,0,0,0,0,0,0,0,0,0,0
2014,3,11,14,0,,11.8,2.7,54,102570,0,0,296,681,578,232,60498,56332,28448,0,360,2.8,0,0,0,0,0,0,0,0,0,0,0,0,0
2014,3,11,15,0,,12.1,3.8,57,102550,0,0,298,611,576,204,45795,52293,24839,0,360,2.4,0,0,0,0,0,0,0,0,0,0,0,0,0
2014,3,11,16,0,,11.3,3.3,58,102550,0,0,294,498,581,158,26507,40127,18364,0,20,3.9,0,0,0,0,0,0,0,0,0,0,0,0,0
2014,3,11,17,0,,11.4,3.4,58,102530,0,0,295,348,573,106,0,0,0,0,50,3.8,0,0,0,0,0,0,0,0,0,0,0,0,0
2014,3,11,18,0,,11.2,3.4,59,102480,0,0,294,175,512,58,0,0,0,0,90,1.6,0,0,0,0,0,0,0,0,0,0,0,0,0
2014,3,11,19,0,,10.3,3.3,62,102440,0,0,290,41,22,19,0,0,0,0,110,2.3,0,0,0,0,0,0,0,0,0,0,0,0,0
2014,3,11,20,0,,9.6,3.1,64,102390,0,0,287,0,0,0,0,0,0,0,230,2.6,0,0,0,0,0,0,0,0,0,0,0,0,0
2014,3,11,21,0,,8.8,2.9,67,102340,0,0,283,0,0,0,0,0,0,0,140,2.5,0,0,0,0,0,0,0,0,0,0,0,0,0
2014,3,11,22,0,,8.2,2.2,66,102290,0,0,286,0,0,0,0,0,0,0,140,2.2,1,0,0,0,0,0,0,0,0,0,0,0,0
2014,3,11,23,0,,7.6,2,68,102250,0,0,287,0,0,0,0,0,0,0,160,2.5,2,0,0,0,0,0,0,0,0,0,0,0,0
2014,3,11,24,0,,7.2,2,70,102200,0,0,288,0,0,0,0,0,0,0,160,2,3,0,0,0,0,0,0,0,0,0,0,0,0
2014,3,12,1,0,,7,0.4,63,102150,0,0,286,0,0,0,0,0,0,0,140,2.5,3,0,0,0,0,0,0,0,0,0,0,0,0
2014,3,12,2,0,,7.4,-1,55,102050,0,0,286,0,0,0,0,0,0,0,110,1.5,3,0,0,0,0,0,0,0,0,0,0,0,0
2014,3,12,3,0,,8.4,1.7,63,101940,0,0,293,0,0,0,0,0,0,0,180,1.2,3,0,0,0,0,0,0,0,0,0,0,0,0
2014,3,12,4,0,,8.4,-1.1,51,101850,0,0,290,0,0,0,0,0,0,0,140,2.8,3,0,0,0,0,0,0,0,0,0,0,0,0
2014,3,12,5,0,,8.3,0.7,59,101800,0,0,291,0,0,0,0,0,0,0,160,2.6,3,0,0,0,0,0,0,0,0,0,0,0,0
2014,3,12,6,0,,8.8,2.3,64,101750,0,0,306,0,0,0,0,0,0,0,180,1.8,7,0,0,0,0,0,0,0,0,0,0,0,0
2014,3,12,7,0,,10,4.1,67,101700,0,0,325,0,0,0,0,0,0,0,110,2.5,9,0,0,0,0,0,0,0,0,0,0,0,0
2014,3,12,8,0,,11,6.3,73,101700,0,0,342,40,5,34,4406,499,4136,0,360,0.9,10,0,0,0,0,0,0,0,0,0,0,0,0
2014,3,12,9,0,,13.3,7.7,69,101630,0,0,355,129,66,107,17782,6604,13305,0,20,2.5,10,0,0,0,0,0,0,0,0,0,0,0,0
2014,3,12,10,0,,13.8,8.4,70,101600,0,0,358,192,51,166,23092,4819,19400,0,50,2.2,10,0,0,0,0,0,0,0,0,0,0,0,0
2014,3,12,11,0,,14.4,9.8,74,101470,0,0,363,243,43,215,28246,4114,24955,0,20,2.5,10,0,0,0,0,0,0,0,0,0,0,0,0
2014,3,12,12,0,,14.8,9.5,71,101420,0,0,365,266,35,240,30303,3359,27691,0,50,2.8,10,0,0,0,0,0,0,0,0,0,0,0,0
2014,3,12,13,0,,14.5,10.5,77,101350,0,0,365,265,29,242,29790,2752,27864,0,20,4.5,10,0,0,0,0,0,0,0,0,0,0,0,0
2014,3,12,14,0,,14.2,10.9,81,101240,0,0,364,235,22,217,25903,1673,24946,0,50,2.8,10,0,0,0,0,0,0,0,0,0,0,0,0
2014,3,12,15,0,,14.1,11.7,86,101060,0,0,364,173,13,164,18682,865,18333,0,360,1.8,10,0,0,0,0,0,0,0,0,0,0,0,0
2014,3,12,16,0,,14.1,12.4,90,100880,0,0,365,150,16,140,14944,891,14761,0,20,3,10,0,0,0,0,0,0,0,0,0,0,0,0
2014,3,12,17,0,,14.5,12,85,100790,0,0,367,127,30,114,0,0,0,0,20,4.4,10,0,0,0,0,0,0,0,0,0,0,0,0
2014,3,12,18,0,,14.8,12.4,86,100770,0,0,369,64,30,57,0,0,0,0,70,2,10,0,0,0,0,0,0,0,0,0,0,0,0
2014,3,12,19,0,,14.7,12.5,87,100780,0,0,368,10,0,9,0,0,0,0,200,1.4,10,0,0,0,0,0,0,0,0,0,0,0,0
2014,3,12,20,0,,14.5,13,91,100730,0,0,368,0,0,0,0,0,0,0,140,1.2,10,0,0,0,0,0,0,0,0,0,0,0,0
2014,3,12,21,0,,13.9,12.9,94,100710,0,0,365,0,0,0,0,0,0,0,360,3.9,10,0,0,0,0,0,0,0,0,0,0,0,0
2014,3,12,22,0,,12.8,12.1,96,100740,0,0,359,0,0,0,0,0,0,0,320,1.6,10,0,0,0,0,0,0,0,0,0,0,0,0
2014,3,12,23,0,,12.7,12.2,97,100640,0,0,358,0,0,0,0,0,0,0,250,0.9,10,0,0,0,0,0,0,0,0,0,0,0,0
2014,3,12,24,0,,12.6,12.1,97,100560,0,0,358,0,0,0,0,0,0,0,250,1.2,10,0,0,0,0,0,0,0,0,0,0,0,0
2014,3,13,1,0,,12.1,11.6,97,100550,0,0,355,0,0,0,0,0,0,0,290,3.9,10,0,0,0,0,0,0,0,0,0,0,0,0
2014,3,13,2,0,,10.5,10,97,100590,0,0,345,0,0,0,0,0,0,0,320,5.5,10,0,0,0,0,0,0,0,0,0,0,0,0
2014,3,13,3,0,,9.2,8.5,96,100620,0,0,337,0,0,0,0,0,0,0,320,4.9,10,0,0,0,0,0,0,0,0,0,0,0,0
2014,3,13,4,0,,8.6,7.6,94,100670,0,0,333,0,0,0,0,0,0,0,290,4,10,0,0,0,0,0,0,0,0,0,0,0,0
2014,3,13,5,0,,8.5,6.9,90,100690,0,0,331,0,0,0,0,0,0,0,320,5.4,10,0,0,0,0,0,0,0,0,0,0,0,0
2014,3,13,6,0,,8.2,5.9,86,100730,0,0,329,0,0,0,0,0,0,0,290,4.4,10,0,0,0,0,0,0,0,0,0,0,0,0
2014,3,13,7,0,,8.2,5.4,83,100850,0,0,328,0,0,0,0,0,0,0,290,6,10,0,0,0,0,0,0,0,0,0,0,0,0
2014,3,13,8,0,,8,4.9,81,100960,0,0,326,34,3,30,4097,161,4009,0,290,5.2,10,0,0,0,0,0,0,0,0,0,0,0,0
2014,3,13,9,0,,8.3,4.6,78,101030,0,0,327,104,34,92,13883,3475,11511,0,290,4.8,10,0,0,0,0,0,0,0,0,0,0,0,0
2014,3,13,10,0,,8.2,4.5,78,101110,0,0,318,213,65,179,26550,6649,21427,0,290,4.6,9,0,0,0,0,0,0,0,0,0,0,0,0
2014,3,13,11,0,,8.1,4.3,77,101110,0,0,317,301,76,250,35475,7691,29290,0,290,6,9,0,0,0,0,0,0,0,0,0,0,0,0
2014,3,13,12,0,,7.9,3.9,76,101160,0,0,315,309,52,269,34770,5067,30811,0,320,5.4,9,0,0,0,0,0,0,0,0,0,0,0,0
2014,3,13,13,0,,7.8,3.6,75,101180,0,0,315,342,58,296,37612,5657,33633,0,290,5.8,9,0,0,0,0,0,0,0,0,0,0,0,0
2014,3,13,14,0,,8.1,3.7,74,101210,0,0,316,357,69,303,37965,6737,34087,0,320,7,9,0,0,0,0,0,0,0,0,0,0,0,0
2014,3,13,15,0,,8,3.4,73,101180,0,0,315,324,73,272,33143,6915,30329,0,320,7.3,9,0,0,0,0,0,0,0,0,0,0,0,0
2014,3,13,16,0,,7.9,2.5,69,101250,0,0,307,314,126,240,28444,10845,26179,0,320,6.9,8,0,0,0,0,0,0,0,0,0,0,0,0
2014,3,13,17,0,,7.6,2.4,70,101300,0,0,306,225,148,162,0,0,0,0,320,6.9,8,0,0,0,0,0,0,0,0,0,0,0,0
2014,3,13,18,0,,7.4,2.2,70,101330,0,0,304,118,165,79,0,0,0,0,320,7.4,8,0,0,0,0,0,0,0,0,0,0,0,0
2014,3,13,19,0,,7.3,1.7,68,101410,0,0,303,26,7,19,0,0,0,0,320,6.7,8,0,0,0,0,0,0,0,0,0,0,0,0
2014,3,13,20,0,,7,0.6,64,101470,0,0,301,0,0,0,0,0,0,0,320,6.2,8,0,0,0,0,0,0,0,0,0,0,0,0
2014,3,13,21,0,,6.8,-0.2,61,101510,0,0,299,0,0,0,0,0,0,0,320,5.3,8,0,0,0,0,0,0,0,0,0,0,0,0
2014,3,13,22,0,,6.8,0.4,64,101570,0,0,300,0,0,0,0,0,0,0,320,6.8,8,0,0,0,0,0,0,0,0,0,0,0,0
2014,3,13,23,0,,6.8,0.2,63,101610,0,0,300,0,0,0,0,0,0,0,320,5.5,8,0,0,0,0,0,0,0,0,0,0,0,0
2014,3,13,24,0,,6.7,0.5,65,101610,0,0,300,0,0,0,0,0,0,0,320,6.5,8,0,0,0,0,0,0,0,0,0,0,0,0
2014,3,14,1,0,,6.7,0.3,64,101620,0,0,297,0,0,0,0,0,0,0,320,6.5,8,0,0,0,0,0,0,0,0,0,0,0,0
2014,3,14,2,0,,6.6,0,63,101640,0,0,294,0,0,0,0,0,0,0,320,5.3,7,0,0,0,0,0,0,0,0,0,0,0,0
2014,3,14,3,0,,6.2,-1.9,56,101640,0,0,287,0,0,0,0,0,0,0,290,6,6,0,0,0,0,0,0,0,0,0,0,0,0
2014,3,14,4,0,,6.2,-1.4,58,101630,0,0,291,0,0,0,0,0,0,0,320,5.1,7,0,0,0,0,0,0,0,0,0,0,0,0
2014,3,14,5,0,,6,-1.8,57,101660,0,0,284,0,0,0,0,0,0,0,290,5.9,5,0,0,0,0,0,0,0,0,0,0,0,0
2014,3,14,6,0,,5.7,-2.4,56,101700,0,0,284,0,0,0,0,0,0,0,290,4.9,6,0,0,0,0,0,0,0,0,0,0,0,0
2014,3,14,7,0,,5.9,-1.7,58,101720,0,0,286,0,0,0,0,0,0,0,290,5.6,6,0,0,0,0,0,0,0,0,0,0,0,0
2014,3,14,8,0,,6.2,-2.6,53,101800,0,0,289,83,41,41,8076,4232,5745,0,290,5.4,7,0,0,0,0,0,0,0,0,0,0,0,0
2014,3,14,9,0,,6.5,-3.4,49,101820,0,0,301,174,141,125,25680,14713,15571,0,290,6.3,9,0,0,0,0,0,0,0,0,0,0,0,0
2014,3,14,10,0,,6.7,-1.7,55,101880,0,0,297,302,169,213,38792,17644,25122,0,320,6.5,8,0,0,0,0,0,0,0,0,0,0,0,0
2014,3,14,11,0,,7.1,-0.3,59,101900,0,0,290,515,409,242,63354,41461,29843,0,320,6.4,5,0,0,0,0,0,0,0,0,0,0,0,0
2014,3,14,12,0,,7.5,-1.4,53,101900,0,0,290,585,311,347,64042,32334,38658,0,290,4.3,5,0,0,0,0,0,0,0,0,0,0,0,0
2014,3,14,13,0,,7.5,-2.2,50,101860,0,0,300,482,145,366,51290,14738,40872,0,320,6.3,8,0,0,0,0,0,0,0,0,0,0,0,0
2014,3,14,14,0,,7.6,-0.6,56,101820,0,0,291,592,284,368,57119,28123,40838,0,320,4.4,5,0,0,0,0,0,0,0,0,0,0,0,0
2014,3,14,15,0,,7.8,0.7,61,101850,0,0,294,530,293,320,46377,27029,35294,0,320,4.9,5,0,0,0,0,0,0,0,0,0,0,0,0
2014,3,14,16,0,,7.9,-0.6,55,101890,0,0,290,468,460,194,28206,32501,21326,0,320,4.9,4,0,0,0,0,0,0,0,0,0,0,0,0
2014,3,14,17,0,,8,-0.5,55,101940,0,0,291,339,502,122,0,0,0,0,320,5.9,4,0,0,0,0,0,0,0,0,0,0,0,0
2014,3,14,18,0,,7.6,-0.8,55,101990,0,0,289,180,502,62,0,0,0,0,290,5.2,4,0,0,0,0,0,0,0,0,0,0,0,0
2014,3,14,19,0,,7.2,-0.5,58,102040,0,0,285,44,25,20,0,0,0,0,320,4.2,3,0,0,0,0,0,0,0,0,0,0,0,0
2014,3,14,20,0,,7.1,0,61,102070,0,0,280,0,0,0,0,0,0,0,290,3.7,1,0,0,0,0,0,0,0,0,0,0,0,0
2014,3,14,21,0,,7.1,0,61,102150,0,0,274,0,0,0,0,0,0,0,290,3.8,0,0,0,0,0,0,0,0,0,0,0,0,0
2014,3,14,22,0,,6.3,0,64,102150,0,0,271,0,0,0,0,0,0,0,200,2,0,0,0,0,0,0,0,0,0,0,0,0,0
2014,3,14,23,0,,5.5,-1.4,61,102160,0,0,266,0,0,0,0,0,0,0,180,2.6,0,0,0,0,0,0,0,0,0,0,0,0,0
2014,3,14,24,0,,5.8,-2.3,56,102200,0,0,266,0,0,0,0,0,0,0,200,3.8,0,0,0,0,0,0,0,0,0,0,0,0,0
2014,3,15,1,0,,5.5,-2.3,57,102190,0,0,265,0,0,0,0,0,0,0,200,2.9,0,0,0,0,0,0,0,0,0,0,0,0,0
2014,3,15,2,0,,5.1,-4.7,49,102170,0,0,261,0,0,0,0,0,0,0,200,2.2,0,0,0,0,0,0,0,0,0,0,0,0,0
2014,3,15,3,0,,4.8,-8,39,102110,0,0,257,0,0,0,0,0,0,0,230,2.1,0,0,0,0,0,0,0,0,0,0,0,0,0
2014,3,15,4,0,,4.6,-8.5,38,102080,0,0,256,0,0,0,0,0,0,0,180,1.3,0,0,0,0,0,0,0,0,0,0,0,0,0
2014,3,15,5,0,,4.6,-7.8,40,102050,0,0,257,0,0,0,0,0,0,0,180,1.7,0,0,0,0,0,0,0,0,0,0,0,0,0
2014,3,15,6,0,,5.2,-7.9,38,102060,0,0,259,0,0,0,0,0,0,0,250,3,0,0,0,0,0,0,0,0,0,0,0,0,0
2014,3,15,7,0,,5.6,-5.4,45,102090,0,0,263,0,0,0,0,0,0,0,200,1.6,0,0,0,0,0,0,0,0,0,0,0,0,0
2014,3,15,8,0,,6,-4.2,48,102120,0,0,265,120,88,31,10180,8874,5250,0,200,1.2,0,0,0,0,0,0,0,0,0,0,0,0,0
2014,3,15,9,0,,9,-4.5,38,102140,0,0,277,321,737,62,60214,74329,8810,0,270,1.7,0,0,0,0,0,0,0,0,0,0,0,0,0
2014,3,15,10,0,,12.5,-1.4,38,102180,0,0,294,543,894,68,80142,90791,9405,0,230,5,0,0,0,0,0,0,0,0,0,0,0,0,0
2014,3,15,11,0,,13.5,-0.9,37,102160,0,0,299,691,881,97,85778,89382,13173,0,230,5.3,0,0,0,0,0,0,0,0,0,0,0,0,0
2014,3,15,12,0,,13.9,0.1,39,102100,0,0,302,771,825,137,84087,83869,17929,0,230,7.3,0,0,0,0,0,0,0,0,0,0,0,0,0
2014,3,15,13,0,,14.8,-1.3,33,102010,0,0,304,781,744,179,76878,74757,23776,0,230,7.2,0,0,0,0,0,0,0,0,0,0,0,0,0
2014,3,15,14,0,,15.2,-0.1,35,101920,0,0,307,755,721,183,65027,70439,24021,0,250,7.9,0,0,0,0,0,0,0,0,0,0,0,0,0
2014,3,15,15,0,,15.3,3.1,44,101840,0,0,311,670,695,169,47782,63956,21364,0,230,7.2,0,0,0,0,0,0,0,0,0,0,0,0,0
2014,3,15,16,0,,15,4,48,101790,0,0,311,532,649,144,27184,46194,17272,0,250,7.1,0,0,0,0,0,0,0,0,0,0,0,0,0
2014,3,15,17,0,,14.5,3.8,49,101840,0,0,308,375,639,97,8278,0,8278,0,230,6.2,0,0,0,0,0,0,0,0,0,0,0,0,0
2014,3,15,18,0,,13.6,4.9,56,101830,0,0,306,186,528,60,0,0,0,0,250,5,0,0,0,0,0,0,0,0,0,0,0,0,0
2014,3,15,19,0,,12.6,3.5,54,101850,0,0,300,45,24,21,0,0,0,0,230,2.6,0,0,0,0,0,0,0,0,0,0,0,0,0
2014,3,15,20,0,,12.9,0.2,42,101870,0,0,298,0,0,0,0,0,0,0,200,3.9,0,0,0,0,0,0,0,0,0,0,0,0,0
2014,3,15,21,0,,12.6,0.3,43,101900,0,0,296,0,0,0,0,0,0,0,250,2.9,0,0,0,0,0,0,0,0,0,0,0,0,0
2014,3,15,22,0,,12.6,1.5,47,101900,0,0,298,0,0,0,0,0,0,0,200,5.2,0,0,0,0,0,0,0,0,0,0,0,0,0
2014,3,15,23,0,,12.6,0.6,44,101910,0,0,297,0,0,0,0,0,0,0,230,4.1,0,0,0,0,0,0,0,0,0,0,0,0,0
2014,3,15,24,0,,12.6,2.4,50,101910,0,0,299,0,0,0,0,0,0,0,200,5.3,0,0,0,0,0,0,0,0,0,0,0,0,0
2014,3,16,1,0,,12.4,3,53,101920,0,0,298,0,0,0,0,0,0,0,230,4.8,0,0,0,0,0,0,0,0,0,0,0,0,0
2014,3,16,2,0,,12.2,3.1,54,101930,0,0,298,0,0,0,0,0,0,0,230,5.1,0,0,0,0,0,0,0,0,0,0,0,0,0
2014,3,16,3,0,,12,2.1,51,101930,0,0,296,0,0,0,0,0,0,0,230,4.7,0,0,0,0,0,0,0,0,0,0,0,0,0
2014,3,16,4,0,,11.9,2.6,53,101910,0,0,296,0,0,0,0,0,0,0,230,4.9,0,0,0,0,0,0,0,0,0,0,0,0,0
2014,3,16,5,0,,11.9,0.9,47,101930,0,0,294,0,0,0,0,0,0,0,230,4.6,0,0,0,0,0,0,0,0,0,0,0,0,0
2014,3,16,6,0,,12.2,-0.3,42,101960,0,0,294,0,0,0,0,0,0,0,230,4.4,0,0,0,0,0,0,0,0,0,0,0,0,0
2014,3,16,7,0,,12.8,-2.3,35,102030,0,0,295,12,6,6,1082,559,866,0,200,6.8,0,0,0,0,0,0,0,0,0,0,0,0,0
2014,3,16,8,0,,13.3,-1.1,37,102040,0,0,298,133,704,27,43581,70501,4083,0,230,5.1,0,0,0,0,0,0,0,0,0,0,0,0,0
2014,3,16,9,0,,14.4,1.6,42,102120,0,0,305,328,750,61,61614,76020,8700,0,250,6.3,0,0,0,0,0,0,0,0,0,0,0,0,0
2014,3,16,10,0,,15.4,4.1,47,102150,0,0,313,501,744,102,73246,75790,13874,0,250,6.2,0,0,0,0,0,0,0,0,0,0,0,0,0
2014,3,16,11,0,,16.9,4.2,43,102150,0,0,320,634,715,149,78619,72801,19192,0,250,5.3,0,0,0,0,0,0,0,0,0,0,0,0,0
2014,3,16,12,0,,18.1,2.7,36,102120,0,0,323,747,756,163,81503,76383,20965,0,250,5.4,0,0,0,0,0,0,0,0,0,0,0,0,0
2014,3,16,13,0,,18.7,1.2,31,102080,0,0,324,789,751,177,77533,75392,23718,0,270,5.1,0,0,0,0,0,0,0,0,0,0,0,0,0
2014,3,16,14,0,,18.6,5,41,102030,0,0,328,733,659,208,63899,64033,26416,0,250,6.4,0,0,0,0,0,0,0,0,0,0,0,0,0
2014,3,16,15,0,,17.9,7,49,101980,0,0,327,627,572,212,47684,51615,26208,0,290,6.5,0,0,0,0,0,0,0,0,0,0,0,0,0
2014,3,16,16,0,,18.3,6.4,46,101920,0,0,328,525,615,154,27936,43409,18497,0,270,5.7,0,0,0,0,0,0,0,0,0,0,0,0,0
2014,3,16,17,0,,19.2,2.9,34,101900,0,0,328,387,675,91,7989,0,7989,0,180,2.7,0,0,0,0,0,0,0,0,0,0,0,0,0
2014,3,16,18,0,,18.4,6.5,46,101960,0,0,329,199,603,53,0,0,0,0,290,1.2,0,0,0,0,0,0,0,0,0,0,0,0,0
2014,3,16,19,0,,16.1,8.3,60,102010,0,0,321,46,24,21,0,0,0,0,20,2.8,0,0,0,0,0,0,0,0,0,0,0,0,0
2014,3,16,20,0,,14.5,10.1,75,102050,0,0,316,0,0,0,0,0,0,0,360,1.1,0,0,0,0,0,0,0,0,0,0,0,0,0
2014,3,16,21,0,,13.7,10.4,81,102090,0,0,312,0,0,0,0,0,0,0,20,2.1,0,0,0,0,0,0,0,0,0,0,0,0,0
2014,3,16,22,0,,12.7,7.5,71,102120,0,0,305,0,0,0,0,0,0,0,180,1.6,0,0,0,0,0,0,0,0,0,0,0,0,0
2014,3,16,23,0,,11.6,5.8,68,102090,0,0,298,0,0,0,0,0,0,0,160,1.7,0,0,0,0,0,0,0,0,0,0,0,0,0
2014,3,16,24,0,,11.1,4.3,63,102070,0,0,294,0,0,0,0,0,0,0,160,1.8,0,0,0,0,0,0,0,0,0,0,0,0,0
2014,3,17,1,0,,10.4,2.9,60,102050,0,0,290,0,0,0,0,0,0,0,180,1.6,0,0,0,0,0,0,0,0,0,0,0,0,0
2014,3,17,2,0,,9.9,2.9,62,102030,0,0,288,0,0,0,0,0,0,0,160,1.7,0,0,0,0,0,0,0,0,0,0,0,0,0
2014,3,17,3,0,,9.9,3.1,63,101980,0,0,288,0,0,0,0,0,0,0,140,2.8,0,0,0,0,0,0,0,0,0,0,0,0,0
2014,3,17,4,0,,9.8,2.3,60,101930,0,0,287,0,0,0,0,0,0,0,140,2.5,0,0,0,0,0,0,0,0,0,0,0,0,0
2014,3,17,5,0,,9.8,2.6,61,101940,0,0,287,0,0,0,0,0,0,0,140,2.6,0,0,0,0,0,0,0,0,0,0,0,0,0
2014,3,17,6,0,,9.5,1.3,57,101950,0,0,285,0,0,0,0,0,0,0,140,2.8,0,0,0,0,0,0,0,0,0,0,0,0,0
2014,3,17,7,0,,9.3,0.9,56,102000,0,0,283,11,4,7,1056,358,916,0,160,2.4,0,0,0,0,0,0,0,0,0,0,0,0,0
2014,3,17,8,0,,11.3,0.9,49,101960,0,0,297,127,593,34,38803,59519,5182,0,140,2.4,1,0,0,0,0,0,0,0,0,0,0,0,0
2014,3,17,9,0,,14.8,5,52,101930,0,0,317,329,734,64,61480,74715,9141,0,20,1.2,1,0,0,0,0,0,0,0,0,0,0,0,0
2014,3,17,10,0,,16.6,7.2,54,101900,0,0,336,496,711,111,72584,73185,14943,0,320,1.6,3,0,0,0,0,0,0,0,0,0,0,0,0
2014,3,17,11,0,,16.8,8.9,60,101850,0,0,347,518,334,290,61629,33077,34497,0,290,2.8,6,0,0,0,0,0,0,0,0,0,0,0,0
2014,3,17,12,0,,17.3,10.4,64,101790,0,0,379,293,42,261,33239,3962,30085,0,340,3.4,10,0,0,0,0,0,0,0,0,0,0,0,0
2014,3,17,13,0,,16.6,10.4,67,101760,0,0,375,264,26,242,29721,2499,27929,0,200,1.9,10,0,0,0,0,0,0,0,0,0,0,0,0
2014,3,17,14,0,,16.3,10.8,70,101600,0,0,374,243,22,225,26839,1714,25830,0,20,3,10,0,0,0,0,0,0,0,0,0,0,0,0
2014,3,17,15,0,,16.1,10.4,69,101540,0,0,373,220,23,203,23197,1779,22452,0,50,3.1,10,0,0,0,0,0,0,0,0,0,0,0,0
2014,3,17,16,0,,15.9,10.6,71,101450,0,0,372,195,31,176,18773,2156,18298,0,20,4,10,0,0,0,0,0,0,0,0,0,0,0,0
2014,3,17,17,0,,15.1,12.2,83,101390,0,0,370,126,26,115,10042,5486,10011,0,20,4.9,10,0,0,0,0,0,0,0,0,0,0,0,0
2014,3,17,18,0,,15.3,11.6,79,101350,0,0,360,87,59,72,0,0,0,0,360,2,9,0,0,0,0,0,0,0,0,0,0,0,0
2014,3,17,19,0,,15.3,11.6,79,101340,0,0,347,31,9,22,0,0,0,0,50,3.5,7,0,0,0,0,0,0,0,0,0,0,0,0
2014,3,17,20,0,,15.3,11.6,79,101370,0,0,340,0,0,0,0,0,0,0,50,4.9,5,0,0,0,0,0,0,0,0,0,0,0,0
2014,3,17,21,0,,15.7,11.8,78,101310,0,0,337,0,0,0,0,0,0,0,70,2.5,3,0,0,0,0,0,0,0,0,0,0,0,0
2014,3,17,22,0,,17.1,11.1,68,101260,0,0,345,0,0,0,0,0,0,0,70,2.3,4,0,0,0,0,0,0,0,0,0,0,0,0
2014,3,17,23,0,,18,11.9,68,101320,0,0,353,0,0,0,0,0,0,0,250,3.6,5,0,0,0,0,0,0,0,0,0,0,0,0
2014,3,17,24,0,,18,12.8,72,101290,0,0,357,0,0,0,0,0,0,0,250,4.8,6,0,0,0,0,0,0,0,0,0,0,0,0
2014,3,18,1,0,,17.3,13.8,80,101300,0,0,355,0,0,0,0,0,0,0,250,6.1,6,0,0,0,0,0,0,0,0,0,0,0,0
2014,3,18,2,0,,16.6,13.6,83,101250,0,0,352,0,0,0,0,0,0,0,250,4,6,0,0,0,0,0,0,0,0,0,0,0,0
2014,3,18,3,0,,15.7,13.3,86,101200,0,0,347,0,0,0,0,0,0,0,270,3.8,6,0,0,0,0,0,0,0,0,0,0,0,0
2014,3,18,4,0,,15.5,12.9,85,101180,0,0,363,0,0,0,0,0,0,0,250,2.3,9,0,0,0,0,0,0,0,0,0,0,0,0
2014,3,18,5,0,,15.6,11.9,79,101190,0,0,336,0,0,0,0,0,0,0,250,2.8,3,0,0,0,0,0,0,0,0,0,0,0,0
2014,3,18,6,0,,15.2,11.9,81,101220,0,0,335,0,0,0,0,0,0,0,270,1.9,3,0,0,0,0,0,0,0,0,0,0,0,0
2014,3,18,7,0,,15.5,11.4,77,101280,0,0,335,11,3,8,1127,292,1011,0,250,2.3,3,0,0,0,0,0,0,0,0,0,0,0,0
2014,3,18,8,0,,17,11.2,69,101310,0,0,328,130,580,36,39150,59123,5478,0,250,3,0,0,0,0,0,0,0,0,0,0,0,0,0
2014,3,18,9,0,,18.3,11.5,65,101380,0,0,345,316,649,78,58117,66860,10984,0,250,4,2,0,0,0,0,0,0,0,0,0,0,0,0
2014,3,18,10,0,,16.5,12.8,79,101430,0,0,350,358,249,222,46839,23862,27944,0,290,4.5,6,0,0,0,0,0,0,0,0,0,0,0,0
2014,3,18,11,0,,17.8,12.6,72,101360,0,0,344,550,460,234,67372,44184,30957,0,270,3.3,2,0,0,0,0,0,0,0,0,0,0,0,0
2014,3,18,12,0,,16.6,12.5,77,101390,0,0,338,605,318,357,66795,30430,42455,0,320,5.4,2,0,0,0,0,0,0,0,0,0,0,0,0
2014,3,18,13,0,,16,11.9,77,101380,0,0,338,650,325,382,67182,31086,44781,0,290,6.5,3,0,0,0,0,0,0,0,0,0,0,0,0
2014,3,18,14,0,,15.2,11.9,81,101350,0,0,347,421,100,341,44227,9489,38612,0,320,5.3,7,0,0,0,0,0,0,0,0,0,0,0,0
2014,3,18,15,0,,13.7,11.5,87,101370,0,0,345,309,59,266,32330,5450,30031,0,290,3.1,8,0,0,0,0,0,0,0,0,0,0,0,0
2014,3,18,16,0,,12.7,10.4,86,101400,0,0,339,246,59,211,24470,4845,23389,0,290,3.5,8,0,0,0,0,0,0,0,0,0,0,0,0
2014,3,18,17,0,,13,9.9,82,101410,0,0,322,306,338,156,15495,0,15495,0,290,2.8,3,0,0,0,0,0,0,0,0,0,0,0,0
2014,3,18,18,0,,12.8,9.7,82,101420,0,0,318,174,400,75,0,0,0,0,270,1.2,2,0,0,0,0,0,0,0,0,0,0,0,0
2014,3,18,19,0,,12.5,2.6,51,101410,0,0,308,50,30,20,0,0,0,0,20,1.5,2,0,0,0,0,0,0,0,0,0,0,0,0
2014,3,18,20,0,,12,4.9,62,101470,0,0,309,0,0,0,0,0,0,0,360,1,2,0,0,0,0,0,0,0,0,0,0,0,0
2014,3,18,21,0,,11.7,5.7,67,101520,0,0,308,0,0,0,0,0,0,0,200,1.4,2,0,0,0,0,0,0,0,0,0,0,0,0
2014,3,18,22,0,,11.7,3.1,56,101540,0,0,308,0,0,0,0,0,0,0,250,1.8,3,0,0,0,0,0,0,0,0,0,0,0,0
2014,3,18,23,0,,11.3,7.5,78,101510,0,0,299,0,0,0,0,0,0,0,290,1,0,0,0,0,0,0,0,0,0,0,0,0,0
2014,3,18,24,0,,10.8,7.4,80,101500,0,0,297,0,0,0,0,0,0,0,270,1.4,0,0,0,0,0,0,0,0,0,0,0,0,0
2014,3,19,1,0,,10.2,6.7,79,101560,0,0,294,0,0,0,0,0,0,0,0,0.3,0,0,0,0,0,0,0,0,0,0,0,0,0
2014,3,19,2,0,,9.8,6.3,79,101500,0,0,297,0,0,0,0,0,0,0,90,1.1,1,0,0,0,0,0,0,0,0,0,0,0,0
2014,3,19,3,0,,9.5,5.6,77,101410,0,0,289,0,0,0,0,0,0,0,180,0.7,0,0,0,0,0,0,0,0,0,0,0,0,0
2014,3,19,4,0,,11.1,8.4,84,101350,0,0,309,0,0,0,0,0,0,0,70,3.4,2,0,0,0,0,0,0,0,0,0,0,0,0
2014,3,19,5,0,,11.8,9.6,87,101300,0,0,304,0,0,0,0,0,0,0,70,3.1,0,0,0,0,0,0,0,0,0,0,0,0,0
2014,3,19,6,0,,12.4,9.4,82,101280,0,0,316,0,0,0,0,0,0,0,70,3.8,2,0,0,0,0,0,0,0,0,0,0,0,0
2014,3,19,7,0,,12.6,9.4,81,101380,0,0,320,15,6,9,1467,564,1241,0,90,3.5,3,0,0,0,0,0,0,0,0,0,0,0,0
2014,3,19,8,0,,12.9,9.1,78,101470,0,0,321,123,476,44,34369,48325,6624,0,70,3.4,3,0,0,0,0,0,0,0,0,0,0,0,0
2014,3,19,9,0,,14,9,72,101440,0,0,334,247,330,125,40765,32309,17847,0,90,4.3,6,0,0,0,0,0,0,0,0,0,0,0,0
2014,3,19,10,0,,15,8.6,66,101470,0,0,342,345,216,227,44770,21464,27686,0,70,3.7,7,0,0,0,0,0,0,0,0,0,0,0,0
2014,3,19,11,0,,15.6,8.8,64,101470,0,0,368,270,49,236,31229,4707,27332,0,70,3.6,10,0,0,0,0,0,0,0,0,0,0,0,0
2014,3,19,12,0,,15,9.3,69,101440,0,0,366,278,35,251,31644,3328,28969,0,70,3.8,10,0,0,0,0,0,0,0,0,0,0,0,0
2014,3,19,13,0,,14.7,8.8,68,101270,0,0,363,264,26,243,29774,2461,27992,0,70,4.6,10,0,0,0,0,0,0,0,0,0,0,0,0
2014,3,19,14,0,,14,8.8,71,101190,0,0,360,234,20,219,26123,1511,25225,0,70,3.6,10,0,0,0,0,0,0,0,0,0,0,0,0
2014,3,19,15,0,,13.7,8.7,72,101170,0,0,358,223,24,206,23606,1831,22828,0,70,3.9,10,0,0,0,0,0,0,0,0,0,0,0,0
2014,3,19,16,0,,13.4,8.6,73,101230,0,0,357,183,25,168,17980,1711,17593,0,70,3.8,10,0,0,0,0,0,0,0,0,0,0,0,0
2014,3,19,17,0,,13.5,8.7,73,101190,0,0,357,127,26,115,10260,4738,10207,0,50,2.7,10,0,0,0,0,0,0,0,0,0,0,0,0
2014,3,19,18,0,,13.3,8.7,74,101160,0,0,356,73,33,64,0,0,0,0,70,3.7,10,0,0,0,0,0,0,0,0,0,0,0,0
2014,3,19,19,0,,12.6,8.8,78,101200,0,0,353,14,1,13,0,0,0,0,50,3.5,10,0,0,0,0,0,0,0,0,0,0,0,0
2014,3,19,20,0,,12.4,8.8,79,101270,0,0,352,0,0,0,0,0,0,0,70,2.5,10,0,0,0,0,0,0,0,0,0,0,0,0
2014,3,19,21,0,,12.1,8.5,79,101300,0,0,333,0,0,0,0,0,0,0,70,2.1,8,0,0,0,0,0,0,0,0,0,0,0,0
2014,3,19,22,0,,11.5,8.3,81,101280,0,0,335,0,0,0,0,0,0,0,110,2.4,9,0,0,0,0,0,0,0,0,0,0,0,0
2014,3,19,23,0,,11.3,8.1,81,101300,0,0,339,0,0,0,0,0,0,0,70,1.7,9,0,0,0,0,0,0,0,0,0,0,0,0
2014,3,19,24,0,,11.2,7.8,80,101270,0,0,345,0,0,0,0,0,0,0,110,1.4,10,0,0,0,0,0,0,0,0,0,0,0,0
2014,3,20,1,0,,11.3,7.7,79,101210,0,0,345,0,0,0,0,0,0,0,110,1.2,10,0,0,0,0,0,0,0,0,0,0,0,0
2014,3,20,2,0,,11.3,7.2,76,101210,0,0,345,0,0,0,0,0,0,0,70,1.6,10,0,0,0,0,0,0,0,0,0,0,0,0
2014,3,20,3,0,,11.4,6.1,70,101220,0,0,344,0,0,0,0,0,0,0,360,3.3,10,0,0,0,0,0,0,0,0,0,0,0,0
2014,3,20,4,0,,11.2,6.7,74,101190,0,0,343,0,0,0,0,0,0,0,320,3.2,10,0,0,0,0,0,0,0,0,0,0,0,0
2014,3,20,5,0,,10.7,7,78,101210,0,0,341,0,0,0,0,0,0,0,320,5.8,10,0,0,0,0,0,0,0,0,0,0,0,0
2014,3,20,6,0,,10,2.3,59,101290,0,0,332,0,0,0,0,0,0,0,290,2.7,10,0,0,0,0,0,0,0,0,0,0,0,0
2014,3,20,7,0,,9.9,0.7,53,101350,0,0,330,3,0,3,403,0,403,0,290,4.2,10,0,0,0,0,0,0,0,0,0,0,0,0
2014,3,20,8,0,,9.7,0,51,101340,0,0,328,53,42,45,8355,4326,5851,0,290,4.1,10,0,0,0,0,0,0,0,0,0,0,0,0
2014,3,20,9,0,,9.4,2,60,101380,0,0,329,126,44,110,16701,4509,13483,0,320,5.3,10,0,0,0,0,0,0,0,0,0,0,0,0
2014,3,20,10,0,,10,2.8,61,101340,0,0,317,306,146,224,38764,15047,26725,0,320,6.5,8,0,0,0,0,0,0,0,0,0,0,0,0
2014,3,20,11,0,,10.6,3.6,62,101380,0,0,315,451,202,311,52933,20628,35773,0,320,6.5,7,0,0,0,0,0,0,0,0,0,0,0,0
2014,3,20,12,0,,11,2.5,56,101370,0,0,302,700,595,230,77155,59562,29085,0,320,6.7,2,0,0,0,0,0,0,0,0,0,0,0,0
2014,3,20,13,0,,10.4,2.9,60,101350,0,0,296,731,575,254,72993,57436,31224,0,320,7.3,1,0,0,0,0,0,0,0,0,0,0,0,0
2014,3,20,14,0,,10.3,1.3,54,101320,0,0,293,726,607,234,64415,59774,28678,0,320,8,1,0,0,0,0,0,0,0,0,0,0,0,0
2014,3,20,15,0,,9.7,-1,47,101340,0,0,293,646,588,212,48964,54951,25455,0,320,9.6,2,0,0,0,0,0,0,0,0,0,0,0,0
2014,3,20,16,0,,9.7,1,55,101400,0,0,295,530,597,163,29201,44296,19071,0,320,9.5,2,0,0,0,0,0,0,0,0,0,0,0,0
2014,3,20,17,0,,9.1,0.5,55,101490,0,0,294,369,560,117,9918,75,9917,0,320,9,3,0,0,0,0,0,0,0,0,0,0,0,0
2014,3,20,18,0,,8.5,0.6,58,101550,0,0,289,213,635,53,0,0,0,0,340,10.2,2,0,0,0,0,0,0,0,0,0,0,0,0
2014,3,20,19,0,,7.8,0.2,59,101610,0,0,291,50,27,23,0,0,0,0,320,8.3,4,0,0,0,0,0,0,0,0,0,0,0,0
2014,3,20,20,0,,7.7,0.1,59,101680,0,0,295,0,0,0,0,0,0,0,340,8.3,6,0,0,0,0,0,0,0,0,0,0,0,0
2014,3,20,21,0,,7.5,-0.2,58,101710,0,0,302,0,0,0,0,0,0,0,340,7.8,8,0,0,0,0,0,0,0,0,0,0,0,0
2014,3,20,22,0,,7.6,0.5,61,101720,0,0,303,0,0,0,0,0,0,0,340,7.1,8,0,0,0,0,0,0,0,0,0,0,0,0
2014,3,20,23,0,,7.6,0,59,101740,0,0,303,0,0,0,0,0,0,0,340,8.8,8,0,0,0,0,0,0,0,0,0,0,0,0
2014,3,20,24,0,,7.5,-0.7,56,101770,0,0,302,0,0,0,0,0,0,0,340,8.2,8,0,0,0,0,0,0,0,0,0,0,0,0
2014,3,21,1,0,,7.5,0.4,61,101770,0,0,299,0,0,0,0,0,0,0,340,6,7,0,0,0,0,0,0,0,0,0,0,0,0
2014,3,21,2,0,,7.5,0.8,63,101780,0,0,297,0,0,0,0,0,0,0,360,5.5,7,0,0,0,0,0,0,0,0,0,0,0,0
2014,3,21,3,0,,7.5,1.3,65,101760,0,0,296,0,0,0,0,0,0,0,340,5.5,6,0,0,0,0,0,0,0,0,0,0,0,0
2014,3,21,4,0,,7.5,1.7,67,101750,0,0,289,0,0,0,0,0,0,0,340,5.5,3,0,0,0,0,0,0,0,0,0,0,0,0
2014,3,21,5,0,,7.5,1.5,66,101800,0,0,286,0,0,0,0,0,0,0,340,5.7,2,0,0,0,0,0,0,0,0,0,0,0,0
2014,3,21,6,0,,7.2,1.2,66,101820,0,0,284,0,0,0,0,0,0,0,360,5.8,2,0,0,0,0,0,0,0,0,0,0,0,0
2014,3,21,7,0,,7.2,1.2,66,101870,0,0,284,19,11,9,1669,1027,1249,0,340,5.2,2,0,0,0,0,0,0,0,0,0,0,0,0
2014,3,21,8,0,,7.5,0.4,61,101980,0,0,288,136,524,44,37170,52581,6500,0,360,4.6,3,0,0,0,0,0,0,0,0,0,0,0,0
2014,3,21,9,0,,8.1,0,57,102050,0,0,290,317,595,90,56308,60971,12526,0,340,5.2,3,0,0,0,0,0,0,0,0,0,0,0,0
2014,3,21,10,0,,7.9,-1.1,53,102090,0,0,288,469,565,152,67385,57739,20954,0,320,5.6,3,0,0,0,0,0,0,0,0,0,0,0,0
2014,3,21,11,0,,8.6,-1.5,49,102130,0,0,290,592,540,213,72828,54535,27253,0,340,5.3,3,0,0,0,0,0,0,0,0,0,0,0,0
2014,3,21,12,0,,9.1,-1.6,47,102120,0,0,292,676,527,258,74745,53556,31334,0,320,5.8,3,0,0,0,0,0,0,0,0,0,0,0,0
2014,3,21,13,0,,8.9,-1.2,49,102100,0,0,294,690,469,300,69668,47186,35200,0,320,5.5,4,0,0,0,0,0,0,0,0,0,0,0,0
2014,3,21,14,0,,9.2,-2.7,43,102070,0,0,294,688,504,277,62496,49978,32464,0,340,5.8,4,0,0,0,0,0,0,0,0,0,0,0,0
2014,3,21,15,0,,10.4,-2.9,39,102050,0,0,290,682,673,183,49868,63430,22550,0,340,5.4,1,0,0,0,0,0,0,0,0,0,0,0,0
2014,3,21,16,0,,9.9,-3,40,102030,0,0,287,566,694,137,28638,52719,16437,0,320,6.3,1,0,0,0,0,0,0,0,0,0,0,0,0
2014,3,21,17,0,,9.9,-1.5,45,102050,0,0,289,399,667,97,8760,3342,8703,0,320,5.2,1,0,0,0,0,0,0,0,0,0,0,0,0
2014,3,21,18,0,,9.8,-2.5,42,102070,0,0,288,218,648,52,0,0,0,0,340,5.1,1,0,0,0,0,0,0,0,0,0,0,0,0
2014,3,21,19,0,,9.1,-1,49,102090,0,0,284,56,37,19,0,0,0,0,320,5.5,1,0,0,0,0,0,0,0,0,0,0,0,0
2014,3,21,20,0,,8.7,-0.8,51,102160,0,0,281,0,0,0,0,0,0,0,320,4,0,0,0,0,0,0,0,0,0,0,0,0,0
2014,3,21,21,0,,8.5,-1.3,50,102220,0,0,278,0,0,0,0,0,0,0,340,3.5,0,0,0,0,0,0,0,0,0,0,0,0,0
2014,3,21,22,0,,8.2,-1.8,49,102240,0,0,276,0,0,0,0,0,0,0,340,2.8,0,0,0,0,0,0,0,0,0,0,0,0,0
2014,3,21,23,0,,7.7,-1.5,52,102270,0,0,275,0,0,0,0,0,0,0,230,1.5,0,0,0,0,0,0,0,0,0,0,0,0,0
2014,3,21,24,0,,7.8,-2.2,49,102250,0,0,274,0,0,0,0,0,0,0,290,2.4,0,0,0,0,0,0,0,0,0,0,0,0,0
2014,3,22,1,0,,6.3,-2.5,53,102220,0,0,268,0,0,0,0,0,0,0,180,2,0,0,0,0,0,0,0,0,0,0,0,0,0
2014,3,22,2,0,,5.6,-3.2,53,102220,0,0,265,0,0,0,0,0,0,0,180,2.2,0,0,0,0,0,0,0,0,0,0,0,0,0
2014,3,22,3,0,,5.7,-4.4,48,102200,0,0,264,0,0,0,0,0,0,0,180,2.8,0,0,0,0,0,0,0,0,0,0,0,0,0
2014,3,22,4,0,,5.5,-6.4,42,102180,0,0,261,0,0,0,0,0,0,0,180,2.1,0,0,0,0,0,0,0,0,0,0,0,0,0
2014,3,22,5,0,,5.3,-8.2,37,102190,0,0,259,0,0,0,0,0,0,0,180,2.1,0,0,0,0,0,0,0,0,0,0,0,0,0
2014,3,22,6,0,,5.2,-8.3,37,102210,0,0,259,0,0,0,0,0,0,0,160,2.1,0,0,0,0,0,0,0,0,0,0,0,0,0
2014,3,22,7,0,,5.4,-7.4,39,102280,0,0,260,23,11,12,2126,1070,1683,0,200,1.8,0,0,0,0,0,0,0,0,0,0,0,0,0
2014,3,22,8,0,,6.9,-6.1,39,102340,0,0,267,153,646,36,43384,64576,5425,0,200,2.1,0,0,0,0,0,0,0,0,0,0,0,0,0
2014,3,22,9,0,,10.5,0,48,102390,0,0,287,365,790,61,66438,80063,8603,0,230,3.8,0,0,0,0,0,0,0,0,0,0,0,0,0
2014,3,22,10,0,,12.2,-0.3,42,102400,0,0,294,561,843,85,80802,85593,11627,0,250,4.2,0,0,0,0,0,0,0,0,0,0,0,0,0
2014,3,22,11,0,,13.4,0.7,42,102390,0,0,300,701,820,123,86168,83256,16278,0,270,4.5,0,0,0,0,0,0,0,0,0,0,0,0,0
2014,3,22,12,0,,13.5,2.3,47,102380,0,0,302,732,655,210,80735,65866,27117,0,270,5.3,0,0,0,0,0,0,0,0,0,0,0,0,0
2014,3,22,13,0,,13.2,2.9,50,102320,0,0,315,723,537,273,72436,53556,33142,0,270,6.3,3,0,0,0,0,0,0,0,0,0,0,0,0
2014,3,22,14,0,,13.9,2.7,47,102270,0,0,305,724,584,246,64661,57355,30024,0,270,5.3,0,0,0,0,0,0,0,0,0,0,0,0,0
2014,3,22,15,0,,13.8,3.5,50,102240,0,0,305,651,583,216,49681,53937,26298,0,270,5.4,0,0,0,0,0,0,0,0,0,0,0,0,0
2014,3,22,16,0,,13.8,4.3,53,102250,0,0,306,541,612,161,29806,45326,19191,0,270,4.9,0,0,0,0,0,0,0,0,0,0,0,0,0
2014,3,22,17,0,,13.6,4.7,55,102250,0,0,305,377,573,116,10400,1724,10366,0,270,4.2,0,0,0,0,0,0,0,0,0,0,0,0,0
2014,3,22,18,0,,13.1,4.2,55,102290,0,0,303,211,592,58,0,0,0,0,250,4.5,0,0,0,0,0,0,0,0,0,0,0,0,0
2014,3,22,19,0,,12.1,5.2,63,102330,0,0,300,53,31,22,0,0,0,0,250,3.9,0,0,0,0,0,0,0,0,0,0,0,0,0
2014,3,22,20,0,,11.5,5.1,65,102370,0,0,297,0,0,0,0,0,0,0,230,3.3,0,0,0,0,0,0,0,0,0,0,0,0,0
2014,3,22,21,0,,11.3,4.7,64,102460,0,0,296,0,0,0,0,0,0,0,230,3.5,0,0,0,0,0,0,0,0,0,0,0,0,0
2014,3,22,22,0,,11.1,5.1,67,102500,0,0,295,0,0,0,0,0,0,0,230,2.9,0,0,0,0,0,0,0,0,0,0,0,0,0
2014,3,22,23,0,,10.8,5.1,68,102520,0,0,294,0,0,0,0,0,0,0,230,3.3,0,0,0,0,0,0,0,0,0,0,0,0,0
2014,3,22,24,0,,10.6,5.3,70,102540,0,0,293,0,0,0,0,0,0,0,230,2.6,0,0,0,0,0,0,0,0,0,0,0,0,0
2014,3,23,1,0,,10.1,4.6,69,102560,0,0,291,0,0,0,0,0,0,0,230,2.2,0,0,0,0,0,0,0,0,0,0,0,0,0
2014,3,23,2,0,,9.6,3.1,64,102580,0,0,287,0,0,0,0,0,0,0,200,2.3,0,0,0,0,0,0,0,0,0,0,0,0,0
2014,3,23,3,0,,9.4,1.5,58,102580,0,0,284,0,0,0,0,0,0,0,200,2.7,0,0,0,0,0,0,0,0,0,0,0,0,0
2014,3,23,4,0,,9.2,0.8,56,102560,0,0,283,0,0,0,0,0,0,0,200,2.8,0,0,0,0,0,0,0,0,0,0,0,0,0
2014,3,23,5,0,,8.8,0.7,57,102590,0,0,281,0,0,0,0,0,0,0,200,2.5,0,0,0,0,0,0,0,0,0,0,0,0,0
2014,3,23,6,0,,8.2,-0.5,54,102620,0,0,278,0,0,0,0,0,0,0,180,2.4,0,0,0,0,0,0,0,0,0,0,0,0,0
2014,3,23,7,0,,7.8,-1.9,50,102660,0,0,275,23,9,14,2294,913,1912,0,160,2.5,0,0,0,0,0,0,0,0,0,0,0,0,0
2014,3,23,8,0,,8.4,-2.8,45,102710,0,0,276,148,562,43,39835,56373,6443,0,160,1.5,0,0,0,0,0,0,0,0,0,0,0,0,0
2014,3,23,9,0,,11.5,2.4,54,102750,0,0,294,337,650,84,59623,65984,11677,0,0,0.4,0,0,0,0,0,0,0,0,0,0,0,0,0
2014,3,23,10,0,,13.5,4.8,56,102800,0,0,305,526,722,116,75636,74225,15351,0,340,2.3,0,0,0,0,0,0,0,0,0,0,0,0,0
2014,3,23,11,0,,14.3,3.4,48,102790,0,0,307,680,753,146,83473,76859,18668,0,340,2.7,0,0,0,0,0,0,0,0,0,0,0,0,0
2014,3,23,12,0,,15.6,5.4,51,102750,0,0,315,727,632,220,80087,63279,28358,0,360,2.5,0,0,0,0,0,0,0,0,0,0,0,0,0
2014,3,23,13,0,,15.9,5.4,50,102700,0,0,316,752,597,250,74750,59145,31168,0,360,2.6,0,0,0,0,0,0,0,0,0,0,0,0,0
2014,3,23,14,0,,15.2,5.3,52,102660,0,0,313,696,507,279,63461,49217,33593,0,320,2.8,0,0,0,0,0,0,0,0,0,0,0,0,0
2014,3,23,15,0,,15.2,4.5,49,102630,0,0,312,621,498,248,48916,46488,28632,0,340,3,0,0,0,0,0,0,0,0,0,0,0,0,0
2014,3,23,16,0,,15.4,5.3,51,102620,0,0,314,518,534,185,30302,38917,21083,0,320,2.4,0,0,0,0,0,0,0,0,0,0,0,0,0
2014,3,23,17,0,,15.4,5.3,51,102600,0,0,314,382,585,114,10491,2848,10428,0,340,1.8,0,0,0,0,0,0,0,0,0,0,0,0,0
2014,3,23,18,0,,14.3,6.6,60,102600,0,0,311,206,541,65,0,0,0,0,340,2,0,0,0,0,0,0,0,0,0,0,0,0,0
2014,3,23,19,0,,13.1,5.9,62,102570,0,0,305,52,27,24,0,0,0,0,340,1.2,0,0,0,0,0,0,0,0,0,0,0,0,0
2014,3,23,20,0,,12.2,5.3,63,102600,0,0,300,0,0,0,0,0,0,0,230,0.6,0,0,0,0,0,0,0,0,0,0,0,0,0
2014,3,23,21,0,,11.5,4.9,64,102620,0,0,297,0,0,0,0,0,0,0,160,1.7,0,0,0,0,0,0,0,0,0,0,0,0,0
2014,3,23,22,0,,10.7,4.1,64,102610,0,0,293,0,0,0,0,0,0,0,180,1.4,0,0,0,0,0,0,0,0,0,0,0,0,0
2014,3,23,23,0,,10,3.2,63,102610,0,0,289,0,0,0,0,0,0,0,160,1.5,0,0,0,0,0,0,0,0,0,0,0,0,0
2014,3,23,24,0,,9.5,1.8,59,102570,0,0,285,0,0,0,0,0,0,0,160,1.9,0,0,0,0,0,0,0,0,0,0,0,0,0
2014,3,24,1,0,,8.8,1.9,62,102540,0,0,282,0,0,0,0,0,0,0,180,1.5,0,0,0,0,0,0,0,0,0,0,0,0,0
2014,3,24,2,0,,8.5,2,64,102480,0,0,281,0,0,0,0,0,0,0,160,1.6,0,0,0,0,0,0,0,0,0,0,0,0,0
2014,3,24,3,0,,8.4,2.1,65,102450,0,0,281,0,0,0,0,0,0,0,140,2.7,0,0,0,0,0,0,0,0,0,0,0,0,0
2014,3,24,4,0,,8,2.2,67,102400,0,0,279,0,0,0,0,0,0,0,140,2.4,0,0,0,0,0,0,0,0,0,0,0,0,0
2014,3,24,5,0,,7.6,2.4,70,102380,0,0,278,0,0,0,0,0,0,0,160,1.5,0,0,0,0,0,0,0,0,0,0,0,0,0
2014,3,24,6,0,,7.5,2.3,70,102380,0,0,278,0,0,0,0,0,0,0,160,1.8,0,0,0,0,0,0,0,0,0,0,0,0,0
2014,3,24,7,0,,7.7,2.3,69,102390,0,0,278,25,11,15,2432,1020,2001,0,140,2.2,0,0,0,0,0,0,0,0,0,0,0,0,0
2014,3,24,8,0,,8.7,3.7,71,102390,0,0,289,149,541,46,39412,54581,6837,0,160,1.3,1,0,0,0,0,0,0,0,0,0,0,0,0
2014,3,24,9,0,,12.3,5.2,62,102360,0,0,306,343,656,84,60568,66866,11698,0,230,1.2,1,0,0,0,0,0,0,0,0,0,0,0,0
2014,3,24,10,0,,13.8,7,64,102340,0,0,322,510,656,134,72382,67238,17506,0,20,1.9,3,0,0,0,0,0,0,0,0,0,0,0,0
2014,3,24,11,0,,13.9,8.2,69,102290,0,0,324,613,565,210,75506,56604,27572,0,20,2.2,3,0,0,0,0,0,0,0,0,0,0,0,0
2014,3,24,12,0,,14.9,6.6,58,102220,0,0,327,694,540,258,76301,53542,32351,0,20,4,3,0,0,0,0,0,0,0,0,0,0,0,0
2014,3,24,13,0,,15.9,6.8,55,102160,0,0,324,748,578,259,74472,56929,32345,0,20,3.5,1,0,0,0,0,0,0,0,0,0,0,0,0
2014,3,24,14,0,,16.1,8,59,102070,0,0,331,719,555,261,64821,53320,32307,0,20,4.1,2,0,0,0,0,0,0,0,0,0,0,0,0
2014,3,24,15,0,,16.2,8.9,62,102020,0,0,332,625,501,249,49297,45514,29312,0,20,3.5,2,0,0,0,0,0,0,0,0,0,0,0,0
2014,3,24,16,0,,15.6,8.5,63,101920,0,0,338,436,270,267,34067,19363,29427,0,20,3.3,5,0,0,0,0,0,0,0,0,0,0,0,0
2014,3,24,17,0,,15.2,8.6,65,101880,0,0,343,255,166,179,19042,12160,18740,0,20,3.2,7,0,0,0,0,0,0,0,0,0,0,0,0
2014,3,24,18,0,,15.1,8.7,66,101870,0,0,342,140,184,91,0,0,0,0,70,2.3,7,0,0,0,0,0,0,0,0,0,0,0,0
2014,3,24,19,0,,14.8,8,64,101850,0,0,340,37,13,25,0,0,0,0,20,1.7,7,0,0,0,0,0,0,0,0,0,0,0,0
2014,3,24,20,0,,14.2,7.4,64,101830,0,0,336,0,0,0,0,0,0,0,90,0.9,7,0,0,0,0,0,0,0,0,0,0,0,0
2014,3,24,21,0,,13.7,7,64,101840,0,0,334,0,0,0,0,0,0,0,180,0.9,7,0,0,0,0,0,0,0,0,0,0,0,0
2014,3,24,22,0,,13.4,6.2,62,101810,0,0,333,0,0,0,0,0,0,0,160,1.4,7,0,0,0,0,0,0,0,0,0,0,0,0
2014,3,24,23,0,,13.5,5.8,60,101740,0,0,335,0,0,0,0,0,0,0,160,1.7,8,0,0,0,0,0,0,0,0,0,0,0,0
2014,3,24,24,0,,13.5,5.8,60,101730,0,0,337,0,0,0,0,0,0,0,180,1.8,8,0,0,0,0,0,0,0,0,0,0,0,0
2014,3,25,1,0,,13.6,5.4,58,101720,0,0,341,0,0,0,0,0,0,0,180,2.1,9,0,0,0,0,0,0,0,0,0,0,0,0
2014,3,25,2,0,,13.7,5.5,58,101680,0,0,347,0,0,0,0,0,0,0,180,1.7,9,0,0,0,0,0,0,0,0,0,0,0,0
2014,3,25,3,0,,13.9,6.2,60,101650,0,0,356,0,0,0,0,0,0,0,180,1.6,10,0,0,0,0,0,0,0,0,0,0,0,0
2014,3,25,4,0,,14.2,7.2,63,101610,0,0,359,0,0,0,0,0,0,0,160,1.8,10,0,0,0,0,0,0,0,0,0,0,0,0
2014,3,25,5,0,,14.2,9.2,72,101580,0,0,361,0,0,0,0,0,0,0,90,1.6,10,0,0,0,0,0,0,0,0,0,0,0,0
2014,3,25,6,0,,14.3,9.5,73,101570,0,0,362,0,0,0,0,0,0,0,0,0.2,10,0,0,0,0,0,0,0,0,0,0,0,0
2014,3,25,7,0,,14.2,9.4,73,101550,0,0,362,5,0,4,641,4,639,0,0,0.3,10,0,0,0,0,0,0,0,0,0,0,0,0
2014,3,25,8,0,,14.2,9.4,73,101540,0,0,362,50,25,45,7436,2428,5976,0,0,0.4,10,0,0,0,0,0,0,0,0,0,0,0,0
2014,3,25,9,0,,14.7,10.8,78,101540,0,0,366,110,24,100,13550,2262,11887,0,360,1.2,10,0,0,0,0,0,0,0,0,0,0,0,0
2014,3,25,10,0,,15.5,11.2,76,101520,0,0,371,179,29,163,21345,2710,19123,0,160,0.9,10,0,0,0,0,0,0,0,0,0,0,0,0
2014,3,25,11,0,,16.6,11.5,72,101480,0,0,377,253,36,227,29315,3414,26412,0,360,1.9,10,0,0,0,0,0,0,0,0,0,0,0,0
2014,3,25,12,0,,16.8,12.7,77,101420,0,0,379,274,30,250,31353,2836,29015,0,160,2.4,10,0,0,0,0,0,0,0,0,0,0,0,0
2014,3,25,13,0,,16.6,14,85,101400,0,0,380,257,22,239,29353,1566,28190,0,50,2,10,0,0,0,0,0,0,0,0,0,0,0,0
2014,3,25,14,0,,16.3,14.4,89,101320,0,0,379,214,14,202,24074,974,23477,0,160,1.4,10,0,0,0,0,0,0,0,0,0,0,0,0
2014,3,25,15,0,,16,14.5,91,101240,0,0,378,186,13,176,20209,879,19821,0,270,0.7,10,0,0,0,0,0,0,0,0,0,0,0,0
2014,3,25,16,0,,15.8,14.6,93,101150,0,0,377,143,12,136,14717,603,14571,0,140,1.2,10,0,0,0,0,0,0,0,0,0,0,0,0
2014,3,25,17,0,,15.7,14.5,93,101080,0,0,376,110,15,103,9508,1504,9467,0,140,1.3,10,0,0,0,0,0,0,0,0,0,0,0,0
2014,3,25,18,0,,15.6,14.4,93,100880,0,0,376,60,16,56,0,0,0,0,90,2.1,10,0,0,0,0,0,0,0,0,0,0,0,0
2014,3,25,19,0,,15.5,14.1,92,100950,0,0,375,14,1,13,0,0,0,0,290,2,10,0,0,0,0,0,0,0,0,0,0,0,0
2014,3,25,20,0,,16.8,14.2,85,100930,0,0,381,0,0,0,0,0,0,0,270,3.4,10,0,0,0,0,0,0,0,0,0,0,0,0
2014,3,25,21,0,,17.8,14.1,79,100960,0,0,387,0,0,0,0,0,0,0,250,4.1,10,0,0,0,0,0,0,0,0,0,0,0,0
2014,3,25,22,0,,17.8,14.6,82,100950,0,0,387,0,0,0,0,0,0,0,250,4.3,10,0,0,0,0,0,0,0,0,0,0,0,0
2014,3,25,23,0,,17.7,14.7,83,100940,0,0,387,0,0,0,0,0,0,0,200,4.3,10,0,0,0,0,0,0,0,0,0,0,0,0
2014,3,25,24,0,,17.7,14.3,81,100880,0,0,386,0,0,0,0,0,0,0,230,4.1,10,0,0,0,0,0,0,0,0,0,0,0,0
2014,3,26,1,0,,18,14.8,82,100830,0,0,389,0,0,0,0,0,0,0,230,5.7,10,0,0,0,0,0,0,0,0,0,0,0,0
2014,3,26,2,0,,17.6,15.2,86,100780,0,0,387,0,0,0,0,0,0,0,250,3.9,10,0,0,0,0,0,0,0,0,0,0,0,0
2014,3,26,3,0,,17.6,14.6,83,100700,0,0,386,0,0,0,0,0,0,0,230,4,10,0,0,0,0,0,0,0,0,0,0,0,0
2014,3,26,4,0,,17.5,15.3,87,100690,0,0,387,0,0,0,0,0,0,0,250,3.5,10,0,0,0,0,0,0,0,0,0,0,0,0
2014,3,26,5,0,,17.1,15,88,100690,0,0,360,0,0,0,0,0,0,0,230,4.9,7,0,0,0,0,0,0,0,0,0,0,0,0
2014,3,26,6,0,,17.4,14.2,82,100720,0,0,360,0,0,0,0,0,0,0,230,4.7,7,0,0,0,0,0,0,0,0,0,0,0,0
2014,3,26,7,0,,17.5,13.6,78,100760,0,0,366,15,3,12,1637,215,1544,0,250,3.5,8,0,0,0,0,0,0,0,0,0,0,0,0
2014,3,26,8,0,,16.8,13.8,83,100830,0,0,370,70,59,58,11737,5540,8382,0,250,3.8,9,0,0,0,0,0,0,0,0,0,0,0,0
2014,3,26,9,0,,17.2,14.4,84,100850,0,0,384,111,25,102,13792,2232,12142,0,270,2.8,10,0,0,0,0,0,0,0,0,0,0,0,0
2014,3,26,10,0,,17.6,15,85,100860,0,0,362,326,149,239,41898,13954,30401,0,270,4.6,7,0,0,0,0,0,0,0,0,0,0,0,0
2014,3,26,11,0,,17.6,14.6,83,100880,0,0,368,381,109,302,44952,10385,36083,0,290,5.5,8,0,0,0,0,0,0,0,0,0,0,0,0
2014,3,26,12,0,,17.5,15.1,86,100830,0,0,386,249,23,230,28674,2093,26943,0,270,3.6,10,0,0,0,0,0,0,0,0,0,0,0,0
2014,3,26,13,0,,17,14.8,87,100810,0,0,383,246,19,230,28160,1322,27174,0,270,3.7,10,0,0,0,0,0,0,0,0,0,0,0,0
2014,3,26,14,0,,15,13.5,91,100800,0,0,371,211,13,200,23831,929,23259,0,290,5.2,10,0,0,0,0,0,0,0,0,0,0,0,0
2014,3,26,15,0,,13.8,12.6,93,100850,0,0,364,157,8,151,17468,514,17239,0,290,4.3,10,0,0,0,0,0,0,0,0,0,0,0,0
2014,3,26,16,0,,13.5,12.7,95,100830,0,0,363,124,8,119,13042,362,12953,0,270,3.2,10,0,0,0,0,0,0,0,0,0,0,0,0
2014,3,26,17,0,,14.9,13.2,90,100810,0,0,370,128,23,117,10783,2716,10701,0,270,2.9,10,0,0,0,0,0,0,0,0,0,0,0,0
2014,3,26,18,0,,12.3,11.3,94,100920,0,0,355,60,15,56,0,0,0,0,290,3.2,10,0,0,0,0,0,0,0,0,0,0,0,0
2014,3,26,19,0,,12.2,11.4,95,100950,0,0,355,12,1,12,0,0,0,0,230,2.8,10,0,0,0,0,0,0,0,0,0,0,0,0
2014,3,26,20,0,,12.8,11.6,93,101040,0,0,348,0,0,0,0,0,0,0,200,2.4,9,0,0,0,0,0,0,0,0,0,0,0,0
2014,3,26,21,0,,13.2,11.2,88,101140,0,0,342,0,0,0,0,0,0,0,200,1.4,8,0,0,0,0,0,0,0,0,0,0,0,0
2014,3,26,22,0,,13.3,10.8,85,101180,0,0,334,0,0,0,0,0,0,0,200,1.8,6,0,0,0,0,0,0,0,0,0,0,0,0
2014,3,26,23,0,,12.8,11.1,90,101240,0,0,327,0,0,0,0,0,0,0,270,2.6,5,0,0,0,0,0,0,0,0,0,0,0,0
2014,3,26,24,0,,11.9,11.2,96,101270,0,0,319,0,0,0,0,0,0,0,230,0.8,3,0,0,0,0,0,0,0,0,0,0,0,0
2014,3,27,1,0,,11.2,10.7,97,101280,0,0,315,0,0,0,0,0,0,0,250,1.7,3,0,0,0,0,0,0,0,0,0,0,0,0
2014,3,27,2,0,,10.7,10.3,98,101310,0,0,311,0,0,0,0,0,0,0,250,2.2,2,0,0,0,0,0,0,0,0,0,0,0,0
2014,3,27,3,0,,10.9,10.5,98,101330,0,0,311,0,0,0,0,0,0,0,250,2.4,2,0,0,0,0,0,0,0,0,0,0,0,0
2014,3,27,4,0,,10.3,9.9,98,101320,0,0,344,0,0,0,0,0,0,0,230,2.5,10,0,0,0,0,0,0,0,0,0,0,0,0
2014,3,27,5,0,,9.9,9.5,98,101380,0,0,341,0,0,0,0,0,0,0,230,2.8,10,0,0,0,0,0,0,0,0,0,0,0,0
2014,3,27,6,0,,9.7,9.5,99,101450,0,0,340,0,0,0,0,0,0,0,250,2,10,0,0,0,0,0,0,0,0,0,0,0,0
2014,3,27,7,0,,9,8.8,99,101530,0,0,336,3,0,3,405,0,405,0,250,2.4,10,0,0,0,0,0,0,0,0,0,0,0,0
2014,3,27,8,0,,9.5,9.3,99,101600,0,0,339,43,13,40,5577,1223,4831,0,250,1.9,10,0,0,0,0,0,0,0,0,0,0,0,0
2014,3,27,9,0,,10.1,9.7,98,101650,0,0,297,301,420,129,50354,42357,18870,0,270,1.9,0,0,0,0,0,0,0,0,0,0,0,0,0
2014,3,27,10,0,,11.6,9.3,86,101690,0,0,302,477,513,176,66814,51605,24100,0,290,2.6,0,0,0,0,0,0,0,0,0,0,0,0,0
2014,3,27,11,0,,12.8,9.4,80,101700,0,0,307,599,495,239,72611,48579,30954,0,320,1.3,0,0,0,0,0,0,0,0,0,0,0,0,0
2014,3,27,12,0,,14.3,10.3,77,101680,0,0,315,700,528,268,76827,51438,34097,0,320,1.6,0,0,0,0,0,0,0,0,0,0,0,0,0
2014,3,27,13,0,,16.2,9.8,66,101610,0,0,323,750,558,273,74835,54099,34309,0,340,1.8,0,0,0,0,0,0,0,0,0,0,0,0,0
2014,3,27,14,0,,16.6,9.7,64,101560,0,0,324,734,566,261,66055,54050,32634,0,320,2.2,0,0,0,0,0,0,0,0,0,0,0,0,0
2014,3,27,15,0,,16.6,10.2,66,101520,0,0,325,643,525,244,50297,47402,29096,0,290,2,0,0,0,0,0,0,0,0,0,0,0,0,0
2014,3,27,16,0,,16.8,11.2,70,101520,0,0,327,510,481,205,32344,33872,23958,0,340,2.3,0,0,0,0,0,0,0,0,0,0,0,0,0
2014,3,27,17,0,,17,9.4,61,101520,0,0,326,379,536,128,13168,990,13136,0,270,0.9,0,0,0,0,0,0,0,0,0,0,0,0,0
2014,3,27,18,0,,16.6,9.5,63,101530,0,0,324,211,524,69,0,0,0,0,270,1.4,0,0,0,0,0,0,0,0,0,0,0,0,0
2014,3,27,19,0,,15.5,6.4,55,101560,0,0,316,59,35,23,0,0,0,0,290,1.8,0,0,0,0,0,0,0,0,0,0,0,0,0
2014,3,27,20,0,,14.6,4.5,51,101610,0,0,310,0,0,0,0,0,0,0,270,0.8,0,0,0,0,0,0,0,0,0,0,0,0,0
2014,3,27,21,0,,13.9,3,48,101690,0,0,305,0,0,0,0,0,0,0,180,1.4,0,0,0,0,0,0,0,0,0,0,0,0,0
2014,3,27,22,0,,13.2,1.1,44,101730,0,0,300,0,0,0,0,0,0,0,200,0.9,0,0,0,0,0,0,0,0,0,0,0,0,0
2014,3,27,23,0,,12.7,0.4,43,101720,0,0,297,0,0,0,0,0,0,0,180,1.5,0,0,0,0,0,0,0,0,0,0,0,0,0
2014,3,27,24,0,,12.2,-0.3,42,101700,0,0,294,0,0,0,0,0,0,0,200,1.8,0,0,0,0,0,0,0,0,0,0,0,0,0
2014,3,28,1,0,,11.9,-0.6,42,101700,0,0,293,0,0,0,0,0,0,0,200,1.2,0,0,0,0,0,0,0,0,0,0,0,0,0
2014,3,28,2,0,,11.9,2.3,52,101680,0,0,296,0,0,0,0,0,0,0,140,1.8,0,0,0,0,0,0,0,0,0,0,0,0,0
2014,3,28,3,0,,11.4,0.1,46,101610,0,0,291,0,0,0,0,0,0,0,140,1.3,0,0,0,0,0,0,0,0,0,0,0,0,0
2014,3,28,4,0,,11.2,-1.5,41,101640,0,0,289,0,0,0,0,0,0,0,160,2,0,0,0,0,0,0,0,0,0,0,0,0,0
2014,3,28,5,0,,10.8,0,47,101600,0,0,289,0,0,0,0,0,0,0,140,1.4,0,0,0,0,0,0,0,0,0,0,0,0,0
2014,3,28,6,0,,10.6,0.3,49,101600,0,0,288,0,0,0,0,0,0,0,160,1.7,0,0,0,0,0,0,0,0,0,0,0,0,0
2014,3,28,7,0,,10.8,0.7,50,101630,0,0,289,34,18,16,2967,1724,2206,0,230,1.6,0,0,0,0,0,0,0,0,0,0,0,0,0
2014,3,28,8,0,,11.9,4.1,59,101650,0,0,298,169,574,48,42786,58054,7120,0,200,1.3,0,0,0,0,0,0,0,0,0,0,0,0,0
2014,3,28,9,0,,14.3,9.7,74,101690,0,0,314,348,606,98,60261,62563,13504,0,290,1,0,0,0,0,0,0,0,0,0,0,0,0,0
2014,3,28,10,0,,16.5,10.1,66,101680,0,0,331,536,683,132,75765,70265,17341,0,360,0.8,1,0,0,0,0,0,0,0,0,0,0,0,0
2014,3,28,11,0,,18.8,2.9,35,101640,0,0,341,705,760,150,85795,77563,19014,0,360,1.6,3,0,0,0,0,0,0,0,0,0,0,0,0
2014,3,28,12,0,,19.7,0.1,27,101580,0,0,342,777,704,199,85308,71211,25924,0,290,2.4,3,0,0,0,0,0,0,0,0,0,0,0,0
2014,3,28,13,0,,20.9,2.1,29,101460,0,0,353,770,596,258,76510,59630,31664,0,340,1.4,4,0,0,0,0,0,0,0,0,0,0,0,0
2014,3,28,14,0,,20.2,2.5,31,101370,0,0,365,493,133,381,50883,13231,42665,0,290,1.5,8,0,0,0,0,0,0,0,0,0,0,0,0
2014,3,28,15,0,,19.5,4,36,101360,0,0,364,429,126,333,42579,12200,37090,0,270,2.8,8,0,0,0,0,0,0,0,0,0,0,0,0
2014,3,28,16,0,,19.4,5.4,40,101300,0,0,384,214,34,193,20890,2640,20229,0,20,1.5,10,0,0,0,0,0,0,0,0,0,0,0,0
2014,3,28,17,0,,18.4,7.7,50,101230,0,0,381,142,30,128,11915,3819,11779,0,290,0.6,10,0,0,0,0,0,0,0,0,0,0,0,0
2014,3,28,18,0,,17.6,8.4,55,101180,0,0,378,79,32,70,0,0,0,0,290,1.8,10,0,0,0,0,0,0,0,0,0,0,0,0
2014,3,28,19,0,,17.3,9.2,59,101120,0,0,377,18,1,17,0,0,0,0,20,3.7,10,0,0,0,0,0,0,0,0,0,0,0,0
2014,3,28,20,0,,17,8.9,59,101200,0,0,375,0,0,0,0,0,0,0,360,5.5,10,0,0,0,0,0,0,0,0,0,0,0,0
2014,3,28,21,0,,17.2,10.7,66,101280,0,0,379,0,0,0,0,0,0,0,20,6.7,10,0,0,0,0,0,0,0,0,0,0,0,0
2014,3,28,22,0,,16.9,11.8,72,101180,0,0,379,0,0,0,0,0,0,0,20,5,10,0,0,0,0,0,0,0,0,0,0,0,0
2014,3,28,23,0,,16.2,12.3,78,101180,0,0,376,0,0,0,0,0,0,0,200,1.1,10,0,0,0,0,0,0,0,0,0,0,0,0
2014,3,28,24,0,,16,12.1,78,101120,0,0,374,0,0,0,0,0,0,0,340,1.6,10,0,0,0,0,0,0,0,0,0,0,0,0
2014,3,29,1,0,,16.2,10.9,71,101030,0,0,374,0,0,0,0,0,0,0,230,1.6,10,0,0,0,0,0,0,0,0,0,0,0,0
2014,3,29,2,0,,15.6,11.7,78,100970,0,0,372,0,0,0,0,0,0,0,230,1.9,10,0,0,0,0,0,0,0,0,0,0,0,0
2014,3,29,3,0,,15.4,13.2,87,100850,0,0,373,0,0,0,0,0,0,0,230,1.4,10,0,0,0,0,0,0,0,0,0,0,0,0
2014,3,29,4,0,,14.9,13,89,100740,0,0,370,0,0,0,0,0,0,0,200,1.9,10,0,0,0,0,0,0,0,0,0,0,0,0
2014,3,29,5,0,,14.8,12.9,89,100650,0,0,369,0,0,0,0,0,0,0,180,1.7,10,0,0,0,0,0,0,0,0,0,0,0,0
2014,3,29,6,0,,15.1,12.7,86,100670,0,0,371,0,0,0,0,0,0,0,230,1.7,10,0,0,0,0,0,0,0,0,0,0,0,0
2014,3,29,7,0,,15.5,12.9,85,100630,0,0,355,16,3,14,1835,217,1738,0,230,0.6,8,0,0,0,0,0,0,0,0,0,0,0,0
2014,3,29,8,0,,16.7,12.8,78,100570,0,0,369,81,73,66,13554,6901,9285,0,320,0.8,9,0,0,0,0,0,0,0,0,0,0,0,0
2014,3,29,9,0,,18,13,73,100570,0,0,375,178,82,144,23932,7963,17949,0,230,0.9,9,0,0,0,0,0,0,0,0,0,0,0,0
2014,3,29,10,0,,19.3,14.3,73,100610,0,0,395,215,44,190,25652,4016,22298,0,270,0.5,10,0,0,0,0,0,0,0,0,0,0,0,0
2014,3,29,11,0,,20.2,14.7,71,100540,0,0,400,265,38,237,30790,3535,27734,0,20,1.8,10,0,0,0,0,0,0,0,0,0,0,0,0
2014,3,29,12,0,,20.1,15.7,76,100450,0,0,401,279,30,255,32061,2745,29763,0,360,2.1,10,0,0,0,0,0,0,0,0,0,0,0,0
2014,3,29,13,0,,19.8,15.6,77,100300,0,0,399,260,21,242,29671,1495,28542,0,290,1.5,10,0,0,0,0,0,0,0,0,0,0,0,0
2014,3,29,14,0,,18.7,15.9,84,100190,0,0,394,222,15,209,24944,1024,24305,0,270,1.7,10,0,0,0,0,0,0,0,0,0,0,0,0
2014,3,29,15,0,,18.4,16,86,100110,0,0,392,184,12,175,20058,787,19702,0,360,1.1,10,0,0,0,0,0,0,0,0,0,0,0,0
2014,3,29,16,0,,18,16.8,93,100080,0,0,391,136,9,130,14104,455,13989,0,160,1.4,10,0,0,0,0,0,0,0,0,0,0,0,0
2014,3,29,17,0,,17.2,16.5,96,100030,0,0,387,106,13,100,9380,884,9346,0,20,2.1,10,0,0,0,0,0,0,0,0,0,0,0,0
2014,3,29,18,0,,16.5,15.5,94,100070,0,0,382,62,15,58,0,0,0,0,270,3.4,10,0,0,0,0,0,0,0,0,0,0,0,0
2014,3,29,19,0,,15.6,14.9,96,100150,0,0,376,13,1,12,0,0,0,0,270,4.3,10,0,0,0,0,0,0,0,0,0,0,0,0
2014,3,29,20,0,,15.2,14.5,96,100170,0,0,374,0,0,0,0,0,0,0,250,3.5,10,0,0,0,0,0,0,0,0,0,0,0,0
2014,3,29,21,0,,15.2,14.2,94,100170,0,0,373,0,0,0,0,0,0,0,290,2.9,10,0,0,0,0,0,0,0,0,0,0,0,0
2014,3,29,22,0,,14.4,13.7,96,100230,0,0,369,0,0,0,0,0,0,0,250,3.5,10,0,0,0,0,0,0,0,0,0,0,0,0
2014,3,29,23,0,,14.4,13.7,96,100230,0,0,369,0,0,0,0,0,0,0,290,3.4,10,0,0,0,0,0,0,0,0,0,0,0,0
2014,3,29,24,0,,13.5,12.8,96,100330,0,0,363,0,0,0,0,0,0,0,270,3.8,10,0,0,0,0,0,0,0,0,0,0,0,0
2014,3,30,1,0,,13.5,12.8,96,100370,0,0,363,0,0,0,0,0,0,0,250,4.1,10,0,0,0,0,0,0,0,0,0,0,0,0
2014,3,30,2,0,,13.3,12.5,95,100350,0,0,362,0,0,0,0,0,0,0,250,4.8,10,0,0,0,0,0,0,0,0,0,0,0,0
2014,3,30,3,0,,12.2,11.7,97,100390,0,0,355,0,0,0,0,0,0,0,250,4.6,10,0,0,0,0,0,0,0,0,0,0,0,0
2014,3,30,4,0,,11.6,11.1,97,100450,0,0,351,0,0,0,0,0,0,0,270,5.4,10,0,0,0,0,0,0,0,0,0,0,0,0
2014,3,30,5,0,,11.4,10.9,97,100440,0,0,350,0,0,0,0,0,0,0,270,4.3,10,0,0,0,0,0,0,0,0,0,0,0,0
2014,3,30,6,0,,11.6,11.1,97,100550,0,0,351,0,0,0,0,0,0,0,270,5.1,10,0,0,0,0,0,0,0,0,0,0,0,0
2014,3,30,7,0,,11.6,10.9,96,100620,0,0,351,7,0,7,1009,8,1006,0,290,3.8,10,0,0,0,0,0,0,0,0,0,0,0,0
2014,3,30,8,0,,11.5,10.8,96,100750,0,0,351,56,24,51,8124,2308,6686,0,290,4.3,10,0,0,0,0,0,0,0,0,0,0,0,0
2014,3,30,9,0,,11.5,10.7,95,100820,0,0,350,116,24,106,14230,2197,12571,0,270,3.9,10,0,0,0,0,0,0,0,0,0,0,0,0
2014,3,30,10,0,,11.5,10.5,94,100880,0,0,340,219,45,192,26027,4195,22508,0,270,3.2,9,0,0,0,0,0,0,0,0,0,0,0,0
2014,3,30,11,0,,11.7,10.5,93,100910,0,0,341,280,44,248,32355,4135,28766,0,290,4.2,9,0,0,0,0,0,0,0,0,0,0,0,0
2014,3,30,12,0,,12.4,10.7,90,100930,0,0,345,329,46,291,37252,4392,33562,0,270,4.5,9,0,0,0,0,0,0,0,0,0,0,0,0
2014,3,30,13,0,,12.9,10.6,86,100970,0,0,347,361,51,317,39987,4921,36257,0,270,4.7,9,0,0,0,0,0,0,0,0,0,0,0,0
2014,3,30,14,0,,12.5,10.2,86,100990,0,0,345,366,58,317,39489,5520,36031,0,270,5.4,9,0,0,0,0,0,0,0,0,0,0,0,0
2014,3,30,15,0,,12.9,10,83,101030,0,0,346,324,57,280,34001,5314,31583,0,270,5.2,9,0,0,0,0,0,0,0,0,0,0,0,0
2014,3,30,16,0,,12.6,9.4,81,101000,0,0,337,324,104,257,30746,9005,28446,0,270,4.5,8,0,0,0,0,0,0,0,0,0,0,0,0
2014,3,30,17,0,,12.5,9.3,81,101090,0,0,336,237,120,180,19417,8360,19075,0,250,4.8,8,0,0,0,0,0,0,0,0,0,0,0,0
2014,3,30,18,0,,12.1,9.1,82,101210,0,0,329,151,192,97,0,0,0,0,250,4.6,7,0,0,0,0,0,0,0,0,0,0,0,0
2014,3,30,19,0,,11.6,8.8,83,101280,0,0,321,48,23,25,0,0,0,0,270,2.8,5,0,0,0,0,0,0,0,0,0,0,0,0
2014,3,30,20,0,,11.4,8.4,82,101360,0,0,315,0,0,0,0,0,0,0,250,2.9,4,0,0,0,0,0,0,0,0,0,0,0,0
2014,3,30,21,0,,11,8.2,83,101400,0,0,308,0,0,0,0,0,0,0,230,1.4,2,0,0,0,0,0,0,0,0,0,0,0,0
2014,3,30,22,0,,10.9,8.6,86,101410,0,0,311,0,0,0,0,0,0,0,270,2.7,3,0,0,0,0,0,0,0,0,0,0,0,0
2014,3,30,23,0,,10.4,7.9,85,101410,0,0,309,0,0,0,0,0,0,0,230,1.6,3,0,0,0,0,0,0,0,0,0,0,0,0
2014,3,30,24,0,,10.3,7.1,81,101410,0,0,310,0,0,0,0,0,0,0,180,1.8,4,0,0,0,0,0,0,0,0,0,0,0,0
2014,3,31,1,0,,10,6.3,78,101390,0,0,307,0,0,0,0,0,0,0,180,0.6,4,0,0,0,0,0,0,0,0,0,0,0,0
2014,3,31,2,0,,9.6,6.4,81,101400,0,0,304,0,0,0,0,0,0,0,0,0.3,3,0,0,0,0,0,0,0,0,0,0,0,0
2014,3,31,3,0,,9.5,6.3,81,101390,0,0,303,0,0,0,0,0,0,0,180,1.2,3,0,0,0,0,0,0,0,0,0,0,0,0
2014,3,31,4,0,,9.3,6.3,82,101340,0,0,307,0,0,0,0,0,0,0,160,1.3,5,0,0,0,0,0,0,0,0,0,0,0,0
2014,3,31,5,0,,9.9,7.3,84,101330,0,0,329,0,0,0,0,0,0,0,160,1.2,9,0,0,0,0,0,0,0,0,0,0,0,0
2014,3,31,6,0,,10.5,8.5,88,101360,0,0,321,0,0,0,0,0,0,0,20,0.9,7,0,0,0,0,0,0,0,0,0,0,0,0
2014,3,31,7,0,,11,9.2,89,101470,0,0,346,9,0,9,1239,16,1232,0,20,1.2,10,0,0,0,0,0,0,0,0,0,0,0,0
2014,3,31,8,0,,11.5,9.7,89,101530,0,0,349,62,30,55,9088,2950,7238,0,200,2,10,0,0,0,0,0,0,0,0,0,0,0,0
2014,3,31,9,0,,12,9.8,87,101610,0,0,351,126,29,113,15468,2690,13426,0,200,0.5,10,0,0,0,0,0,0,0,0,0,0,0,0
2014,3,31,10,0,,13.6,10.5,82,101600,0,0,360,192,30,174,22794,2845,20397,0,20,1.8,10,0,0,0,0,0,0,0,0,0,0,0,0
2014,3,31,11,0,,14.8,12.1,84,101540,0,0,368,265,37,237,30676,3451,27669,0,20,3,10,0,0,0,0,0,0,0,0,0,0,0,0
2014,3,31,12,0,,16,12.7,81,101500,0,0,357,456,110,364,51492,10590,42563,0,360,2.1,8,0,0,0,0,0,0,0,0,0,0,0,0
2014,3,31,13,0,,17.1,13.8,81,101480,0,0,358,545,156,409,58668,14679,47502,0,360,2.8,7,0,0,0,0,0,0,0,0,0,0,0,0
2014,3,31,14,0,,17,13.1,78,101460,0,0,357,518,147,393,53339,14017,44519,0,340,3.1,7,0,0,0,0,0,0,0,0,0,0,0,0
2014,3,31,15,0,,16.3,12.8,80,101410,0,0,359,362,76,304,37504,7057,34273,0,340,2.7,8,0,0,0,0,0,0,0,0,0,0,0,0
2014,3,31,16,0,,16.9,12.8,77,101390,0,0,362,298,81,246,29131,6893,27353,0,340,2.3,8,0,0,0,0,0,0,0,0,0,0,0,0
2014,3,31,17,0,,16.3,11.8,75,101390,0,0,352,248,133,184,19960,9149,19562,0,20,1.8,7,0,0,0,0,0,0,0,0,0,0,0,0
2014,3,31,18,0,,15.8,11.3,75,101390,0,0,349,143,160,98,0,0,0,0,360,1.1,7,0,0,0,0,0,0,0,0,0,0,0,0
2014,3,31,19,0,,15.2,11.3,78,101430,0,0,348,37,10,27,0,0,0,0,360,1.1,7,0,0,0,0,0,0,0,0,0,0,0,0
2014,3,31,20,0,,14.6,10.6,77,101480,0,0,346,0,0,0,0,0,0,0,0,0.2,8,0,0,0,0,0,0,0,0,0,0,0,0
2014,3,31,21,0,,14,9.8,76,101510,0,0,344,0,0,0,0,0,0,0,180,1.1,8,0,0,0,0,0,0,0,0,0,0,0,0
2014,3,31,22,0,,13.8,11.8,88,101530,0,0,346,0,0,0,0,0,0,0,20,1.5,8,0,0,0,0,0,0,0,0,0,0,0,0
2014,3,31,23,0,,13.7,12.4,92,101520,0,0,346,0,0,0,0,0,0,0,20,2.2,8,0,0,0,0,0,0,0,0,0,0,0,0
2014,3,31,24,0,,13,9.6,80,101480,0,0,339,0,0,0,0,0,0,0,180,1.3,8,0,0,0,0,0,0,0,0,0,0,0,0
2014,4,1,1,0,,12.6,9.4,81,101430,0,0,335,0,0,0,0,0,0,0,160,1.7,8,0,0,0,0,0,0,0,0,0,0,0,0
2014,4,1,2,0,,12.2,8.2,77,101430,0,0,330,0,0,0,0,0,0,0,160,1.3,7,0,0,0,0,0,0,0,0,0,0,0,0
2014,4,1,3,0,,12,7.3,73,101420,0,0,326,0,0,0,0,0,0,0,160,1.4,7,0,0,0,0,0,0,0,0,0,0,0,0
2014,4,1,4,0,,11.9,7.6,75,101380,0,0,331,0,0,0,0,0,0,0,160,1.7,8,0,0,0,0,0,0,0,0,0,0,0,0
2014,4,1,5,0,,11.7,7.2,74,101360,0,0,330,0,0,0,0,0,0,0,160,2,8,0,0,0,0,0,0,0,0,0,0,0,0
2014,4,1,6,0,,11.3,6.4,72,101400,0,0,322,0,0,0,0,0,0,0,160,2.1,7,0,0,0,0,0,0,0,0,0,0,0,0
2014,4,1,7,0,,11.4,3.4,58,101430,0,0,312,35,20,16,3278,1900,2405,0,160,2.4,5,0,0,0,0,0,0,0,0,0,0,0,0
2014,4,1,8,0,,12.4,4.3,58,101480,0,0,306,182,557,54,43575,56440,7946,0,20,1.4,1,0,0,0,0,0,0,0,0,0,0,0,0
2014,4,1,9,0,,14.9,10.2,74,101470,0,0,317,372,638,97,63731,66033,13341,0,20,3,0,0,0,0,0,0,0,0,0,0,0,0,0
2014,4,1,10,0,,15.6,7.8,60,101470,0,0,318,552,682,137,76955,69929,17794,0,20,3.9,0,0,0,0,0,0,0,0,0,0,0,0,0
2014,4,1,11,0,,16.2,9.1,63,101430,0,0,322,673,636,198,82141,63867,26299,0,20,4.3,0,0,0,0,0,0,0,0,0,0,0,0,0
2014,4,1,12,0,,16.9,9.5,62,101380,0,0,326,721,533,275,78635,52144,34511,0,50,4.6,0,0,0,0,0,0,0,0,0,0,0,0,0
2014,4,1,13,0,,16.8,10.4,66,101330,0,0,332,739,493,309,74347,47648,37970,0,50,5.2,1,0,0,0,0,0,0,0,0,0,0,0,0
2014,4,1,14,0,,17.1,9.9,63,101260,0,0,333,741,546,276,67105,52129,34169,0,50,5.5,1,0,0,0,0,0,0,0,0,0,0,0,0
2014,4,1,15,0,,17.4,10,62,101200,0,0,335,657,523,251,51722,47634,29797,0,50,5.4,1,0,0,0,0,0,0,0,0,0,0,0,0
2014,4,1,16,0,,17.6,11.3,67,101180,0,0,337,553,569,184,32607,41241,21864,0,50,5.3,1,0,0,0,0,0,0,0,0,0,0,0,0
2014,4,1,17,0,,17.2,12.7,75,101200,0,0,342,380,497,141,15098,3166,14952,0,50,4.2,2,0,0,0,0,0,0,0,0,0,0,0,0
2014,4,1,18,0,,17.5,12.3,72,101240,0,0,342,221,518,73,0,0,0,0,270,2.5,2,0,0,0,0,0,0,0,0,0,0,0,0
2014,4,1,19,0,,16.1,12.4,79,101300,0,0,339,56,26,30,0,0,0,0,290,2.3,3,0,0,0,0,0,0,0,0,0,0,0,0
2014,4,1,20,0,,15.6,12.5,82,101360,0,0,340,0,0,0,0,0,0,0,250,0.9,4,0,0,0,0,0,0,0,0,0,0,0,0
2014,4,1,21,0,,15.1,12.2,83,101430,0,0,340,0,0,0,0,0,0,0,0,0.3,5,0,0,0,0,0,0,0,0,0,0,0,0
2014,4,1,22,0,,14.6,11.7,83,101440,0,0,337,0,0,0,0,0,0,0,0,0.1,5,0,0,0,0,0,0,0,0,0,0,0,0
2014,4,1,23,0,,13.7,6.3,61,101460,0,0,326,0,0,0,0,0,0,0,200,1.2,5,0,0,0,0,0,0,0,0,0,0,0,0
2014,4,1,24,0,,13,6.3,64,101450,0,0,323,0,0,0,0,0,0,0,180,1.3,5,0,0,0,0,0,0,0,0,0,0,0,0
2014,4,2,1,0,,12.5,5.4,62,101430,0,0,317,0,0,0,0,0,0,0,160,1.7,4,0,0,0,0,0,0,0,0,0,0,0,0
2014,4,2,2,0,,12.4,5.3,62,101400,0,0,314,0,0,0,0,0,0,0,160,1,3,0,0,0,0,0,0,0,0,0,0,0,0
2014,4,2,3,0,,11.9,4.8,62,101400,0,0,308,0,0,0,0,0,0,0,160,1.3,2,0,0,0,0,0,0,0,0,0,0,0,0
2014,4,2,4,0,,11.4,4.1,61,101380,0,0,295,0,0,0,0,0,0,0,160,2.2,0,0,0,0,0,0,0,0,0,0,0,0,0
2014,4,2,5,0,,11.8,4.2,60,101390,0,0,297,0,0,0,0,0,0,0,140,2.9,0,0,0,0,0,0,0,0,0,0,0,0,0
2014,4,2,6,0,,11.6,4,60,101410,0,0,296,0,0,0,0,0,0,0,160,2.3,0,0,0,0,0,0,0,0,0,0,0,0,0
2014,4,2,7,0,,11.8,4.5,61,101470,0,0,298,43,24,19,3937,2355,2844,0,140,2.8,0,0,0,0,0,0,0,0,0,0,0,0,0
2014,4,2,8,0,,12.5,4.4,58,101500,0,0,300,188,571,54,44699,57900,7911,0,90,0.7,0,0,0,0,0,0,0,0,0,0,0,0,0
2014,4,2,9,0,,15.8,5,49,101530,0,0,316,391,696,87,66505,71056,12011,0,20,1.8,0,0,0,0,0,0,0,0,0,0,0,0,0
2014,4,2,10,0,,17.4,5.9,47,101550,0,0,324,583,761,117,81617,77841,15490,0,50,3.2,0,0,0,0,0,0,0,0,0,0,0,0,0
2014,4,2,11,0,,17.4,11.6,69,101570,0,0,330,671,622,205,81741,62099,27246,0,20,3.7,0,0,0,0,0,0,0,0,0,0,0,0,0
2014,4,2,12,0,,17.7,12.9,74,101540,0,0,339,706,491,294,77217,46973,37330,0,20,3.8,1,0,0,0,0,0,0,0,0,0,0,0,0
2014,4,2,13,0,,18.4,10.4,60,101490,0,0,340,748,506,305,75067,48918,37586,0,20,4.1,1,0,0,0,0,0,0,0,0,0,0,0,0
2014,4,2,14,0,,18.5,8.4,52,101430,0,0,338,744,547,277,67379,52614,33999,0,20,4,1,0,0,0,0,0,0,0,0,0,0,0,0
2014,4,2,15,0,,18.7,8.9,53,101410,0,0,340,676,566,236,53058,51694,29135,0,20,4,1,0,0,0,0,0,0,0,0,0,0,0,0
2014,4,2,16,0,,18.7,11,61,101410,0,0,342,552,559,188,32995,40841,22253,0,20,4.1,1,0,0,0,0,0,0,0,0,0,0,0,0
2014,4,2,17,0,,18,10.8,63,101360,0,0,332,385,508,139,14888,4890,14650,0,20,3.2,0,0,0,0,0,0,0,0,0,0,0,0,0
2014,4,2,18,0,,17.4,12,71,101390,0,0,331,217,483,78,0,0,0,0,20,3.2,0,0,0,0,0,0,0,0,0,0,0,0,0
2014,4,2,19,0,,16.2,12.1,77,101450,0,0,325,58,27,30,0,0,0,0,290,1.8,0,0,0,0,0,0,0,0,0,0,0,0,0
2014,4,2,20,0,,15.2,10.9,76,101520,0,0,320,0,0,0,0,0,0,0,290,1.6,0,0,0,0,0,0,0,0,0,0,0,0,0
2014,4,2,21,0,,14.7,10.5,76,101580,0,0,317,0,0,0,0,0,0,0,200,2.4,0,0,0,0,0,0,0,0,0,0,0,0,0
2014,4,2,22,0,,13.7,7,64,101570,0,0,309,0,0,0,0,0,0,0,180,2.8,0,0,0,0,0,0,0,0,0,0,0,0,0
2014,4,2,23,0,,12.8,2.8,51,101550,0,0,300,0,0,0,0,0,0,0,180,1.7,0,0,0,0,0,0,0,0,0,0,0,0,0
2014,4,2,24,0,,12.5,2.3,50,101530,0,0,298,0,0,0,0,0,0,0,180,2.2,0,0,0,0,0,0,0,0,0,0,0,0,0
2014,4,3,1,0,,12.3,1.2,47,101500,0,0,300,0,0,0,0,0,0,0,180,2.5,1,0,0,0,0,0,0,0,0,0,0,0,0
2014,4,3,2,0,,12.2,1.2,47,101470,0,0,303,0,0,0,0,0,0,0,160,2,1,0,0,0,0,0,0,0,0,0,0,0,0
2014,4,3,3,0,,12,1.3,48,101420,0,0,305,0,0,0,0,0,0,0,180,1.7,2,0,0,0,0,0,0,0,0,0,0,0,0
2014,4,3,4,0,,12.1,1.6,49,101340,0,0,313,0,0,0,0,0,0,0,180,1.6,5,0,0,0,0,0,0,0,0,0,0,0,0
2014,4,3,5,0,,12.5,2.8,52,101330,0,0,312,0,0,0,0,0,0,0,160,1.4,3,0,0,0,0,0,0,0,0,0,0,0,0
2014,4,3,6,0,,12.8,3.4,53,101290,0,0,325,0,0,0,0,0,0,0,160,1.5,7,0,0,0,0,0,0,0,0,0,0,0,0
2014,4,3,7,0,,12.8,3.1,52,101310,0,0,330,26,6,20,2659,577,2388,0,200,0.7,8,0,0,0,0,0,0,0,0,0,0,0,0
2014,4,3,8,0,,13.8,2.6,47,101310,0,0,334,126,190,81,24201,19006,12048,0,230,1.4,8,0,0,0,0,0,0,0,0,0,0,0,0
2014,4,3,9,0,,14.9,6.1,56,101300,0,0,338,283,265,166,42687,26384,22354,0,270,2.4,7,0,0,0,0,0,0,0,0,0,0,0,0
2014,4,3,10,0,,15.3,6.5,56,101300,0,0,341,405,228,264,50985,23043,31331,0,290,2.8,7,0,0,0,0,0,0,0,0,0,0,0,0
2014,4,3,11,0,,15.6,7.3,58,101290,0,0,349,420,124,327,48744,12381,37840,0,270,3.1,8,0,0,0,0,0,0,0,0,0,0,0,0
2014,4,3,12,0,,16,4.3,46,101250,0,0,341,557,184,402,61228,18566,45409,0,290,3.9,7,0,0,0,0,0,0,0,0,0,0,0,0
2014,4,3,13,0,,16,5.2,49,101180,0,0,342,565,166,419,59815,16493,47134,0,290,4,7,0,0,0,0,0,0,0,0,0,0,0,0
2014,4,3,14,0,,16.5,3.1,41,101150,0,0,342,567,183,410,57134,18067,45626,0,270,3.8,7,0,0,0,0,0,0,0,0,0,0,0,0
2014,4,3,15,0,,16.8,3.4,41,101120,0,0,344,515,195,363,49182,19103,40293,0,270,4.4,7,0,0,0,0,0,0,0,0,0,0,0,0
2014,4,3,16,0,,15.9,7.3,57,101130,0,0,345,407,187,285,35778,16757,31328,0,270,4.7,7,0,0,0,0,0,0,0,0,0,0,0,0
2014,4,3,17,0,,14.7,8.8,68,101110,0,0,346,227,98,179,19359,6789,19010,0,270,4.4,8,0,0,0,0,0,0,0,0,0,0,0,0
2014,4,3,18,0,,12.5,9.1,80,101160,0,0,336,124,96,96,0,0,0,0,290,6,8,0,0,0,0,0,0,0,0,0,0,0,0
2014,4,3,19,0,,11.9,8.1,78,101160,0,0,328,37,9,28,0,0,0,0,270,4,7,0,0,0,0,0,0,0,0,0,0,0,0
2014,4,3,20,0,,11.7,7.7,77,101220,0,0,324,0,0,0,0,0,0,0,270,3.7,7,0,0,0,0,0,0,0,0,0,0,0,0
2014,4,3,21,0,,10.4,6.5,77,101290,0,0,314,0,0,0,0,0,0,0,290,6.4,6,0,0,0,0,0,0,0,0,0,0,0,0
2014,4,3,22,0,,9.7,2,59,101330,0,0,301,0,0,0,0,0,0,0,290,5.6,4,0,0,0,0,0,0,0,0,0,0,0,0
2014,4,3,23,0,,9.6,-1.7,45,101340,0,0,291,0,0,0,0,0,0,0,340,5.9,2,0,0,0,0,0,0,0,0,0,0,0,0
2014,4,3,24,0,,9.7,-0.2,50,101300,0,0,284,0,0,0,0,0,0,0,320,7.2,0,0,0,0,0,0,0,0,0,0,0,0,0
2014,4,4,1,0,,9.7,-1,47,101300,0,0,283,0,0,0,0,0,0,0,320,7,0,0,0,0,0,0,0,0,0,0,0,0,0
2014,4,4,2,0,,10,-0.5,48,101270,0,0,285,0,0,0,0,0,0,0,340,7.7,0,0,0,0,0,0,0,0,0,0,0,0,0
2014,4,4,3,0,,10,-2.3,42,101260,0,0,283,0,0,0,0,0,0,0,320,6.9,0,0,0,0,0,0,0,0,0,0,0,0,0
2014,4,4,4,0,,9.9,-0.3,49,101230,0,0,285,0,0,0,0,0,0,0,320,8.5,0,0,0,0,0,0,0,0,0,0,0,0,0
2014,4,4,5,0,,9.4,1,56,101240,0,0,284,0,0,0,0,0,0,0,320,7,0,0,0,0,0,0,0,0,0,0,0,0,0
2014,4,4,6,0,,9.3,0.1,53,101270,0,0,288,0,0,0,0,0,0,0,320,5.7,1,0,0,0,0,0,0,0,0,0,0,0,0
2014,4,4,7,0,,9.1,0,53,101290,0,0,287,49,30,19,4195,2956,2799,0,320,5.4,1,0,0,0,0,0,0,0,0,0,0,0,0
2014,4,4,8,0,,9.4,0.2,53,101330,0,0,283,202,617,52,47684,62315,7588,0,320,4.6,0,0,0,0,0,0,0,0,0,0,0,0,0
2014,4,4,9,0,,10,-0.8,47,101370,0,0,290,387,647,99,64792,66417,13360,0,320,4.5,1,0,0,0,0,0,0,0,0,0,0,0,0
2014,4,4,10,0,,10.1,0.6,52,101400,0,0,292,550,637,154,74911,64800,19418,0,320,5,1,0,0,0,0,0,0,0,0,0,0,0,0
2014,4,4,11,0,,10.7,0.4,49,101430,0,0,294,666,590,219,80466,59620,27774,0,320,4.7,1,0,0,0,0,0,0,0,0,0,0,0,0
2014,4,4,12,0,,11,-0.1,46,101430,0,0,295,753,584,258,81442,58423,31498,0,320,4.7,1,0,0,0,0,0,0,0,0,0,0,0,0
2014,4,4,13,0,,11.3,-0.2,45,101410,0,0,296,789,585,273,78265,58988,32753,0,290,5.4,1,0,0,0,0,0,0,0,0,0,0,0,0
2014,4,4,14,0,,11.5,-3.4,35,101350,0,0,294,790,640,240,69946,64089,28961,0,290,5,1,0,0,0,0,0,0,0,0,0,0,0,0
2014,4,4,15,0,,11.5,-1.9,39,101330,0,0,295,707,628,215,53863,59914,25838,0,320,5.9,1,0,0,0,0,0,0,0,0,0,0,0,0
2014,4,4,16,0,,11.3,-0.5,44,101280,0,0,296,575,611,174,33484,48881,20381,0,290,5,1,0,0,0,0,0,0,0,0,0,0,0,0
2014,4,4,17,0,,11.2,-0.9,43,101270,0,0,289,419,617,117,12343,15507,11505,0,290,4.2,0,0,0,0,0,0,0,0,0,0,0,0,0
2014,4,4,18,0,,10.6,-0.8,45,101260,0,0,287,242,608,65,0,0,0,0,270,4.7,0,0,0,0,0,0,0,0,0,0,0,0,0
2014,4,4,19,0,,9.8,0.1,51,101300,0,0,285,70,47,24,0,0,0,0,270,4.1,0,0,0,0,0,0,0,0,0,0,0,0,0
2014,4,4,20,0,,9.6,0.7,54,101340,0,0,284,0,0,0,0,0,0,0,270,4.4,0,0,0,0,0,0,0,0,0,0,0,0,0
2014,4,4,21,0,,9.1,1,57,101390,0,0,283,0,0,0,0,0,0,0,230,3,0,0,0,0,0,0,0,0,0,0,0,0,0
2014,4,4,22,0,,9.3,0.4,54,101430,0,0,283,0,0,0,0,0,0,0,250,3.1,0,0,0,0,0,0,0,0,0,0,0,0,0
2014,4,4,23,0,,9.3,1.2,57,101400,0,0,284,0,0,0,0,0,0,0,200,3.3,0,0,0,0,0,0,0,0,0,0,0,0,0
2014,4,4,24,0,,8.8,-0.5,52,101270,0,0,280,0,0,0,0,0,0,0,0,0,0,0,0,0,0,0,0,0,0,0,0,0,0
2014,4,5,1,0,,9,-1.4,48,101190,0,0,280,0,0,0,0,0,0,0,200,1.8,0,0,0,0,0,0,0,0,0,0,0,0,0
2014,4,5,2,0,,9.4,0.5,54,101180,0,0,283,0,0,0,0,0,0,0,180,1.1,0,0,0,0,0,0,0,0,0,0,0,0,0
2014,4,5,3,0,,12.3,-0.2,42,101100,0,0,295,0,0,0,0,0,0,0,230,3.5,0,0,0,0,0,0,0,0,0,0,0,0,0
2014,4,5,4,0,,13.7,0.9,42,101040,0,0,302,0,0,0,0,0,0,0,230,4.7,0,0,0,0,0,0,0,0,0,0,0,0,0
2014,4,5,5,0,,13.8,1,42,101080,0,0,315,0,0,0,0,0,0,0,230,5.1,3,0,0,0,0,0,0,0,0,0,0,0,0
2014,4,5,6,0,,12.5,4.6,59,101180,0,0,319,0,0,0,0,0,0,0,250,5,5,0,0,0,0,0,0,0,0,0,0,0,0
2014,4,5,7,0,,12.1,5.2,63,101200,0,0,329,28,7,21,2847,603,2560,0,230,4.2,8,0,0,0,0,0,0,0,0,0,0,0,0
2014,4,5,8,0,,12.5,6.3,66,101240,0,0,332,120,146,84,21935,14379,12626,0,230,5.2,8,0,0,0,0,0,0,0,0,0,0,0,0
2014,4,5,9,0,,13.3,6.1,62,101200,0,0,336,243,157,173,33792,15870,21445,0,230,4.7,8,0,0,0,0,0,0,0,0,0,0,0,0
2014,4,5,10,0,,13.7,7.2,65,101260,0,0,339,368,165,265,45806,16562,31568,0,250,7.1,8,0,0,0,0,0,0,0,0,0,0,0,0
2014,4,5,11,0,,13.3,8.5,73,101260,0,0,356,273,37,245,31529,3519,28408,0,270,6.1,10,0,0,0,0,0,0,0,0,0,0,0,0
2014,4,5,12,0,,12,7.8,76,101320,0,0,349,259,22,241,29630,2106,27824,0,290,4.8,10,0,0,0,0,0,0,0,0,0,0,0,0
2014,4,5,13,0,,11.2,5.7,69,101400,0,0,342,268,21,250,30918,1649,29641,0,320,6.1,10,0,0,0,0,0,0,0,0,0,0,0,0
2014,4,5,14,0,,10.5,3.2,61,101450,0,0,319,421,79,353,44670,7802,39661,0,320,5.2,8,0,0,0,0,0,0,0,0,0,0,0,0
2014,4,5,15,0,,10.4,2.7,59,101450,0,0,318,420,108,336,42302,10542,37345,0,290,6.9,8,0,0,0,0,0,0,0,0,0,0,0,0
2014,4,5,16,0,,10.3,2.3,58,101430,0,0,309,459,261,287,36743,20585,31174,0,290,7.2,6,0,0,0,0,0,0,0,0,0,0,0,0
2014,4,5,17,0,,9.1,0.5,55,101480,0,0,297,388,496,144,15045,9775,14492,0,320,9,4,0,0,0,0,0,0,0,0,0,0,0,0
2014,4,5,18,0,,8.6,-0.4,53,101540,0,0,296,209,405,90,0,0,0,0,290,7.2,5,0,0,0,0,0,0,0,0,0,0,0,0
2014,4,5,19,0,,8.3,0,56,101590,0,0,298,58,26,32,0,0,0,0,320,10.5,6,0,0,0,0,0,0,0,0,0,0,0,0
2014,4,5,20,0,,8.2,-1.6,50,101680,0,0,299,0,0,0,0,0,0,0,320,8.8,7,0,0,0,0,0,0,0,0,0,0,0,0
2014,4,5,21,0,,8.2,-1,52,101740,0,0,304,0,0,0,0,0,0,0,320,7.5,8,0,0,0,0,0,0,0,0,0,0,0,0
2014,4,5,22,0,,7.9,-0.6,55,101840,0,0,296,0,0,0,0,0,0,0,320,8,6,0,0,0,0,0,0,0,0,0,0,0,0
2014,4,5,23,0,,7.7,-1.2,53,101850,0,0,290,0,0,0,0,0,0,0,320,7.2,5,0,0,0,0,0,0,0,0,0,0,0,0
2014,4,5,24,0,,7.7,-1.5,52,101900,0,0,286,0,0,0,0,0,0,0,320,7.4,3,0,0,0,0,0,0,0,0,0,0,0,0
2014,4,6,1,0,,7.8,-1.7,51,101920,0,0,287,0,0,0,0,0,0,0,320,7.5,3,0,0,0,0,0,0,0,0,0,0,0,0
2014,4,6,2,0,,8.2,-1.6,50,101940,0,0,290,0,0,0,0,0,0,0,320,7.6,4,0,0,0,0,0,0,0,0,0,0,0,0
2014,4,6,3,0,,8.1,-2.5,47,101940,0,0,289,0,0,0,0,0,0,0,320,7,4,0,0,0,0,0,0,0,0,0,0,0,0
2014,4,6,4,0,,8.2,-2.4,47,101930,0,0,288,0,0,0,0,0,0,0,320,7.3,3,0,0,0,0,0,0,0,0,0,0,0,0
2014,4,6,5,0,,8.2,-2.1,48,101960,0,0,288,0,0,0,0,0,0,0,320,6.5,3,0,0,0,0,0,0,0,0,0,0,0,0
2014,4,6,6,0,,8.2,-1,52,102030,0,0,294,0,0,0,0,0,0,0,320,7.3,5,0,0,0,0,0,0,0,0,0,0,0,0
2014,4,6,7,0,,8.3,-1.2,51,102120,0,0,292,50,29,21,4515,2908,3117,0,320,5.8,4,0,0,0,0,0,0,0,0,0,0,0,0
2014,4,6,8,0,,8.6,-0.7,52,102170,0,0,296,183,437,73,39582,44705,10466,0,340,5.2,5,0,0,0,0,0,0,0,0,0,0,0,0
2014,4,6,9,0,,9.6,-0.6,49,102220,0,0,295,381,596,111,62476,60978,14815,0,340,4.7,3,0,0,0,0,0,0,0,0,0,0,0,0
2014,4,6,10,0,,10.3,0.5,51,102260,0,0,293,568,669,147,77520,68220,18648,0,340,5.1,1,0,0,0,0,0,0,0,0,0,0,0,0
2014,4,6,11,0,,10.9,0,47,102280,0,0,295,697,650,200,84591,66031,25833,0,340,3.8,1,0,0,0,0,0,0,0,0,0,0,0,0
2014,4,6,12,0,,10.6,-0.5,46,102240,0,0,287,760,584,261,81989,58393,31746,0,320,4.5,0,0,0,0,0,0,0,0,0,0,0,0,0
2014,4,6,13,0,,11.3,-0.5,44,102180,0,0,290,781,553,290,77688,55802,34347,0,290,4.3,0,0,0,0,0,0,0,0,0,0,0,0,0
2014,4,6,14,0,,11.9,-1.2,40,102130,0,0,292,766,571,272,68867,56913,32191,0,290,4.3,0,0,0,0,0,0,0,0,0,0,0,0,0
2014,4,6,15,0,,11.7,-1.8,39,102050,0,0,291,708,619,220,54351,59144,26399,0,290,4.3,0,0,0,0,0,0,0,0,0,0,0,0,0
2014,4,6,16,0,,11.5,-1.3,41,101990,0,0,300,583,620,173,33977,50114,20296,0,290,4.9,2,0,0,0,0,0,0,0,0,0,0,0,0
2014,4,6,17,0,,11.3,0,46,102020,0,0,300,416,591,124,13193,15983,12247,0,290,4.4,2,0,0,0,0,0,0,0,0,0,0,0,0
2014,4,6,18,0,,10.8,0.4,49,102100,0,0,299,239,570,71,0,0,0,0,270,4.7,2,0,0,0,0,0,0,0,0,0,0,0,0
2014,4,6,19,0,,10.2,1.5,55,102060,0,0,298,69,44,26,0,0,0,0,270,4.6,2,0,0,0,0,0,0,0,0,0,0,0,0
2014,4,6,20,0,,10,2.1,58,102070,0,0,299,0,0,0,0,0,0,0,250,3,3,0,0,0,0,0,0,0,0,0,0,0,0
2014,4,6,21,0,,9.9,2.2,59,102170,0,0,300,0,0,0,0,0,0,0,230,3.2,3,0,0,0,0,0,0,0,0,0,0,0,0
2014,4,6,22,0,,9.8,3.3,64,102160,0,0,301,0,0,0,0,0,0,0,230,2.3,3,0,0,0,0,0,0,0,0,0,0,0,0
2014,4,6,23,0,,9.8,2.8,62,102150,0,0,301,0,0,0,0,0,0,0,230,2.3,4,0,0,0,0,0,0,0,0,0,0,0,0
2014,4,6,24,0,,9.7,2.2,60,102120,0,0,301,0,0,0,0,0,0,0,230,2.4,4,0,0,0,0,0,0,0,0,0,0,0,0
2014,4,7,1,0,,9.9,2.9,62,102080,0,0,304,0,0,0,0,0,0,0,230,3.2,5,0,0,0,0,0,0,0,0,0,0,0,0
2014,4,7,2,0,,9.8,3.3,64,102020,0,0,306,0,0,0,0,0,0,0,230,2.3,5,0,0,0,0,0,0,0,0,0,0,0,0
2014,4,7,3,0,,9.7,3.6,66,101970,0,0,308,0,0,0,0,0,0,0,230,2.9,6,0,0,0,0,0,0,0,0,0,0,0,0
2014,4,7,4,0,,9.8,4.5,70,101950,0,0,313,0,0,0,0,0,0,0,230,2.5,7,0,0,0,0,0,0,0,0,0,0,0,0
2014,4,7,5,0,,9.8,4.7,71,101930,0,0,313,0,0,0,0,0,0,0,230,2.2,7,0,0,0,0,0,0,0,0,0,0,0,0
2014,4,7,6,0,,9.7,4.8,72,101930,0,0,318,0,0,0,0,0,0,0,200,2.1,8,0,0,0,0,0,0,0,0,0,0,0,0
2014,4,7,7,0,,10,4.9,71,101950,0,0,319,30,7,22,3063,669,2739,0,200,2.4,8,0,0,0,0,0,0,0,0,0,0,0,0
2014,4,7,8,0,,10.9,2.1,55,101990,0,0,320,135,182,88,24896,18268,12928,0,250,1.9,8,0,0,0,0,0,0,0,0,0,0,0,0
2014,4,7,9,0,,11.9,4.8,62,102000,0,0,328,246,152,176,33891,15506,21716,0,270,2,8,0,0,0,0,0,0,0,0,0,0,0,0
2014,4,7,10,0,,12.8,4.9,59,102040,0,0,332,365,154,268,44806,15641,31257,0,250,3.7,8,0,0,0,0,0,0,0,0,0,0,0,0
2014,4,7,11,0,,13.7,5.3,57,101990,0,0,337,450,140,343,51980,14181,39319,0,290,3.5,8,0,0,0,0,0,0,0,0,0,0,0,0
2014,4,7,12,0,,14.4,5.1,54,101900,0,0,331,637,258,417,68998,26084,46485,0,320,4,6,0,0,0,0,0,0,0,0,0,0,0,0
2014,4,7,13,0,,15.2,3.3,45,101830,0,0,311,802,593,273,79395,59278,33205,0,320,3.6,0,0,0,0,0,0,0,0,0,0,0,0,0
2014,4,7,14,0,,15.4,3.5,45,101760,0,0,318,777,591,265,69627,58125,32030,0,290,3.7,1,0,0,0,0,0,0,0,0,0,0,0,0
2014,4,7,15,0,,15.4,4.1,47,101710,0,0,319,706,608,225,54601,57203,27429,0,290,4.6,1,0,0,0,0,0,0,0,0,0,0,0,0
2014,4,7,16,0,,15.3,4.3,48,101680,0,0,313,581,608,177,34471,48371,21147,0,290,4,0,0,0,0,0,0,0,0,0,0,0,0,0
2014,4,7,17,0,,15,4.3,49,101650,0,0,311,417,586,126,13677,15771,12703,0,290,3.8,0,0,0,0,0,0,0,0,0,0,0,0,0
2014,4,7,18,0,,14.8,4.4,50,101650,0,0,310,243,577,70,0,0,0,0,290,2.3,0,0,0,0,0,0,0,0,0,0,0,0,0
2014,4,7,19,0,,13.5,3.8,52,101650,0,0,308,69,41,27,0,0,0,0,270,2.5,1,0,0,0,0,0,0,0,0,0,0,0,0
2014,4,7,20,0,,13,4.4,56,101650,0,0,310,0,0,0,0,0,0,0,250,2.3,1,0,0,0,0,0,0,0,0,0,0,0,0
2014,4,7,21,0,,11.9,4.1,59,101720,0,0,307,0,0,0,0,0,0,0,180,2.5,2,0,0,0,0,0,0,0,0,0,0,0,0
2014,4,7,22,0,,11.2,2.9,57,101740,0,0,303,0,0,0,0,0,0,0,200,1.9,2,0,0,0,0,0,0,0,0,0,0,0,0
2014,4,7,23,0,,10.9,1.4,52,101720,0,0,300,0,0,0,0,0,0,0,200,1.9,2,0,0,0,0,0,0,0,0,0,0,0,0
2014,4,7,24,0,,10.7,2,55,101670,0,0,300,0,0,0,0,0,0,0,200,1.8,2,0,0,0,0,0,0,0,0,0,0,0,0
2014,4,8,1,0,,9.9,-1.8,44,101660,0,0,298,0,0,0,0,0,0,0,200,1.4,4,0,0,0,0,0,0,0,0,0,0,0,0
2014,4,8,2,0,,9.4,-3.8,39,101630,0,0,299,0,0,0,0,0,0,0,160,1.7,6,0,0,0,0,0,0,0,0,0,0,0,0
2014,4,8,3,0,,9.4,-3.2,41,101630,0,0,307,0,0,0,0,0,0,0,160,1.3,8,0,0,0,0,0,0,0,0,0,0,0,0
2014,4,8,4,0,,10.1,-1.9,43,101610,0,0,312,0,0,0,0,0,0,0,180,1.4,8,0,0,0,0,0,0,0,0,0,0,0,0
2014,4,8,5,0,,10.4,-0.4,47,101610,0,0,315,0,0,0,0,0,0,0,0,0.4,8,0,0,0,0,0,0,0,0,0,0,0,0
2014,4,8,6,0,,10.6,-0.2,47,101640,0,0,316,0,0,0,0,0,0,0,180,1,8,0,0,0,0,0,0,0,0,0,0,0,0
2014,4,8,7,0,,10.9,-0.2,46,101680,0,0,309,46,26,20,4208,2568,2952,0,160,1.8,6,0,0,0,0,0,0,0,0,0,0,0,0
2014,4,8,8,0,,12.4,1.9,49,101690,0,0,318,177,358,84,37079,36535,13004,0,230,1.6,6,0,0,0,0,0,0,0,0,0,0,0,0
2014,4,8,9,0,,14.3,6.8,61,101680,0,0,332,330,367,160,50525,36421,21802,0,290,2.1,6,0,0,0,0,0,0,0,0,0,0,0,0
2014,4,8,10,0,,14.9,8.1,64,101690,0,0,337,454,288,270,57300,28824,32241,0,340,1.5,6,0,0,0,0,0,0,0,0,0,0,0,0
2014,4,8,11,0,,15.7,9.5,67,101700,0,0,334,639,485,264,76094,47561,33495,0,340,2.2,3,0,0,0,0,0,0,0,0,0,0,0,0
2014,4,8,12,0,,16.4,9.7,65,101640,0,0,338,706,443,325,76976,43221,39557,0,360,2.8,3,0,0,0,0,0,0,0,0,0,0,0,0
2014,4,8,13,0,,16.4,10,66,101590,0,0,330,756,483,324,76013,46775,39449,0,360,3.1,1,0,0,0,0,0,0,0,0,0,0,0,0
2014,4,8,14,0,,17.1,10.4,65,101530,0,0,334,738,493,308,68056,47002,37541,0,360,3,1,0,0,0,0,0,0,0,0,0,0,0,0
2014,4,8,15,0,,17.4,9.2,59,101470,0,0,334,663,495,270,53525,45725,31697,0,360,3,1,0,0,0,0,0,0,0,0,0,0,0,0
2014,4,8,16,0,,17,8.6,58,101470,0,0,331,558,536,201,34806,41190,23360,0,340,2.5,1,0,0,0,0,0,0,0,0,0,0,0,0
2014,4,8,17,0,,16.7,9.1,61,101490,0,0,330,400,517,142,15738,9924,15099,0,340,2.8,1,0,0,0,0,0,0,0,0,0,0,0,0
2014,4,8,18,0,,15.8,8.7,63,101500,0,0,320,228,484,83,0,0,0,0,270,2.3,0,0,0,0,0,0,0,0,0,0,0,0,0
2014,4,8,19,0,,14.6,8.9,69,101540,0,0,315,65,34,31,0,0,0,0,290,2.8,0,0,0,0,0,0,0,0,0,0,0,0,0
2014,4,8,20,0,,14.2,9,71,101570,0,0,313,0,0,0,0,0,0,0,250,2,0,0,0,0,0,0,0,0,0,0,0,0,0
2014,4,8,21,0,,13.8,8.6,71,101620,0,0,311,0,0,0,0,0,0,0,250,1.1,0,0,0,0,0,0,0,0,0,0,0,0,0
2014,4,8,22,0,,13.3,8.5,73,101610,0,0,309,0,0,0,0,0,0,0,200,0.8,0,0,0,0,0,0,0,0,0,0,0,0,0
2014,4,8,23,0,,12.6,7.2,70,101600,0,0,304,0,0,0,0,0,0,0,180,1.7,0,0,0,0,0,0,0,0,0,0,0,0,0
2014,4,8,24,0,,12.1,7.3,73,101580,0,0,302,0,0,0,0,0,0,0,180,0.9,0,0,0,0,0,0,0,0,0,0,0,0,0
2014,4,9,1,0,,11.9,7.6,75,101600,0,0,302,0,0,0,0,0,0,0,180,1.6,0,0,0,0,0,0,0,0,0,0,0,0,0
2014,4,9,2,0,,11.7,7.7,77,101590,0,0,301,0,0,0,0,0,0,0,180,1.4,0,0,0,0,0,0,0,0,0,0,0,0,0
2014,4,9,3,0,,11.3,7.9,80,101570,0,0,299,0,0,0,0,0,0,0,180,1.8,0,0,0,0,0,0,0,0,0,0,0,0,0
2014,4,9,4,0,,11.4,8,80,101550,0,0,310,0,0,0,0,0,0,0,180,1.2,2,0,0,0,0,0,0,0,0,0,0,0,0
2014,4,9,5,0,,11.3,8.5,83,101550,0,0,310,0,0,0,0,0,0,0,180,1.9,2,0,0,0,0,0,0,0,0,0,0,0,0
2014,4,9,6,0,,10.9,8.1,83,101540,0,0,304,0,0,0,0,0,0,0,180,1.6,1,0,0,0,0,0,0,0,0,0,0,0,0
2014,4,9,7,0,,10.8,7.4,80,101590,0,0,297,51,26,26,4705,2494,3475,0,180,1.5,0,0,0,0,0,0,0,0,0,0,0,0,0
2014,4,9,8,0,,12.1,7.5,74,101620,0,0,302,207,530,67,46009,54742,9733,0,200,0.8,0,0,0,0,0,0,0,0,0,0,0,0,0
2014,4,9,9,0,,14.7,10.3,75,101650,0,0,330,373,521,130,60698,52709,18950,0,360,2.3,3,0,0,0,0,0,0,0,0,0,0,0,0
2014,4,9,10,0,,15.3,10.2,72,101670,0,0,330,566,629,163,78088,63577,22619,0,20,2.6,2,0,0,0,0,0,0,0,0,0,0,0,0
2014,4,9,11,0,,15.7,10.2,70,101670,0,0,327,659,527,250,78638,52291,31655,0,360,2.3,1,0,0,0,0,0,0,0,0,0,0,0,0
2014,4,9,12,0,,16.2,10.4,69,101610,0,0,323,721,471,314,78472,45781,38717,0,340,2.8,0,0,0,0,0,0,0,0,0,0,0,0,0
2014,4,9,13,0,,16.2,9.6,65,101590,0,0,323,745,451,340,75193,43726,40907,0,340,3.1,0,0,0,0,0,0,0,0,0,0,0,0,0
2014,4,9,14,0,,16.2,9.8,66,101520,0,0,323,712,339,416,68123,32341,47051,0,340,2.8,0,0,0,0,0,0,0,0,0,0,0,0,0
2014,4,9,15,0,,16.2,10.2,68,101430,0,0,323,639,430,297,53532,39357,34652,0,340,2.8,0,0,0,0,0,0,0,0,0,0,0,0,0
2014,4,9,16,0,,16.6,10.4,67,101380,0,0,325,550,508,210,35424,38538,24622,0,340,2.9,0,0,0,0,0,0,0,0,0,0,0,0,0
2014,4,9,17,0,,15.3,10.2,72,101380,0,0,319,396,495,148,16446,9610,15803,0,290,3.1,0,0,0,0,0,0,0,0,0,0,0,0,0
2014,4,9,18,0,,14.6,10.6,77,101380,0,0,323,224,451,88,0,0,0,0,270,2.9,1,0,0,0,0,0,0,0,0,0,0,0,0
2014,4,9,19,0,,13.7,10.3,80,101430,0,0,326,62,29,34,0,0,0,0,270,2.9,3,0,0,0,0,0,0,0,0,0,0,0,0
2014,4,9,20,0,,13.5,10.2,81,101500,0,0,330,0,0,0,0,0,0,0,270,3.1,5,0,0,0,0,0,0,0,0,0,0,0,0
2014,4,9,21,0,,13.5,10.2,81,101570,0,0,337,0,0,0,0,0,0,0,290,2.9,7,0,0,0,0,0,0,0,0,0,0,0,0
2014,4,9,22,0,,13.2,10,81,101550,0,0,335,0,0,0,0,0,0,0,290,2.4,7,0,0,0,0,0,0,0,0,0,0,0,0
2014,4,9,23,0,,13.2,9.8,80,101540,0,0,335,0,0,0,0,0,0,0,250,2.2,7,0,0,0,0,0,0,0,0,0,0,0,0
2014,4,9,24,0,,13.1,9.9,81,101620,0,0,334,0,0,0,0,0,0,0,270,2.7,7,0,0,0,0,0,0,0,0,0,0,0,0
2014,4,10,1,0,,13.1,9.7,80,101630,0,0,333,0,0,0,0,0,0,0,230,2.5,7,0,0,0,0,0,0,0,0,0,0,0,0
2014,4,10,2,0,,13,9.2,78,101620,0,0,330,0,0,0,0,0,0,0,270,3.7,6,0,0,0,0,0,0,0,0,0,0,0,0
2014,4,10,3,0,,12.8,8.8,77,101560,0,0,328,0,0,0,0,0,0,0,250,3,6,0,0,0,0,0,0,0,0,0,0,0,0
2014,4,10,4,0,,11.9,8.1,78,101570,0,0,327,0,0,0,0,0,0,0,200,2.6,7,0,0,0,0,0,0,0,0,0,0,0,0
2014,4,10,5,0,,11.2,7.8,80,101580,0,0,312,0,0,0,0,0,0,0,200,1.7,3,0,0,0,0,0,0,0,0,0,0,0,0
2014,4,10,6,0,,10.4,7,80,101610,0,0,315,0,0,0,0,0,0,0,230,0.9,6,0,0,0,0,0,0,0,0,0,0,0,0
2014,4,10,7,0,,11.7,8.5,81,101790,0,0,323,42,17,25,4205,1677,3372,0,250,2.7,6,0,0,0,0,0,0,0,0,0,0,0,0
2014,4,10,8,0,,12.1,8.1,77,101780,0,0,333,130,139,93,21566,13788,12378,0,270,2.6,8,0,0,0,0,0,0,0,0,0,0,0,0
2014,4,10,9,0,,12.8,8,73,101700,0,0,306,391,577,120,63159,59330,15968,0,340,2.6,0,0,0,0,0,0,0,0,0,0,0,0,0
2014,4,10,10,0,,13.2,8.2,72,101780,0,0,308,540,543,190,73289,54757,25347,0,290,3.5,0,0,0,0,0,0,0,0,0,0,0,0,0
2014,4,10,11,0,,13.4,8.8,74,101840,0,0,309,640,471,273,75998,46332,34241,0,290,4.2,0,0,0,0,0,0,0,0,0,0,0,0,0
2014,4,10,12,0,,14.4,8.9,70,101720,0,0,314,718,457,322,78101,44794,39089,0,320,1.6,0,0,0,0,0,0,0,0,0,0,0,0,0
2014,4,10,13,0,,14.9,9.6,71,101690,0,0,323,758,475,331,76260,46142,39968,0,320,3.1,1,0,0,0,0,0,0,0,0,0,0,0,0
2014,4,10,14,0,,14.7,9.2,70,101650,0,0,315,724,450,330,66951,43684,38386,0,290,3.8,0,0,0,0,0,0,0,0,0,0,0,0,0
2014,4,10,15,0,,15.2,9.9,71,101610,0,0,329,647,443,293,53812,40703,34192,0,290,4,2,0,0,0,0,0,0,0,0,0,0,0,0
2014,4,10,16,0,,15.3,9.6,69,101570,0,0,332,524,430,236,36428,32856,27139,0,320,2.9,3,0,0,0,0,0,0,0,0,0,0,0,0
2014,4,10,17,0,,15.3,10.6,74,101560,0,0,336,368,389,172,18947,9391,18295,0,360,1.5,4,0,0,0,0,0,0,0,0,0,0,0,0
2014,4,10,18,0,,15,10.7,76,101560,0,0,335,214,384,97,0,0,0,0,340,2.6,4,0,0,0,0,0,0,0,0,0,0,0,0
2014,4,10,19,0,,13.8,10.7,82,101570,0,0,329,59,32,27,0,0,0,0,360,1.3,4,0,0,0,0,0,0,0,0,0,0,0,0
2014,4,10,20,0,,13.3,10.4,83,101600,0,0,325,0,0,0,0,0,0,0,50,1.8,3,0,0,0,0,0,0,0,0,0,0,0,0
2014,4,10,21,0,,13.1,10.4,84,101710,0,0,323,0,0,0,0,0,0,0,110,1.3,3,0,0,0,0,0,0,0,0,0,0,0,0
2014,4,10,22,0,,12.6,9.7,83,101740,0,0,317,0,0,0,0,0,0,0,70,1.1,2,0,0,0,0,0,0,0,0,0,0,0,0
2014,4,10,23,0,,12.1,9.4,84,101730,0,0,310,0,0,0,0,0,0,0,140,0.8,1,0,0,0,0,0,0,0,0,0,0,0,0
2014,4,10,24,0,,11.9,8.7,81,101740,0,0,303,0,0,0,0,0,0,0,140,2.1,0,0,0,0,0,0,0,0,0,0,0,0,0
2014,4,11,1,0,,13,10.1,83,101700,0,0,309,0,0,0,0,0,0,0,90,1.7,0,0,0,0,0,0,0,0,0,0,0,0,0
2014,4,11,2,0,,12,7.5,74,101660,0,0,302,0,0,0,0,0,0,0,160,1.5,0,0,0,0,0,0,0,0,0,0,0,0,0
2014,4,11,3,0,,11.7,8.9,83,101570,0,0,302,0,0,0,0,0,0,0,200,0.6,0,0,0,0,0,0,0,0,0,0,0,0,0
2014,4,11,4,0,,10.5,2.8,59,101560,0,0,290,0,0,0,0,0,0,0,200,1.2,0,0,0,0,0,0,0,0,0,0,0,0,0
2014,4,11,5,0,,10.9,4.7,66,101610,0,0,294,0,0,0,0,0,0,0,140,1,0,0,0,0,0,0,0,0,0,0,0,0,0
2014,4,11,6,0,,11.1,6,71,101650,0,0,309,0,0,0,0,0,0,0,110,1.5,3,0,0,0,0,0,0,0,0,0,0,0,0
2014,4,11,7,0,,11.2,7.3,77,101700,0,0,314,53,25,28,4973,2434,3754,0,110,1.4,4,0,0,0,0,0,0,0,0,0,0,0,0
2014,4,11,8,0,,14.1,9.5,74,101810,0,0,327,216,543,68,47542,56234,9866,0,70,3.8,3,0,0,0,0,0,0,0,0,0,0,0,0
2014,4,11,9,0,,16.2,9.8,66,101820,0,0,337,408,624,111,66464,64439,14996,0,90,3,3,0,0,0,0,0,0,0,0,0,0,0,0
2014,4,11,10,0,,18.2,11,63,101810,0,0,344,610,735,134,83996,75909,17309,0,50,3,2,0,0,0,0,0,0,0,0,0,0,0,0
2014,4,11,11,0,,17.2,11.4,69,101750,0,0,340,687,581,233,82312,57809,30054,0,50,5.2,2,0,0,0,0,0,0,0,0,0,0,0,0
2014,4,11,12,0,,17.8,12,69,101650,0,0,339,740,502,304,80346,48350,38116,0,50,4.5,1,0,0,0,0,0,0,0,0,0,0,0,0
2014,4,11,13,0,,17.1,11.3,69,101590,0,0,335,751,454,342,75950,43598,41556,0,50,7.5,1,0,0,0,0,0,0,0,0,0,0,0,0
2014,4,11,14,0,,17.4,10.9,66,101550,0,0,336,754,512,304,69223,48693,37273,0,50,7.1,1,0,0,0,0,0,0,0,0,0,0,0,0
2014,4,11,15,0,,17.1,12.2,73,101500,0,0,336,675,506,269,54374,45702,32239,0,50,7.5,1,0,0,0,0,0,0,0,0,0,0,0,0
2014,4,11,16,0,,17.2,11.6,70,101430,0,0,340,558,517,209,35883,39043,24752,0,50,6.5,2,0,0,0,0,0,0,0,0,0,0,0,0
2014,4,11,17,0,,17.1,11.7,71,101420,0,0,343,398,488,151,17113,10029,16390,0,50,5.4,3,0,0,0,0,0,0,0,0,0,0,0,0
2014,4,11,18,0,,16.7,11.4,71,101440,0,0,346,211,356,101,0,0,0,0,50,4.4,5,0,0,0,0,0,0,0,0,0,0,0,0
2014,4,11,19,0,,16.3,10.5,69,101460,0,0,344,62,36,26,0,0,0,0,70,3.4,5,0,0,0,0,0,0,0,0,0,0,0,0
2014,4,11,20,0,,15.3,10.6,74,101480,0,0,341,0,0,0,0,0,0,0,90,3.3,6,0,0,0,0,0,0,0,0,0,0,0,0
2014,4,11,21,0,,14.8,10.4,75,101570,0,0,339,0,0,0,0,0,0,0,90,3.3,6,0,0,0,0,0,0,0,0,0,0,0,0
2014,4,11,22,0,,14.5,9.5,72,101610,0,0,339,0,0,0,0,0,0,0,110,2,7,0,0,0,0,0,0,0,0,0,0,0,0
2014,4,11,23,0,,14.3,9.9,75,101570,0,0,342,0,0,0,0,0,0,0,110,1.9,7,0,0,0,0,0,0,0,0,0,0,0,0
2014,4,11,24,0,,14.2,9.6,74,101510,0,0,345,0,0,0,0,0,0,0,70,1.3,8,0,0,0,0,0,0,0,0,0,0,0,0
2014,4,12,1,0,,14,9.4,74,101460,0,0,348,0,0,0,0,0,0,0,180,0.5,9,0,0,0,0,0,0,0,0,0,0,0,0
2014,4,12,2,0,,13.9,8.9,72,101420,0,0,353,0,0,0,0,0,0,0,110,1.2,9,0,0,0,0,0,0,0,0,0,0,0,0
2014,4,12,3,0,,13.9,9.1,73,101420,0,0,360,0,0,0,0,0,0,0,180,0.8,10,0,0,0,0,0,0,0,0,0,0,0,0
2014,4,12,4,0,,14.1,9.5,74,101400,0,0,361,0,0,0,0,0,0,0,250,0.7,10,0,0,0,0,0,0,0,0,0,0,0,0
2014,4,12,5,0,,14.1,10.1,77,101400,0,0,362,0,0,0,0,0,0,0,70,0.9,10,0,0,0,0,0,0,0,0,0,0,0,0
2014,4,12,6,0,,13.9,9.7,76,101430,0,0,361,0,0,0,0,0,0,0,200,0.5,10,0,0,0,0,0,0,0,0,0,0,0,0
2014,4,12,7,0,,13.9,8,68,101490,0,0,358,18,1,16,2258,59,2228,0,0,0.1,10,0,0,0,0,0,0,0,0,0,0,0,0
2014,4,12,8,0,,14.7,8.4,66,101540,0,0,363,81,33,72,11448,3292,9231,0,0,0.3,10,0,0,0,0,0,0,0,0,0,0,0,0
2014,4,12,9,0,,15.4,9,66,101580,0,0,367,162,41,142,19822,3831,16750,0,320,0.8,10,0,0,0,0,0,0,0,0,0,0,0,0
2014,4,12,10,0,,16.3,9.4,64,101580,0,0,372,234,41,208,27594,3852,24198,0,360,1.3,10,0,0,0,0,0,0,0,0,0,0,0,0
2014,4,12,11,0,,17.4,13.9,80,101540,0,0,384,286,38,257,33131,3506,29953,0,50,4.1,10,0,0,0,0,0,0,0,0,0,0,0,0
2014,4,12,12,0,,17.4,13.9,80,101510,0,0,384,310,33,281,35320,3068,32633,0,50,5,10,0,0,0,0,0,0,0,0,0,0,0,0
2014,4,12,13,0,,16.8,13.1,79,101440,0,0,380,297,26,274,33593,2445,31658,0,50,4.5,10,0,0,0,0,0,0,0,0,0,0,0,0
2014,4,12,14,0,,16.9,13.4,80,101380,0,0,381,276,23,256,30627,1791,29448,0,50,6.3,10,0,0,0,0,0,0,0,0,0,0,0,0
2014,4,12,15,0,,16.8,13.8,83,101250,0,0,381,249,24,230,26547,1870,25637,0,50,6.3,10,0,0,0,0,0,0,0,0,0,0,0,0
2014,4,12,16,0,,16.8,13.8,83,101180,0,0,381,219,30,199,21670,2245,21025,0,50,6.7,10,0,0,0,0,0,0,0,0,0,0,0,0
2014,4,12,17,0,,17.7,12.9,74,101180,0,0,384,168,37,149,14371,3364,14120,0,50,3.6,10,0,0,0,0,0,0,0,0,0,0,0,0
2014,4,12,18,0,,17.5,13.2,76,101180,0,0,384,97,39,85,0,0,0,0,90,3.1,10,0,0,0,0,0,0,0,0,0,0,0,0
2014,4,12,19,0,,16.6,14.5,88,101240,0,0,381,20,1,19,0,0,0,0,90,2.3,10,0,0,0,0,0,0,0,0,0,0,0,0
2014,4,12,20,0,,16,14.5,91,101260,0,0,378,0,0,0,0,0,0,0,70,2.9,10,0,0,0,0,0,0,0,0,0,0,0,0
2014,4,12,21,0,,15.7,14.3,92,101320,0,0,376,0,0,0,0,0,0,0,70,2.5,10,0,0,0,0,0,0,0,0,0,0,0,0
2014,4,12,22,0,,15.6,14.4,93,101300,0,0,376,0,0,0,0,0,0,0,70,2.5,10,0,0,0,0,0,0,0,0,0,0,0,0
2014,4,12,23,0,,15.3,13.6,90,101280,0,0,373,0,0,0,0,0,0,0,90,2.4,10,0,0,0,0,0,0,0,0,0,0,0,0
2014,4,12,24,0,,14.6,12.2,86,101230,0,0,368,0,0,0,0,0,0,0,90,3.3,10,0,0,0,0,0,0,0,0,0,0,0,0
2014,4,13,1,0,,14.2,12.5,90,101200,0,0,366,0,0,0,0,0,0,0,90,2.9,10,0,0,0,0,0,0,0,0,0,0,0,0
2014,4,13,2,0,,13.7,12,90,101120,0,0,363,0,0,0,0,0,0,0,90,3.2,10,0,0,0,0,0,0,0,0,0,0,0,0
2014,4,13,3,0,,13.1,11.3,89,101110,0,0,359,0,0,0,0,0,0,0,110,4.3,10,0,0,0,0,0,0,0,0,0,0,0,0
2014,4,13,4,0,,13.3,11.8,91,101050,0,0,361,0,0,0,0,0,0,0,90,3.5,10,0,0,0,0,0,0,0,0,0,0,0,0
2014,4,13,5,0,,13.2,11.4,89,101020,0,0,360,0,0,0,0,0,0,0,110,5.1,10,0,0,0,0,0,0,0,0,0,0,0,0
2014,4,13,6,0,,13.1,11.4,90,101020,0,0,359,0,0,0,0,0,0,0,90,3.7,10,0,0,0,0,0,0,0,0,0,0,0,0
2014,4,13,7,0,,13.4,11.4,88,101120,0,0,360,17,1,16,2160,43,2138,0,90,2.4,10,0,0,0,0,0,0,0,0,0,0,0,0
2014,4,13,8,0,,13.5,12.5,94,101160,0,0,363,77,27,69,10767,2593,9011,0,50,5.4,10,0,0,0,0,0,0,0,0,0,0,0,0
2014,4,13,9,0,,13.1,11.9,93,101220,0,0,360,148,31,133,18078,2863,15773,0,50,6,10,0,0,0,0,0,0,0,0,0,0,0,0
2014,4,13,10,0,,13.4,12.1,92,101260,0,0,361,186,21,173,22069,1969,20328,0,50,4.8,10,0,0,0,0,0,0,0,0,0,0,0,0
2014,4,13,11,0,,13.5,12.3,93,101290,0,0,362,226,19,211,26373,1806,24731,0,50,4.5,10,0,0,0,0,0,0,0,0,0,0,0,0
2014,4,13,12,0,,13.6,12.4,93,101240,0,0,363,261,20,243,29978,1896,28313,0,50,5.7,10,0,0,0,0,0,0,0,0,0,0,0,0
2014,4,13,13,0,,14,11.8,87,101220,0,0,364,295,25,272,33276,2376,31391,0,50,6.3,10,0,0,0,0,0,0,0,0,0,0,0,0
2014,4,13,14,0,,14.8,11.5,81,101220,0,0,368,316,33,287,34881,3163,32792,0,70,5.1,10,0,0,0,0,0,0,0,0,0,0,0,0
2014,4,13,15,0,,14.8,11.1,79,101250,0,0,367,295,38,265,30832,3252,29242,0,50,6,10,0,0,0,0,0,0,0,0,0,0,0,0
2014,4,13,16,0,,15.1,10.6,75,101280,0,0,368,224,31,203,22152,2454,21440,0,50,3.7,10,0,0,0,0,0,0,0,0,0,0,0,0
2014,4,13,17,0,,15.2,10.1,72,101310,0,0,368,163,34,146,14166,2958,13937,0,50,4,10,0,0,0,0,0,0,0,0,0,0,0,0
2014,4,13,18,0,,14.9,10,73,101350,0,0,366,95,36,84,0,0,0,0,50,3.8,10,0,0,0,0,0,0,0,0,0,0,0,0
2014,4,13,19,0,,14.7,10.1,74,101400,0,0,346,42,10,32,0,0,0,0,70,3,8,0,0,0,0,0,0,0,0,0,0,0,0
2014,4,13,20,0,,14.1,9.9,76,101440,0,0,333,0,0,0,0,0,0,0,140,1.8,5,0,0,0,0,0,0,0,0,0,0,0,0
2014,4,13,21,0,,13.4,10,80,101530,0,0,324,0,0,0,0,0,0,0,140,1.8,3,0,0,0,0,0,0,0,0,0,0,0,0
2014,4,13,22,0,,13.1,9.9,81,101570,0,0,323,0,0,0,0,0,0,0,140,1.8,3,0,0,0,0,0,0,0,0,0,0,0,0
2014,4,13,23,0,,12.7,9.8,83,101570,0,0,321,0,0,0,0,0,0,0,140,1.8,3,0,0,0,0,0,0,0,0,0,0,0,0
2014,4,13,24,0,,12.4,9.4,82,101610,0,0,319,0,0,0,0,0,0,0,140,1.7,3,0,0,0,0,0,0,0,0,0,0,0,0
2014,4,14,1,0,,12.1,9.2,83,101630,0,0,314,0,0,0,0,0,0,0,140,1.4,2,0,0,0,0,0,0,0,0,0,0,0,0
2014,4,14,2,0,,11.7,9,84,101610,0,0,308,0,0,0,0,0,0,0,140,1.5,1,0,0,0,0,0,0,0,0,0,0,0,0
2014,4,14,3,0,,11.4,8.2,81,101620,0,0,300,0,0,0,0,0,0,0,140,1.5,0,0,0,0,0,0,0,0,0,0,0,0,0
2014,4,14,4,0,,11.1,8.1,82,101600,0,0,299,0,0,0,0,0,0,0,140,1.8,0,0,0,0,0,0,0,0,0,0,0,0,0
2014,4,14,5,0,,10.9,7.9,82,101630,0,0,298,0,0,0,0,0,0,0,140,1.9,0,0,0,0,0,0,0,0,0,0,0,0,0
2014,4,14,6,0,,10.8,7.4,80,101690,0,0,297,0,0,0,0,0,0,0,140,2.1,0,0,0,0,0,0,0,0,0,0,0,0,0
2014,4,14,7,0,,10.9,7.3,79,101800,0,0,297,63,38,26,5700,3636,3836,0,140,2.6,0,0,0,0,0,0,0,0,0,0,0,0,0
2014,4,14,8,0,,12.7,6,64,101850,0,0,303,233,582,67,49842,59283,9502,0,140,2,0,0,0,0,0,0,0,0,0,0,0,0,0
2014,4,14,9,0,,15.5,3.6,45,101890,0,0,313,458,768,85,74898,78319,11598,0,50,3.2,0,0,0,0,0,0,0,0,0,0,0,0,0
2014,4,14,10,0,,16.3,1.9,38,101950,0,0,314,637,779,124,86512,79297,16165,0,50,4.2,0,0,0,0,0,0,0,0,0,0,0,0,0
2014,4,14,11,0,,16.8,3.4,41,101980,0,0,318,750,711,186,88424,72037,22740,0,20,4.3,0,0,0,0,0,0,0,0,0,0,0,0,0
2014,4,14,12,0,,17,2.5,38,101960,0,0,318,811,643,246,87272,64449,30517,0,20,5,0,0,0,0,0,0,0,0,0,0,0,0,0
2014,4,14,13,0,,17.4,2.9,38,101920,0,0,320,830,612,273,81946,61288,33181,0,50,5.1,0,0,0,0,0,0,0,0,0,0,0,0,0
2014,4,14,14,0,,17.8,3.2,38,101860,0,0,322,806,614,262,71973,60595,31810,0,20,5.2,0,0,0,0,0,0,0,0,0,0,0,0,0
2014,4,14,15,0,,17.8,3.6,39,101830,0,0,323,721,602,234,56374,57007,28381,0,20,4.8,0,0,0,0,0,0,0,0,0,0,0,0,0
2014,4,14,16,0,,17.9,2.2,35,101800,0,0,322,604,629,176,36178,51650,21087,0,50,3.5,0,0,0,0,0,0,0,0,0,0,0,0,0
2014,4,14,17,0,,17.9,3.3,38,101770,0,0,323,441,620,124,14738,21819,12999,0,20,3,0,0,0,0,0,0,0,0,0,0,0,0,0
2014,4,14,18,0,,17.3,5.8,47,101760,0,0,323,262,606,71,0,0,0,0,20,3.5,0,0,0,0,0,0,0,0,0,0,0,0,0
2014,4,14,19,0,,16.1,5.9,51,101820,0,0,318,76,47,29,0,0,0,0,360,1.2,0,0,0,0,0,0,0,0,0,0,0,0,0
2014,4,14,20,0,,14.9,7.9,63,101850,0,0,315,0,0,0,0,0,0,0,340,1.4,0,0,0,0,0,0,0,0,0,0,0,0,0
2014,4,14,21,0,,14.1,5.1,55,101910,0,0,308,0,0,0,0,0,0,0,200,1.7,0,0,0,0,0,0,0,0,0,0,0,0,0
2014,4,14,22,0,,13.2,3.5,52,101930,0,0,302,0,0,0,0,0,0,0,180,1.1,0,0,0,0,0,0,0,0,0,0,0,0,0
2014,4,14,23,0,,12.6,2.7,51,101960,0,0,299,0,0,0,0,0,0,0,200,1.1,0,0,0,0,0,0,0,0,0,0,0,0,0
2014,4,14,24,0,,12.3,-0.2,42,101960,0,0,295,0,0,0,0,0,0,0,180,2.5,0,0,0,0,0,0,0,0,0,0,0,0,0
2014,4,15,1,0,,11.5,-1.3,41,101960,0,0,290,0,0,0,0,0,0,0,200,1.1,0,0,0,0,0,0,0,0,0,0,0,0,0
2014,4,15,2,0,,11.3,-1.8,40,101940,0,0,289,0,0,0,0,0,0,0,180,1.3,0,0,0,0,0,0,0,0,0,0,0,0,0
2014,4,15,3,0,,11.3,-2.1,39,101940,0,0,289,0,0,0,0,0,0,0,160,1.9,0,0,0,0,0,0,0,0,0,0,0,0,0
2014,4,15,4,0,,11.3,-2.5,38,101920,0,0,288,0,0,0,0,0,0,0,160,2.5,0,0,0,0,0,0,0,0,0,0,0,0,0
2014,4,15,5,0,,11.1,-2.3,39,101880,0,0,288,0,0,0,0,0,0,0,180,2.1,0,0,0,0,0,0,0,0,0,0,0,0,0
2014,4,15,6,0,,11,-2.1,40,101920,0,0,287,0,0,0,0,0,0,0,180,1.5,0,0,0,0,0,0,0,0,0,0,0,0,0
2014,4,15,7,0,,11.9,-1.9,38,102000,0,0,291,72,51,22,6367,4996,3788,0,160,2.2,0,0,0,0,0,0,0,0,0,0,0,0,0
2014,4,15,8,0,,13.4,-1.3,36,102030,0,0,298,255,691,55,55691,69908,7885,0,200,1.4,0,0,0,0,0,0,0,0,0,0,0,0,0
2014,4,15,9,0,,16.9,-2.7,26,102040,0,0,312,477,821,75,77897,83351,10277,0,290,1.5,0,0,0,0,0,0,0,0,0,0,0,0,0
2014,4,15,10,0,,18.2,-0.1,29,102000,0,0,320,659,830,110,89524,84405,14414,0,320,1.6,0,0,0,0,0,0,0,0,0,0,0,0,0
2014,4,15,11,0,,18.5,3.1,36,102010,0,0,325,770,751,172,91014,76368,21189,0,340,3.1,0,0,0,0,0,0,0,0,0,0,0,0,0
2014,4,15,12,0,,18.6,-0.7,27,101980,0,0,321,809,632,252,86887,63425,30888,0,270,2.5,0,0,0,0,0,0,0,0,0,0,0,0,0
2014,4,15,13,0,,19.8,0.7,28,101900,0,0,328,836,619,271,82504,62376,32736,0,340,2.7,0,0,0,0,0,0,0,0,0,0,0,0,0
2014,4,15,14,0,,18.7,1.6,32,101860,0,0,325,808,612,264,72171,60687,31817,0,290,4.2,0,0,0,0,0,0,0,0,0,0,0,0,0
2014,4,15,15,0,,19,3.9,37,101800,0,0,335,721,599,237,56594,56623,28665,0,290,3.9,1,0,0,0,0,0,0,0,0,0,0,0,0
2014,4,15,16,0,,18.6,5.4,42,101740,0,0,329,571,532,208,36552,42984,23893,0,270,4,0,0,0,0,0,0,0,0,0,0,0,0,0
2014,4,15,17,0,,19.5,-2.8,22,101740,0,0,329,470,712,104,13416,27612,11145,0,270,3.6,1,0,0,0,0,0,0,0,0,0,0,0,0
2014,4,15,18,0,,19,-2.6,23,101710,0,0,327,280,695,60,0,0,0,0,290,2.9,1,0,0,0,0,0,0,0,0,0,0,0,0
2014,4,15,19,0,,17.7,-3.7,23,101720,0,0,326,85,62,23,0,0,0,0,270,2.5,2,0,0,0,0,0,0,0,0,0,0,0,0
2014,4,15,20,0,,16.7,4.3,44,101750,0,0,334,0,0,0,0,0,0,0,290,2.4,4,0,0,0,0,0,0,0,0,0,0,0,0
2014,4,15,21,0,,15.8,5.3,50,101780,0,0,335,0,0,0,0,0,0,0,270,1.5,5,0,0,0,0,0,0,0,0,0,0,0,0
2014,4,15,22,0,,15.5,-2,30,101790,0,0,327,0,0,0,0,0,0,0,200,1.7,6,0,0,0,0,0,0,0,0,0,0,0,0
2014,4,15,23,0,,15.3,-4.6,25,101750,0,0,325,0,0,0,0,0,0,0,230,1,6,0,0,0,0,0,0,0,0,0,0,0,0
2014,4,15,24,0,,15.4,-4.5,25,101690,0,0,328,0,0,0,0,0,0,0,180,1.4,7,0,0,0,0,0,0,0,0,0,0,0,0
2014,4,16,1,0,,15.5,-5.5,23,101640,0,0,329,0,0,0,0,0,0,0,200,1.9,7,0,0,0,0,0,0,0,0,0,0,0,0
2014,4,16,2,0,,15.6,-4.3,25,101620,0,0,332,0,0,0,0,0,0,0,200,2,8,0,0,0,0,0,0,0,0,0,0,0,0
2014,4,16,3,0,,15.8,-5.3,23,101640,0,0,334,0,0,0,0,0,0,0,200,1.8,8,0,0,0,0,0,0,0,0,0,0,0,0
2014,4,16,4,0,,15.6,-3.8,26,101580,0,0,335,0,0,0,0,0,0,0,180,1.5,8,0,0,0,0,0,0,0,0,0,0,0,0
2014,4,16,5,0,,15.1,-3.7,27,101580,0,0,333,0,0,0,0,0,0,0,180,1.4,8,0,0,0,0,0,0,0,0,0,0,0,0
2014,4,16,6,0,,14.6,-1.9,32,101610,0,0,333,0,0,0,0,0,0,0,180,1.5,8,0,0,0,0,0,0,0,0,0,0,0,0
2014,4,16,7,0,,14.7,-3.1,29,101580,0,0,339,36,8,28,3766,744,3379,0,180,1.2,9,0,0,0,0,0,0,0,0,0,0,0,0
2014,4,16,8,0,,15.1,-0.6,34,101610,0,0,353,103,53,87,14621,5539,10815,0,180,0.7,10,0,0,0,0,0,0,0,0,0,0,0,0
2014,4,16,9,0,,15.7,1.7,39,101590,0,0,359,183,52,158,23305,5326,18967,0,320,0.7,10,0,0,0,0,0,0,0,0,0,0,0,0
2014,4,16,10,0,,17,-0.7,30,101580,0,0,353,348,113,273,42008,11719,31548,0,200,0.6,9,0,0,0,0,0,0,0,0,0,0,0,0
2014,4,16,11,0,,18.3,1.2,32,101550,0,0,362,435,112,346,49897,11463,39389,0,20,1.9,9,0,0,0,0,0,0,0,0,0,0,0,0
2014,4,16,12,0,,19.9,-3.1,21,101480,0,0,364,519,128,405,56998,13248,45270,0,20,1.8,9,0,0,0,0,0,0,0,0,0,0,0,0
2014,4,16,13,0,,19.1,3.2,35,101430,0,0,379,388,52,341,42781,5133,38674,0,20,3.4,10,0,0,0,0,0,0,0,0,0,0,0,0
2014,4,16,14,0,,18.8,4.8,40,101400,0,0,380,330,36,297,36079,3558,33705,0,360,1.2,10,0,0,0,0,0,0,0,0,0,0,0,0
2014,4,16,15,0,,18.1,10.9,63,101380,0,0,384,243,21,225,26103,1697,25262,0,340,2.2,10,0,0,0,0,0,0,0,0,0,0,0,0
2014,4,16,16,0,,17.9,6.1,46,101380,0,0,377,228,32,206,22670,2604,21897,0,290,2.2,10,0,0,0,0,0,0,0,0,0,0,0,0
2014,4,16,17,0,,17.8,0.8,32,101320,0,0,369,182,44,159,15653,4303,15288,0,20,1.2,10,0,0,0,0,0,0,0,0,0,0,0,0
2014,4,16,18,0,,17.8,4.7,42,101330,0,0,374,106,45,91,0,0,0,0,270,1.5,10,0,0,0,0,0,0,0,0,0,0,0,0
2014,4,16,19,0,,17,10.5,66,101270,0,0,378,26,2,24,0,0,0,0,360,1.9,10,0,0,0,0,0,0,0,0,0,0,0,0
2014,4,16,20,0,,16.3,11,71,101260,0,0,375,0,0,0,0,0,0,0,50,2.2,10,0,0,0,0,0,0,0,0,0,0,0,0
2014,4,16,21,0,,15.9,12.4,80,101360,0,0,374,0,0,0,0,0,0,0,340,1.2,10,0,0,0,0,0,0,0,0,0,0,0,0
2014,4,16,22,0,,15.9,9,64,101370,0,0,370,0,0,0,0,0,0,0,140,1.2,10,0,0,0,0,0,0,0,0,0,0,0,0
2014,4,16,23,0,,16.1,8.5,61,101340,0,0,370,0,0,0,0,0,0,0,140,1.6,10,0,0,0,0,0,0,0,0,0,0,0,0
2014,4,16,24,0,,16,6.4,53,101350,0,0,367,0,0,0,0,0,0,0,160,1.4,10,0,0,0,0,0,0,0,0,0,0,0,0
2014,4,17,1,0,,16.1,4.7,47,101300,0,0,365,0,0,0,0,0,0,0,140,1.5,10,0,0,0,0,0,0,0,0,0,0,0,0
2014,4,17,2,0,,15.9,4.5,47,101240,0,0,364,0,0,0,0,0,0,0,180,0.9,10,0,0,0,0,0,0,0,0,0,0,0,0
2014,4,17,3,0,,15.9,4.5,47,101180,0,0,364,0,0,0,0,0,0,0,160,0.9,10,0,0,0,0,0,0,0,0,0,0,0,0
2014,4,17,4,0,,15.6,3.6,45,101150,0,0,361,0,0,0,0,0,0,0,0,0.2,10,0,0,0,0,0,0,0,0,0,0,0,0
2014,4,17,5,0,,15.8,4.7,48,101150,0,0,364,0,0,0,0,0,0,0,0,0.4,10,0,0,0,0,0,0,0,0,0,0,0,0
2014,4,17,6,0,,15.3,11.4,78,101150,0,0,370,0,0,0,0,0,0,0,320,1.2,10,0,0,0,0,0,0,0,0,0,0,0,0
2014,4,17,7,0,,15.2,10.3,73,101120,0,0,368,20,2,19,2575,68,2539,0,180,1.3,10,0,0,0,0,0,0,0,0,0,0,0,0
2014,4,17,8,0,,15.4,11.3,77,101080,0,0,370,83,29,75,11594,2802,9660,0,320,1.3,10,0,0,0,0,0,0,0,0,0,0,0,0
2014,4,17,9,0,,15.5,11,75,101050,0,0,370,142,25,130,17300,2338,15389,0,200,1.1,10,0,0,0,0,0,0,0,0,0,0,0,0
2014,4,17,10,0,,15.3,12.2,82,101000,0,0,371,198,23,183,23430,2187,21473,0,270,1.5,10,0,0,0,0,0,0,0,0,0,0,0,0
2014,4,17,11,0,,16,12.5,80,100950,0,0,375,240,22,223,27913,2024,26054,0,160,1.7,10,0,0,0,0,0,0,0,0,0,0,0,0
2014,4,17,12,0,,17.8,13.3,75,100840,0,0,385,327,36,295,37174,3394,34162,0,90,4.4,10,0,0,0,0,0,0,0,0,0,0,0,0
2014,4,17,13,0,,19.1,13.7,71,100770,0,0,393,349,39,314,39086,3633,36172,0,70,3.3,10,0,0,0,0,0,0,0,0,0,0,0,0
2014,4,17,14,0,,19.8,14.1,70,100700,0,0,397,341,40,306,37538,3714,35053,0,90,1.8,10,0,0,0,0,0,0,0,0,0,0,0,0
2014,4,17,15,0,,19.1,15.7,81,100530,0,0,396,252,24,233,26886,1815,25983,0,70,2.1,10,0,0,0,0,0,0,0,0,0,0,0,0
2014,4,17,16,0,,18.8,16.2,85,100510,0,0,395,190,19,177,19331,1267,18952,0,90,2,10,0,0,0,0,0,0,0,0,0,0,0,0
2014,4,17,17,0,,18.4,16.3,88,100510,0,0,393,122,14,115,11304,665,11246,0,20,1.9,10,0,0,0,0,0,0,0,0,0,0,0,0
2014,4,17,18,0,,18.6,16,85,100540,0,0,393,79,19,72,0,0,0,0,200,1.2,10,0,0,0,0,0,0,0,0,0,0,0,0
2014,4,17,19,0,,18.6,16,85,100570,0,0,393,25,2,23,0,0,0,0,270,4.4,10,0,0,0,0,0,0,0,0,0,0,0,0
2014,4,17,20,0,,18.3,15.5,84,100640,0,0,391,0,0,0,0,0,0,0,250,5.1,10,0,0,0,0,0,0,0,0,0,0,0,0
2014,4,17,21,0,,17.3,15.9,92,100770,0,0,386,0,0,0,0,0,0,0,270,4.4,10,0,0,0,0,0,0,0,0,0,0,0,0
2014,4,17,22,0,,16.5,15.5,94,100790,0,0,382,0,0,0,0,0,0,0,230,2.7,10,0,0,0,0,0,0,0,0,0,0,0,0
2014,4,17,23,0,,16.4,15,92,100830,0,0,380,0,0,0,0,0,0,0,250,2.7,10,0,0,0,0,0,0,0,0,0,0,0,0
2014,4,17,24,0,,16.2,14.8,92,100850,0,0,379,0,0,0,0,0,0,0,250,3,10,0,0,0,0,0,0,0,0,0,0,0,0
2014,4,18,1,0,,14.9,13.9,94,100900,0,0,371,0,0,0,0,0,0,0,290,3.2,10,0,0,0,0,0,0,0,0,0,0,0,0
2014,4,18,2,0,,14.4,13.7,96,100900,0,0,369,0,0,0,0,0,0,0,270,2.2,10,0,0,0,0,0,0,0,0,0,0,0,0
2014,4,18,3,0,,14.3,13.8,97,100880,0,0,368,0,0,0,0,0,0,0,270,1.8,10,0,0,0,0,0,0,0,0,0,0,0,0
2014,4,18,4,0,,14.5,13.8,96,100870,0,0,369,0,0,0,0,0,0,0,140,1,10,0,0,0,0,0,0,0,0,0,0,0,0
2014,4,18,5,0,,14.4,13.7,96,100900,0,0,369,0,0,0,0,0,0,0,90,1.5,10,0,0,0,0,0,0,0,0,0,0,0,0
2014,4,18,6,0,,14.4,13.7,96,100960,0,0,369,0,0,0,0,0,0,0,90,2.1,10,0,0,0,0,0,0,0,0,0,0,0,0
2014,4,18,7,0,,14.4,13.7,96,101040,0,0,369,19,1,17,2384,47,2359,0,70,2.4,10,0,0,0,0,0,0,0,0,0,0,0,0
2014,4,18,8,0,,14.4,13.6,95,101110,0,0,368,75,20,69,9547,1826,8281,0,50,2.4,10,0,0,0,0,0,0,0,0,0,0,0,0
2014,4,18,9,0,,14.6,13.6,94,101190,0,0,369,127,18,118,15433,1626,14100,0,70,2.1,10,0,0,0,0,0,0,0,0,0,0,0,0
2014,4,18,10,0,,14.4,13.4,94,101250,0,0,368,177,17,166,21000,1554,19605,0,50,2.6,10,0,0,0,0,0,0,0,0,0,0,0,0
2014,4,18,11,0,,14.5,13.3,93,101280,0,0,369,218,16,205,25443,1506,24056,0,70,3.1,10,0,0,0,0,0,0,0,0,0,0,0,0
2014,4,18,12,0,,14.6,13.1,91,101290,0,0,369,242,16,228,28666,1064,27719,0,70,3.1,10,0,0,0,0,0,0,0,0,0,0,0,0
2014,4,18,13,0,,14.6,12.8,89,101310,0,0,368,276,20,257,31733,1478,30544,0,50,4.5,10,0,0,0,0,0,0,0,0,0,0,0,0
2014,4,18,14,0,,14.7,12.7,88,101300,0,0,369,254,17,238,28560,1311,27680,0,70,3.3,10,0,0,0,0,0,0,0,0,0,0,0,0
2014,4,18,15,0,,14.8,12.6,87,101280,0,0,369,250,23,231,26756,1793,25860,0,70,2.9,10,0,0,0,0,0,0,0,0,0,0,0,0
2014,4,18,16,0,,15.3,12,81,101270,0,0,371,226,31,205,22458,2376,21742,0,90,3.6,10,0,0,0,0,0,0,0,0,0,0,0,0
2014,4,18,17,0,,15.2,12.1,82,101340,0,0,370,156,28,142,13907,2044,13723,0,70,2.9,10,0,0,0,0,0,0,0,0,0,0,0,0
2014,4,18,18,0,,15.1,11.8,81,101340,0,0,369,89,26,80,0,0,0,0,90,2.8,10,0,0,0,0,0,0,0,0,0,0,0,0
2014,4,18,19,0,,14.8,11.7,82,101400,0,0,364,25,2,23,0,0,0,0,90,2.6,10,0,0,0,0,0,0,0,0,0,0,0,0
2014,4,18,20,0,,14.7,11.8,83,101430,0,0,360,0,0,0,0,0,0,0,90,2.1,9,0,0,0,0,0,0,0,0,0,0,0,0
2014,4,18,21,0,,14.5,11.4,82,101480,0,0,356,0,0,0,0,0,0,0,90,1.9,9,0,0,0,0,0,0,0,0,0,0,0,0
2014,4,18,22,0,,14.3,11.2,82,101510,0,0,355,0,0,0,0,0,0,0,110,2.7,9,0,0,0,0,0,0,0,0,0,0,0,0
2014,4,18,23,0,,13.7,10.8,83,101530,0,0,351,0,0,0,0,0,0,0,90,2.3,9,0,0,0,0,0,0,0,0,0,0,0,0
2014,4,18,24,0,,13.8,10.9,83,101540,0,0,352,0,0,0,0,0,0,0,70,1.6,9,0,0,0,0,0,0,0,0,0,0,0,0
2014,4,19,1,0,,14,11.1,83,101580,0,0,356,0,0,0,0,0,0,0,90,1.7,9,0,0,0,0,0,0,0,0,0,0,0,0
2014,4,19,2,0,,14.1,11.6,85,101540,0,0,361,0,0,0,0,0,0,0,90,1.6,10,0,0,0,0,0,0,0,0,0,0,0,0
2014,4,19,3,0,,14.1,11.6,85,101510,0,0,364,0,0,0,0,0,0,0,70,2.6,10,0,0,0,0,0,0,0,0,0,0,0,0
2014,4,19,4,0,,14,9.2,73,101500,0,0,351,0,0,0,0,0,0,0,70,3.2,9,0,0,0,0,0,0,0,0,0,0,0,0
2014,4,19,5,0,,13.5,9.7,78,101490,0,0,341,0,0,0,0,0,0,0,90,2.7,8,0,0,0,0,0,0,0,0,0,0,0,0
2014,4,19,6,0,,13.2,9.4,78,101510,0,0,357,0,0,0,0,0,0,0,70,2.1,10,0,0,0,0,0,0,0,0,0,0,0,0
2014,4,19,7,0,,13.6,9.6,77,101520,0,0,359,22,2,20,2724,78,2683,0,70,2.8,10,0,0,0,0,0,0,0,0,0,0,0,0
2014,4,19,8,0,,13.9,9.7,76,101550,0,0,361,91,33,80,12589,3311,10283,0,70,3.3,10,0,0,0,0,0,0,0,0,0,0,0,0
2014,4,19,9,0,,13.7,9.1,74,101660,0,0,359,164,36,146,19994,3368,17223,0,70,3.7,10,0,0,0,0,0,0,0,0,0,0,0,0
2014,4,19,10,0,,14,9.4,74,101730,0,0,361,215,28,196,25314,2698,22885,0,70,3.5,10,0,0,0,0,0,0,0,0,0,0,0,0
2014,4,19,11,0,,13.9,9.5,75,101670,0,0,360,255,25,235,29543,2383,27342,0,70,4.2,10,0,0,0,0,0,0,0,0,0,0,0,0
2014,4,19,12,0,,13.6,10,79,101500,0,0,360,275,22,255,31470,2097,29601,0,70,5.2,10,0,0,0,0,0,0,0,0,0,0,0,0
2014,4,19,13,0,,13.1,10.6,85,101570,0,0,358,276,20,257,31811,1493,30607,0,70,4,10,0,0,0,0,0,0,0,0,0,0,0,0
2014,4,19,14,0,,12.9,10.6,86,101570,0,0,357,236,14,223,26852,1056,26142,0,70,3.2,10,0,0,0,0,0,0,0,0,0,0,0,0
2014,4,19,15,0,,13.3,10.6,84,101490,0,0,359,251,23,232,26942,1835,26021,0,90,4.3,10,0,0,0,0,0,0,0,0,0,0,0,0
2014,4,19,16,0,,13,9.9,82,101500,0,0,356,206,23,190,20863,1749,20331,0,90,4.4,10,0,0,0,0,0,0,0,0,0,0,0,0
2014,4,19,17,0,,13.2,9.8,80,101460,0,0,357,166,33,149,14661,2594,14422,0,90,3.7,10,0,0,0,0,0,0,0,0,0,0,0,0
2014,4,19,18,0,,13.6,9,74,101470,0,0,358,93,29,84,0,0,0,0,70,2.6,10,0,0,0,0,0,0,0,0,0,0,0,0
2014,4,19,19,0,,13.5,9.1,75,101470,0,0,358,29,3,26,0,0,0,0,70,3.2,10,0,0,0,0,0,0,0,0,0,0,0,0
2014,4,19,20,0,,13.5,9.7,78,101510,0,0,359,0,0,0,0,0,0,0,70,3.9,10,0,0,0,0,0,0,0,0,0,0,0,0
2014,4,19,21,0,,13.6,9,74,101580,0,0,358,0,0,0,0,0,0,0,70,3.4,10,0,0,0,0,0,0,0,0,0,0,0,0
2014,4,19,22,0,,13.6,8.4,71,101580,0,0,357,0,0,0,0,0,0,0,70,4.3,10,0,0,0,0,0,0,0,0,0,0,0,0
2014,4,19,23,0,,13.3,8.3,72,101590,0,0,356,0,0,0,0,0,0,0,70,4.6,10,0,0,0,0,0,0,0,0,0,0,0,0
2014,4,19,24,0,,13.1,8.3,73,101640,0,0,355,0,0,0,0,0,0,0,70,3.7,10,0,0,0,0,0,0,0,0,0,0,0,0
2014,4,20,1,0,,13,8.8,76,101610,0,0,355,0,0,0,0,0,0,0,70,6.8,10,0,0,0,0,0,0,0,0,0,0,0,0
2014,4,20,2,0,,12,9.7,86,101530,0,0,351,0,0,0,0,0,0,0,70,6.4,10,0,0,0,0,0,0,0,0,0,0,0,0
2014,4,20,3,0,,11.9,9.4,85,101540,0,0,350,0,0,0,0,0,0,0,70,3.8,10,0,0,0,0,0,0,0,0,0,0,0,0
2014,4,20,4,0,,11.4,9.4,88,101550,0,0,348,0,0,0,0,0,0,0,70,3.7,10,0,0,0,0,0,0,0,0,0,0,0,0
2014,4,20,5,0,,11.2,9.6,90,101550,0,0,347,0,0,0,0,0,0,0,70,5,10,0,0,0,0,0,0,0,0,0,0,0,0
2014,4,20,6,0,,11.1,9.5,90,101590,0,0,347,0,0,0,0,0,0,0,70,3.6,10,0,0,0,0,0,0,0,0,0,0,0,0
2014,4,20,7,0,,11.2,9.9,92,101610,0,0,348,19,1,18,2420,50,2393,0,90,2.5,10,0,0,0,0,0,0,0,0,0,0,0,0
2014,4,20,8,0,,11.5,10.2,92,101600,0,0,350,89,31,80,12333,3028,10214,0,110,3.9,10,0,0,0,0,0,0,0,0,0,0,0,0
2014,4,20,9,0,,12.5,10.2,86,101540,0,0,354,162,33,145,19675,3140,17082,0,90,3,10,0,0,0,0,0,0,0,0,0,0,0,0
2014,4,20,10,0,,13.2,10,81,101520,0,0,358,231,34,208,27193,3233,24275,0,90,3.4,10,0,0,0,0,0,0,0,0,0,0,0,0
2014,4,20,11,0,,14.2,9.6,74,101470,0,0,352,376,71,318,42959,6850,36616,0,90,3.2,9,0,0,0,0,0,0,0,0,0,0,0,0
2014,4,20,12,0,,14.4,10.2,76,101520,0,0,364,330,36,298,37414,3444,34336,0,50,6.1,10,0,0,0,0,0,0,0,0,0,0,0,0
2014,4,20,13,0,,14.8,9.9,73,101460,0,0,355,430,66,369,47259,6424,42067,0,50,5.1,9,0,0,0,0,0,0,0,0,0,0,0,0
2014,4,20,14,0,,14.4,10.4,77,101480,0,0,354,381,52,334,41387,5041,37983,0,50,5.3,9,0,0,0,0,0,0,0,0,0,0,0,0
2014,4,20,15,0,,14.6,10.4,76,101450,0,0,355,351,57,304,37059,5402,34336,0,50,5.7,9,0,0,0,0,0,0,0,0,0,0,0,0
2014,4,20,16,0,,14.6,10.2,75,101400,0,0,355,281,55,243,28586,4839,27105,0,50,4.7,9,0,0,0,0,0,0,0,0,0,0,0,0
2014,4,20,17,0,,14.2,10.2,77,101350,0,0,353,219,69,183,20234,4878,19772,0,50,4,9,0,0,0,0,0,0,0,0,0,0,0,0
2014,4,20,18,0,,14.7,10.1,74,101320,0,0,338,199,258,115,0,0,0,0,70,2.6,6,0,0,0,0,0,0,0,0,0,0,0,0
2014,4,20,19,0,,14.1,10.3,78,101370,0,0,333,69,37,32,0,0,0,0,70,1.3,5,0,0,0,0,0,0,0,0,0,0,0,0
2014,4,20,20,0,,13.4,10,80,101390,0,0,327,0,0,0,0,0,0,0,50,2,4,0,0,0,0,0,0,0,0,0,0,0,0
2014,4,20,21,0,,12.6,9.7,83,101450,0,0,320,0,0,0,0,0,0,0,110,1.3,3,0,0,0,0,0,0,0,0,0,0,0,0
2014,4,20,22,0,,12.3,9.4,83,101490,0,0,317,0,0,0,0,0,0,0,140,1.2,2,0,0,0,0,0,0,0,0,0,0,0,0
2014,4,20,23,0,,12.1,9.2,83,101490,0,0,313,0,0,0,0,0,0,0,160,1.8,2,0,0,0,0,0,0,0,0,0,0,0,0
2014,4,20,24,0,,11.6,8.8,83,101410,0,0,308,0,0,0,0,0,0,0,160,2.2,1,0,0,0,0,0,0,0,0,0,0,0,0
2014,4,21,1,0,,11.7,7,73,101390,0,0,304,0,0,0,0,0,0,0,140,2.3,1,0,0,0,0,0,0,0,0,0,0,0,0
2014,4,21,2,0,,11.1,6.8,75,101370,0,0,299,0,0,0,0,0,0,0,140,1.2,0,0,0,0,0,0,0,0,0,0,0,0,0
2014,4,21,3,0,,10.9,7.3,79,101330,0,0,297,0,0,0,0,0,0,0,160,2.2,0,0,0,0,0,0,0,0,0,0,0,0,0
2014,4,21,4,0,,10.6,7.2,80,101320,0,0,311,0,0,0,0,0,0,0,160,1.5,4,0,0,0,0,0,0,0,0,0,0,0,0
2014,4,21,5,0,,10.9,7.7,81,101350,0,0,310,0,0,0,0,0,0,0,160,2,3,0,0,0,0,0,0,0,0,0,0,0,0
2014,4,21,6,0,,10.8,8.5,86,101320,0,0,304,0,0,0,0,0,0,0,160,1.9,1,0,0,0,0,0,0,0,0,0,0,0,0
2014,4,21,7,0,,11.5,6.8,73,101420,0,0,299,77,49,27,6654,4822,4065,0,140,1.3,0,0,0,0,0,0,0,0,0,0,0,0,0
2014,4,21,8,0,,13.3,8.7,74,101490,0,0,309,253,570,75,52196,58956,10768,0,290,1.6,0,0,0,0,0,0,0,0,0,0,0,0,0
2014,4,21,9,0,,15.7,9.8,68,101430,0,0,321,449,653,116,71261,67429,15414,0,320,1.3,0,0,0,0,0,0,0,0,0,0,0,0,0
2014,4,21,10,0,,16.1,9.2,64,101380,0,0,322,596,604,185,80070,60942,24911,0,290,0.5,0,0,0,0,0,0,0,0,0,0,0,0,0
2014,4,21,11,0,,17.5,10.8,65,101350,0,0,336,723,595,240,85676,59285,30651,0,340,1.3,1,0,0,0,0,0,0,0,0,0,0,0,0
2014,4,21,12,0,,17.6,11.1,66,101320,0,0,341,757,478,328,81817,46338,40310,0,360,3.1,2,0,0,0,0,0,0,0,0,0,0,0,0
2014,4,21,13,0,,17.1,10.2,64,101340,0,0,338,766,337,454,78073,32800,51500,0,340,3,2,0,0,0,0,0,0,0,0,0,0,0,0
2014,4,21,14,0,,17.3,11.3,68,101310,0,0,356,520,121,411,54409,11694,46489,0,320,3.6,7,0,0,0,0,0,0,0,0,0,0,0,0
2014,4,21,15,0,,18.5,9.2,55,101210,0,0,352,595,245,393,55505,22538,44100,0,340,2,5,0,0,0,0,0,0,0,0,0,0,0,0
2014,4,21,16,0,,17.1,9.5,61,101260,0,0,359,365,112,288,35028,10100,31915,0,270,3.8,8,0,0,0,0,0,0,0,0,0,0,0,0
2014,4,21,17,0,,16.5,10.1,66,101240,0,0,356,262,113,202,22642,8153,21849,0,270,2.9,8,0,0,0,0,0,0,0,0,0,0,0,0
2014,4,21,18,0,,15.4,10.7,74,101220,0,0,352,144,96,112,0,0,0,0,290,3.4,8,0,0,0,0,0,0,0,0,0,0,0,0
2014,4,21,19,0,,15.2,10.3,73,101210,0,0,350,47,11,36,0,0,0,0,250,3,8,0,0,0,0,0,0,0,0,0,0,0,0
2014,4,21,20,0,,15.3,9.8,70,101250,0,0,350,0,0,0,0,0,0,0,250,1.7,8,0,0,0,0,0,0,0,0,0,0,0,0
2014,4,21,21,0,,15.1,9.8,71,101350,0,0,349,0,0,0,0,0,0,0,250,3.2,8,0,0,0,0,0,0,0,0,0,0,0,0
2014,4,21,22,0,,14.7,10.5,76,101370,0,0,353,0,0,0,0,0,0,0,270,3.4,9,0,0,0,0,0,0,0,0,0,0,0,0
2014,4,21,23,0,,14.2,10.4,78,101350,0,0,356,0,0,0,0,0,0,0,270,2.9,9,0,0,0,0,0,0,0,0,0,0,0,0
2014,4,21,24,0,,14,10.5,80,101340,0,0,362,0,0,0,0,0,0,0,250,2.9,10,0,0,0,0,0,0,0,0,0,0,0,0
2014,4,22,1,0,,14.6,7.3,62,101320,0,0,361,0,0,0,0,0,0,0,250,1.8,10,0,0,0,0,0,0,0,0,0,0,0,0
2014,4,22,2,0,,14.7,6.2,57,101310,0,0,360,0,0,0,0,0,0,0,250,1.6,10,0,0,0,0,0,0,0,0,0,0,0,0
2014,4,22,3,0,,14.7,7.9,64,101290,0,0,362,0,0,0,0,0,0,0,290,1.2,10,0,0,0,0,0,0,0,0,0,0,0,0
2014,4,22,4,0,,14.4,8.5,68,101320,0,0,362,0,0,0,0,0,0,0,200,1,10,0,0,0,0,0,0,0,0,0,0,0,0
2014,4,22,5,0,,14.1,8.2,68,101370,0,0,360,0,0,0,0,0,0,0,230,0.9,10,0,0,0,0,0,0,0,0,0,0,0,0
2014,4,22,6,0,,14,8.1,68,101380,0,0,359,0,0,0,0,0,0,0,270,0.8,10,0,0,0,0,0,0,0,0,0,0,0,0
2014,4,22,7,0,,13.9,7.4,65,101370,0,0,358,23,2,21,2929,91,2880,0,0,0.4,10,0,0,0,0,0,0,0,0,0,0,0,0
2014,4,22,8,0,,14.5,6.5,59,101390,0,0,359,102,41,89,14115,4182,11164,0,250,0.8,10,0,0,0,0,0,0,0,0,0,0,0,0
2014,4,22,9,0,,15.1,8.3,64,101390,0,0,355,223,78,183,28639,7841,22124,0,360,1.5,9,0,0,0,0,0,0,0,0,0,0,0,0
2014,4,22,10,0,,15.9,7.8,59,101420,0,0,358,315,78,262,37982,7822,30884,0,320,1.2,9,0,0,0,0,0,0,0,0,0,0,0,0
2014,4,22,11,0,,16.2,6.5,53,101450,0,0,358,385,74,324,43888,7231,37161,0,290,2,9,0,0,0,0,0,0,0,0,0,0,0,0
2014,4,22,12,0,,17.5,7.2,51,101410,0,0,358,530,128,415,58638,12769,47175,0,340,2,8,0,0,0,0,0,0,0,0,0,0,0,0
2014,4,22,13,0,,17.9,7.6,51,101380,0,0,360,531,115,424,57163,11337,47956,0,340,3.3,8,0,0,0,0,0,0,0,0,0,0,0,0
2014,4,22,14,0,,17.7,7.1,50,101340,0,0,359,519,119,411,54213,11719,46254,0,290,2.7,8,0,0,0,0,0,0,0,0,0,0,0,0
2014,4,22,15,0,,16.9,10,64,101320,0,0,340,633,295,390,57638,27040,43900,0,290,3.7,3,0,0,0,0,0,0,0,0,0,0,0,0
2014,4,22,16,0,,17.4,7.7,53,101290,0,0,348,464,218,312,40662,20093,34424,0,290,3.7,6,0,0,0,0,0,0,0,0,0,0,0,0
2014,4,22,17,0,,17.9,7,49,101300,0,0,334,450,596,135,17129,24477,14685,0,270,3.4,1,0,0,0,0,0,0,0,0,0,0,0,0
2014,4,22,18,0,,17.7,3.5,39,101300,0,0,322,293,683,65,0,0,0,0,270,3.7,0,0,0,0,0,0,0,0,0,0,0,0,0
2014,4,22,19,0,,16.6,4.6,45,101300,0,0,319,95,67,29,0,0,0,0,250,3.2,0,0,0,0,0,0,0,0,0,0,0,0,0
2014,4,22,20,0,,15.2,6.7,57,101360,0,0,315,0,0,0,0,0,0,0,270,2.6,0,0,0,0,0,0,0,0,0,0,0,0,0
2014,4,22,21,0,,14.9,2.4,43,101450,0,0,309,0,0,0,0,0,0,0,230,2.2,0,0,0,0,0,0,0,0,0,0,0,0,0
2014,4,22,22,0,,14.5,2.6,45,101480,0,0,307,0,0,0,0,0,0,0,230,1.7,0,0,0,0,0,0,0,0,0,0,0,0,0
2014,4,22,23,0,,13.7,0.9,42,101510,0,0,302,0,0,0,0,0,0,0,200,0.7,0,0,0,0,0,0,0,0,0,0,0,0,0
2014,4,22,24,0,,13.3,1.2,44,101560,0,0,300,0,0,0,0,0,0,0,180,2,0,0,0,0,0,0,0,0,0,0,0,0,0
2014,4,23,1,0,,13.5,0.4,41,101570,0,0,300,0,0,0,0,0,0,0,180,1.4,0,0,0,0,0,0,0,0,0,0,0,0,0
2014,4,23,2,0,,12.8,0.5,43,101550,0,0,298,0,0,0,0,0,0,0,160,1.5,0,0,0,0,0,0,0,0,0,0,0,0,0
2014,4,23,3,0,,12,0.4,45,101560,0,0,294,0,0,0,0,0,0,0,160,1.7,0,0,0,0,0,0,0,0,0,0,0,0,0
2014,4,23,4,0,,11.8,0.8,47,101580,0,0,294,0,0,0,0,0,0,0,160,2.2,0,0,0,0,0,0,0,0,0,0,0,0,0
2014,4,23,5,0,,11.4,1.3,50,101630,0,0,292,0,0,0,0,0,0,0,160,1.6,0,0,0,0,0,0,0,0,0,0,0,0,0
2014,4,23,6,0,,11.2,1.9,53,101660,0,0,292,0,0,0,0,0,0,0,160,1.8,0,0,0,0,0,0,0,0,0,0,0,0,0
2014,4,23,7,0,,11.2,2.4,55,101720,0,0,293,80,51,29,7000,5147,4203,0,160,1.6,0,0,0,0,0,0,0,0,0,0,0,0,0
2014,4,23,8,0,,13.3,5.6,60,101740,0,0,305,261,577,76,53000,59522,10833,0,0,0.4,0,0,0,0,0,0,0,0,0,0,0,0,0
2014,4,23,9,0,,16.4,8.8,61,101700,0,0,322,474,717,103,75266,73685,13860,0,20,2.7,0,0,0,0,0,0,0,0,0,0,0,0,0
2014,4,23,10,0,,17.5,10.8,65,101790,0,0,330,649,732,146,87144,75399,18552,0,20,2.9,0,0,0,0,0,0,0,0,0,0,0,0,0
2014,4,23,11,0,,18.8,11.1,61,101780,0,0,336,755,658,216,89770,65875,28352,0,20,3.3,0,0,0,0,0,0,0,0,0,0,0,0,0
2014,4,23,12,0,,19.7,9.2,51,101740,0,0,338,804,572,287,85888,56450,35102,0,20,3.3,0,0,0,0,0,0,0,0,0,0,0,0,0
2014,4,23,13,0,,20.1,6.7,42,101660,0,0,348,840,584,295,82935,57605,36046,0,20,4,2,0,0,0,0,0,0,0,0,0,0,0,0
2014,4,23,14,0,,21,4,33,101610,0,0,345,836,637,260,74559,62777,31801,0,20,3.3,1,0,0,0,0,0,0,0,0,0,0,0,0
2014,4,23,15,0,,20.7,10.4,52,101550,0,0,351,718,550,263,58300,50714,32430,0,20,3.6,1,0,0,0,0,0,0,0,0,0,0,0,0
2014,4,23,16,0,,20.5,11.4,56,101550,0,0,344,589,540,212,38570,42551,25264,0,20,3.1,0,0,0,0,0,0,0,0,0,0,0,0,0
2014,4,23,17,0,,20.1,9.6,51,101470,0,0,347,433,533,150,18531,18721,16615,0,20,3,1,0,0,0,0,0,0,0,0,0,0,0,0
2014,4,23,18,0,,19,9.1,53,101540,0,0,341,264,525,88,0,0,0,0,320,2.7,1,0,0,0,0,0,0,0,0,0,0,0,0
2014,4,23,19,0,,18.5,6,44,101560,0,0,341,91,57,34,0,0,0,0,270,1.4,2,0,0,0,0,0,0,0,0,0,0,0,0
2014,4,23,20,0,,18,6.1,46,101620,0,0,343,0,0,0,0,0,0,0,270,1.6,4,0,0,0,0,0,0,0,0,0,0,0,0
2014,4,23,21,0,,17.1,8.2,56,101650,0,0,344,0,0,0,0,0,0,0,290,0.7,5,0,0,0,0,0,0,0,0,0,0,0,0
2014,4,23,22,0,,16.5,5.4,48,101720,0,0,338,0,0,0,0,0,0,0,180,1.4,5,0,0,0,0,0,0,0,0,0,0,0,0
2014,4,23,23,0,,15.7,4.4,47,101740,0,0,333,0,0,0,0,0,0,0,180,0.9,5,0,0,0,0,0,0,0,0,0,0,0,0
2014,4,23,24,0,,15.1,4.1,48,101780,0,0,330,0,0,0,0,0,0,0,0,0.4,5,0,0,0,0,0,0,0,0,0,0,0,0
2014,4,24,1,0,,14.6,3.6,48,101820,0,0,328,0,0,0,0,0,0,0,160,1.3,5,0,0,0,0,0,0,0,0,0,0,0,0
2014,4,24,2,0,,14.4,2.2,44,101770,0,0,326,0,0,0,0,0,0,0,160,1.4,6,0,0,0,0,0,0,0,0,0,0,0,0
2014,4,24,3,0,,14,-0.4,37,101740,0,0,323,0,0,0,0,0,0,0,160,1.7,6,0,0,0,0,0,0,0,0,0,0,0,0
2014,4,24,4,0,,14.4,1.6,42,101780,0,0,327,0,0,0,0,0,0,0,160,1.7,6,0,0,0,0,0,0,0,0,0,0,0,0
2014,4,24,5,0,,14.7,1.5,41,101790,0,0,328,0,0,0,0,0,0,0,140,2.3,6,0,0,0,0,0,0,0,0,0,0,0,0
2014,4,24,6,0,,14.5,1.7,42,101800,0,0,331,0,0,0,0,0,0,0,180,1,7,0,0,0,0,0,0,0,0,0,0,0,0
2014,4,24,7,0,,15.1,-0.2,35,101780,0,0,337,56,21,36,5826,2118,4668,0,160,1.4,8,0,0,0,0,0,0,0,0,0,0,0,0
2014,4,24,8,0,,16.7,0,32,101810,0,0,345,190,235,114,32926,23722,16055,0,110,1.7,8,0,0,0,0,0,0,0,0,0,0,0,0
2014,4,24,9,0,,18.4,0.4,30,101830,0,0,348,371,337,195,53696,34136,25164,0,70,2,7,0,0,0,0,0,0,0,0,0,0,0,0
2014,4,24,10,0,,21.5,1.1,26,101880,0,0,351,688,827,117,92016,84170,15259,0,110,4.1,3,0,0,0,0,0,0,0,0,0,0,0,0
2014,4,24,11,0,,22.8,2.8,27,101890,0,0,345,836,843,144,98644,85861,18421,0,110,4.2,0,0,0,0,0,0,0,0,0,0,0,0,0
2014,4,24,12,0,,23.3,-1.6,19,101880,0,0,341,925,836,169,97334,84846,20840,0,90,5.2,0,0,0,0,0,0,0,0,0,0,0,0,0
2014,4,24,13,0,,24.2,-0.2,20,101870,0,0,347,910,734,225,88475,73620,28414,0,90,4.4,0,0,0,0,0,0,0,0,0,0,0,0,0
2014,4,24,14,0,,24.5,0.7,21,101820,0,0,350,857,679,241,75858,67744,29589,0,90,3.6,0,0,0,0,0,0,0,0,0,0,0,0,0
2014,4,24,15,0,,22.2,1.3,49,101760,0,0,340,751,626,233,58946,60107,28163,0,50,6.2,0,0,0,0,0,0,0,0,0,0,0,0,0
2014,4,24,16,0,,23.1,1.9,25,101740,0,0,345,622,622,186,38763,52501,22230,0,50,3.9,0,0,0,0,0,0,0,0,0,0,0,0,0
2014,4,24,17,0,,23.1,3.5,28,101760,0,0,359,466,640,125,16758,28415,13780,0,110,5.2,2,0,0,0,0,0,0,0,0,0,0,0,0
2014,4,24,18,0,,22.3,4.3,31,101770,0,0,356,291,655,70,0,0,0,0,90,3.4,2,0,0,0,0,0,0,0,0,0,0,0,0
2014,4,24,19,0,,21.4,5.6,36,101860,0,0,353,97,66,31,0,0,0,0,180,2.1,2,0,0,0,0,0,0,0,0,0,0,0,0
2014,4,24,20,0,,19.9,5.1,38,101940,0,0,345,0,0,0,0,0,0,0,110,2,2,0,0,0,0,0,0,0,0,0,0,0,0
2014,4,24,21,0,,18.6,7,47,101970,0,0,341,0,0,0,0,0,0,0,180,1.5,2,0,0,0,0,0,0,0,0,0,0,0,0
2014,4,24,22,0,,17.3,6.1,48,102000,0,0,335,0,0,0,0,0,0,0,180,1.3,2,0,0,0,0,0,0,0,0,0,0,0,0
2014,4,24,23,0,,16.4,5,47,102030,0,0,331,0,0,0,0,0,0,0,200,1.1,3,0,0,0,0,0,0,0,0,0,0,0,0
2014,4,24,24,0,,15.7,4,46,102040,0,0,328,0,0,0,0,0,0,0,180,1.2,3,0,0,0,0,0,0,0,0,0,0,0,0
2014,4,25,1,0,,15.4,2.5,42,101990,0,0,324,0,0,0,0,0,0,0,180,1.8,3,0,0,0,0,0,0,0,0,0,0,0,0
2014,4,25,2,0,,14.8,2.3,43,101970,0,0,321,0,0,0,0,0,0,0,160,1.2,3,0,0,0,0,0,0,0,0,0,0,0,0
2014,4,25,3,0,,14.4,2.2,44,101990,0,0,319,0,0,0,0,0,0,0,180,2,3,0,0,0,0,0,0,0,0,0,0,0,0
2014,4,25,4,0,,14.4,3.2,47,102000,0,0,317,0,0,0,0,0,0,0,160,1.9,2,0,0,0,0,0,0,0,0,0,0,0,0
2014,4,25,5,0,,14.4,1.9,43,101980,0,0,316,0,0,0,0,0,0,0,160,2.7,2,0,0,0,0,0,0,0,0,0,0,0,0
2014,4,25,6,0,,14.4,0.9,40,102010,0,0,305,0,0,0,0,0,0,0,140,2.4,0,0,0,0,0,0,0,0,0,0,0,0,0
2014,4,25,7,0,,14.4,4.6,52,102090,0,0,309,89,61,28,8196,5979,4910,0,20,1.9,0,0,0,0,0,0,0,0,0,0,0,0,0
2014,4,25,8,0,,16.4,7.3,55,102140,0,0,321,278,636,70,56318,65023,9898,0,90,2.1,0,0,0,0,0,0,0,0,0,0,0,0,0
2014,4,25,9,0,,17.9,13.6,76,102170,0,0,335,445,597,133,69152,61658,17469,0,50,3.3,0,0,0,0,0,0,0,0,0,0,0,0,0
2014,4,25,10,0,,18.4,13.4,73,102170,0,0,337,610,611,187,81501,61220,25541,0,50,4.6,0,0,0,0,0,0,0,0,0,0,0,0,0
2014,4,25,11,0,,18.5,12.6,69,102200,0,0,336,709,536,268,83219,52919,33671,0,50,5.9,0,0,0,0,0,0,0,0,0,0,0,0,0
2014,4,25,12,0,,18.6,13.4,72,102130,0,0,344,763,471,336,82447,44964,41826,0,50,6.6,1,0,0,0,0,0,0,0,0,0,0,0,0
2014,4,25,13,0,,19.9,10.3,54,102030,0,0,347,839,574,302,82972,55708,37423,0,50,6,1,0,0,0,0,0,0,0,0,0,0,0,0
2014,4,25,14,0,,20.8,11.9,57,101940,0,0,353,813,575,290,73657,54621,36250,0,50,5.7,1,0,0,0,0,0,0,0,0,0,0,0,0
2014,4,25,15,0,,24.4,6.5,21,101970,0,0,357,831,807,161,61444,77097,21805,0,110,3.8,0,0,0,0,0,0,0,0,0,0,0,0,0
2014,4,25,16,0,,24.1,1,22,101890,0,0,360,683,780,135,38812,66099,17850,0,90,4.1,2,0,0,0,0,0,0,0,0,0,0,0,0
2014,4,25,17,0,,23.7,7.3,35,101930,0,0,367,490,712,109,16029,31603,12639,0,200,2.4,2,0,0,0,0,0,0,0,0,0,0,0,0
2014,4,25,18,0,,21.1,13.5,62,101950,0,0,361,245,414,105,0,0,0,0,340,1.4,2,0,0,0,0,0,0,0,0,0,0,0,0
2014,4,25,19,0,,19.6,10,54,102020,0,0,356,79,46,34,0,0,0,0,290,0.8,4,0,0,0,0,0,0,0,0,0,0,0,0
2014,4,25,20,0,,18.4,8.6,53,102050,0,0,354,0,0,0,0,0,0,0,20,1,6,0,0,0,0,0,0,0,0,0,0,0,0
2014,4,25,21,0,,17.9,-1.3,27,102050,0,0,349,0,0,0,0,0,0,0,90,1.5,8,0,0,0,0,0,0,0,0,0,0,0,0
2014,4,25,22,0,,18.4,-2,25,102030,0,0,350,0,0,0,0,0,0,0,140,2.1,8,0,0,0,0,0,0,0,0,0,0,0,0
2014,4,25,23,0,,18.5,-2.4,24,101920,0,0,350,0,0,0,0,0,0,0,90,3,8,0,0,0,0,0,0,0,0,0,0,0,0
2014,4,25,24,0,,17.5,3.7,40,101940,0,0,353,0,0,0,0,0,0,0,230,2.1,8,0,0,0,0,0,0,0,0,0,0,0,0
2014,4,26,1,0,,16.8,2.3,38,101900,0,0,346,0,0,0,0,0,0,0,140,1.4,8,0,0,0,0,0,0,0,0,0,0,0,0
2014,4,26,2,0,,16.4,1.6,37,101890,0,0,341,0,0,0,0,0,0,0,160,1.6,7,0,0,0,0,0,0,0,0,0,0,0,0
2014,4,26,3,0,,16,2,39,101880,0,0,338,0,0,0,0,0,0,0,160,2.2,7,0,0,0,0,0,0,0,0,0,0,0,0
2014,4,26,4,0,,16.1,2.8,41,101810,0,0,340,0,0,0,0,0,0,0,140,2.2,7,0,0,0,0,0,0,0,0,0,0,0,0
2014,4,26,5,0,,16.4,4.4,45,101900,0,0,343,0,0,0,0,0,0,0,160,2.1,7,0,0,0,0,0,0,0,0,0,0,0,0
2014,4,26,6,0,,16.6,7.5,55,101940,0,0,344,0,0,0,0,0,0,0,160,2.2,6,0,0,0,0,0,0,0,0,0,0,0,0
2014,4,26,7,0,,18.4,8,51,101970,0,0,354,78,38,39,7293,3783,5203,0,180,2.3,6,0,0,0,0,0,0,0,0,0,0,0,0
2014,4,26,8,0,,19.9,8.8,49,102030,0,0,366,222,326,114,40555,32942,16951,0,180,3,7,0,0,0,0,0,0,0,0,0,0,0,0
2014,4,26,9,0,,20.9,10.9,53,102020,0,0,388,286,145,210,38132,14192,26203,0,160,4,9,0,0,0,0,0,0,0,0,0,0,0,0
2014,4,26,10,0,,22.2,11.2,50,102030,0,0,387,443,191,310,54206,18576,37187,0,110,4.9,8,0,0,0,0,0,0,0,0,0,0,0,0
2014,4,26,11,0,,22.1,10.2,47,102010,0,0,405,358,59,309,40985,5598,35733,0,140,4.9,10,0,0,0,0,0,0,0,0,0,0,0,0
2014,4,26,12,0,,21.5,10.9,51,101810,0,0,402,368,46,326,41527,4391,37552,0,110,6.2,10,0,0,0,0,0,0,0,0,0,0,0,0
2014,4,26,13,0,,22.3,10.1,46,101880,0,0,406,353,37,318,39464,3567,36541,0,200,3.5,10,0,0,0,0,0,0,0,0,0,0,0,0
2014,4,26,14,0,,22.4,9.8,45,101840,0,0,406,333,35,302,36705,3327,34421,0,180,2.7,10,0,0,0,0,0,0,0,0,0,0,0,0
2014,4,26,15,0,,22,9.1,44,101850,0,0,403,328,45,290,35012,4285,32800,0,160,3.6,10,0,0,0,0,0,0,0,0,0,0,0,0
2014,4,26,16,0,,21.4,11.4,53,101800,0,0,403,246,36,221,24374,2931,23438,0,110,3.8,10,0,0,0,0,0,0,0,0,0,0,0,0
2014,4,26,17,0,,21.3,12.1,56,101800,0,0,392,220,65,185,20683,4595,20179,0,180,2.2,9,0,0,0,0,0,0,0,0,0,0,0,0
2014,4,26,18,0,,20.6,13,62,101840,0,0,389,128,62,107,0,0,0,0,200,1.9,9,0,0,0,0,0,0,0,0,0,0,0,0
2014,4,26,19,0,,20.3,12.2,60,101830,0,0,387,50,11,39,0,0,0,0,160,4.4,9,0,0,0,0,0,0,0,0,0,0,0,0
2014,4,26,20,0,,20,11.4,58,101890,0,0,384,0,0,0,0,0,0,0,200,2.8,9,0,0,0,0,0,0,0,0,0,0,0,0
2014,4,26,21,0,,19.9,11.6,59,101940,0,0,384,0,0,0,0,0,0,0,180,3.6,9,0,0,0,0,0,0,0,0,0,0,0,0
2014,4,26,22,0,,20.2,10.3,53,101900,0,0,387,0,0,0,0,0,0,0,160,4.7,9,0,0,0,0,0,0,0,0,0,0,0,0
2014,4,26,23,0,,20.4,10.2,52,101820,0,0,391,0,0,0,0,0,0,0,110,4.9,10,0,0,0,0,0,0,0,0,0,0,0,0
2014,4,26,24,0,,20,10.3,54,101830,0,0,393,0,0,0,0,0,0,0,180,3.9,10,0,0,0,0,0,0,0,0,0,0,0,0
2014,4,27,1,0,,20.1,9,49,101820,0,0,392,0,0,0,0,0,0,0,180,4.7,10,0,0,0,0,0,0,0,0,0,0,0,0
2014,4,27,2,0,,19.4,12.4,64,101770,0,0,393,0,0,0,0,0,0,0,180,3.6,10,0,0,0,0,0,0,0,0,0,0,0,0
2014,4,27,3,0,,18.9,11.9,64,101780,0,0,389,0,0,0,0,0,0,0,90,1.8,10,0,0,0,0,0,0,0,0,0,0,0,0
2014,4,27,4,0,,19,11.5,62,101700,0,0,389,0,0,0,0,0,0,0,140,4.3,10,0,0,0,0,0,0,0,0,0,0,0,0
2014,4,27,5,0,,18.9,12.6,67,101670,0,0,390,0,0,0,0,0,0,0,110,3.6,10,0,0,0,0,0,0,0,0,0,0,0,0
2014,4,27,6,0,,18.2,13.4,74,101590,0,0,388,0,0,0,0,0,0,0,110,4.3,10,0,0,0,0,0,0,0,0,0,0,0,0
2014,4,27,7,0,,18.9,11.4,62,101530,0,0,389,36,5,31,4072,434,3831,0,140,4.6,10,0,0,0,0,0,0,0,0,0,0,0,0
2014,4,27,8,0,,19.8,12,61,101520,0,0,394,118,53,100,16497,5213,12749,0,180,3.7,10,0,0,0,0,0,0,0,0,0,0,0,0
2014,4,27,9,0,,20.5,11.4,56,101490,0,0,398,201,53,173,25676,5245,21255,0,200,2.5,10,0,0,0,0,0,0,0,0,0,0,0,0
2014,4,27,10,0,,20.3,12,59,101440,0,0,397,251,39,224,29566,3673,26194,0,270,1.2,10,0,0,0,0,0,0,0,0,0,0,0,0
2014,4,27,11,0,,20.5,12.2,59,101440,0,0,399,276,29,253,31972,2690,29443,0,290,0.9,10,0,0,0,0,0,0,0,0,0,0,0,0
2014,4,27,12,0,,20,13.2,65,101480,0,0,397,285,23,265,32757,2137,30819,0,230,2.3,10,0,0,0,0,0,0,0,0,0,0,0,0
2014,4,27,13,0,,18.4,15,81,101460,0,0,391,236,12,224,27623,820,26949,0,290,1.9,10,0,0,0,0,0,0,0,0,0,0,0,0
2014,4,27,14,0,,17.4,15.2,87,101430,0,0,386,197,8,190,22861,535,22493,0,250,2.8,10,0,0,0,0,0,0,0,0,0,0,0,0
2014,4,27,15,0,,16.5,14.8,90,101340,0,0,381,192,10,184,21350,695,20990,0,340,4,10,0,0,0,0,0,0,0,0,0,0,0,0
2014,4,27,16,0,,16.1,14.7,92,101190,0,0,379,165,12,157,17375,730,17140,0,340,2.4,10,0,0,0,0,0,0,0,0,0,0,0,0
2014,4,27,17,0,,15.9,14.5,92,101140,0,0,377,141,19,131,13132,1010,13019,0,270,3.7,10,0,0,0,0,0,0,0,0,0,0,0,0
2014,4,27,18,0,,15.7,14.3,92,101050,0,0,376,85,19,79,0,0,0,0,360,4.2,10,0,0,0,0,0,0,0,0,0,0,0,0
2014,4,27,19,0,,15.8,14.3,91,101060,0,0,376,27,2,25,0,0,0,0,250,2.5,10,0,0,0,0,0,0,0,0,0,0,0,0
2014,4,27,20,0,,16.7,12.8,78,101040,0,0,379,0,0,0,0,0,0,0,140,4.6,10,0,0,0,0,0,0,0,0,0,0,0,0
2014,4,27,21,0,,17.7,13.4,76,101040,0,0,385,0,0,0,0,0,0,0,110,2.9,10,0,0,0,0,0,0,0,0,0,0,0,0
2014,4,27,22,0,,18.1,12.9,72,100910,0,0,387,0,0,0,0,0,0,0,110,4,10,0,0,0,0,0,0,0,0,0,0,0,0
2014,4,27,23,0,,19.1,12.5,66,100910,0,0,391,0,0,0,0,0,0,0,140,4.6,10,0,0,0,0,0,0,0,0,0,0,0,0
2014,4,27,24,0,,18.4,13.4,73,100910,0,0,389,0,0,0,0,0,0,0,180,4.3,10,0,0,0,0,0,0,0,0,0,0,0,0
2014,4,28,1,0,,17.7,13.6,77,100890,0,0,385,0,0,0,0,0,0,0,180,1.3,10,0,0,0,0,0,0,0,0,0,0,0,0
2014,4,28,2,0,,16.9,15.2,90,100890,0,0,383,0,0,0,0,0,0,0,180,2.5,10,0,0,0,0,0,0,0,0,0,0,0,0
2014,4,28,3,0,,16.6,15.1,91,100820,0,0,382,0,0,0,0,0,0,0,250,0.8,10,0,0,0,0,0,0,0,0,0,0,0,0
2014,4,28,4,0,,16.5,15.1,92,100760,0,0,381,0,0,0,0,0,0,0,360,2,10,0,0,0,0,0,0,0,0,0,0,0,0
2014,4,28,5,0,,16.3,15.1,93,100740,0,0,380,0,0,0,0,0,0,0,250,1.5,10,0,0,0,0,0,0,0,0,0,0,0,0
2014,4,28,6,0,,16.1,14.6,91,100770,0,0,378,0,0,0,0,0,0,0,250,3.1,10,0,0,0,0,0,0,0,0,0,0,0,0
2014,4,28,7,0,,15.8,13.9,89,100790,0,0,366,40,6,34,4466,534,4168,0,270,4.5,9,0,0,0,0,0,0,0,0,0,0,0,0
2014,4,28,8,0,,15.7,13.8,89,100830,0,0,365,124,59,104,17325,5653,13246,0,250,4.4,9,0,0,0,0,0,0,0,0,0,0,0,0
2014,4,28,9,0,,16.2,13.3,83,100830,0,0,367,210,59,179,26872,5712,22046,0,250,4.1,9,0,0,0,0,0,0,0,0,0,0,0,0
2014,4,28,10,0,,17.2,12.7,75,100790,0,0,363,374,116,293,45209,11202,34901,0,270,4.1,8,0,0,0,0,0,0,0,0,0,0,0,0
2014,4,28,11,0,,17.6,12,70,100750,0,0,372,406,81,339,46325,7709,39064,0,270,6.2,9,0,0,0,0,0,0,0,0,0,0,0,0
2014,4,28,12,0,,17.6,12,70,100690,0,0,372,433,70,368,48426,6719,42321,0,250,5.7,9,0,0,0,0,0,0,0,0,0,0,0,0
2014,4,28,13,0,,18.3,11.3,64,100630,0,0,367,535,113,429,57736,10914,48755,0,250,5.6,8,0,0,0,0,0,0,0,0,0,0,0,0
2014,4,28,14,0,,18.6,11.6,64,100550,0,0,369,503,105,407,53070,10128,46078,0,250,5.9,8,0,0,0,0,0,0,0,0,0,0,0,0
2014,4,28,15,0,,17.8,12.2,70,100510,0,0,373,365,60,315,38580,5615,35660,0,270,5.1,9,0,0,0,0,0,0,0,0,0,0,0,0
2014,4,28,16,0,,18.2,11.7,66,100470,0,0,375,293,57,253,29924,5075,28281,0,70,1.9,9,0,0,0,0,0,0,0,0,0,0,0,0
2014,4,28,17,0,,17.2,12.5,74,100480,0,0,381,152,23,140,13996,1382,13837,0,70,2.7,10,0,0,0,0,0,0,0,0,0,0,0,0
2014,4,28,18,0,,16.7,12.8,78,100500,0,0,379,89,21,82,0,0,0,0,50,2.2,10,0,0,0,0,0,0,0,0,0,0,0,0
2014,4,28,19,0,,16.2,13.6,85,100510,0,0,378,26,2,25,0,0,0,0,50,2.5,10,0,0,0,0,0,0,0,0,0,0,0,0
2014,4,28,20,0,,15.4,13.5,89,100570,0,0,373,0,0,0,0,0,0,0,50,4.1,10,0,0,0,0,0,0,0,0,0,0,0,0
2014,4,28,21,0,,15,13.3,90,100610,0,0,371,0,0,0,0,0,0,0,20,4.7,10,0,0,0,0,0,0,0,0,0,0,0,0
2014,4,28,22,0,,14.9,13.9,94,100640,0,0,371,0,0,0,0,0,0,0,270,2.6,10,0,0,0,0,0,0,0,0,0,0,0,0
2014,4,28,23,0,,14.4,13.4,94,100660,0,0,368,0,0,0,0,0,0,0,250,2.6,10,0,0,0,0,0,0,0,0,0,0,0,0
2014,4,28,24,0,,14.5,13.2,92,100660,0,0,368,0,0,0,0,0,0,0,250,2.4,10,0,0,0,0,0,0,0,0,0,0,0,0
2014,4,29,1,0,,14.6,13.1,91,100650,0,0,369,0,0,0,0,0,0,0,250,4.3,10,0,0,0,0,0,0,0,0,0,0,0,0
2014,4,29,2,0,,14.3,12.6,90,100650,0,0,367,0,0,0,0,0,0,0,270,4.4,10,0,0,0,0,0,0,0,0,0,0,0,0
2014,4,29,3,0,,14,12.5,91,100650,0,0,365,0,0,0,0,0,0,0,250,4.5,10,0,0,0,0,0,0,0,0,0,0,0,0
2014,4,29,4,0,,13.8,12.6,93,100630,0,0,364,0,0,0,0,0,0,0,270,4.2,10,0,0,0,0,0,0,0,0,0,0,0,0
2014,4,29,5,0,,13.8,12.8,94,100620,0,0,364,0,0,0,0,0,0,0,250,4.9,10,0,0,0,0,0,0,0,0,0,0,0,0
2014,4,29,6,0,,13.8,12.5,92,100600,0,0,364,0,0,0,0,0,0,0,270,5,10,0,0,0,0,0,0,0,0,0,0,0,0
2014,4,29,7,0,,13.9,12.4,91,100600,0,0,364,31,3,28,3805,130,3733,0,230,4,10,0,0,0,0,0,0,0,0,0,0,0,0
2014,4,29,8,0,,13.8,12.5,92,100610,0,0,364,95,27,86,12039,2481,10243,0,250,4.2,10,0,0,0,0,0,0,0,0,0,0,0,0
2014,4,29,9,0,,13.9,12.2,90,100650,0,0,364,154,24,141,18624,2268,16702,0,250,4,10,0,0,0,0,0,0,0,0,0,0,0,0
2014,4,29,10,0,,14.1,12.3,89,100690,0,0,365,205,22,190,24223,2036,22346,0,270,4.1,10,0,0,0,0,0,0,0,0,0,0,0,0
2014,4,29,11,0,,14.5,12.8,90,100700,0,0,368,255,22,236,29592,2095,27615,0,270,3.9,10,0,0,0,0,0,0,0,0,0,0,0,0
2014,4,29,12,0,,14.3,13,92,100690,0,0,367,276,21,257,31738,1920,29990,0,290,3.5,10,0,0,0,0,0,0,0,0,0,0,0,0
2014,4,29,13,0,,14.6,12.9,90,100660,0,0,368,294,22,274,33397,2078,31684,0,290,4.8,10,0,0,0,0,0,0,0,0,0,0,0,0
2014,4,29,14,0,,14.9,12.7,87,100650,0,0,370,296,25,273,32889,1940,31547,0,270,4.4,10,0,0,0,0,0,0,0,0,0,0,0,0
2014,4,29,15,0,,14.8,12.8,88,100620,0,0,369,273,27,251,29176,2176,28040,0,270,5.1,10,0,0,0,0,0,0,0,0,0,0,0,0
2014,4,29,16,0,,14.8,12.1,84,100620,0,0,368,230,29,210,23153,2281,22410,0,270,5.3,10,0,0,0,0,0,0,0,0,0,0,0,0
2014,4,29,17,0,,14.6,12,85,100610,0,0,367,154,23,141,14182,1436,14013,0,270,4.5,10,0,0,0,0,0,0,0,0,0,0,0,0
2014,4,29,18,0,,14.4,11.7,84,100620,0,0,366,101,30,90,0,0,0,0,270,4.9,10,0,0,0,0,0,0,0,0,0,0,0,0
2014,4,29,19,0,,13.8,11.6,87,100660,0,0,356,45,7,38,0,0,0,0,290,4.4,9,0,0,0,0,0,0,0,0,0,0,0,0
2014,4,29,20,0,,13.4,11,86,100680,0,0,347,0,0,0,0,0,0,0,290,4.6,9,0,0,0,0,0,0,0,0,0,0,0,0
2014,4,29,21,0,,13.8,11.4,86,100740,0,0,345,0,0,0,0,0,0,0,270,4.6,8,0,0,0,0,0,0,0,0,0,0,0,0
2014,4,29,22,0,,13.6,11.4,87,100810,0,0,352,0,0,0,0,0,0,0,270,4.4,9,0,0,0,0,0,0,0,0,0,0,0,0
2014,4,29,23,0,,13.7,11.7,88,100810,0,0,362,0,0,0,0,0,0,0,250,3.3,10,0,0,0,0,0,0,0,0,0,0,0,0
2014,4,29,24,0,,13.7,11.5,87,100820,0,0,352,0,0,0,0,0,0,0,270,3.5,9,0,0,0,0,0,0,0,0,0,0,0,0
2014,4,30,1,0,,13.9,11.4,85,100810,0,0,346,0,0,0,0,0,0,0,270,3.8,8,0,0,0,0,0,0,0,0,0,0,0,0
2014,4,30,2,0,,14,11.1,83,100750,0,0,343,0,0,0,0,0,0,0,250,3.3,8,0,0,0,0,0,0,0,0,0,0,0,0
2014,4,30,3,0,,14,11.3,84,100710,0,0,340,0,0,0,0,0,0,0,250,2.6,7,0,0,0,0,0,0,0,0,0,0,0,0
2014,4,30,4,0,,13.8,11.4,86,100730,0,0,340,0,0,0,0,0,0,0,250,3.6,7,0,0,0,0,0,0,0,0,0,0,0,0
2014,4,30,5,0,,13.9,11.5,86,100740,0,0,346,0,0,0,0,0,0,0,250,3.2,8,0,0,0,0,0,0,0,0,0,0,0,0
2014,4,30,6,0,,13.7,11.5,87,100770,0,0,345,0,0,0,0,0,0,0,250,3.9,8,0,0,0,0,0,0,0,0,0,0,0,0
2014,4,30,7,0,,14,11.5,85,100840,0,0,341,66,23,43,6982,2258,5709,0,270,4.3,7,0,0,0,0,0,0,0,0,0,0,0,0
2014,4,30,8,0,,14.2,10.9,81,100900,0,0,334,236,352,115,42968,35477,17199,0,270,4.3,5,0,0,0,0,0,0,0,0,0,0,0,0
2014,4,30,9,0,,15.4,11.1,76,100930,0,0,335,431,506,159,65627,51005,22311,0,270,4.3,3,0,0,0,0,0,0,0,0,0,0,0,0
2014,4,30,10,0,,15.8,11.3,75,100980,0,0,337,569,466,240,73632,46368,30790,0,270,5.1,3,0,0,0,0,0,0,0,0,0,0,0,0
2014,4,30,11,0,,16.2,11.7,75,100980,0,0,339,683,446,310,79558,43180,38739,0,290,5,3,0,0,0,0,0,0,0,0,0,0,0,0
2014,4,30,12,0,,16.3,11.2,72,100970,0,0,331,762,446,353,82159,43100,42852,0,250,5.1,1,0,0,0,0,0,0,0,0,0,0,0,0
2014,4,30,13,0,,16.3,11.4,73,100970,0,0,331,790,447,368,79692,42934,44220,0,270,5.9,1,0,0,0,0,0,0,0,0,0,0,0,0
2014,4,30,14,0,,16.6,11.3,71,100960,0,0,333,769,457,349,71403,43847,40981,0,270,5,1,0,0,0,0,0,0,0,0,0,0,0,0
2014,4,30,15,0,,16.9,11.5,71,100950,0,0,334,693,462,306,58354,42545,36066,0,270,5.3,1,0,0,0,0,0,0,0,0,0,0,0,0
2014,4,30,16,0,,17.2,10.7,66,100920,0,0,335,604,546,216,40082,44307,25550,0,270,4.7,1,0,0,0,0,0,0,0,0,0,0,0,0
2014,4,30,17,0,,16.7,9.6,63,100940,0,0,331,450,549,151,19674,22806,16949,0,270,4.6,1,0,0,0,0,0,0,0,0,0,0,0,0
2014,4,30,18,0,,16.2,10,67,100930,0,0,329,279,538,90,0,0,0,0,270,3.9,1,0,0,0,0,0,0,0,0,0,0,0,0
2014,4,30,19,0,,15.2,9.9,71,100980,0,0,326,102,62,40,0,0,0,0,270,4,1,0,0,0,0,0,0,0,0,0,0,0,0
2014,4,30,20,0,,14.6,9.6,72,101010,0,0,325,0,0,0,0,0,0,0,250,3.5,2,0,0,0,0,0,0,0,0,0,0,0,0
2014,4,30,21,0,,14.5,7.9,65,101080,0,0,323,0,0,0,0,0,0,0,250,2.8,2,0,0,0,0,0,0,0,0,0,0,0,0
2014,4,30,22,0,,14.5,6.5,59,101130,0,0,319,0,0,0,0,0,0,0,250,2.2,1,0,0,0,0,0,0,0,0,0,0,0,0
2014,4,30,23,0,,14.5,5.2,54,101150,0,0,314,0,0,0,0,0,0,0,230,2.4,1,0,0,0,0,0,0,0,0,0,0,0,0
2014,4,30,24,0,,14.2,3.9,50,101150,0,0,307,0,0,0,0,0,0,0,230,2.2,0,0,0,0,0,0,0,0,0,0,0,0,0
1999,5,1,1,0,,13.5,7,65,102260,0,0,323,0,0,0,0,0,0,0,160,2,4,0,0,0,0,0,0,0,0,0,0,0,0
1999,5,1,2,0,,13.3,5.7,62,102250,0,0,322,0,0,0,0,0,0,0,180,1.7,4,0,0,0,0,0,0,0,0,0,0,0,0
1999,5,1,3,0,,12.8,4.5,58,102240,0,0,320,0,0,0,0,0,0,0,160,2.5,5,0,0,0,0,0,0,0,0,0,0,0,0
1999,5,1,4,0,,12.9,3.4,54,102240,0,0,319,0,0,0,0,0,0,0,160,2.3,5,0,0,0,0,0,0,0,0,0,0,0,0
1999,5,1,5,0,,12.9,2.4,49,102240,0,0,318,0,0,0,0,0,0,0,160,1.8,5,0,0,0,0,0,0,0,0,0,0,0,0
1999,5,1,6,0,,12.8,1.3,45,102240,0,0,316,0,0,0,0,0,0,0,180,1.3,5,0,0,0,0,0,0,0,0,0,0,0,0
1999,5,1,7,0,,13.1,2.2,43,102280,0,0,314,105,71,34,9654,7037,5676,0,180,1.5,3,0,0,0,0,0,0,0,0,0,0,0,0
1999,5,1,8,0,,15.6,3.2,42,102330,0,0,322,301,666,70,59206,67762,9886,0,20,1.3,2,0,0,0,0,0,0,0,0,0,0,0,0
1999,5,1,9,0,,18.1,4.1,40,102370,0,0,325,514,772,97,79961,78813,12925,0,20,1.3,0,0,0,0,0,0,0,0,0,0,0,0,0
1999,5,1,10,0,,19.7,7.7,49,102380,0,0,339,677,749,147,89623,77000,18389,0,360,2,0,0,0,0,0,0,0,0,0,0,0,0,0
1999,5,1,11,0,,21.3,11.4,59,102390,0,0,353,794,705,204,93956,70754,26995,0,20,4.3,1,0,0,0,0,0,0,0,0,0,0,0,0
1999,5,1,12,0,,21.1,15,68,102400,0,0,358,802,531,314,85830,50142,40050,0,20,4.2,1,0,0,0,0,0,0,0,0,0,0,0,0
1999,5,1,13,0,,21.3,15.1,68,102370,0,0,359,808,481,353,81143,45054,43874,0,50,4.3,1,0,0,0,0,0,0,0,0,0,0,0,0
1999,5,1,14,0,,20.9,15.2,69,102340,0,0,357,740,310,455,72058,28396,52326,0,50,2.7,1,0,0,0,0,0,0,0,0,0,0,0,0
1999,5,1,15,0,,21.1,15.3,69,102310,0,0,359,671,328,395,60569,28868,45412,0,20,2.3,1,0,0,0,0,0,0,0,0,0,0,0,0
1999,5,1,16,0,,20.3,15.2,69,102280,0,0,362,538,316,313,43660,24373,35635,0,50,3,3,0,0,0,0,0,0,0,0,0,0,0,0
1999,5,1,17,0,,20,15.2,70,102260,0,0,365,381,302,216,25186,11895,23747,0,20,2,4,0,0,0,0,0,0,0,0,0,0,0,0
1999,5,1,18,0,,20.7,15.1,70,102230,0,0,374,211,238,127,0,0,0,0,360,1.3,6,0,0,0,0,0,0,0,0,0,0,0,0
1999,5,1,19,0,,19.8,14.1,69,102270,0,0,368,82,39,43,0,0,0,0,360,1.5,6,0,0,0,0,0,0,0,0,0,0,0,0
1999,5,1,20,0,,19.1,13,68,102300,0,0,363,0,0,0,0,0,0,0,290,0.8,6,0,0,0,0,0,0,0,0,0,0,0,0
1999,5,1,21,0,,18.4,12,67,102340,0,0,358,0,0,0,0,0,0,0,200,2,6,0,0,0,0,0,0,0,0,0,0,0,0
1999,5,1,22,0,,18,11.7,67,102350,0,0,350,0,0,0,0,0,0,0,180,2,4,0,0,0,0,0,0,0,0,0,0,0,0
1999,5,1,23,0,,17.1,11.3,68,102370,0,0,339,0,0,0,0,0,0,0,180,1.8,2,0,0,0,0,0,0,0,0,0,0,0,0
1999,5,1,24,0,,16.8,11,68,102380,0,0,327,0,0,0,0,0,0,0,180,1.3,0,0,0,0,0,0,0,0,0,0,0,0,0
1999,5,2,1,0,,16.5,10.8,69,102330,0,0,336,0,0,0,0,0,0,0,160,1.3,2,0,0,0,0,0,0,0,0,0,0,0,0
1999,5,2,2,0,,16,10.7,71,102280,0,0,339,0,0,0,0,0,0,0,180,2.7,4,0,0,0,0,0,0,0,0,0,0,0,0
1999,5,2,3,0,,15.6,10.5,72,102230,0,0,343,0,0,0,0,0,0,0,160,1.7,6,0,0,0,0,0,0,0,0,0,0,0,0
1999,5,2,4,0,,15.4,10.3,72,102230,0,0,342,0,0,0,0,0,0,0,160,1.8,6,0,0,0,0,0,0,0,0,0,0,0,0
1999,5,2,5,0,,15.5,10.2,71,102230,0,0,342,0,0,0,0,0,0,0,160,1,6,0,0,0,0,0,0,0,0,0,0,0,0
1999,5,2,6,0,,15.2,10,71,102230,0,0,340,0,0,0,0,0,0,0,180,2,6,0,0,0,0,0,0,0,0,0,0,0,0
1999,5,2,7,0,,15.2,10,65,102200,0,0,340,78,35,43,7641,3420,5699,0,180,1.2,6,0,0,0,0,0,0,0,0,0,0,0,0
1999,5,2,8,0,,17.1,9.9,60,102180,0,0,349,233,348,112,42411,35201,16712,0,50,2.2,6,0,0,0,0,0,0,0,0,0,0,0,0
1999,5,2,9,0,,19.6,9.9,54,102150,0,0,362,411,424,181,60823,42547,24550,0,90,3.8,6,0,0,0,0,0,0,0,0,0,0,0,0
1999,5,2,10,0,,22.3,9.4,48,102090,0,0,369,665,712,160,87548,72987,19899,0,90,4.7,4,0,0,0,0,0,0,0,0,0,0,0,0
1999,5,2,11,0,,23.6,9,41,102040,0,0,368,834,792,169,97658,81055,20816,0,140,5.7,2,0,0,0,0,0,0,0,0,0,0,0,0
1999,5,2,12,0,,25.2,8.5,35,101980,0,0,364,919,783,198,96721,79367,24135,0,90,5,0,0,0,0,0,0,0,0,0,0,0,0,0
1999,5,2,13,0,,25.4,9.7,38,101940,0,0,374,906,689,252,88049,67874,31796,0,140,5.3,1,0,0,0,0,0,0,0,0,0,0,0,0
1999,5,2,14,0,,26.5,11,40,101910,0,0,386,848,625,272,75800,59646,34253,0,360,3.2,2,0,0,0,0,0,0,0,0,0,0,0,0
1999,5,2,15,0,,25.5,12.2,43,101870,0,0,386,697,462,307,58664,42122,36469,0,290,2.3,3,0,0,0,0,0,0,0,0,0,0,0,0
1999,5,2,16,0,,24.9,12.1,45,101850,0,0,389,513,268,321,43148,21271,36099,0,360,1.3,5,0,0,0,0,0,0,0,0,0,0,0,0
1999,5,2,17,0,,22.6,12,48,101820,0,0,384,305,152,222,25548,11363,24146,0,160,4.8,7,0,0,0,0,0,0,0,0,0,0,0,0
1999,5,2,18,0,,22.7,11.9,50,101800,0,0,399,144,77,117,0,0,0,0,180,4.5,9,0,0,0,0,0,0,0,0,0,0,0,0
1999,5,2,19,0,,21.6,13,57,101740,0,0,386,62,16,46,0,0,0,0,180,3.7,8,0,0,0,0,0,0,0,0,0,0,0,0
1999,5,2,20,0,,21.3,14,64,101680,0,0,380,3,0,3,0,0,0,0,180,4.5,7,0,0,0,0,0,0,0,0,0,0,0,0
1999,5,2,21,0,,20.6,15.1,71,101620,0,0,373,0,0,0,0,0,0,0,160,6.2,6,0,0,0,0,0,0,0,0,0,0,0,0
1999,5,2,22,0,,21.4,14.8,69,101640,0,0,378,0,0,0,0,0,0,0,20,3.2,6,0,0,0,0,0,0,0,0,0,0,0,0
1999,5,2,23,0,,21.1,14.5,68,101650,0,0,378,0,0,0,0,0,0,0,250,1.2,7,0,0,0,0,0,0,0,0,0,0,0,0
1999,5,2,24,0,,20.9,14.2,66,101670,0,0,378,0,0,0,0,0,0,0,90,1.7,7,0,0,0,0,0,0,0,0,0,0,0,0
1999,5,3,1,0,,20.1,14.4,69,101600,0,0,370,0,0,0,0,0,0,0,20,5,6,0,0,0,0,0,0,0,0,0,0,0,0
1999,5,3,2,0,,19.9,14.7,71,101530,0,0,366,0,0,0,0,0,0,0,360,1.7,5,0,0,0,0,0,0,0,0,0,0,0,0
1999,5,3,3,0,,19.8,14.9,74,101460,0,0,363,0,0,0,0,0,0,0,50,1.2,4,0,0,0,0,0,0,0,0,0,0,0,0
1999,5,3,4,0,,19.1,14.6,72,101420,0,0,365,0,0,0,0,0,0,0,180,0.7,6,0,0,0,0,0,0,0,0,0,0,0,0
1999,5,3,5,0,,19.4,14.3,70,101370,0,0,376,0,0,0,0,0,0,0,0,0,8,0,0,0,0,0,0,0,0,0,0,0,0
1999,5,3,6,0,,20,14,68,101330,0,0,398,0,0,0,0,0,0,0,70,2.3,10,0,0,0,0,0,0,0,0,0,0,0,0
1999,5,3,7,0,,20,14.4,69,101310,0,0,395,39,4,35,4454,392,4230,0,230,1.7,10,0,0,0,0,0,0,0,0,0,0,0,0
1999,5,3,8,0,,20.4,14.7,69,101280,0,0,394,144,78,116,20209,7463,14745,0,290,1.2,9,0,0,0,0,0,0,0,0,0,0,0,0
1999,5,3,9,0,,20.8,15.1,70,101260,0,0,393,220,62,186,28127,5905,23081,0,20,1.5,9,0,0,0,0,0,0,0,0,0,0,0,0
1999,5,3,10,0,,21.3,15.2,70,101190,0,0,399,307,64,262,36086,5870,30635,0,20,2,9,0,0,0,0,0,0,0,0,0,0,0,0
1999,5,3,11,0,,21.3,15.4,71,101130,0,0,403,270,25,248,31310,2332,29096,0,20,1.5,10,0,0,0,0,0,0,0,0,0,0,0,0
1999,5,3,12,0,,20.9,15.5,71,101060,0,0,405,301,25,278,34580,2348,32429,0,20,2.3,10,0,0,0,0,0,0,0,0,0,0,0,0
1999,5,3,13,0,,20.1,16,78,100990,0,0,401,301,23,280,34280,2122,32518,0,20,6.3,10,0,0,0,0,0,0,0,0,0,0,0,0
1999,5,3,14,0,,18.7,16.5,86,100910,0,0,395,238,13,226,27096,931,26447,0,50,4.3,10,0,0,0,0,0,0,0,0,0,0,0,0
1999,5,3,15,0,,18.1,17,93,100840,0,0,392,202,11,193,22323,769,21917,0,50,4,10,0,0,0,0,0,0,0,0,0,0,0,0
1999,5,3,16,0,,17.7,16.9,94,100770,0,0,390,167,12,159,17605,711,17368,0,20,3.7,10,0,0,0,0,0,0,0,0,0,0,0,0
1999,5,3,17,0,,17.6,16.9,94,100690,0,0,389,132,14,124,12573,668,12489,0,20,2.7,10,0,0,0,0,0,0,0,0,0,0,0,0
1999,5,3,18,0,,17.5,16.8,95,100620,0,0,389,78,14,74,0,0,0,0,50,0.5,10,0,0,0,0,0,0,0,0,0,0,0,0
1999,5,3,19,0,,17.5,16.8,95,100570,0,0,389,31,2,29,0,0,0,0,20,1.3,10,0,0,0,0,0,0,0,0,0,0,0,0
1999,5,3,20,0,,17.5,16.8,95,100520,0,0,389,0,0,0,0,0,0,0,50,1,10,0,0,0,0,0,0,0,0,0,0,0,0
1999,5,3,21,0,,17.5,16.8,95,100470,0,0,389,0,0,0,0,0,0,0,20,2,10,0,0,0,0,0,0,0,0,0,0,0,0
1999,5,3,22,0,,17.5,16.5,95,100440,0,0,388,0,0,0,0,0,0,0,50,1.3,10,0,0,0,0,0,0,0,0,0,0,0,0
1999,5,3,23,0,,17.6,16.2,94,100410,0,0,388,0,0,0,0,0,0,0,270,0.5,10,0,0,0,0,0,0,0,0,0,0,0,0
1999,5,3,24,0,,17.7,15.9,94,100380,0,0,388,0,0,0,0,0,0,0,270,2.8,10,0,0,0,0,0,0,0,0,0,0,0,0
1999,5,4,1,0,,17.2,15.6,94,100310,0,0,385,0,0,0,0,0,0,0,270,2.7,10,0,0,0,0,0,0,0,0,0,0,0,0
1999,5,4,2,0,,16.6,15.2,93,100250,0,0,382,0,0,0,0,0,0,0,270,3.8,10,0,0,0,0,0,0,0,0,0,0,0,0
1999,5,4,3,0,,16,14.9,93,100180,0,0,378,0,0,0,0,0,0,0,270,2.3,10,0,0,0,0,0,0,0,0,0,0,0,0
1999,5,4,4,0,,15.8,14.5,93,100220,0,0,377,0,0,0,0,0,0,0,270,4,10,0,0,0,0,0,0,0,0,0,0,0,0
1999,5,4,5,0,,15.2,14,94,100260,0,0,373,0,0,0,0,0,0,0,290,4.7,10,0,0,0,0,0,0,0,0,0,0,0,0
1999,5,4,6,0,,14.6,13.6,94,100300,0,0,369,0,0,0,0,0,0,0,320,4,10,0,0,0,0,0,0,0,0,0,0,0,0
1999,5,4,7,0,,14.6,13.4,93,100310,0,0,369,30,2,28,3711,87,3661,0,340,3.2,10,0,0,0,0,0,0,0,0,0,0,0,0
1999,5,4,8,0,,14.7,13.3,91,100330,0,0,369,93,22,85,11661,2041,10162,0,20,4.7,10,0,0,0,0,0,0,0,0,0,0,0,0
1999,5,4,9,0,,14.8,13.1,90,100340,0,0,370,167,28,152,20212,2630,17960,0,20,4.7,10,0,0,0,0,0,0,0,0,0,0,0,0
1999,5,4,10,0,,15.4,13.2,86,100360,0,0,363,314,67,266,37957,6437,31969,0,360,6.3,9,0,0,0,0,0,0,0,0,0,0,0,0
1999,5,4,11,0,,17.1,13.4,83,100380,0,0,364,462,110,369,53332,10519,43326,0,360,4.2,8,0,0,0,0,0,0,0,0,0,0,0,0
1999,5,4,12,0,,17.2,13.5,79,100400,0,0,358,561,137,435,62332,13069,50340,0,320,3.5,7,0,0,0,0,0,0,0,0,0,0,0,0
1999,5,4,13,0,,16.6,13.5,79,100400,0,0,354,564,126,445,61144,11913,51234,0,320,4.2,7,0,0,0,0,0,0,0,0,0,0,0,0
1999,5,4,14,0,,15.9,13.5,79,100400,0,0,349,556,133,433,57989,12745,49069,0,290,3.7,6,0,0,0,0,0,0,0,0,0,0,0,0
1999,5,4,15,0,,17.2,13.5,79,100400,0,0,354,528,157,395,52389,14936,44463,0,290,3.2,6,0,0,0,0,0,0,0,0,0,0,0,0
1999,5,4,16,0,,17.5,13,79,100420,0,0,352,503,247,325,43195,19659,36597,0,270,2.8,5,0,0,0,0,0,0,0,0,0,0,0,0
1999,5,4,17,0,,16.1,12.4,79,100440,0,0,342,402,345,211,24989,15308,23027,0,290,4.3,4,0,0,0,0,0,0,0,0,0,0,0,0
1999,5,4,18,0,,15.4,11.9,79,100460,0,0,336,253,377,118,0,0,0,0,270,2.5,3,0,0,0,0,0,0,0,0,0,0,0,0
1999,5,4,19,0,,14.6,11.5,80,100530,0,0,330,99,325,50,0,0,0,0,270,4.7,3,0,0,0,0,0,0,0,0,0,0,0,0
1999,5,4,20,0,,14,11.1,81,100590,0,0,326,9,2,7,0,0,0,0,270,3.5,2,0,0,0,0,0,0,0,0,0,0,0,0
1999,5,4,21,0,,13.7,10.7,82,100660,0,0,323,0,0,0,0,0,0,0,250,3.3,2,0,0,0,0,0,0,0,0,0,0,0,0
1999,5,4,22,0,,13.8,9.8,77,100680,0,0,320,0,0,0,0,0,0,0,270,2.2,1,0,0,0,0,0,0,0,0,0,0,0,0
1999,5,4,23,0,,13.9,9,73,100690,0,0,316,0,0,0,0,0,0,0,250,2.8,1,0,0,0,0,0,0,0,0,0,0,0,0
1999,5,4,24,0,,13.9,8.1,68,100710,0,0,311,0,0,0,0,0,0,0,270,1.3,0,0,0,0,0,0,0,0,0,0,0,0,0
1999,5,5,1,0,,13.5,7.4,66,100680,0,0,308,0,0,0,0,0,0,0,250,1.5,0,0,0,0,0,0,0,0,0,0,0,0,0
1999,5,5,2,0,,13.6,6.8,63,100640,0,0,308,0,0,0,0,0,0,0,230,2,0,0,0,0,0,0,0,0,0,0,0,0,0
1999,5,5,3,0,,13.1,6.1,61,100610,0,0,305,0,0,0,0,0,0,0,200,2.2,0,0,0,0,0,0,0,0,0,0,0,0,0
1999,5,5,4,0,,15.1,4.3,53,100620,0,0,318,0,0,0,0,0,0,0,230,2.3,1,0,0,0,0,0,0,0,0,0,0,0,0
1999,5,5,5,0,,15.3,2.4,44,100630,0,0,321,0,0,0,0,0,0,0,230,2.5,2,0,0,0,0,0,0,0,0,0,0,0,0
1999,5,5,6,0,,15.6,0.6,36,100640,0,0,323,11,5,7,1122,449,949,0,250,3,3,0,0,0,0,0,0,0,0,0,0,0,0
1999,5,5,7,0,,17.7,1.2,34,100670,0,0,330,132,106,26,11082,10849,4844,0,250,3.5,2,0,0,0,0,0,0,0,0,0,0,0,0
1999,5,5,8,0,,19.1,1.7,33,100710,0,0,333,333,770,58,65923,78352,8226,0,250,3.7,1,0,0,0,0,0,0,0,0,0,0,0,0
1999,5,5,9,0,,19.9,2.3,31,100740,0,0,331,534,804,91,82588,81982,12241,0,290,4.3,0,0,0,0,0,0,0,0,0,0,0,0,0
1999,5,5,10,0,,20.2,5.9,44,100720,0,0,347,646,644,185,85380,65300,24531,0,290,3.7,2,0,0,0,0,0,0,0,0,0,0,0,0
1999,5,5,11,0,,19.5,9.4,57,100710,0,0,353,695,452,313,80494,44215,38374,0,290,3.5,3,0,0,0,0,0,0,0,0,0,0,0,0
1999,5,5,12,0,,18.6,13,70,100690,0,0,357,628,186,456,68773,17750,52460,0,320,4,5,0,0,0,0,0,0,0,0,0,0,0,0
1999,5,5,13,0,,19.2,13,70,100680,0,0,360,673,204,478,70798,19303,54710,0,290,4,5,0,0,0,0,0,0,0,0,0,0,0,0
1999,5,5,14,0,,19.6,13.1,70,100670,0,0,361,702,256,465,69687,23927,52901,0,320,4.2,4,0,0,0,0,0,0,0,0,0,0,0,0
1999,5,5,15,0,,18.7,13.1,70,100660,0,0,355,645,280,408,59742,25224,46311,0,290,3.8,4,0,0,0,0,0,0,0,0,0,0,0,0
1999,5,5,16,0,,19,10.2,61,100680,0,0,350,572,439,256,41827,35947,29687,0,290,4.3,3,0,0,0,0,0,0,0,0,0,0,0,0
1999,5,5,17,0,,18.6,7.4,51,100710,0,0,339,462,559,152,20341,26013,16945,0,290,4,1,0,0,0,0,0,0,0,0,0,0,0,0
1999,5,5,18,0,,17.5,4.5,42,100730,0,0,323,305,619,81,0,0,0,0,290,4.3,0,0,0,0,0,0,0,0,0,0,0,0,0
1999,5,5,19,0,,16,5.6,50,100780,0,0,323,118,515,38,0,0,0,0,290,4.7,1,0,0,0,0,0,0,0,0,0,0,0,0
1999,5,5,20,0,,14.3,6.6,59,100830,0,0,321,10,3,7,0,0,0,0,290,4,2,0,0,0,0,0,0,0,0,0,0,0,0
1999,5,5,21,0,,13.8,7.7,67,100880,0,0,323,0,0,0,0,0,0,0,270,2.7,3,0,0,0,0,0,0,0,0,0,0,0,0
1999,5,5,22,0,,13.2,7.3,67,100900,0,0,321,0,0,0,0,0,0,0,270,2.7,3,0,0,0,0,0,0,0,0,0,0,0,0
1999,5,5,23,0,,13,6.9,66,100910,0,0,320,0,0,0,0,0,0,0,250,3.3,4,0,0,0,0,0,0,0,0,0,0,0,0
1999,5,5,24,0,,12.6,6.5,66,100930,0,0,319,0,0,0,0,0,0,0,250,3.3,4,0,0,0,0,0,0,0,0,0,0,0,0
1999,5,6,1,0,,12.5,5.1,61,100930,0,0,316,0,0,0,0,0,0,0,270,2.3,4,0,0,0,0,0,0,0,0,0,0,0,0
1999,5,6,2,0,,12.2,3.7,56,100930,0,0,312,0,0,0,0,0,0,0,250,2.3,3,0,0,0,0,0,0,0,0,0,0,0,0
1999,5,6,3,0,,12,2.3,51,100930,0,0,309,0,0,0,0,0,0,0,250,2.5,3,0,0,0,0,0,0,0,0,0,0,0,0
1999,5,6,4,0,,11.8,1.8,48,100950,0,0,304,0,0,0,0,0,0,0,250,2,2,0,0,0,0,0,0,0,0,0,0,0,0
1999,5,6,5,0,,12.1,1.4,46,100960,0,0,301,0,0,0,0,0,0,0,250,2.3,1,0,0,0,0,0,0,0,0,0,0,0,0
1999,5,6,6,0,,12.8,0.9,43,100980,0,0,298,12,5,7,1185,469,1003,0,250,2,0,0,0,0,0,0,0,0,0,0,0,0,0
1999,5,6,7,0,,13.1,2.5,45,101020,0,0,301,126,624,31,41012,62779,4773,0,250,2,0,0,0,0,0,0,0,0,0,0,0,0,0
1999,5,6,8,0,,14.9,4,48,101070,0,0,311,316,678,72,61054,69048,10074,0,270,2.3,0,0,0,0,0,0,0,0,0,0,0,0,0
1999,5,6,9,0,,16,5.6,50,101110,0,0,317,500,689,119,76557,70943,15560,0,270,3,0,0,0,0,0,0,0,0,0,0,0,0,0
1999,5,6,10,0,,16.6,5.3,47,101100,0,0,319,650,648,184,85813,65793,24403,0,270,2.2,0,0,0,0,0,0,0,0,0,0,0,0,0
1999,5,6,11,0,,17.7,4.9,44,101100,0,0,324,769,624,241,89904,62722,30063,0,290,3,0,0,0,0,0,0,0,0,0,0,0,0,0
1999,5,6,12,0,,18.1,4.6,41,101090,0,0,326,852,623,275,90346,61988,33289,0,320,4.2,0,0,0,0,0,0,0,0,0,0,0,0,0
1999,5,6,13,0,,18.7,2.7,35,101040,0,0,326,890,642,278,86418,63465,33433,0,290,4,0,0,0,0,0,0,0,0,0,0,0,0,0
1999,5,6,14,0,,19.9,0.7,29,100980,0,0,329,866,649,263,77268,64852,31668,0,290,3.3,0,0,0,0,0,0,0,0,0,0,0,0,0
1999,5,6,15,0,,20.4,-1.2,23,100930,0,0,329,808,708,207,62301,69071,25398,0,290,4,0,0,0,0,0,0,0,0,0,0,0,0,0
1999,5,6,16,0,,20.2,0.9,28,100910,0,0,331,664,679,174,41269,59221,21147,0,320,4.2,0,0,0,0,0,0,0,0,0,0,0,0,0
1999,5,6,17,0,,20.8,3,33,100880,0,0,336,499,675,124,18893,36035,14104,0,320,4.3,0,0,0,0,0,0,0,0,0,0,0,0,0
1999,5,6,18,0,,19.8,5.1,38,100860,0,0,334,309,631,80,0,0,0,0,290,3.2,0,0,0,0,0,0,0,0,0,0,0,0,0
1999,5,6,19,0,,18.6,6.1,45,100890,0,0,330,121,535,38,0,0,0,0,290,2.5,0,0,0,0,0,0,0,0,0,0,0,0,0
1999,5,6,20,0,,17.6,7.2,52,100930,0,0,326,12,4,8,0,0,0,0,290,2.7,0,0,0,0,0,0,0,0,0,0,0,0,0
1999,5,6,21,0,,16.2,8.2,59,100960,0,0,321,0,0,0,0,0,0,0,250,1.7,0,0,0,0,0,0,0,0,0,0,0,0,0
1999,5,6,22,0,,15.7,8.5,63,100960,0,0,319,0,0,0,0,0,0,0,270,3.3,0,0,0,0,0,0,0,0,0,0,0,0,0
1999,5,6,23,0,,15.1,8.9,66,100970,0,0,317,0,0,0,0,0,0,0,250,2.7,0,0,0,0,0,0,0,0,0,0,0,0,0
1999,5,6,24,0,,14.8,9.2,70,100970,0,0,316,0,0,0,0,0,0,0,250,2.7,0,0,0,0,0,0,0,0,0,0,0,0,0
1999,5,7,1,0,,15.1,6.6,59,100950,0,0,314,0,0,0,0,0,0,0,270,3.3,0,0,0,0,0,0,0,0,0,0,0,0,0
1999,5,7,2,0,,15.4,3.9,47,100930,0,0,313,0,0,0,0,0,0,0,270,3.5,0,0,0,0,0,0,0,0,0,0,0,0,0
1999,5,7,3,0,,16.2,1.3,36,100910,0,0,313,0,0,0,0,0,0,0,250,3.5,0,0,0,0,0,0,0,0,0,0,0,0,0
1999,5,7,4,0,,16.4,1.2,35,100930,0,0,314,0,0,0,0,0,0,0,250,2.3,0,0,0,0,0,0,0,0,0,0,0,0,0
1999,5,7,5,0,,16.5,1.2,35,100950,0,0,314,0,0,0,0,0,0,0,250,3.7,0,0,0,0,0,0,0,0,0,0,0,0,0
1999,5,7,6,0,,17,1.1,34,100970,0,0,316,14,7,7,1240,708,964,0,250,2.7,0,0,0,0,0,0,0,0,0,0,0,0,0
1999,5,7,7,0,,17.5,2.4,34,101000,0,0,320,132,658,30,42953,66270,4555,0,270,3.3,0,0,0,0,0,0,0,0,0,0,0,0,0
1999,5,7,8,0,,19,3.8,35,101030,0,0,329,331,740,63,64801,75498,8916,0,270,4.5,0,0,0,0,0,0,0,0,0,0,0,0,0
1999,5,7,9,0,,20.6,5.1,35,101060,0,0,338,528,770,100,81259,78825,13355,0,270,5,0,0,0,0,0,0,0,0,0,0,0,0,0
1999,5,7,10,0,,21.8,5.9,36,101040,0,0,344,690,748,151,90446,76687,18754,0,290,4.7,0,0,0,0,0,0,0,0,0,0,0,0,0
1999,5,7,11,0,,22.2,6.7,38,101020,0,0,347,810,714,204,95499,72109,26603,0,290,4.8,0,0,0,0,0,0,0,0,0,0,0,0,0
1999,5,7,12,0,,22.2,7.5,39,101000,0,0,348,856,627,274,90815,62181,33495,0,290,5,0,0,0,0,0,0,0,0,0,0,0,0,0
1999,5,7,13,0,,22.1,7.3,38,100970,0,0,356,857,566,315,84616,55639,38084,0,290,4.7,1,0,0,0,0,0,0,0,0,0,0,0,0
1999,5,7,14,0,,22.3,7.2,37,100940,0,0,362,787,474,347,72770,46733,39836,0,290,4.2,3,0,0,0,0,0,0,0,0,0,0,0,0
1999,5,7,15,0,,22.6,7,36,100910,0,0,368,705,464,311,59390,44221,35684,0,290,4.3,4,0,0,0,0,0,0,0,0,0,0,0,0
1999,5,7,16,0,,22.8,6.3,35,100910,0,0,369,575,438,258,41992,37151,29292,0,290,4.8,5,0,0,0,0,0,0,0,0,0,0,0,0
1999,5,7,17,0,,21.6,5.5,34,100910,0,0,364,429,440,183,22755,21197,19887,0,270,4.7,5,0,0,0,0,0,0,0,0,0,0,0,0
1999,5,7,18,0,,21.6,4.8,33,100910,0,0,366,255,364,122,0,0,0,0,270,4.5,6,0,0,0,0,0,0,0,0,0,0,0,0
1999,5,7,19,0,,21.1,5.1,35,100960,0,0,359,112,418,46,0,0,0,0,250,4.2,5,0,0,0,0,0,0,0,0,0,0,0,0
1999,5,7,20,0,,19.9,5.3,38,101000,0,0,350,13,5,8,0,0,0,0,270,3.3,3,0,0,0,0,0,0,0,0,0,0,0,0
1999,5,7,21,0,,19.4,5.6,40,101050,0,0,344,0,0,0,0,0,0,0,250,3.2,2,0,0,0,0,0,0,0,0,0,0,0,0
1999,5,7,22,0,,19.4,5.4,40,101060,0,0,343,0,0,0,0,0,0,0,230,3.7,2,0,0,0,0,0,0,0,0,0,0,0,0
1999,5,7,23,0,,19.3,5.3,40,101060,0,0,343,0,0,0,0,0,0,0,250,3.7,2,0,0,0,0,0,0,0,0,0,0,0,0
1999,5,7,24,0,,19.1,5.1,40,101070,0,0,342,0,0,0,0,0,0,0,250,2.5,2,0,0,0,0,0,0,0,0,0,0,0,0
1999,5,8,1,0,,18.9,5.5,43,101060,0,0,342,0,0,0,0,0,0,0,270,3.3,2,0,0,0,0,0,0,0,0,0,0,0,0
1999,5,8,2,0,,18.5,6,46,101050,0,0,342,0,0,0,0,0,0,0,270,2,3,0,0,0,0,0,0,0,0,0,0,0,0
1999,5,8,3,0,,17.2,6.4,49,101040,0,0,337,0,0,0,0,0,0,0,230,2,3,0,0,0,0,0,0,0,0,0,0,0,0
1999,5,8,4,0,,17.7,6.9,53,101050,0,0,340,0,0,0,0,0,0,0,270,1.2,3,0,0,0,0,0,0,0,0,0,0,0,0
1999,5,8,5,0,,16.5,7.3,56,101050,0,0,335,0,0,0,0,0,0,0,0,0,3,0,0,0,0,0,0,0,0,0,0,0,0
1999,5,8,6,0,,15.5,7.8,60,101060,0,0,331,11,3,8,1116,280,1006,0,0,0,3,0,0,0,0,0,0,0,0,0,0,0,0
1999,5,8,7,0,,15.5,7.4,55,101100,0,0,327,112,417,46,31966,42884,7028,0,270,0.7,2,0,0,0,0,0,0,0,0,0,0,0,0
1999,5,8,8,0,,17.4,7.1,49,101150,0,0,331,301,589,87,57185,60804,12066,0,270,1.7,1,0,0,0,0,0,0,0,0,0,0,0,0
1999,5,8,9,0,,19.1,6.7,44,101190,0,0,333,502,682,122,76522,70227,15913,0,290,2.3,0,0,0,0,0,0,0,0,0,0,0,0,0
1999,5,8,10,0,,19.5,6.6,43,101190,0,0,334,678,713,163,88354,72875,20122,0,320,3.7,0,0,0,0,0,0,0,0,0,0,0,0,0
1999,5,8,11,0,,19.2,6.5,42,101180,0,0,333,772,622,243,90125,62421,30400,0,320,3.5,0,0,0,0,0,0,0,0,0,0,0,0,0
1999,5,8,12,0,,20.1,6.4,41,101180,0,0,337,820,544,314,87603,53932,37814,0,290,3,0,0,0,0,0,0,0,0,0,0,0,0,0
1999,5,8,13,0,,20.5,6.5,40,101130,0,0,339,856,561,319,84550,55285,38236,0,360,3.5,0,0,0,0,0,0,0,0,0,0,0,0,0
1999,5,8,14,0,,20.7,6.7,40,101090,0,0,340,826,556,308,75253,54289,36909,0,360,3.3,0,0,0,0,0,0,0,0,0,0,0,0,0
1999,5,8,15,0,,21.2,6.8,39,101040,0,0,343,761,592,257,61372,56084,31207,0,320,3.5,0,0,0,0,0,0,0,0,0,0,0,0,0
1999,5,8,16,0,,20.7,8.4,46,101040,0,0,350,619,552,219,41623,46423,25659,0,320,3.5,1,0,0,0,0,0,0,0,0,0,0,0,0
1999,5,8,17,0,,20.3,10,54,101040,0,0,356,459,533,160,21575,24890,18149,0,290,4.7,3,0,0,0,0,0,0,0,0,0,0,0,0
1999,5,8,18,0,,19.4,11.6,61,101040,0,0,357,261,383,120,0,0,0,0,290,2.3,4,0,0,0,0,0,0,0,0,0,0,0,0
1999,5,8,19,0,,18.3,11.8,65,101080,0,0,352,105,325,53,0,0,0,0,50,2.3,4,0,0,0,0,0,0,0,0,0,0,0,0
1999,5,8,20,0,,17.6,12,68,101110,0,0,349,11,3,8,0,0,0,0,140,2.3,4,0,0,0,0,0,0,0,0,0,0,0,0
1999,5,8,21,0,,17.2,12.2,72,101150,0,0,347,0,0,0,0,0,0,0,110,1.8,4,0,0,0,0,0,0,0,0,0,0,0,0
1999,5,8,22,0,,16.9,12.3,75,101150,0,0,345,0,0,0,0,0,0,0,230,1,4,0,0,0,0,0,0,0,0,0,0,0,0
1999,5,8,23,0,,16.4,12.4,78,101150,0,0,342,0,0,0,0,0,0,0,50,1.7,3,0,0,0,0,0,0,0,0,0,0,0,0
1999,5,8,24,0,,15.8,12.5,81,101150,0,0,338,0,0,0,0,0,0,0,0,0,3,0,0,0,0,0,0,0,0,0,0,0,0
1999,5,9,1,0,,15,10.8,75,101130,0,0,332,0,0,0,0,0,0,0,180,1,3,0,0,0,0,0,0,0,0,0,0,0,0
1999,5,9,2,0,,14.9,9.1,70,101110,0,0,330,0,0,0,0,0,0,0,180,1.3,3,0,0,0,0,0,0,0,0,0,0,0,0
1999,5,9,3,0,,14.2,7.4,64,101090,0,0,325,0,0,0,0,0,0,0,180,1,3,0,0,0,0,0,0,0,0,0,0,0,0
1999,5,9,4,0,,14,6.5,61,101100,0,0,324,0,0,0,0,0,0,0,160,1.3,4,0,0,0,0,0,0,0,0,0,0,0,0
1999,5,9,5,0,,13.8,5.7,58,101120,0,0,324,0,0,0,0,0,0,0,180,1.5,4,0,0,0,0,0,0,0,0,0,0,0,0
1999,5,9,6,0,,13.4,4.8,55,101130,0,0,323,11,3,8,1118,230,1027,0,180,0.7,5,0,0,0,0,0,0,0,0,0,0,0,0
1999,5,9,7,0,,14,5.9,54,101130,0,0,331,97,314,46,25910,32316,7053,0,180,1.3,6,0,0,0,0,0,0,0,0,0,0,0,0
1999,5,9,8,0,,16,7.1,53,101130,0,0,348,196,166,135,29639,16654,17251,0,0,0,8,0,0,0,0,0,0,0,0,0,0,0,0
1999,5,9,9,0,,18.2,8.2,52,101130,0,0,370,296,131,223,38536,13068,27238,0,20,2,9,0,0,0,0,0,0,0,0,0,0,0,0
1999,5,9,10,0,,19.3,8.1,49,101130,0,0,379,401,125,311,47958,12502,36236,0,20,1.8,9,0,0,0,0,0,0,0,0,0,0,0,0
1999,5,9,11,0,,19.9,7.9,46,101130,0,0,386,369,58,320,42120,5556,36796,0,20,2.8,10,0,0,0,0,0,0,0,0,0,0,0,0
1999,5,9,12,0,,20.4,7.8,43,101130,0,0,392,382,47,338,43023,4565,38803,0,20,2.7,10,0,0,0,0,0,0,0,0,0,0,0,0
1999,5,9,13,0,,20.4,8.7,46,101090,0,0,393,368,39,331,41021,3733,37888,0,50,2.7,10,0,0,0,0,0,0,0,0,0,0,0,0
1999,5,9,14,0,,20.2,9.5,50,101040,0,0,393,331,32,302,36609,3057,34444,0,50,2.5,10,0,0,0,0,0,0,0,0,0,0,0,0
1999,5,9,15,0,,20.3,10.4,53,101000,0,0,395,297,32,270,31600,2726,30129,0,50,2.3,10,0,0,0,0,0,0,0,0,0,0,0,0
1999,5,9,16,0,,19.8,11,57,100990,0,0,393,239,30,217,24118,2412,23283,0,50,2.3,10,0,0,0,0,0,0,0,0,0,0,0,0
1999,5,9,17,0,,19.3,11.6,62,100980,0,0,391,180,32,162,16462,2314,16138,0,20,2.2,10,0,0,0,0,0,0,0,0,0,0,0,0
1999,5,9,18,0,,18.7,12.2,66,100970,0,0,389,103,26,93,0,0,0,0,50,2.7,10,0,0,0,0,0,0,0,0,0,0,0,0
1999,5,9,19,0,,18.2,11.8,66,101000,0,0,372,55,56,46,0,0,0,0,90,1.8,9,0,0,0,0,0,0,0,0,0,0,0,0
1999,5,9,20,0,,18,11.3,65,101030,0,0,361,8,1,7,0,0,0,0,70,1.3,7,0,0,0,0,0,0,0,0,0,0,0,0
1999,5,9,21,0,,17.5,10.9,65,101060,0,0,353,0,0,0,0,0,0,0,70,2,6,0,0,0,0,0,0,0,0,0,0,0,0
1999,5,9,22,0,,16.7,11,67,101020,0,0,345,0,0,0,0,0,0,0,70,0.8,5,0,0,0,0,0,0,0,0,0,0,0,0
1999,5,9,23,0,,16.6,11.1,69,100980,0,0,341,0,0,0,0,0,0,0,180,1.7,3,0,0,0,0,0,0,0,0,0,0,0,0
1999,5,9,24,0,,16.3,11.2,71,100940,0,0,336,0,0,0,0,0,0,0,200,1,2,0,0,0,0,0,0,0,0,0,0,0,0
1999,5,10,1,0,,16.3,10.8,70,100910,0,0,336,0,0,0,0,0,0,0,180,1.7,2,0,0,0,0,0,0,0,0,0,0,0,0
1999,5,10,2,0,,16.3,10.3,70,100890,0,0,337,0,0,0,0,0,0,0,180,0.7,3,0,0,0,0,0,0,0,0,0,0,0,0
1999,5,10,3,0,,15.5,9.9,69,100860,0,0,334,0,0,0,0,0,0,0,180,1.8,3,0,0,0,0,0,0,0,0,0,0,0,0
1999,5,10,4,0,,14.7,8.5,65,100870,0,0,328,0,0,0,0,0,0,0,180,2.2,3,0,0,0,0,0,0,0,0,0,0,0,0
1999,5,10,5,0,,14.2,7.2,61,100870,0,0,324,0,0,0,0,0,0,0,160,2.3,3,0,0,0,0,0,0,0,0,0,0,0,0
1999,5,10,6,0,,14.2,5.8,57,100880,0,0,323,14,5,9,1296,459,1113,0,180,1.3,3,0,0,0,0,0,0,0,0,0,0,0,0
1999,5,10,7,0,,14.5,8.7,65,100930,0,0,332,106,318,54,27895,32102,9100,0,180,2,5,0,0,0,0,0,0,0,0,0,0,0,0
1999,5,10,8,0,,17.1,11.5,72,100970,0,0,353,247,336,123,43315,33828,18097,0,20,1.7,6,0,0,0,0,0,0,0,0,0,0,0,0
1999,5,10,9,0,,18,14.4,80,101020,0,0,369,295,127,223,37772,12167,27235,0,70,1.3,8,0,0,0,0,0,0,0,0,0,0,0,0
1999,5,10,10,0,,18.8,14.7,80,101020,0,0,365,521,265,329,63552,24976,40100,0,20,3.5,6,0,0,0,0,0,0,0,0,0,0,0,0
1999,5,10,11,0,,18.6,14.9,79,101010,0,0,359,594,213,413,68285,19954,49141,0,20,3.3,5,0,0,0,0,0,0,0,0,0,0,0,0
1999,5,10,12,0,,19,15.2,79,101010,0,0,357,715,265,469,77924,24653,55101,0,360,2.7,3,0,0,0,0,0,0,0,0,0,0,0,0
1999,5,10,13,0,,19.6,14.8,76,100980,0,0,357,774,302,484,80053,28093,56441,0,50,4.3,2,0,0,0,0,0,0,0,0,0,0,0,0
1999,5,10,14,0,,19.6,14.5,72,100960,0,0,354,778,444,363,72746,41299,43450,0,50,5,2,0,0,0,0,0,0,0,0,0,0,0,0
1999,5,10,15,0,,19.9,14.1,69,100930,0,0,351,714,476,308,60213,42898,36989,0,50,3.7,1,0,0,0,0,0,0,0,0,0,0,0,0
1999,5,10,16,0,,19.6,14.3,73,100910,0,0,352,591,468,250,42893,37189,29954,0,50,4,1,0,0,0,0,0,0,0,0,0,0,0,0
1999,5,10,17,0,,19.5,14.5,76,100900,0,0,353,449,490,173,23144,21499,20085,0,50,4.3,2,0,0,0,0,0,0,0,0,0,0,0,0
1999,5,10,18,0,,18.2,14.7,80,100880,0,0,349,277,448,111,0,0,0,0,50,4.7,2,0,0,0,0,0,0,0,0,0,0,0,0
1999,5,10,19,0,,17.9,14.9,83,100920,0,0,345,115,389,50,0,0,0,0,50,2.3,1,0,0,0,0,0,0,0,0,0,0,0,0
1999,5,10,20,0,,17.8,15.1,86,100970,0,0,341,14,5,9,0,0,0,0,50,1.5,1,0,0,0,0,0,0,0,0,0,0,0,0
1999,5,10,21,0,,17.2,15.3,89,101010,0,0,334,0,0,0,0,0,0,0,90,0.8,0,0,0,0,0,0,0,0,0,0,0,0,0
1999,5,10,22,0,,17.1,13.2,80,101060,0,0,344,0,0,0,0,0,0,0,180,1.5,3,0,0,0,0,0,0,0,0,0,0,0,0
1999,5,10,23,0,,16.2,11.1,72,101100,0,0,344,0,0,0,0,0,0,0,0,0,5,0,0,0,0,0,0,0,0,0,0,0,0
1999,5,10,24,0,,16,9,63,101150,0,0,353,0,0,0,0,0,0,0,180,1,8,0,0,0,0,0,0,0,0,0,0,0,0
1999,5,11,1,0,,16.1,10.4,71,101150,0,0,348,0,0,0,0,0,0,0,180,1.2,7,0,0,0,0,0,0,0,0,0,0,0,0
1999,5,11,2,0,,15.9,11.7,78,101140,0,0,344,0,0,0,0,0,0,0,140,2,5,0,0,0,0,0,0,0,0,0,0,0,0
1999,5,11,3,0,,15.4,13.1,86,101140,0,0,340,0,0,0,0,0,0,0,110,2.8,4,0,0,0,0,0,0,0,0,0,0,0,0
1999,5,11,4,0,,15.2,13,87,101170,0,0,335,0,0,0,0,0,0,0,90,1.7,3,0,0,0,0,0,0,0,0,0,0,0,0
1999,5,11,5,0,,15.3,12.9,87,101190,0,0,330,0,0,0,0,0,0,0,90,2.2,1,0,0,0,0,0,0,0,0,0,0,0,0
1999,5,11,6,0,,14.8,12.8,88,101220,0,0,320,15,6,9,1552,513,1347,0,140,2,0,0,0,0,0,0,0,0,0,0,0,0,0
1999,5,11,7,0,,14.9,13.4,84,101270,0,0,323,117,414,48,32639,42894,7446,0,110,0.8,0,0,0,0,0,0,0,0,0,0,0,0,0
1999,5,11,8,0,,17.5,14,80,101330,0,0,338,298,547,95,55671,56740,13280,0,70,2,1,0,0,0,0,0,0,0,0,0,0,0,0
1999,5,11,9,0,,18.9,14.6,76,101380,0,0,347,487,614,141,73344,63392,18353,0,50,3.8,1,0,0,0,0,0,0,0,0,0,0,0,0
1999,5,11,10,0,,19.2,14.7,76,101380,0,0,352,654,635,192,85715,63377,26122,0,50,5.5,2,0,0,0,0,0,0,0,0,0,0,0,0
1999,5,11,11,0,,19.5,14.8,75,101380,0,0,356,722,493,300,83452,46756,38538,0,50,6,2,0,0,0,0,0,0,0,0,0,0,0,0
1999,5,11,12,0,,19.4,14.9,75,101380,0,0,358,755,311,464,81493,29139,54480,0,50,6.5,3,0,0,0,0,0,0,0,0,0,0,0,0
1999,5,11,13,0,,19.3,14.6,73,101370,0,0,360,750,272,488,77534,25389,56160,0,50,7.2,4,0,0,0,0,0,0,0,0,0,0,0,0
1999,5,11,14,0,,19.6,14.3,72,101370,0,0,364,683,228,469,68716,21094,53720,0,50,6.7,5,0,0,0,0,0,0,0,0,0,0,0,0
1999,5,11,15,0,,19.6,14,70,101360,0,0,367,578,194,412,56408,17414,46951,0,50,6.7,6,0,0,0,0,0,0,0,0,0,0,0,0
1999,5,11,16,0,,18.6,14.1,74,101360,0,0,368,417,136,318,39818,12294,35516,0,50,5.5,7,0,0,0,0,0,0,0,0,0,0,0,0
1999,5,11,17,0,,18.7,14.3,77,101360,0,0,378,229,61,194,22077,4524,21423,0,50,4.8,9,0,0,0,0,0,0,0,0,0,0,0,0
1999,5,11,18,0,,17.8,14.4,81,101360,0,0,387,98,22,90,0,0,0,0,50,3.5,10,0,0,0,0,0,0,0,0,0,0,0,0
1999,5,11,19,0,,18.1,14,79,101370,0,0,367,73,115,54,0,0,0,0,110,1.3,8,0,0,0,0,0,0,0,0,0,0,0,0
1999,5,11,20,0,,18,13.5,77,101390,0,0,356,12,3,9,0,0,0,0,110,1.2,5,0,0,0,0,0,0,0,0,0,0,0,0
1999,5,11,21,0,,17.6,13.1,75,101400,0,0,347,0,0,0,0,0,0,0,180,2.7,3,0,0,0,0,0,0,0,0,0,0,0,0
1999,5,11,22,0,,16.8,12.2,74,101420,0,0,342,0,0,0,0,0,0,0,180,2.7,3,0,0,0,0,0,0,0,0,0,0,0,0
1999,5,11,23,0,,16,11.4,72,101450,0,0,338,0,0,0,0,0,0,0,180,1.5,3,0,0,0,0,0,0,0,0,0,0,0,0
1999,5,11,24,0,,15.7,10.5,71,101470,0,0,335,0,0,0,0,0,0,0,180,2.3,3,0,0,0,0,0,0,0,0,0,0,0,0
1999,5,12,1,0,,15.4,10.1,71,101440,0,0,332,0,0,0,0,0,0,0,180,2,3,0,0,0,0,0,0,0,0,0,0,0,0
1999,5,12,2,0,,14.9,9.6,71,101410,0,0,328,0,0,0,0,0,0,0,180,1.8,2,0,0,0,0,0,0,0,0,0,0,0,0
1999,5,12,3,0,,14.2,9.2,71,101380,0,0,324,0,0,0,0,0,0,0,180,1.7,2,0,0,0,0,0,0,0,0,0,0,0,0
1999,5,12,4,0,,14,9,71,101390,0,0,320,0,0,0,0,0,0,0,160,1,1,0,0,0,0,0,0,0,0,0,0,0,0
1999,5,12,5,0,,13.7,8.7,71,101390,0,0,315,0,0,0,0,0,0,0,180,1.5,1,0,0,0,0,0,0,0,0,0,0,0,0
1999,5,12,6,0,,13.7,8.5,71,101400,0,0,310,17,7,9,1609,661,1344,0,180,1.7,0,0,0,0,0,0,0,0,0,0,0,0,0
1999,5,12,7,0,,14.4,10.6,75,101460,0,0,328,119,415,49,32717,42808,7498,0,200,1.2,3,0,0,0,0,0,0,0,0,0,0,0,0
1999,5,12,8,0,,15.8,12.6,79,101510,0,0,344,245,315,128,41258,30285,18585,0,0,0,5,0,0,0,0,0,0,0,0,0,0,0,0
1999,5,12,9,0,,17.6,14.7,83,101570,0,0,368,297,127,225,37986,12092,27480,0,340,0.5,8,0,0,0,0,0,0,0,0,0,0,0,0
1999,5,12,10,0,,17.9,14.3,79,101560,0,0,357,515,251,332,62711,23779,40323,0,0,0,5,0,0,0,0,0,0,0,0,0,0,0,0
1999,5,12,11,0,,18.7,13.9,75,101550,0,0,352,717,479,307,82884,45668,38961,0,340,3.5,3,0,0,0,0,0,0,0,0,0,0,0,0
1999,5,12,12,0,,19.1,13.5,71,101540,0,0,340,777,340,459,83298,32339,53281,0,360,3.7,0,0,0,0,0,0,0,0,0,0,0,0,0
1999,5,12,13,0,,18.9,13.6,71,101470,0,0,339,800,332,480,81901,31394,55432,0,340,3.8,0,0,0,0,0,0,0,0,0,0,0,0,0
1999,5,12,14,0,,19.1,13.8,70,101410,0,0,341,759,314,465,73937,29194,53140,0,360,3.8,0,0,0,0,0,0,0,0,0,0,0,0,0
1999,5,12,15,0,,19.5,13.9,70,101340,0,0,343,693,336,405,62653,30162,46221,0,360,2.5,0,0,0,0,0,0,0,0,0,0,0,0,0
1999,5,12,16,0,,19.4,13.9,71,101310,0,0,342,586,448,258,43405,35919,30764,0,320,2,0,0,0,0,0,0,0,0,0,0,0,0,0
1999,5,12,17,0,,19.3,13.9,73,101290,0,0,342,450,482,176,23638,22075,20397,0,340,1.3,0,0,0,0,0,0,0,0,0,0,0,0,0
1999,5,12,18,0,,18.6,13.9,74,101260,0,0,338,286,473,108,0,0,0,0,320,3,0,0,0,0,0,0,0,0,0,0,0,0,0
1999,5,12,19,0,,17.6,14,78,101280,0,0,334,121,417,50,0,0,0,0,320,2.8,0,0,0,0,0,0,0,0,0,0,0,0,0
1999,5,12,20,0,,17.1,14.2,81,101310,0,0,332,16,6,10,0,0,0,0,290,1.8,0,0,0,0,0,0,0,0,0,0,0,0,0
1999,5,12,21,0,,16.7,14.3,85,101330,0,0,330,0,0,0,0,0,0,0,270,1.3,0,0,0,0,0,0,0,0,0,0,0,0,0
1999,5,12,22,0,,16.4,13.7,84,101320,0,0,328,0,0,0,0,0,0,0,200,1,0,0,0,0,0,0,0,0,0,0,0,0,0
1999,5,12,23,0,,16.1,13,83,101310,0,0,326,0,0,0,0,0,0,0,0,0,0,0,0,0,0,0,0,0,0,0,0,0,0
1999,5,12,24,0,,15.4,12.4,82,101300,0,0,322,0,0,0,0,0,0,0,180,1.2,0,0,0,0,0,0,0,0,0,0,0,0,0
1999,5,13,1,0,,15.4,12.5,83,101270,0,0,334,0,0,0,0,0,0,0,160,1.7,2,0,0,0,0,0,0,0,0,0,0,0,0
1999,5,13,2,0,,15.4,12.6,83,101230,0,0,341,0,0,0,0,0,0,0,180,1.2,5,0,0,0,0,0,0,0,0,0,0,0,0
1999,5,13,3,0,,15.4,12.7,84,101200,0,0,349,0,0,0,0,0,0,0,160,1.8,7,0,0,0,0,0,0,0,0,0,0,0,0
1999,5,13,4,0,,14.6,12,83,101220,0,0,337,0,0,0,0,0,0,0,180,2,5,0,0,0,0,0,0,0,0,0,0,0,0
1999,5,13,5,0,,13.8,11.3,82,101250,0,0,328,0,0,0,0,0,0,0,160,2,3,0,0,0,0,0,0,0,0,0,0,0,0
1999,5,13,6,0,,13.8,10.6,81,101270,0,0,319,16,6,10,1659,560,1433,0,180,2,1,0,0,0,0,0,0,0,0,0,0,0,0
1999,5,13,7,0,,14.7,11.9,80,101290,0,0,328,121,423,49,33374,43743,7529,0,180,1.3,2,0,0,0,0,0,0,0,0,0,0,0,0
1999,5,13,8,0,,17.3,13.3,79,101320,0,0,344,303,551,96,56154,57117,13310,0,20,1,2,0,0,0,0,0,0,0,0,0,0,0,0
1999,5,13,9,0,,18.4,14.6,78,101340,0,0,353,468,542,161,70020,54333,22743,0,20,2.5,3,0,0,0,0,0,0,0,0,0,0,0,0
1999,5,13,10,0,,17.5,14.8,81,101320,0,0,347,602,492,243,77228,48563,31448,0,20,2,2,0,0,0,0,0,0,0,0,0,0,0,0
1999,5,13,11,0,,17.3,14.9,83,101300,0,0,343,648,271,416,73941,25377,49505,0,20,2.3,2,0,0,0,0,0,0,0,0,0,0,0,0
1999,5,13,12,0,,17.5,15.1,86,101280,0,0,341,702,246,472,76078,22988,54713,0,20,1.8,1,0,0,0,0,0,0,0,0,0,0,0,0
1999,5,13,13,0,,17.9,15.4,83,101240,0,0,343,733,252,490,76332,23311,56648,0,50,1.7,1,0,0,0,0,0,0,0,0,0,0,0,0
1999,5,13,14,0,,19.4,15.8,79,101190,0,0,351,764,319,465,74404,29090,53639,0,360,2,1,0,0,0,0,0,0,0,0,0,0,0,0
1999,5,13,15,0,,20.6,16.1,76,101150,0,0,357,724,490,304,60815,43190,37210,0,360,3,1,0,0,0,0,0,0,0,0,0,0,0,0
1999,5,13,16,0,,20.1,16,76,101110,0,0,353,620,534,229,42950,41811,28153,0,320,4.7,1,0,0,0,0,0,0,0,0,0,0,0,0
1999,5,13,17,0,,19.6,15.8,77,101060,0,0,348,452,485,176,23971,21516,20763,0,320,4.7,0,0,0,0,0,0,0,0,0,0,0,0,0
1999,5,13,18,0,,19.9,15.7,77,101020,0,0,347,294,504,104,0,0,0,0,320,4,0,0,0,0,0,0,0,0,0,0,0,0,0
1999,5,13,19,0,,18.9,15.7,81,101090,0,0,354,124,433,49,0,0,0,0,320,3.5,2,0,0,0,0,0,0,0,0,0,0,0,0
1999,5,13,20,0,,17.9,15.8,85,101170,0,0,357,13,3,10,0,0,0,0,290,2.3,5,0,0,0,0,0,0,0,0,0,0,0,0
1999,5,13,21,0,,17.5,15.8,89,101240,0,0,363,0,0,0,0,0,0,0,320,2,7,0,0,0,0,0,0,0,0,0,0,0,0
1999,5,13,22,0,,17.5,15.5,89,101270,0,0,364,0,0,0,0,0,0,0,250,2.2,7,0,0,0,0,0,0,0,0,0,0,0,0
1999,5,13,23,0,,16.9,15.2,88,101300,0,0,363,0,0,0,0,0,0,0,290,1.2,8,0,0,0,0,0,0,0,0,0,0,0,0
1999,5,13,24,0,,17,14.9,88,101330,0,0,365,0,0,0,0,0,0,0,290,2.7,8,0,0,0,0,0,0,0,0,0,0,0,0
1999,5,14,1,0,,17.1,14.9,89,101300,0,0,368,0,0,0,0,0,0,0,320,2.5,8,0,0,0,0,0,0,0,0,0,0,0,0
1999,5,14,2,0,,17,15,89,101270,0,0,370,0,0,0,0,0,0,0,320,2.3,9,0,0,0,0,0,0,0,0,0,0,0,0
1999,5,14,3,0,,16.6,15,90,101240,0,0,371,0,0,0,0,0,0,0,320,2.5,9,0,0,0,0,0,0,0,0,0,0,0,0
1999,5,14,4,0,,16.3,14.4,89,101230,0,0,355,0,0,0,0,0,0,0,320,1.7,7,0,0,0,0,0,0,0,0,0,0,0,0
1999,5,14,5,0,,16.2,13.9,87,101210,0,0,347,0,0,0,0,0,0,0,320,1,5,0,0,0,0,0,0,0,0,0,0,0,0
1999,5,14,6,0,,15.6,13.3,86,101200,0,0,338,16,5,11,1496,435,1320,0,200,1,3,0,0,0,0,0,0,0,0,0,0,0,0
1999,5,14,7,0,,15.6,13.7,85,101260,0,0,339,114,331,56,29231,33128,9604,0,180,0.3,3,0,0,0,0,0,0,0,0,0,0,0,0
1999,5,14,8,0,,16,14.2,84,101310,0,0,341,265,367,126,46302,36702,18719,0,20,1.2,3,0,0,0,0,0,0,0,0,0,0,0,0
1999,5,14,9,0,,16.6,14.6,83,101370,0,0,344,419,380,203,59391,36128,27911,0,360,2,3,0,0,0,0,0,0,0,0,0,0,0,0
1999,5,14,10,0,,17.5,14.6,81,101380,0,0,354,525,261,333,63832,24663,40555,0,340,3,5,0,0,0,0,0,0,0,0,0,0,0,0
1999,5,14,11,0,,18,14.6,78,101400,0,0,364,502,130,391,57789,12299,45933,0,340,3.5,7,0,0,0,0,0,0,0,0,0,0,0,0
1999,5,14,12,0,,18.9,14.6,76,101410,0,0,382,406,54,355,45736,5075,41014,0,20,1.8,9,0,0,0,0,0,0,0,0,0,0,0,0
1999,5,14,13,0,,18,14.3,75,101320,0,0,367,474,75,401,51999,7092,46001,0,20,3.7,8,0,0,0,0,0,0,0,0,0,0,0,0
1999,5,14,14,0,,18,14.1,75,101240,0,0,360,586,146,449,60880,13994,50871,0,20,3.2,6,0,0,0,0,0,0,0,0,0,0,0,0
1999,5,14,15,0,,18.5,13.8,74,101150,0,0,358,569,183,412,55909,17430,46354,0,20,1.7,5,0,0,0,0,0,0,0,0,0,0,0,0
1999,5,14,16,0,,18.6,13.7,73,101120,0,0,360,464,180,332,42862,16386,37031,0,20,2.2,6,0,0,0,0,0,0,0,0,0,0,0,0
1999,5,14,17,0,,19.2,13.7,73,101100,0,0,366,380,253,236,27823,12515,25929,0,20,2.2,6,0,0,0,0,0,0,0,0,0,0,0,0
1999,5,14,18,0,,18.8,13.6,72,101070,0,0,367,210,181,141,0,0,0,0,340,1,7,0,0,0,0,0,0,0,0,0,0,0,0
1999,5,14,19,0,,19.1,13.8,75,101080,0,0,368,92,199,57,0,0,0,0,360,1.2,7,0,0,0,0,0,0,0,0,0,0,0,0
1999,5,14,20,0,,18.3,14.1,77,101090,0,0,365,10,2,9,0,0,0,0,320,0.7,7,0,0,0,0,0,0,0,0,0,0,0,0
1999,5,14,21,0,,17.9,14.3,80,101100,0,0,363,0,0,0,0,0,0,0,320,1,7,0,0,0,0,0,0,0,0,0,0,0,0
1999,5,14,22,0,,17.6,13.3,77,101090,0,0,355,0,0,0,0,0,0,0,200,1.3,6,0,0,0,0,0,0,0,0,0,0,0,0
1999,5,14,23,0,,17.1,12.4,73,101080,0,0,348,0,0,0,0,0,0,0,200,0.8,4,0,0,0,0,0,0,0,0,0,0,0,0
1999,5,14,24,0,,17,11.4,70,101070,0,0,342,0,0,0,0,0,0,0,180,1.7,3,0,0,0,0,0,0,0,0,0,0,0,0
1999,5,15,1,0,,16.9,11.7,73,101050,0,0,341,0,0,0,0,0,0,0,160,0.5,3,0,0,0,0,0,0,0,0,0,0,0,0
1999,5,15,2,0,,16.3,12,76,101030,0,0,338,0,0,0,0,0,0,0,200,1.2,2,0,0,0,0,0,0,0,0,0,0,0,0
1999,5,15,3,0,,16,12.3,79,101010,0,0,335,0,0,0,0,0,0,0,180,1.3,2,0,0,0,0,0,0,0,0,0,0,0,0
1999,5,15,4,0,,16.1,13.1,81,101030,0,0,345,0,0,0,0,0,0,0,200,1.5,5,0,0,0,0,0,0,0,0,0,0,0,0
1999,5,15,5,0,,16.8,13.9,83,101050,0,0,359,0,0,0,0,0,0,0,270,0.5,7,0,0,0,0,0,0,0,0,0,0,0,0
1999,5,15,6,0,,17.3,14.7,85,101070,0,0,385,2,0,2,316,0,316,0,250,1.2,10,0,0,0,0,0,0,0,0,0,0,0,0
1999,5,15,7,0,,17.5,14.7,82,101100,0,0,375,65,73,53,11685,6765,7666,0,230,1.3,9,0,0,0,0,0,0,0,0,0,0,0,0
1999,5,15,8,0,,17.9,14.7,80,101140,0,0,369,177,110,135,25844,10329,18068,0,290,1.5,8,0,0,0,0,0,0,0,0,0,0,0,0
1999,5,15,9,0,,18.7,14.7,77,101170,0,0,367,334,172,236,44052,16282,29845,0,360,2.5,7,0,0,0,0,0,0,0,0,0,0,0,0
1999,5,15,10,0,,19.4,14.5,75,101170,0,0,373,440,155,326,52805,14786,38833,0,340,2.7,7,0,0,0,0,0,0,0,0,0,0,0,0
1999,5,15,11,0,,19.1,14.4,73,101170,0,0,373,445,93,365,51642,8847,43105,0,340,3.5,8,0,0,0,0,0,0,0,0,0,0,0,0
1999,5,15,12,0,,20.5,14.2,71,101170,0,0,382,512,101,417,57581,9598,48638,0,340,3.8,8,0,0,0,0,0,0,0,0,0,0,0,0
1999,5,15,13,0,,19.3,14.4,71,101110,0,0,376,490,82,411,53634,7752,47068,0,340,3.5,8,0,0,0,0,0,0,0,0,0,0,0,0
1999,5,15,14,0,,20,14.5,72,101040,0,0,380,495,92,408,52769,8737,46507,0,340,3.8,8,0,0,0,0,0,0,0,0,0,0,0,0
1999,5,15,15,0,,19.9,14.7,72,100980,0,0,379,420,79,352,44016,7423,39935,0,340,3.2,8,0,0,0,0,0,0,0,0,0,0,0,0
1999,5,15,16,0,,20.1,14.8,74,100950,0,0,378,366,92,298,36412,8246,33462,0,50,2,8,0,0,0,0,0,0,0,0,0,0,0,0
1999,5,15,17,0,,20.1,15,75,100910,0,0,377,320,150,234,27490,11477,25727,0,320,2.2,7,0,0,0,0,0,0,0,0,0,0,0,0
1999,5,15,18,0,,19.4,15.1,77,100880,0,0,371,204,163,142,0,0,0,0,360,2.3,7,0,0,0,0,0,0,0,0,0,0,0,0
1999,5,15,19,0,,18.8,15.2,81,100920,0,0,367,87,158,58,0,0,0,0,360,2.2,7,0,0,0,0,0,0,0,0,0,0,0,0
1999,5,15,20,0,,18,15.2,84,100970,0,0,362,12,2,10,0,0,0,0,290,1.3,6,0,0,0,0,0,0,0,0,0,0,0,0
1999,5,15,21,0,,17.4,15.3,88,101010,0,0,358,0,0,0,0,0,0,0,270,1.5,6,0,0,0,0,0,0,0,0,0,0,0,0
1999,5,15,22,0,,17.1,15,88,101020,0,0,356,0,0,0,0,0,0,0,290,0.8,6,0,0,0,0,0,0,0,0,0,0,0,0
1999,5,15,23,0,,16.8,14.6,87,101030,0,0,354,0,0,0,0,0,0,0,270,1,6,0,0,0,0,0,0,0,0,0,0,0,0
1999,5,15,24,0,,16.4,14.3,87,101040,0,0,352,0,0,0,0,0,0,0,290,1.2,6,0,0,0,0,0,0,0,0,0,0,0,0
1999,5,16,1,0,,16.3,14.2,86,101030,0,0,354,0,0,0,0,0,0,0,230,1.5,7,0,0,0,0,0,0,0,0,0,0,0,0
1999,5,16,2,0,,16.7,14.2,84,101030,0,0,359,0,0,0,0,0,0,0,250,2.5,7,0,0,0,0,0,0,0,0,0,0,0,0
1999,5,16,3,0,,17,14.1,83,101020,0,0,364,0,0,0,0,0,0,0,290,2.3,8,0,0,0,0,0,0,0,0,0,0,0,0
1999,5,16,4,0,,16.8,13.8,83,101010,0,0,363,0,0,0,0,0,0,0,290,2,8,0,0,0,0,0,0,0,0,0,0,0,0
1999,5,16,5,0,,16.5,13.4,84,100990,0,0,361,0,0,0,0,0,0,0,340,2.5,8,0,0,0,0,0,0,0,0,0,0,0,0
1999,5,16,6,0,,15.8,13.1,84,100980,0,0,357,8,1,7,1001,20,993,0,340,2,8,0,0,0,0,0,0,0,0,0,0,0,0
1999,5,16,7,0,,15.7,13.3,81,100990,0,0,346,94,204,58,21976,20495,9770,0,290,1.7,6,0,0,0,0,0,0,0,0,0,0,0,0
1999,5,16,8,0,,16.5,13.4,79,100990,0,0,343,277,410,121,49016,41153,17980,0,250,1.7,3,0,0,0,0,0,0,0,0,0,0,0,0
1999,5,16,9,0,,17.8,13.6,76,101000,0,0,341,464,514,170,68653,51517,23644,0,340,1.2,1,0,0,0,0,0,0,0,0,0,0,0,0
1999,5,16,10,0,,18.3,14,75,100970,0,0,347,613,510,238,78656,50549,30840,0,340,3,2,0,0,0,0,0,0,0,0,0,0,0,0
1999,5,16,11,0,,19.1,14.3,75,100940,0,0,354,709,449,322,81914,42676,40685,0,20,3,2,0,0,0,0,0,0,0,0,0,0,0,0
1999,5,16,12,0,,19.3,14.7,74,100910,0,0,357,759,309,469,81903,28999,54855,0,20,3.5,3,0,0,0,0,0,0,0,0,0,0,0,0
1999,5,16,13,0,,19.1,14.7,74,100870,0,0,356,741,257,493,77025,23984,56683,0,20,2.8,3,0,0,0,0,0,0,0,0,0,0,0,0
1999,5,16,14,0,,19.5,14.7,73,100840,0,0,358,721,262,474,71733,24186,54365,0,20,2.5,3,0,0,0,0,0,0,0,0,0,0,0,0
1999,5,16,15,0,,19.7,14.7,73,100800,0,0,359,660,280,418,61638,25000,47850,0,20,3.5,3,0,0,0,0,0,0,0,0,0,0,0,0
1999,5,16,16,0,,19.6,15,75,100780,0,0,358,571,335,324,46621,26815,36976,0,20,3.8,3,0,0,0,0,0,0,0,0,0,0,0,0
1999,5,16,17,0,,19.7,15.3,76,100760,0,0,358,446,449,188,25194,20942,21932,0,50,3,2,0,0,0,0,0,0,0,0,0,0,0,0
1999,5,16,18,0,,19.5,15.6,78,100740,0,0,356,294,480,110,0,0,0,0,50,3.8,2,0,0,0,0,0,0,0,0,0,0,0,0
1999,5,16,19,0,,18.9,15.8,80,100780,0,0,355,130,441,51,0,0,0,0,50,3.3,2,0,0,0,0,0,0,0,0,0,0,0,0
1999,5,16,20,0,,18.7,15.9,83,100820,0,0,355,19,8,11,0,0,0,0,70,1.5,3,0,0,0,0,0,0,0,0,0,0,0,0
1999,5,16,21,0,,18.7,16.1,85,100860,0,0,356,0,0,0,0,0,0,0,200,1,3,0,0,0,0,0,0,0,0,0,0,0,0
1999,5,16,22,0,,18.4,14.7,81,100880,0,0,354,0,0,0,0,0,0,0,230,1,3,0,0,0,0,0,0,0,0,0,0,0,0
1999,5,16,23,0,,17.4,13.2,76,100890,0,0,348,0,0,0,0,0,0,0,200,0.7,4,0,0,0,0,0,0,0,0,0,0,0,0
1999,5,16,24,0,,17,11.8,72,100910,0,0,346,0,0,0,0,0,0,0,0,0,4,0,0,0,0,0,0,0,0,0,0,0,0
1999,5,17,1,0,,16.7,11,69,100880,0,0,347,0,0,0,0,0,0,0,110,1.2,5,0,0,0,0,0,0,0,0,0,0,0,0
1999,5,17,2,0,,16.7,10.1,65,100850,0,0,350,0,0,0,0,0,0,0,110,1.3,7,0,0,0,0,0,0,0,0,0,0,0,0
1999,5,17,3,0,,16.5,9.3,62,100820,0,0,355,0,0,0,0,0,0,0,0,0,8,0,0,0,0,0,0,0,0,0,0,0,0
1999,5,17,4,0,,16.2,11.2,71,100800,0,0,351,0,0,0,0,0,0,0,180,0.8,7,0,0,0,0,0,0,0,0,0,0,0,0
1999,5,17,5,0,,16,13,79,100770,0,0,348,0,0,0,0,0,0,0,110,0.7,6,0,0,0,0,0,0,0,0,0,0,0,0
1999,5,17,6,0,,17,14.9,88,100750,0,0,352,18,6,12,1657,515,1446,0,110,3.7,5,0,0,0,0,0,0,0,0,0,0,0,0
1999,5,17,7,0,,18.5,14.9,81,100790,0,0,361,114,293,61,27794,29239,10339,0,110,4.3,6,0,0,0,0,0,0,0,0,0,0,0,0
1999,5,17,8,0,,20.3,14.9,73,100830,0,0,373,282,429,118,50283,43041,17770,0,90,5.3,6,0,0,0,0,0,0,0,0,0,0,0,0
1999,5,17,9,0,,21.3,14.9,66,100870,0,0,381,387,264,236,53494,24994,31631,0,110,5.5,7,0,0,0,0,0,0,0,0,0,0,0,0
1999,5,17,10,0,,22.8,14.9,62,100850,0,0,391,513,239,337,62353,22419,41124,0,110,5.3,7,0,0,0,0,0,0,0,0,0,0,0,0
1999,5,17,11,0,,23.8,15,59,100820,0,0,398,532,150,403,61016,14128,47353,0,110,6,8,0,0,0,0,0,0,0,0,0,0,0,0
1999,5,17,12,0,,24.4,15,55,100800,0,0,404,584,144,449,64857,13448,52300,0,90,5.8,8,0,0,0,0,0,0,0,0,0,0,0,0
1999,5,17,13,0,,24.3,15.2,56,100770,0,0,399,645,172,479,68937,15926,55411,0,110,5.7,7,0,0,0,0,0,0,0,0,0,0,0,0
1999,5,17,14,0,,24.1,15.4,58,100730,0,0,395,595,151,453,61821,14312,51523,0,140,6.3,7,0,0,0,0,0,0,0,0,0,0,0,0
1999,5,17,15,0,,24,15.6,59,100700,0,0,392,591,201,418,57859,17719,48058,0,90,6,6,0,0,0,0,0,0,0,0,0,0,0,0
1999,5,17,16,0,,24,15.5,60,100710,0,0,392,501,220,338,44935,17426,38633,0,110,5.5,6,0,0,0,0,0,0,0,0,0,0,0,0
1999,5,17,17,0,,23.8,15.4,61,100730,0,0,390,395,275,236,28452,13635,26298,0,90,5.8,6,0,0,0,0,0,0,0,0,0,0,0,0
1999,5,17,18,0,,22.9,15.3,62,100740,0,0,385,246,280,138,0,0,0,0,110,4.3,6,0,0,0,0,0,0,0,0,0,0,0,0
1999,5,17,19,0,,21.4,15.6,67,100740,0,0,381,94,189,60,0,0,0,0,110,4.5,7,0,0,0,0,0,0,0,0,0,0,0,0
1999,5,17,20,0,,20.8,15.9,72,100740,0,0,381,13,2,10,0,0,0,0,140,5.8,7,0,0,0,0,0,0,0,0,0,0,0,0
1999,5,17,21,0,,20.4,16.2,77,100740,0,0,384,0,0,0,0,0,0,0,90,2.8,8,0,0,0,0,0,0,0,0,0,0,0,0
1999,5,17,22,0,,20.4,16.1,77,100740,0,0,389,0,0,0,0,0,0,0,110,2.7,9,0,0,0,0,0,0,0,0,0,0,0,0
1999,5,17,23,0,,20.1,16,77,100730,0,0,394,0,0,0,0,0,0,0,90,3,9,0,0,0,0,0,0,0,0,0,0,0,0
1999,5,17,24,0,,20.1,15.9,77,100730,0,0,401,0,0,0,0,0,0,0,110,3.5,10,0,0,0,0,0,0,0,0,0,0,0,0
1999,5,18,1,0,,20.3,16.1,78,100620,0,0,403,0,0,0,0,0,0,0,90,4.3,10,0,0,0,0,0,0,0,0,0,0,0,0
1999,5,18,2,0,,20.2,16.4,79,100500,0,0,402,0,0,0,0,0,0,0,90,5,10,0,0,0,0,0,0,0,0,0,0,0,0
1999,5,18,3,0,,20.1,16.6,80,100390,0,0,402,0,0,0,0,0,0,0,110,6.5,10,0,0,0,0,0,0,0,0,0,0,0,0
1999,5,18,4,0,,20.4,16.8,82,100350,0,0,404,0,0,0,0,0,0,0,140,6.3,10,0,0,0,0,0,0,0,0,0,0,0,0
1999,5,18,5,0,,20.3,17.1,85,100310,0,0,404,0,0,0,0,0,0,0,140,5,10,0,0,0,0,0,0,0,0,0,0,0,0
1999,5,18,6,0,,19.6,17.3,87,100270,0,0,400,3,0,3,469,0,469,0,110,5.5,10,0,0,0,0,0,0,0,0,0,0,0,0
1999,5,18,7,0,,20,17.4,86,100180,0,0,403,50,31,44,7701,2812,6019,0,110,6.8,10,0,0,0,0,0,0,0,0,0,0,0,0
1999,5,18,8,0,,19.9,17.5,86,100080,0,0,402,114,31,102,14349,2733,12282,0,70,6,10,0,0,0,0,0,0,0,0,0,0,0,0
1999,5,18,9,0,,20.1,17.6,85,99990,0,0,404,195,37,174,23613,3361,20670,0,110,7.7,10,0,0,0,0,0,0,0,0,0,0,0,0
1999,5,18,10,0,,20.8,18,86,99940,0,0,408,239,28,218,28263,2546,25849,0,90,5.5,10,0,0,0,0,0,0,0,0,0,0,0,0
1999,5,18,11,0,,20.2,18.3,86,99900,0,0,405,282,26,259,32850,2367,30558,0,110,7.7,10,0,0,0,0,0,0,0,0,0,0,0,0
1999,5,18,12,0,,20.9,18.7,87,99850,0,0,410,343,34,311,39291,3043,36447,0,140,8.3,10,0,0,0,0,0,0,0,0,0,0,0,0
1999,5,18,13,0,,21.3,18.9,84,99640,0,0,408,348,32,317,39418,2882,36968,0,110,8.7,10,0,0,0,0,0,0,0,0,0,0,0,0
1999,5,18,14,0,,21.7,19.2,80,99440,0,0,407,422,59,366,46156,5374,42282,0,110,6,9,0,0,0,0,0,0,0,0,0,0,0,0
1999,5,18,15,0,,23.8,19.4,77,99230,0,0,415,406,71,345,43088,6401,39537,0,90,4.3,9,0,0,0,0,0,0,0,0,0,0,0,0
1999,5,18,16,0,,23.9,19.6,79,99240,0,0,410,381,101,306,37905,8706,34740,0,360,1,8,0,0,0,0,0,0,0,0,0,0,0,0
1999,5,18,17,0,,25.4,19.7,80,99260,0,0,413,325,152,237,28164,11154,26378,0,250,2.8,8,0,0,0,0,0,0,0,0,0,0,0,0
1999,5,18,18,0,,23.2,19.9,82,99270,0,0,397,210,170,145,0,0,0,0,290,4,7,0,0,0,0,0,0,0,0,0,0,0,0
1999,5,18,19,0,,23.3,19.3,84,99340,0,0,399,99,209,60,0,0,0,0,270,5,7,0,0,0,0,0,0,0,0,0,0,0,0
1999,5,18,20,0,,21.3,18.7,87,99420,0,0,390,8,1,8,0,0,0,0,270,4.7,8,0,0,0,0,0,0,0,0,0,0,0,0
1999,5,18,21,0,,20,18.1,89,99490,0,0,384,0,0,0,0,0,0,0,270,4.3,8,0,0,0,0,0,0,0,0,0,0,0,0
1999,5,18,22,0,,19.5,17.7,90,99520,0,0,387,0,0,0,0,0,0,0,270,4.7,9,0,0,0,0,0,0,0,0,0,0,0,0
1999,5,18,23,0,,18.7,17.4,91,99560,0,0,388,0,0,0,0,0,0,0,270,3.3,9,0,0,0,0,0,0,0,0,0,0,0,0
1999,5,18,24,0,,18.2,17,92,99590,0,0,393,0,0,0,0,0,0,0,270,5,10,0,0,0,0,0,0,0,0,0,0,0,0
1999,5,19,1,0,,17.8,16.3,92,99690,0,0,390,0,0,0,0,0,0,0,270,7.7,10,0,0,0,0,0,0,0,0,0,0,0,0
1999,5,19,2,0,,16.3,15.7,92,99800,0,0,381,0,0,0,0,0,0,0,290,6,10,0,0,0,0,0,0,0,0,0,0,0,0
1999,5,19,3,0,,16.2,15,92,99900,0,0,379,0,0,0,0,0,0,0,290,5,10,0,0,0,0,0,0,0,0,0,0,0,0
1999,5,19,4,0,,15.9,14.3,90,99990,0,0,377,0,0,0,0,0,0,0,290,8.7,10,0,0,0,0,0,0,0,0,0,0,0,0
1999,5,19,5,0,,15.5,13.7,87,100080,0,0,374,0,0,0,0,0,0,0,320,8,10,0,0,0,0,0,0,0,0,0,0,0,0
1999,5,19,6,0,,15.5,13,85,100170,0,0,373,5,0,5,650,3,648,0,340,7.3,10,0,0,0,0,0,0,0,0,0,0,0,0
1999,5,19,7,0,,15.5,12.9,84,100220,0,0,373,53,36,47,8293,3460,6218,0,320,7.7,10,0,0,0,0,0,0,0,0,0,0,0,0
1999,5,19,8,0,,15.2,12.7,84,100280,0,0,371,113,30,102,14222,2746,12141,0,320,6,10,0,0,0,0,0,0,0,0,0,0,0,0
1999,5,19,9,0,,15.4,12.6,83,100330,0,0,372,184,31,166,22111,2914,19557,0,290,6.2,10,0,0,0,0,0,0,0,0,0,0,0,0
1999,5,19,10,0,,15.8,12.4,79,100370,0,0,364,313,59,270,36655,5585,31356,0,320,6.7,9,0,0,0,0,0,0,0,0,0,0,0,0
1999,5,19,11,0,,16.7,12.2,74,100400,0,0,360,490,119,388,56245,11488,45114,0,320,7,8,0,0,0,0,0,0,0,0,0,0,0,0
1999,5,19,12,0,,17.5,12,70,100440,0,0,358,633,178,465,69297,17137,53261,0,290,8.2,7,0,0,0,0,0,0,0,0,0,0,0,0
1999,5,19,13,0,,17.6,12,69,100470,0,0,360,646,171,480,68661,16391,54702,0,320,7.5,7,0,0,0,0,0,0,0,0,0,0,0,0
1999,5,19,14,0,,17.9,12.1,69,100510,0,0,364,543,117,433,57153,11266,49017,0,290,8,8,0,0,0,0,0,0,0,0,0,0,0,0
1999,5,19,15,0,,17.9,12.1,68,100540,0,0,366,466,103,377,47925,9820,42462,0,290,6.8,8,0,0,0,0,0,0,0,0,0,0,0,0
1999,5,19,16,0,,18,11.9,68,100600,0,0,359,447,156,331,42162,14452,36882,0,290,5.5,7,0,0,0,0,0,0,0,0,0,0,0,0
1999,5,19,17,0,,17.6,11.8,69,100670,0,0,352,424,342,226,27894,18540,24886,0,320,6.3,5,0,0,0,0,0,0,0,0,0,0,0,0
1999,5,19,18,0,,17.4,11.6,69,100730,0,0,347,294,458,115,0,0,0,0,290,6.8,4,0,0,0,0,0,0,0,0,0,0,0,0
1999,5,19,19,0,,16.7,11.9,73,100810,0,0,341,136,448,52,0,0,0,0,290,5,3,0,0,0,0,0,0,0,0,0,0,0,0
1999,5,19,20,0,,15.9,12.3,78,100880,0,0,332,24,13,11,0,0,0,0,290,4.7,1,0,0,0,0,0,0,0,0,0,0,0,0
1999,5,19,21,0,,15.6,12.6,82,100960,0,0,323,0,0,0,0,0,0,0,290,4,0,0,0,0,0,0,0,0,0,0,0,0,0
1999,5,19,22,0,,15.6,12.6,82,101000,0,0,331,0,0,0,0,0,0,0,270,3.7,1,0,0,0,0,0,0,0,0,0,0,0,0
1999,5,19,23,0,,15.5,12.7,83,101030,0,0,336,0,0,0,0,0,0,0,250,3,3,0,0,0,0,0,0,0,0,0,0,0,0
1999,5,19,24,0,,15.5,12.7,83,101070,0,0,340,0,0,0,0,0,0,0,250,3,4,0,0,0,0,0,0,0,0,0,0,0,0
1999,5,20,1,0,,15.4,12,80,101060,0,0,335,0,0,0,0,0,0,0,250,5.2,3,0,0,0,0,0,0,0,0,0,0,0,0
1999,5,20,2,0,,15.5,11.4,76,101060,0,0,329,0,0,0,0,0,0,0,250,2.8,1,0,0,0,0,0,0,0,0,0,0,0,0
1999,5,20,3,0,,15.6,10.7,73,101050,0,0,321,0,0,0,0,0,0,0,250,3,0,0,0,0,0,0,0,0,0,0,0,0,0
1999,5,20,4,0,,15.5,10.6,73,101090,0,0,321,0,0,0,0,0,0,0,250,3,0,0,0,0,0,0,0,0,0,0,0,0,0
1999,5,20,5,0,,15.3,10.5,72,101140,0,0,320,0,0,0,0,0,0,0,250,4.5,0,0,0,0,0,0,0,0,0,0,0,0,0
1999,5,20,6,0,,15.4,10.4,72,101180,0,0,320,25,10,14,2404,963,2005,0,250,4,0,0,0,0,0,0,0,0,0,0,0,0,0
1999,5,20,7,0,,16.1,10.4,67,101220,0,0,323,146,552,44,40361,56344,6507,0,250,3.8,0,0,0,0,0,0,0,0,0,0,0,0,0
1999,5,20,8,0,,17.8,10.4,63,101260,0,0,331,335,648,83,62162,66715,11548,0,270,4.2,0,0,0,0,0,0,0,0,0,0,0,0,0
1999,5,20,9,0,,18.8,10.4,58,101300,0,0,335,515,662,133,77085,68215,17218,0,290,3.8,0,0,0,0,0,0,0,0,0,0,0,0,0
1999,5,20,10,0,,19.7,9.9,53,101310,0,0,341,687,689,177,88558,70463,21644,0,290,6,0,0,0,0,0,0,0,0,0,0,0,0,0
1999,5,20,11,0,,20.4,9.3,48,101320,0,0,346,818,691,220,95681,69378,28399,0,290,7.3,1,0,0,0,0,0,0,0,0,0,0,0,0
1999,5,20,12,0,,21.6,8.8,43,101330,0,0,353,877,637,276,92899,63113,33778,0,290,5.2,1,0,0,0,0,0,0,0,0,0,0,0,0
1999,5,20,13,0,,21.6,7.5,39,101280,0,0,350,919,665,273,89423,65619,33467,0,290,7.2,1,0,0,0,0,0,0,0,0,0,0,0,0
1999,5,20,14,0,,22.6,6.3,34,101230,0,0,351,897,678,256,79582,66083,31769,0,290,5.5,0,0,0,0,0,0,0,0,0,0,0,0,0
1999,5,20,15,0,,23.4,5,30,101180,0,0,351,814,677,227,64411,65069,28108,0,290,5.3,0,0,0,0,0,0,0,0,0,0,0,0,0
1999,5,20,16,0,,23.3,5.6,32,101150,0,0,351,703,723,166,44266,63536,20936,0,290,6.3,0,0,0,0,0,0,0,0,0,0,0,0,0
1999,5,20,17,0,,22.8,6.2,34,101120,0,0,350,533,707,123,21725,42627,14718,0,290,7.2,0,0,0,0,0,0,0,0,0,0,0,0,0
1999,5,20,18,0,,22.7,6.8,36,101090,0,0,350,343,671,81,0,0,0,0,250,5.7,0,0,0,0,0,0,0,0,0,0,0,0,0
1999,5,20,19,0,,21.6,5.5,35,101110,0,0,343,157,622,39,0,0,0,0,270,5,0,0,0,0,0,0,0,0,0,0,0,0,0
1999,5,20,20,0,,20.3,4.3,33,101130,0,0,335,28,15,14,0,0,0,0,250,4.3,0,0,0,0,0,0,0,0,0,0,0,0,0
1999,5,20,21,0,,20,3,32,101150,0,0,332,0,0,0,0,0,0,0,250,3.5,0,0,0,0,0,0,0,0,0,0,0,0,0
1999,5,20,22,0,,20.5,2.5,31,101160,0,0,339,0,0,0,0,0,0,0,250,3.8,1,0,0,0,0,0,0,0,0,0,0,0,0
1999,5,20,23,0,,20.6,2,29,101180,0,0,342,0,0,0,0,0,0,0,250,4.3,1,0,0,0,0,0,0,0,0,0,0,0,0
1999,5,20,24,0,,20.5,1.5,28,101190,0,0,344,0,0,0,0,0,0,0,250,5.5,2,0,0,0,0,0,0,0,0,0,0,0,0
1999,5,21,1,0,,20.2,3.4,33,101200,0,0,342,0,0,0,0,0,0,0,250,4.2,1,0,0,0,0,0,0,0,0,0,0,0,0
1999,5,21,2,0,,20.2,5.2,38,101210,0,0,341,0,0,0,0,0,0,0,250,4.3,1,0,0,0,0,0,0,0,0,0,0,0,0
1999,5,21,3,0,,19.9,7.1,43,101220,0,0,337,0,0,0,0,0,0,0,250,4.3,0,0,0,0,0,0,0,0,0,0,0,0,0
1999,5,21,4,0,,19.8,7.1,43,101250,0,0,347,0,0,0,0,0,0,0,250,3.5,2,0,0,0,0,0,0,0,0,0,0,0,0
1999,5,21,5,0,,20,7,42,101280,0,0,355,0,0,0,0,0,0,0,250,3.3,4,0,0,0,0,0,0,0,0,0,0,0,0
1999,5,21,6,0,,20.2,7,42,101310,0,0,361,21,9,13,2096,822,1754,0,250,3.5,6,0,0,0,0,0,0,0,0,0,0,0,0
1999,5,21,7,0,,20.9,8.2,43,101340,0,0,369,115,329,53,29128,33394,9026,0,270,3.3,7,0,0,0,0,0,0,0,0,0,0,0,0
1999,5,21,8,0,,22.2,9.4,43,101380,0,0,381,259,322,134,42935,31531,18984,0,270,3,7,0,0,0,0,0,0,0,0,0,0,0,0
1999,5,21,9,0,,23.5,10.6,44,101410,0,0,393,362,207,242,47565,20279,29750,0,270,4.3,8,0,0,0,0,0,0,0,0,0,0,0,0
1999,5,21,10,0,,24.7,10.5,42,101420,0,0,403,471,182,336,56719,17774,39825,0,270,4.7,8,0,0,0,0,0,0,0,0,0,0,0,0
1999,5,21,11,0,,25.3,10.5,40,101430,0,0,409,491,118,389,56247,11556,45031,0,290,5,9,0,0,0,0,0,0,0,0,0,0,0,0
1999,5,21,12,0,,25.8,10.4,38,101440,0,0,415,510,98,418,56627,9475,47743,0,290,5.3,9,0,0,0,0,0,0,0,0,0,0,0,0
1999,5,21,13,0,,24.7,10.8,40,101420,0,0,403,556,113,447,60106,10945,50761,0,290,4.2,8,0,0,0,0,0,0,0,0,0,0,0,0
1999,5,21,14,0,,24.3,11.1,43,101400,0,0,396,527,107,426,55679,10314,48202,0,290,4.7,8,0,0,0,0,0,0,0,0,0,0,0,0
1999,5,21,15,0,,24.3,11.5,45,101380,0,0,393,534,148,406,53518,14214,45565,0,290,3.8,7,0,0,0,0,0,0,0,0,0,0,0,0
1999,5,21,16,0,,23.9,11.8,48,101370,0,0,393,454,161,334,42700,14872,37211,0,290,3.3,7,0,0,0,0,0,0,0,0,0,0,0,0
1999,5,21,17,0,,23.1,12.1,52,101350,0,0,391,309,128,234,27391,10090,25712,0,290,3.8,8,0,0,0,0,0,0,0,0,0,0,0,0
1999,5,21,18,0,,21.9,12.4,55,101340,0,0,387,184,109,141,0,0,0,0,290,3,8,0,0,0,0,0,0,0,0,0,0,0,0
1999,5,21,19,0,,21.1,11.2,53,101360,0,0,379,85,119,62,0,0,0,0,290,2.3,8,0,0,0,0,0,0,0,0,0,0,0,0
1999,5,21,20,0,,20.9,10,50,101390,0,0,375,17,4,13,0,0,0,0,270,2.5,7,0,0,0,0,0,0,0,0,0,0,0,0
1999,5,21,21,0,,20.3,8.8,48,101410,0,0,368,0,0,0,0,0,0,0,250,1.7,7,0,0,0,0,0,0,0,0,0,0,0,0
1999,5,21,22,0,,20.1,10.4,55,101410,0,0,373,0,0,0,0,0,0,0,70,0.7,8,0,0,0,0,0,0,0,0,0,0,0,0
1999,5,21,23,0,,19.6,12,63,101400,0,0,377,0,0,0,0,0,0,0,140,0.8,8,0,0,0,0,0,0,0,0,0,0,0,0
1999,5,21,24,0,,19.3,13.6,70,101400,0,0,383,0,0,0,0,0,0,0,180,1.3,9,0,0,0,0,0,0,0,0,0,0,0,0
1999,5,22,1,0,,18.9,13,68,101380,0,0,377,0,0,0,0,0,0,0,0,0,9,0,0,0,0,0,0,0,0,0,0,0,0
1999,5,22,2,0,,18.9,12.5,67,101360,0,0,374,0,0,0,0,0,0,0,140,1,8,0,0,0,0,0,0,0,0,0,0,0,0
1999,5,22,3,0,,18.6,11.9,65,101340,0,0,369,0,0,0,0,0,0,0,0,0,8,0,0,0,0,0,0,0,0,0,0,0,0
1999,5,22,4,0,,18.4,12.8,71,101350,0,0,369,0,0,0,0,0,0,0,110,0.3,8,0,0,0,0,0,0,0,0,0,0,0,0
1999,5,22,5,0,,18,13.7,76,101350,0,0,368,0,0,0,0,0,0,0,140,1.2,8,0,0,0,0,0,0,0,0,0,0,0,0
1999,5,22,6,0,,17.7,14.6,82,101360,0,0,368,11,1,10,1375,44,1357,0,180,1.5,8,0,0,0,0,0,0,0,0,0,0,0,0
1999,5,22,7,0,,18,15.4,82,101360,0,0,373,77,96,60,13920,8769,8631,0,90,1.5,8,0,0,0,0,0,0,0,0,0,0,0,0
1999,5,22,8,0,,18.8,16.1,81,101370,0,0,381,146,59,123,19975,5566,15742,0,320,0.8,9,0,0,0,0,0,0,0,0,0,0,0,0
1999,5,22,9,0,,20.3,16.9,81,101370,0,0,393,247,70,207,31427,6540,25677,0,320,1.5,9,0,0,0,0,0,0,0,0,0,0,0,0
1999,5,22,10,0,,21.7,15.4,72,101350,0,0,402,357,84,295,43046,7913,35520,0,50,2.2,9,0,0,0,0,0,0,0,0,0,0,0,0
1999,5,22,11,0,,21.2,14,64,101330,0,0,401,318,36,286,36626,3362,33360,0,50,2,10,0,0,0,0,0,0,0,0,0,0,0,0
1999,5,22,12,0,,22,12.5,55,101310,0,0,407,357,37,322,40517,3518,37215,0,20,2,10,0,0,0,0,0,0,0,0,0,0,0,0
1999,5,22,13,0,,22,13.1,56,101280,0,0,408,344,31,315,38777,2898,36300,0,50,2.7,10,0,0,0,0,0,0,0,0,0,0,0,0
1999,5,22,14,0,,22.3,13.6,57,101250,0,0,411,344,33,312,38126,3146,35842,0,50,2.8,10,0,0,0,0,0,0,0,0,0,0,0,0
1999,5,22,15,0,,22.9,14.2,58,101220,0,0,415,300,30,273,31987,2532,30567,0,50,2,10,0,0,0,0,0,0,0,0,0,0,0,0
1999,5,22,16,0,,22.7,14.3,60,101130,0,0,410,252,32,229,25517,2573,24563,0,20,1.3,10,0,0,0,0,0,0,0,0,0,0,0,0
1999,5,22,17,0,,22,14.5,62,101050,0,0,402,240,63,204,23339,4797,22531,0,180,1,9,0,0,0,0,0,0,0,0,0,0,0,0
1999,5,22,18,0,,21.7,14.6,64,100960,0,0,397,165,79,134,0,0,0,0,320,5,9,0,0,0,0,0,0,0,0,0,0,0,0
1999,5,22,19,0,,21.3,14.8,66,100990,0,0,389,84,113,63,0,0,0,0,230,2.5,8,0,0,0,0,0,0,0,0,0,0,0,0
1999,5,22,20,0,,20.6,14.9,69,101020,0,0,381,13,2,11,0,0,0,0,20,4.3,8,0,0,0,0,0,0,0,0,0,0,0,0
1999,5,22,21,0,,20.4,15.1,71,101050,0,0,377,0,0,0,0,0,0,0,250,3.3,7,0,0,0,0,0,0,0,0,0,0,0,0
1999,5,22,22,0,,19.9,15.1,73,101040,0,0,380,0,0,0,0,0,0,0,0,0,8,0,0,0,0,0,0,0,0,0,0,0,0
1999,5,22,23,0,,19.5,15.1,74,101020,0,0,386,0,0,0,0,0,0,0,290,2,9,0,0,0,0,0,0,0,0,0,0,0,0
1999,5,22,24,0,,19.5,15.1,76,101010,0,0,397,0,0,0,0,0,0,0,270,2,10,0,0,0,0,0,0,0,0,0,0,0,0
1999,5,23,1,0,,18.9,15.5,81,100970,0,0,394,0,0,0,0,0,0,0,270,2.2,10,0,0,0,0,0,0,0,0,0,0,0,0
1999,5,23,2,0,,18.5,16,86,100920,0,0,393,0,0,0,0,0,0,0,320,2.2,10,0,0,0,0,0,0,0,0,0,0,0,0
1999,5,23,3,0,,18,16.4,91,100880,0,0,391,0,0,0,0,0,0,0,0,0,10,0,0,0,0,0,0,0,0,0,0,0,0
1999,5,23,4,0,,17.8,16.3,91,100810,0,0,386,0,0,0,0,0,0,0,50,1.2,10,0,0,0,0,0,0,0,0,0,0,0,0
1999,5,23,5,0,,17.6,16.2,91,100740,0,0,381,0,0,0,0,0,0,0,200,1.3,9,0,0,0,0,0,0,0,0,0,0,0,0
1999,5,23,6,0,,17.7,16.1,91,100670,0,0,378,8,0,7,999,13,993,0,200,1.3,9,0,0,0,0,0,0,0,0,0,0,0,0
1999,5,23,7,0,,18,16.2,90,100650,0,0,380,62,49,53,10455,4458,7762,0,230,1.8,9,0,0,0,0,0,0,0,0,0,0,0,0
1999,5,23,8,0,,18.5,16.4,88,100620,0,0,382,142,53,121,19291,5025,15465,0,290,1.8,9,0,0,0,0,0,0,0,0,0,0,0,0
1999,5,23,9,0,,18.7,16.5,87,100600,0,0,384,222,51,192,28147,4824,23902,0,180,0.8,9,0,0,0,0,0,0,0,0,0,0,0,0
1999,5,23,10,0,,21.3,17,86,100570,0,0,402,351,79,292,42450,7372,35433,0,140,3.8,9,0,0,0,0,0,0,0,0,0,0,0,0
1999,5,23,11,0,,19.9,17.6,84,100530,0,0,398,264,22,245,30794,1946,28902,0,340,1.3,10,0,0,0,0,0,0,0,0,0,0,0,0
1999,5,23,12,0,,21.1,18.1,83,100500,0,0,410,299,23,278,34574,2072,32628,0,360,0.7,10,0,0,0,0,0,0,0,0,0,0,0,0
1999,5,23,13,0,,21.5,18.4,83,100440,0,0,412,284,18,267,32809,1250,31738,0,290,1.7,10,0,0,0,0,0,0,0,0,0,0,0,0
1999,5,23,14,0,,22.5,18.6,83,100370,0,0,418,359,37,323,39919,3398,37447,0,140,5.2,10,0,0,0,0,0,0,0,0,0,0,0,0
1999,5,23,15,0,,21.8,18.9,83,100310,0,0,415,269,23,249,28947,1690,27996,0,110,4,10,0,0,0,0,0,0,0,0,0,0,0,0
1999,5,23,16,0,,21.5,18.6,83,100230,0,0,413,236,26,217,24051,1955,23322,0,110,5,10,0,0,0,0,0,0,0,0,0,0,0,0
1999,5,23,17,0,,21.2,18.4,84,100150,0,0,411,164,22,151,15575,1214,15368,0,90,5.7,10,0,0,0,0,0,0,0,0,0,0,0,0
1999,5,23,18,0,,20.9,18.1,84,100070,0,0,409,113,27,102,0,0,0,0,110,3.8,10,0,0,0,0,0,0,0,0,0,0,0,0
1999,5,23,19,0,,20.4,18.2,86,100070,0,0,406,49,23,44,0,0,0,0,90,4.5,10,0,0,0,0,0,0,0,0,0,0,0,0
1999,5,23,20,0,,19.9,18.3,87,100060,0,0,404,5,0,5,0,0,0,0,90,5,10,0,0,0,0,0,0,0,0,0,0,0,0
1999,5,23,21,0,,20.3,18.4,89,100060,0,0,406,0,0,0,0,0,0,0,110,3.5,10,0,0,0,0,0,0,0,0,0,0,0,0
1999,5,23,22,0,,20.4,18.6,89,99980,0,0,407,0,0,0,0,0,0,0,140,2.5,10,0,0,0,0,0,0,0,0,0,0,0,0
1999,5,23,23,0,,20.4,18.7,90,99900,0,0,407,0,0,0,0,0,0,0,20,0.7,10,0,0,0,0,0,0,0,0,0,0,0,0
1999,5,23,24,0,,20.5,18.9,90,99820,0,0,408,0,0,0,0,0,0,0,0,0,10,0,0,0,0,0,0,0,0,0,0,0,0
1999,5,24,1,0,,20.3,19.6,89,99750,0,0,408,0,0,0,0,0,0,0,340,1,10,0,0,0,0,0,0,0,0,0,0,0,0
1999,5,24,2,0,,20.4,20.4,89,99690,0,0,409,0,0,0,0,0,0,0,250,3.8,10,0,0,0,0,0,0,0,0,0,0,0,0
1999,5,24,3,0,,23.2,21.1,88,99620,0,0,426,0,0,0,0,0,0,0,230,6.7,10,0,0,0,0,0,0,0,0,0,0,0,0
1999,5,24,4,0,,23.3,20.8,88,99570,0,0,426,0,0,0,0,0,0,0,250,4.2,10,0,0,0,0,0,0,0,0,0,0,0,0
1999,5,24,5,0,,23,20.5,88,99520,0,0,424,0,0,0,0,0,0,0,250,4.8,10,0,0,0,0,0,0,0,0,0,0,0,0
1999,5,24,6,0,,22.4,20.2,88,99470,0,0,420,4,0,3,497,0,497,0,250,3.5,10,0,0,0,0,0,0,0,0,0,0,0,0
1999,5,24,7,0,,22.8,20.2,87,99480,0,0,422,48,23,44,7271,2065,6021,0,250,4.3,10,0,0,0,0,0,0,0,0,0,0,0,0
1999,5,24,8,0,,22.5,20.2,87,99480,0,0,421,116,30,104,14618,2620,12621,0,250,5,10,0,0,0,0,0,0,0,0,0,0,0,0
1999,5,24,9,0,,22.6,20.2,86,99490,0,0,421,184,31,167,22318,2679,19958,0,270,5.7,10,0,0,0,0,0,0,0,0,0,0,0,0
1999,5,24,10,0,,21.6,18.7,87,99560,0,0,413,220,22,204,26104,1955,24242,0,250,5.2,10,0,0,0,0,0,0,0,0,0,0,0,0
1999,5,24,11,0,,19.7,17.1,89,99630,0,0,401,235,16,221,27526,1404,26160,0,250,7.3,10,0,0,0,0,0,0,0,0,0,0,0,0
1999,5,24,12,0,,17.2,15.6,90,99700,0,0,385,200,7,193,24348,464,23912,0,270,6,10,0,0,0,0,0,0,0,0,0,0,0,0
1999,5,24,13,0,,17.1,15.4,90,99780,0,0,385,225,9,216,26716,626,26179,0,290,6.3,10,0,0,0,0,0,0,0,0,0,0,0,0
1999,5,24,14,0,,16.6,15.3,89,99850,0,0,382,239,12,227,27394,858,26769,0,290,5.3,10,0,0,0,0,0,0,0,0,0,0,0,0
1999,5,24,15,0,,16.9,15.1,89,99930,0,0,383,254,19,238,27716,1477,26883,0,290,5.3,10,0,0,0,0,0,0,0,0,0,0,0,0
1999,5,24,16,0,,17.4,14.9,88,99950,0,0,386,233,25,214,23882,1939,23156,0,290,5.3,10,0,0,0,0,0,0,0,0,0,0,0,0
1999,5,24,17,0,,17.2,14.8,87,99980,0,0,384,190,32,171,17701,2259,17312,0,290,5.7,10,0,0,0,0,0,0,0,0,0,0,0,0
1999,5,24,18,0,,16.8,14.6,86,100000,0,0,382,116,29,105,0,0,0,0,290,5,10,0,0,0,0,0,0,0,0,0,0,0,0
1999,5,24,19,0,,16.7,14.4,86,100100,0,0,377,53,28,47,0,0,0,0,290,5.2,10,0,0,0,0,0,0,0,0,0,0,0,0
1999,5,24,20,0,,16.5,14.2,85,100200,0,0,373,11,1,10,0,0,0,0,290,5.2,9,0,0,0,0,0,0,0,0,0,0,0,0
1999,5,24,21,0,,16.5,14,85,100300,0,0,369,0,0,0,0,0,0,0,250,3.7,9,0,0,0,0,0,0,0,0,0,0,0,0
1999,5,24,22,0,,16.4,13.9,86,100340,0,0,359,0,0,0,0,0,0,0,290,3.5,8,0,0,0,0,0,0,0,0,0,0,0,0
1999,5,24,23,0,,16.1,13.9,86,100390,0,0,351,0,0,0,0,0,0,0,290,3.3,6,0,0,0,0,0,0,0,0,0,0,0,0
1999,5,24,24,0,,16,13.8,87,100430,0,0,346,0,0,0,0,0,0,0,270,2.8,5,0,0,0,0,0,0,0,0,0,0,0,0
1999,5,25,1,0,,15.8,13.6,86,100430,0,0,346,0,0,0,0,0,0,0,270,2.7,5,0,0,0,0,0,0,0,0,0,0,0,0
1999,5,25,2,0,,15.7,13.4,86,100430,0,0,346,0,0,0,0,0,0,0,270,3,6,0,0,0,0,0,0,0,0,0,0,0,0
1999,5,25,3,0,,15.7,13.2,85,100430,0,0,347,0,0,0,0,0,0,0,290,2.8,6,0,0,0,0,0,0,0,0,0,0,0,0
1999,5,25,4,0,,15.6,12.7,82,100470,0,0,350,0,0,0,0,0,0,0,250,3,7,0,0,0,0,0,0,0,0,0,0,0,0
1999,5,25,5,0,,15.6,12.3,80,100520,0,0,355,0,0,0,0,0,0,0,270,2.7,8,0,0,0,0,0,0,0,0,0,0,0,0
1999,5,25,6,0,,15.6,11.8,77,100560,0,0,362,9,1,8,1162,22,1153,0,250,1.2,9,0,0,0,0,0,0,0,0,0,0,0,0
1999,5,25,7,0,,16,11.6,71,100590,0,0,358,88,128,63,17478,12220,10075,0,250,1.5,8,0,0,0,0,0,0,0,0,0,0,0,0
1999,5,25,8,0,,17.6,11.4,66,100610,0,0,361,204,146,146,29823,14217,18977,0,320,0.7,8,0,0,0,0,0,0,0,0,0,0,0,0
1999,5,25,9,0,,19.3,11.2,60,100640,0,0,366,381,236,244,50274,23030,29975,0,340,1.5,7,0,0,0,0,0,0,0,0,0,0,0,0
1999,5,25,10,0,,20.3,11.9,61,100630,0,0,365,593,434,270,74615,42042,34538,0,320,2,5,0,0,0,0,0,0,0,0,0,0,0,0
1999,5,25,11,0,,20.5,12.5,61,100610,0,0,361,731,481,313,84253,46325,39149,0,340,2.5,3,0,0,0,0,0,0,0,0,0,0,0,0
1999,5,25,12,0,,20.8,13.2,62,100600,0,0,355,795,451,368,85348,43026,44854,0,320,3.2,1,0,0,0,0,0,0,0,0,0,0,0,0
1999,5,25,13,0,,20.1,14.2,67,100540,0,0,350,796,310,493,82048,29107,57075,0,320,4.5,1,0,0,0,0,0,0,0,0,0,0,0,0
1999,5,25,14,0,,20.7,15.1,71,100490,0,0,352,772,313,475,75551,28739,54575,0,320,4.2,0,0,0,0,0,0,0,0,0,0,0,0,0
1999,5,25,15,0,,20.4,16.1,76,100430,0,0,349,709,337,415,64732,29717,47927,0,320,5,0,0,0,0,0,0,0,0,0,0,0,0,0
1999,5,25,16,0,,20.1,16.3,79,100430,0,0,348,601,444,268,45938,35311,32658,0,320,5,0,0,0,0,0,0,0,0,0,0,0,0,0
1999,5,25,17,0,,20.1,16.4,82,100430,0,0,348,461,458,191,26813,22976,22802,0,320,4.7,0,0,0,0,0,0,0,0,0,0,0,0,0
1999,5,25,18,0,,19.2,16.6,85,100430,0,0,344,303,461,119,0,0,0,0,320,3.7,0,0,0,0,0,0,0,0,0,0,0,0,0
1999,5,25,19,0,,18.5,16.4,86,100490,0,0,351,137,376,62,0,0,0,0,290,2.5,2,0,0,0,0,0,0,0,0,0,0,0,0
1999,5,25,20,0,,18.2,16.2,87,100550,0,0,355,25,11,14,0,0,0,0,290,1.5,3,0,0,0,0,0,0,0,0,0,0,0,0
1999,5,25,21,0,,18.1,16,88,100610,0,0,359,0,0,0,0,0,0,0,320,2,5,0,0,0,0,0,0,0,0,0,0,0,0
1999,5,25,22,0,,17.8,15.7,89,100620,0,0,363,0,0,0,0,0,0,0,290,2,7,0,0,0,0,0,0,0,0,0,0,0,0
1999,5,25,23,0,,17.4,15.4,89,100630,0,0,370,0,0,0,0,0,0,0,360,0.5,8,0,0,0,0,0,0,0,0,0,0,0,0
1999,5,25,24,0,,16.8,15.1,90,100640,0,0,383,0,0,0,0,0,0,0,360,0.7,10,0,0,0,0,0,0,0,0,0,0,0,0
1999,5,26,1,0,,16.3,13.7,84,100620,0,0,368,0,0,0,0,0,0,0,0,0,9,0,0,0,0,0,0,0,0,0,0,0,0
1999,5,26,2,0,,15.9,12.4,79,100600,0,0,356,0,0,0,0,0,0,0,180,1.7,8,0,0,0,0,0,0,0,0,0,0,0,0
1999,5,26,3,0,,15.8,11,73,100580,0,0,349,0,0,0,0,0,0,0,200,1.7,7,0,0,0,0,0,0,0,0,0,0,0,0
1999,5,26,4,0,,16.5,11.1,73,100570,0,0,354,0,0,0,0,0,0,0,160,1.8,7,0,0,0,0,0,0,0,0,0,0,0,0
1999,5,26,5,0,,16.3,11.1,73,100550,0,0,355,0,0,0,0,0,0,0,160,1.5,8,0,0,0,0,0,0,0,0,0,0,0,0
1999,5,26,6,0,,16,11.2,73,100540,0,0,355,14,2,12,1556,192,1475,0,110,1,8,0,0,0,0,0,0,0,0,0,0,0,0
1999,5,26,7,0,,16.6,12.7,77,100500,0,0,363,83,108,63,16238,10205,10046,0,90,0.8,8,0,0,0,0,0,0,0,0,0,0,0,0
1999,5,26,8,0,,18.2,14.3,80,100470,0,0,375,168,84,135,23115,8029,16984,0,50,2,9,0,0,0,0,0,0,0,0,0,0,0,0
1999,5,26,9,0,,18.6,15.8,84,100430,0,0,382,238,61,202,30133,5814,25005,0,50,1.8,9,0,0,0,0,0,0,0,0,0,0,0,0
1999,5,26,10,0,,19,16,84,100400,0,0,382,314,58,271,36788,5324,31709,0,50,2.8,9,0,0,0,0,0,0,0,0,0,0,0,0
1999,5,26,11,0,,18.6,16.2,83,100360,0,0,377,398,66,341,45602,6100,39659,0,70,2.8,8,0,0,0,0,0,0,0,0,0,0,0,0
1999,5,26,12,0,,19.5,16.4,83,100330,0,0,380,473,79,398,52890,7324,45991,0,20,2.5,8,0,0,0,0,0,0,0,0,0,0,0,0
1999,5,26,13,0,,19,16.3,85,100310,0,0,382,369,37,333,41532,3396,38614,0,360,2,9,0,0,0,0,0,0,0,0,0,0,0,0
1999,5,26,14,0,,18.6,16.3,87,100280,0,0,386,345,33,313,38400,3081,36147,0,360,1.3,9,0,0,0,0,0,0,0,0,0,0,0,0
1999,5,26,15,0,,18.1,16.2,89,100260,0,0,391,236,16,223,25969,1140,25323,0,340,3,10,0,0,0,0,0,0,0,0,0,0,0,0
1999,5,26,16,0,,17.9,16.1,89,100190,0,0,390,180,12,171,19098,793,18799,0,340,0.8,10,0,0,0,0,0,0,0,0,0,0,0,0
1999,5,26,17,0,,17.7,16,90,100130,0,0,389,145,15,136,14174,757,14040,0,290,1,10,0,0,0,0,0,0,0,0,0,0,0,0
1999,5,26,18,0,,17.7,15.9,90,100060,0,0,388,92,14,86,0,0,0,0,0,0,10,0,0,0,0,0,0,0,0,0,0,0,0
1999,5,26,19,0,,17.5,15.7,90,100030,0,0,387,49,21,45,0,0,0,0,50,1.3,10,0,0,0,0,0,0,0,0,0,0,0,0
1999,5,26,20,0,,17.5,15.5,89,100000,0,0,387,5,0,5,0,0,0,0,70,1.8,10,0,0,0,0,0,0,0,0,0,0,0,0
1999,5,26,21,0,,17.2,15.3,89,99970,0,0,385,0,0,0,0,0,0,0,70,2.5,10,0,0,0,0,0,0,0,0,0,0,0,0
1999,5,26,22,0,,17.4,15.3,89,99960,0,0,386,0,0,0,0,0,0,0,90,3.2,10,0,0,0,0,0,0,0,0,0,0,0,0
1999,5,26,23,0,,17.2,15.4,89,99950,0,0,385,0,0,0,0,0,0,0,250,2.8,10,0,0,0,0,0,0,0,0,0,0,0,0
1999,5,26,24,0,,17.3,15.4,89,99940,0,0,386,0,0,0,0,0,0,0,270,1.8,10,0,0,0,0,0,0,0,0,0,0,0,0
1999,5,27,1,0,,17.3,15.4,89,99940,0,0,386,0,0,0,0,0,0,0,290,1.8,10,0,0,0,0,0,0,0,0,0,0,0,0
1999,5,27,2,0,,17.4,15.4,89,99930,0,0,386,0,0,0,0,0,0,0,50,1.5,10,0,0,0,0,0,0,0,0,0,0,0,0
1999,5,27,3,0,,17.1,15.4,89,99930,0,0,385,0,0,0,0,0,0,0,50,2.5,10,0,0,0,0,0,0,0,0,0,0,0,0
1999,5,27,4,0,,16.5,15.1,89,100000,0,0,381,0,0,0,0,0,0,0,70,3.7,10,0,0,0,0,0,0,0,0,0,0,0,0
1999,5,27,5,0,,16.3,14.8,90,100060,0,0,380,0,0,0,0,0,0,0,110,1.3,10,0,0,0,0,0,0,0,0,0,0,0,0
1999,5,27,6,0,,16.1,14.5,90,100130,0,0,378,3,0,3,471,0,471,0,110,1.3,10,0,0,0,0,0,0,0,0,0,0,0,0
1999,5,27,7,0,,16.1,15,90,100200,0,0,359,76,81,60,13281,7497,8727,0,110,1.2,8,0,0,0,0,0,0,0,0,0,0,0,0
1999,5,27,8,0,,16.7,15.6,89,100270,0,0,352,248,258,145,39729,24285,21171,0,140,1.2,5,0,0,0,0,0,0,0,0,0,0,0,0
1999,5,27,9,0,,18,16.1,89,100340,0,0,353,437,393,207,61283,36907,28710,0,20,2,3,0,0,0,0,0,0,0,0,0,0,0,0
1999,5,27,10,0,,19.3,16,86,100400,0,0,362,581,336,330,72124,31502,42058,0,20,3.2,4,0,0,0,0,0,0,0,0,0,0,0,0
1999,5,27,11,0,,19.4,15.9,82,100470,0,0,365,620,223,425,71101,20701,50918,0,20,1.8,5,0,0,0,0,0,0,0,0,0,0,0,0
1999,5,27,12,0,,19.6,15.8,79,100530,0,0,369,626,169,466,69089,15723,54267,0,360,3.7,6,0,0,0,0,0,0,0,0,0,0,0,0
1999,5,27,13,0,,19.9,15.9,78,100510,0,0,372,621,150,474,66990,13863,55069,0,20,2.7,6,0,0,0,0,0,0,0,0,0,0,0,0
1999,5,27,14,0,,20.1,15.9,78,100500,0,0,374,543,114,435,57440,10717,49592,0,340,2.8,7,0,0,0,0,0,0,0,0,0,0,0,0
1999,5,27,15,0,,20,16,77,100480,0,0,376,508,126,398,51808,11791,45106,0,320,3.7,7,0,0,0,0,0,0,0,0,0,0,0,0
1999,5,27,16,0,,19.4,15.7,77,100470,0,0,374,410,117,322,40211,10575,36198,0,320,3.2,7,0,0,0,0,0,0,0,0,0,0,0,0
1999,5,27,17,0,,19.6,15.4,78,100450,0,0,377,282,94,227,26377,7308,25072,0,320,3.2,8,0,0,0,0,0,0,0,0,0,0,0,0
1999,5,27,18,0,,19.1,15.1,78,100440,0,0,376,182,97,143,0,0,0,0,340,3.2,8,0,0,0,0,0,0,0,0,0,0,0,0
1999,5,27,19,0,,18,14.9,79,100490,0,0,370,82,89,64,0,0,0,0,290,2.8,8,0,0,0,0,0,0,0,0,0,0,0,0
1999,5,27,20,0,,17.8,14.6,81,100550,0,0,369,15,2,13,0,0,0,0,290,3.3,8,0,0,0,0,0,0,0,0,0,0,0,0
1999,5,27,21,0,,17.5,14.4,82,100600,0,0,367,0,0,0,0,0,0,0,290,2.8,8,0,0,0,0,0,0,0,0,0,0,0,0
1999,5,27,22,0,,17.6,14.4,82,100650,0,0,367,0,0,0,0,0,0,0,270,2.5,8,0,0,0,0,0,0,0,0,0,0,0,0
1999,5,27,23,0,,17.4,14.5,83,100690,0,0,366,0,0,0,0,0,0,0,270,2.8,8,0,0,0,0,0,0,0,0,0,0,0,0
1999,5,27,24,0,,17.4,14.5,83,100740,0,0,366,0,0,0,0,0,0,0,290,2.5,8,0,0,0,0,0,0,0,0,0,0,0,0
1999,5,28,1,0,,17.2,14,82,100720,0,0,363,0,0,0,0,0,0,0,270,2.7,8,0,0,0,0,0,0,0,0,0,0,0,0
1999,5,28,2,0,,16.9,13.6,80,100710,0,0,359,0,0,0,0,0,0,0,320,3.5,7,0,0,0,0,0,0,0,0,0,0,0,0
1999,5,28,3,0,,16.8,13.1,79,100690,0,0,356,0,0,0,0,0,0,0,250,1.3,7,0,0,0,0,0,0,0,0,0,0,0,0
1999,5,28,4,0,,16.5,12.1,75,100730,0,0,353,0,0,0,0,0,0,0,270,1.8,7,0,0,0,0,0,0,0,0,0,0,0,0
1999,5,28,5,0,,16.5,11,72,100780,0,0,352,0,0,0,0,0,0,0,320,2,7,0,0,0,0,0,0,0,0,0,0,0,0
1999,5,28,6,0,,16,10,68,100820,0,0,348,18,4,14,1878,386,1714,0,270,2.3,7,0,0,0,0,0,0,0,0,0,0,0,0
1999,5,28,7,0,,16.2,7.4,56,100820,0,0,348,109,232,64,24713,23514,10415,0,250,2,7,0,0,0,0,0,0,0,0,0,0,0,0
1999,5,28,8,0,,17.1,4.7,45,100820,0,0,351,218,173,149,32159,17618,18685,0,360,2,8,0,0,0,0,0,0,0,0,0,0,0,0
1999,5,28,9,0,,18.4,2.1,33,100820,0,0,356,352,183,245,45459,18847,28816,0,340,1.8,8,0,0,0,0,0,0,0,0,0,0,0,0
1999,5,28,10,0,,19.3,-1.5,26,100810,0,0,344,620,500,247,78389,50472,30190,0,90,1,5,0,0,0,0,0,0,0,0,0,0,0,0
1999,5,28,11,0,,20.6,-5,20,100790,0,0,338,807,653,239,93846,66266,29199,0,50,1.5,3,0,0,0,0,0,0,0,0,0,0,0,0
1999,5,28,12,0,,20.6,-8.6,13,100780,0,0,319,901,675,259,95397,68275,30981,0,340,1.7,0,0,0,0,0,0,0,0,0,0,0,0,0
1999,5,28,13,0,,20.9,-4.6,20,100750,0,0,327,920,653,282,89315,65085,33285,0,340,2.7,0,0,0,0,0,0,0,0,0,0,0,0,0
1999,5,28,14,0,,21,-0.6,26,100730,0,0,333,869,601,296,79012,60282,34800,0,340,3.3,0,0,0,0,0,0,0,0,0,0,0,0,0
1999,5,28,15,0,,19.7,3.4,33,100700,0,0,332,765,545,287,63821,52675,33807,0,340,4.5,0,0,0,0,0,0,0,0,0,0,0,0,0
1999,5,28,16,0,,20,5.3,39,100700,0,0,335,640,536,237,45419,47693,27241,0,320,3.5,0,0,0,0,0,0,0,0,0,0,0,0,0
1999,5,28,17,0,,19.9,7.3,46,100690,0,0,337,494,548,169,25084,32903,19150,0,320,3.3,0,0,0,0,0,0,0,0,0,0,0,0,0
1999,5,28,18,0,,19.1,9.2,52,100690,0,0,335,331,563,103,0,0,0,0,320,3.2,0,0,0,0,0,0,0,0,0,0,0,0,0
1999,5,28,19,0,,18.5,10.1,59,100730,0,0,334,157,509,52,0,0,0,0,290,2.8,0,0,0,0,0,0,0,0,0,0,0,0,0
1999,5,28,20,0,,17.4,11,67,100780,0,0,330,30,18,13,0,0,0,0,290,2.7,0,0,0,0,0,0,0,0,0,0,0,0,0
1999,5,28,21,0,,16.6,11.9,74,100820,0,0,327,0,0,0,0,0,0,0,320,2.3,0,0,0,0,0,0,0,0,0,0,0,0,0
1999,5,28,22,0,,15.9,11,73,100850,0,0,323,0,0,0,0,0,0,0,290,2,0,0,0,0,0,0,0,0,0,0,0,0,0
1999,5,28,23,0,,15,10.2,71,100880,0,0,318,0,0,0,0,0,0,0,200,2,0,0,0,0,0,0,0,0,0,0,0,0,0
1999,5,28,24,0,,14.6,9.3,70,100910,0,0,315,0,0,0,0,0,0,0,230,2,0,0,0,0,0,0,0,0,0,0,0,0,0
1999,5,29,1,0,,14.2,9.1,71,100910,0,0,313,0,0,0,0,0,0,0,230,2.5,0,0,0,0,0,0,0,0,0,0,0,0,0
1999,5,29,2,0,,13.7,8.8,72,100910,0,0,311,0,0,0,0,0,0,0,200,2,0,0,0,0,0,0,0,0,0,0,0,0,0
1999,5,29,3,0,,13.3,8.6,73,100910,0,0,309,0,0,0,0,0,0,0,200,1.7,0,0,0,0,0,0,0,0,0,0,0,0,0
1999,5,29,4,0,,12.9,8.3,73,100920,0,0,307,0,0,0,0,0,0,0,200,1.2,0,0,0,0,0,0,0,0,0,0,0,0,0
1999,5,29,5,0,,12.7,8,72,100930,0,0,305,0,0,0,0,0,0,0,200,1.7,0,0,0,0,0,0,0,0,0,0,0,0,0
1999,5,29,6,0,,12.5,7.7,72,100940,0,0,304,29,12,17,2804,1145,2317,0,200,1.8,0,0,0,0,0,0,0,0,0,0,0,0,0
1999,5,29,7,0,,13.4,8.8,71,100980,0,0,309,148,484,52,38300,49920,7915,0,200,1.2,0,0,0,0,0,0,0,0,0,0,0,0,0
1999,5,29,8,0,,15.4,9.8,69,101010,0,0,319,330,588,96,59741,60765,13240,0,360,1.2,0,0,0,0,0,0,0,0,0,0,0,0,0
1999,5,29,9,0,,16.7,10.9,68,101050,0,0,326,509,617,148,74888,63427,18848,0,360,2.8,0,0,0,0,0,0,0,0,0,0,0,0,0
1999,5,29,10,0,,18.2,11,66,101050,0,0,333,676,641,196,87771,64487,26156,0,360,2.2,0,0,0,0,0,0,0,0,0,0,0,0,0
1999,5,29,11,0,,18.6,11,64,101060,0,0,335,762,548,284,87753,54231,34815,0,360,3.2,0,0,0,0,0,0,0,0,0,0,0,0,0
1999,5,29,12,0,,18.5,11.1,62,101060,0,0,335,808,473,358,86462,45819,43199,0,20,2.8,0,0,0,0,0,0,0,0,0,0,0,0,0
1999,5,29,13,0,,18.5,11.2,62,101000,0,0,335,806,319,493,82380,30873,55774,0,20,3,0,0,0,0,0,0,0,0,0,0,0,0,0
1999,5,29,14,0,,18.5,11.2,61,100930,0,0,335,775,313,477,75772,29764,53908,0,20,2.2,0,0,0,0,0,0,0,0,0,0,0,0,0
1999,5,29,15,0,,19.1,11.3,61,100870,0,0,338,723,447,331,62647,41776,38786,0,50,2.7,0,0,0,0,0,0,0,0,0,0,0,0,0
1999,5,29,16,0,,19.5,11.4,62,100850,0,0,340,636,522,242,45731,44455,28714,0,20,2.8,0,0,0,0,0,0,0,0,0,0,0,0,0
1999,5,29,17,0,,19.2,11.5,62,100840,0,0,338,496,553,168,25368,31793,19575,0,50,2.3,0,0,0,0,0,0,0,0,0,0,0,0,0
1999,5,29,18,0,,18.9,11.6,63,100820,0,0,337,326,533,109,0,0,0,0,20,2.3,0,0,0,0,0,0,0,0,0,0,0,0,0
1999,5,29,19,0,,18.5,11.8,67,100850,0,0,335,153,469,56,0,0,0,0,50,1.2,0,0,0,0,0,0,0,0,0,0,0,0,0
1999,5,29,20,0,,17.5,11.9,70,100880,0,0,331,32,14,18,0,0,0,0,50,1.5,0,0,0,0,0,0,0,0,0,0,0,0,0
1999,5,29,21,0,,16.8,12.1,74,100910,0,0,328,0,0,0,0,0,0,0,0,0,0,0,0,0,0,0,0,0,0,0,0,0,0
1999,5,29,22,0,,16.5,8.8,63,100930,0,0,323,0,0,0,0,0,0,0,180,1.5,0,0,0,0,0,0,0,0,0,0,0,0,0
1999,5,29,23,0,,16,5.4,51,100960,0,0,317,0,0,0,0,0,0,0,180,2,0,0,0,0,0,0,0,0,0,0,0,0,0
1999,5,29,24,0,,15.4,2.1,40,100980,0,0,311,0,0,0,0,0,0,0,180,1.8,0,0,0,0,0,0,0,0,0,0,0,0,0
1999,5,30,1,0,,15.4,3.6,47,100980,0,0,312,0,0,0,0,0,0,0,180,1.5,0,0,0,0,0,0,0,0,0,0,0,0,0
1999,5,30,2,0,,15.3,5.2,54,100980,0,0,314,0,0,0,0,0,0,0,180,1.7,0,0,0,0,0,0,0,0,0,0,0,0,0
1999,5,30,3,0,,14.1,6.7,61,100980,0,0,310,0,0,0,0,0,0,0,160,2,0,0,0,0,0,0,0,0,0,0,0,0,0
1999,5,30,4,0,,13.6,5.2,56,100990,0,0,315,0,0,0,0,0,0,0,160,2.2,2,0,0,0,0,0,0,0,0,0,0,0,0
1999,5,30,5,0,,13.5,3.6,52,101000,0,0,318,0,0,0,0,0,0,0,160,1.8,3,0,0,0,0,0,0,0,0,0,0,0,0
1999,5,30,6,0,,13.1,2.1,47,101010,0,0,318,27,13,14,2414,1284,1868,0,160,1.7,5,0,0,0,0,0,0,0,0,0,0,0,0
1999,5,30,7,0,,13.8,1.9,42,101060,0,0,321,139,402,59,33860,41167,8780,0,160,0.8,5,0,0,0,0,0,0,0,0,0,0,0,0
1999,5,30,8,0,,15.3,1.7,38,101100,0,0,326,320,539,105,56414,55209,14140,0,0,0,4,0,0,0,0,0,0,0,0,0,0,0,0
1999,5,30,9,0,,17.8,1.5,33,101150,0,0,337,503,596,154,74944,60981,21039,0,0,0,4,0,0,0,0,0,0,0,0,0,0,0,0
1999,5,30,10,0,,20.9,6.2,46,101140,0,0,354,716,743,160,92462,76130,19687,0,20,1.5,3,0,0,0,0,0,0,0,0,0,0,0,0
1999,5,30,11,0,,21.7,11,58,101120,0,0,358,856,761,192,99108,77779,23141,0,50,5.3,1,0,0,0,0,0,0,0,0,0,0,0,0
1999,5,30,12,0,,21.3,15.7,71,101110,0,0,353,846,555,318,90039,52168,40745,0,50,5.7,0,0,0,0,0,0,0,0,0,0,0,0,0
1999,5,30,13,0,,21.2,15.7,71,101090,0,0,353,815,330,491,83970,30494,57663,0,70,6.3,0,0,0,0,0,0,0,0,0,0,0,0,0
1999,5,30,14,0,,21,15.6,72,101060,0,0,352,790,331,474,76913,30333,54597,0,50,6.7,0,0,0,0,0,0,0,0,0,0,0,0,0
1999,5,30,15,0,,20.9,15.6,72,101040,0,0,351,737,478,318,63170,42707,38718,0,70,6.3,0,0,0,0,0,0,0,0,0,0,0,0,0
1999,5,30,16,0,,22.5,12.7,59,101010,0,0,361,673,614,209,46556,52249,26473,0,70,5.5,1,0,0,0,0,0,0,0,0,0,0,0,0
1999,5,30,17,0,,24.7,9.9,46,100970,0,0,372,557,734,120,23505,46216,15000,0,90,4.5,1,0,0,0,0,0,0,0,0,0,0,0,0
1999,5,30,18,0,,24.3,7,33,100940,0,0,370,377,742,73,0,0,0,0,90,3.3,2,0,0,0,0,0,0,0,0,0,0,0,0
1999,5,30,19,0,,23.9,7,36,100980,0,0,368,178,658,41,0,0,0,0,230,3.3,2,0,0,0,0,0,0,0,0,0,0,0,0
1999,5,30,20,0,,22.1,7,39,101030,0,0,359,34,17,17,0,0,0,0,270,1,2,0,0,0,0,0,0,0,0,0,0,0,0
1999,5,30,21,0,,20.2,7,42,101070,0,0,349,0,0,0,0,0,0,0,20,0.7,2,0,0,0,0,0,0,0,0,0,0,0,0
1999,5,30,22,0,,18.8,8.2,48,101090,0,0,342,0,0,0,0,0,0,0,200,1.2,2,0,0,0,0,0,0,0,0,0,0,0,0
1999,5,30,23,0,,19,9.3,53,101120,0,0,343,0,0,0,0,0,0,0,200,1,1,0,0,0,0,0,0,0,0,0,0,0,0
1999,5,30,24,0,,18.5,10.5,59,101140,0,0,340,0,0,0,0,0,0,0,180,2.2,1,0,0,0,0,0,0,0,0,0,0,0,0
1999,5,31,1,0,,18.4,10.2,60,101110,0,0,340,0,0,0,0,0,0,0,180,1.8,1,0,0,0,0,0,0,0,0,0,0,0,0
1999,5,31,2,0,,17.9,10,60,101090,0,0,337,0,0,0,0,0,0,0,180,1,1,0,0,0,0,0,0,0,0,0,0,0,0
1999,5,31,3,0,,17.2,9.7,61,101060,0,0,333,0,0,0,0,0,0,0,160,1,1,0,0,0,0,0,0,0,0,0,0,0,0
1999,5,31,4,0,,17.1,9.9,63,101060,0,0,331,0,0,0,0,0,0,0,180,1.7,1,0,0,0,0,0,0,0,0,0,0,0,0
1999,5,31,5,0,,16.8,10.2,64,101070,0,0,328,0,0,0,0,0,0,0,160,2.3,0,0,0,0,0,0,0,0,0,0,0,0,0
1999,5,31,6,0,,16.6,10.4,66,101070,0,0,325,31,14,16,2845,1322,2283,0,200,2.3,0,0,0,0,0,0,0,0,0,0,0,0,0
1999,5,31,7,0,,17.5,10.6,61,101070,0,0,330,156,543,48,40978,55544,7112,0,320,1.5,0,0,0,0,0,0,0,0,0,0,0,0,0
1999,5,31,8,0,,19.3,10.8,56,101070,0,0,338,340,623,91,62053,64575,12581,0,20,1.2,0,0,0,0,0,0,0,0,0,0,0,0,0
1999,5,31,9,0,,21.3,11,51,101070,0,0,348,532,684,130,79380,70678,16877,0,20,1.5,0,0,0,0,0,0,0,0,0,0,0,0,0
1999,5,31,10,0,,22.3,13.5,60,101070,0,0,358,680,649,194,88395,65041,26193,0,360,2.5,0,0,0,0,0,0,0,0,0,0,0,0,0
1999,5,31,11,0,,22.3,16,68,101060,0,0,363,741,497,307,85328,46669,39721,0,20,2.2,1,0,0,0,0,0,0,0,0,0,0,0,0
1999,5,31,12,0,,22.8,18.5,77,101060,0,0,371,765,302,478,83397,26926,57935,0,20,1.8,1,0,0,0,0,0,0,0,0,0,0,0,0
1999,5,31,13,0,,23.5,18.6,76,101010,0,0,384,760,265,501,79249,23665,58812,0,360,2,3,0,0,0,0,0,0,0,0,0,0,0,0
1999,5,31,14,0,,23.7,18.8,75,100960,0,0,393,624,165,467,65579,14528,54875,0,20,2,6,0,0,0,0,0,0,0,0,0,0,0,0
1999,5,31,15,0,,23.9,18.9,74,100910,0,0,406,443,85,368,46576,7778,42112,0,360,2.3,8,0,0,0,0,0,0,0,0,0,0,0,0
1999,5,31,16,0,,24,18.6,71,100880,0,0,409,368,85,304,37334,7492,34443,0,50,1.7,8,0,0,0,0,0,0,0,0,0,0,0,0
1999,5,31,17,0,,24.6,18.2,69,100860,0,0,415,251,66,212,24586,4960,23664,0,290,2.3,9,0,0,0,0,0,0,0,0,0,0,0,0
1999,5,31,18,0,,24.6,17.9,66,100830,0,0,418,172,79,140,0,0,0,0,290,2.8,9,0,0,0,0,0,0,0,0,0,0,0,0
1999,5,31,19,0,,23.8,17.6,68,100900,0,0,404,99,135,70,0,0,0,0,360,2,8,0,0,0,0,0,0,0,0,0,0,0,0
1999,5,31,20,0,,22.5,17.2,71,100980,0,0,390,20,4,16,0,0,0,0,0,0,7,0,0,0,0,0,0,0,0,0,0,0,0
1999,5,31,21,0,,22.1,16.9,73,101050,0,0,383,0,0,0,0,0,0,0,290,2,6,0,0,0,0,0,0,0,0,0,0,0,0
1999,5,31,22,0,,21.5,17.1,76,101060,0,0,382,0,0,0,0,0,0,0,180,1,6,0,0,0,0,0,0,0,0,0,0,0,0
1999,5,31,23,0,,21.2,17.4,78,101080,0,0,382,0,0,0,0,0,0,0,0,0,7,0,0,0,0,0,0,0,0,0,0,0,0
1999,5,31,24,0,,20.9,17.6,81,101090,0,0,382,0,0,0,0,0,0,0,0,0,7,0,0,0,0,0,0,0,0,0,0,0,0
2018,6,1,1,0,,16.4,11.1,71,101190,0,0,325,0,0,0,0,0,0,0,180,1.7,0,0,0,0,0,0,0,0,0,0,0,0,0
2018,6,1,2,0,,16.3,11,71,101170,0,0,325,0,0,0,0,0,0,0,180,1.4,0,0,0,0,0,0,0,0,0,0,0,0,0
2018,6,1,3,0,,16.6,11.3,71,101170,0,0,326,0,0,0,0,0,0,0,200,0.9,0,0,0,0,0,0,0,0,0,0,0,0,0
2018,6,1,4,0,,16.4,12.3,77,101170,0,0,327,0,0,0,0,0,0,0,230,0.9,0,0,0,0,0,0,0,0,0,0,0,0,0
2018,6,1,5,0,,16.5,12.6,78,101210,0,0,327,0,0,0,0,0,0,0,180,0.9,0,0,0,0,0,0,0,0,0,0,0,0,0
2018,6,1,6,0,,16.7,12.6,77,101260,0,0,328,29,18,12,2593,1556,1930,0,200,0.7,0,0,0,0,0,0,0,0,0,0,0,0,0
2018,6,1,7,0,,18.1,12,68,101300,0,0,334,159,557,47,41816,57085,6985,0,200,0.8,0,0,0,0,0,0,0,0,0,0,0,0,0
2018,6,1,8,0,,19.1,15.3,79,101320,0,0,342,322,543,105,57583,56321,14414,0,360,2,0,0,0,0,0,0,0,0,0,0,0,0,0
2018,6,1,9,0,,20.2,15.4,74,101360,0,0,348,490,553,166,72173,55216,23322,0,360,1.7,0,0,0,0,0,0,0,0,0,0,0,0,0
2018,6,1,10,0,,21.1,15.8,72,101370,0,0,352,629,518,241,80254,51111,31350,0,360,2.2,0,0,0,0,0,0,0,0,0,0,0,0,0
2018,6,1,11,0,,21.6,14.9,66,101350,0,0,354,754,526,295,86687,49853,37936,0,360,2.6,0,0,0,0,0,0,0,0,0,0,0,0,0
2018,6,1,12,0,,21.7,15,66,101340,0,0,354,804,461,365,86247,43424,45145,0,360,2.7,0,0,0,0,0,0,0,0,0,0,0,0,0
2018,6,1,13,0,,21.8,16.5,72,101340,0,0,357,794,302,498,82530,27565,58691,0,360,2.9,0,0,0,0,0,0,0,0,0,0,0,0,0
2018,6,1,14,0,,21.6,16.1,71,101330,0,0,355,763,295,481,75333,26849,55508,0,340,2.1,0,0,0,0,0,0,0,0,0,0,0,0,0
2018,6,1,15,0,,21.3,16.4,74,101300,0,0,354,679,283,430,63888,24947,49523,0,20,2.3,0,0,0,0,0,0,0,0,0,0,0,0,0
2018,6,1,16,0,,22.2,16.6,71,101280,0,0,359,608,441,273,47030,35233,33352,0,340,1.8,0,0,0,0,0,0,0,0,0,0,0,0,0
2018,6,1,17,0,,21.5,16.8,75,101260,0,0,355,470,459,195,27993,24289,23418,0,360,2.2,0,0,0,0,0,0,0,0,0,0,0,0,0
2018,6,1,18,0,,21.9,15.9,69,101260,0,0,356,326,518,113,0,0,0,0,340,1.3,0,0,0,0,0,0,0,0,0,0,0,0,0
2018,6,1,19,0,,21.2,16.5,75,101280,0,0,354,153,432,61,0,0,0,0,340,0.9,0,0,0,0,0,0,0,0,0,0,0,0,0
2018,6,1,20,0,,23.1,14.3,58,101310,0,0,360,39,23,16,0,0,0,0,160,1.8,0,0,0,0,0,0,0,0,0,0,0,0,0
2018,6,1,21,0,,22.4,15.4,65,101360,0,0,358,0,0,0,0,0,0,0,180,1.6,0,0,0,0,0,0,0,0,0,0,0,0,0
2018,6,1,22,0,,22.2,14,60,101410,0,0,356,0,0,0,0,0,0,0,180,1.8,0,0,0,0,0,0,0,0,0,0,0,0,0
2018,6,1,23,0,,20.9,15.4,71,101390,0,0,351,0,0,0,0,0,0,0,290,0.8,0,0,0,0,0,0,0,0,0,0,0,0,0
2018,6,1,24,0,,20.3,14.8,71,101390,0,0,347,0,0,0,0,0,0,0,270,1.4,0,0,0,0,0,0,0,0,0,0,0,0,0
2018,6,2,1,0,,20.1,15.9,77,101370,0,0,348,0,0,0,0,0,0,0,0,0.2,0,0,0,0,0,0,0,0,0,0,0,0,0
2018,6,2,2,0,,20.9,12.8,60,101340,0,0,348,0,0,0,0,0,0,0,160,1.5,0,0,0,0,0,0,0,0,0,0,0,0,0
2018,6,2,3,0,,20.3,13,63,101280,0,0,345,0,0,0,0,0,0,0,230,0.5,0,0,0,0,0,0,0,0,0,0,0,0,0
2018,6,2,4,0,,19.8,12.7,64,101300,0,0,343,0,0,0,0,0,0,0,180,0.9,0,0,0,0,0,0,0,0,0,0,0,0,0
2018,6,2,5,0,,19.7,12.4,63,101340,0,0,353,0,0,0,0,0,0,0,180,1.2,2,0,0,0,0,0,0,0,0,0,0,0,0
2018,6,2,6,0,,19.6,12.3,63,101340,0,0,356,29,16,13,2662,1445,2045,0,180,0.8,3,0,0,0,0,0,0,0,0,0,0,0,0
2018,6,2,7,0,,19.7,14,70,101370,0,0,359,142,411,59,34869,42470,8941,0,340,0.9,3,0,0,0,0,0,0,0,0,0,0,0,0
2018,6,2,8,0,,21.6,13.2,59,101400,0,0,352,336,601,95,60953,62341,13153,0,0,0.4,0,0,0,0,0,0,0,0,0,0,0,0,0
2018,6,2,9,0,,22.3,15.1,64,101370,0,0,369,489,547,167,71863,54677,23474,0,360,1.1,2,0,0,0,0,0,0,0,0,0,0,0,0
2018,6,2,10,0,,22.1,15.4,66,101360,0,0,369,633,526,238,80753,51967,31012,0,20,2.2,2,0,0,0,0,0,0,0,0,0,0,0,0
2018,6,2,11,0,,22.7,16.4,68,101350,0,0,376,692,309,422,78595,28482,50729,0,20,2.1,3,0,0,0,0,0,0,0,0,0,0,0,0
2018,6,2,12,0,,23.6,17.1,67,101350,0,0,385,716,246,482,77721,22510,56401,0,360,2.3,4,0,0,0,0,0,0,0,0,0,0,0,0
2018,6,2,13,0,,23.9,16.6,64,101380,0,0,386,765,269,501,79461,24607,58159,0,320,2.5,4,0,0,0,0,0,0,0,0,0,0,0,0
2018,6,2,14,0,,24.6,15.5,57,101330,0,0,391,717,244,484,72200,22266,55735,0,340,3,5,0,0,0,0,0,0,0,0,0,0,0,0
2018,6,2,15,0,,24.4,16.1,60,101300,0,0,405,471,100,383,48872,9358,43471,0,340,2.3,8,0,0,0,0,0,0,0,0,0,0,0,0
2018,6,2,16,0,,24.8,16.5,60,101250,0,0,402,468,164,344,44417,14866,38624,0,340,2.9,7,0,0,0,0,0,0,0,0,0,0,0,0
2018,6,2,17,0,,23.6,17.1,67,101210,0,0,396,329,138,246,29363,10796,27311,0,290,2.8,7,0,0,0,0,0,0,0,0,0,0,0,0
2018,6,2,18,0,,23.5,16.5,65,101210,0,0,390,255,241,155,0,0,0,0,270,2.4,6,0,0,0,0,0,0,0,0,0,0,0,0
2018,6,2,19,0,,22.7,16.9,70,101230,0,0,386,119,227,71,0,0,0,0,290,1.6,6,0,0,0,0,0,0,0,0,0,0,0,0
2018,6,2,20,0,,21.8,15.6,68,101240,0,0,380,26,9,17,0,0,0,0,270,2.5,6,0,0,0,0,0,0,0,0,0,0,0,0
2018,6,2,21,0,,21.7,16.4,72,101250,0,0,381,0,0,0,0,0,0,0,270,1.1,6,0,0,0,0,0,0,0,0,0,0,0,0
2018,6,2,22,0,,21.7,16.4,72,101300,0,0,379,0,0,0,0,0,0,0,250,2,6,0,0,0,0,0,0,0,0,0,0,0,0
2018,6,2,23,0,,21.6,14.4,64,101270,0,0,375,0,0,0,0,0,0,0,250,1.5,5,0,0,0,0,0,0,0,0,0,0,0,0
2018,6,2,24,0,,21.4,15.6,70,101240,0,0,375,0,0,0,0,0,0,0,180,1,5,0,0,0,0,0,0,0,0,0,0,0,0
2018,6,3,1,0,,21.1,12.5,58,101180,0,0,373,0,0,0,0,0,0,0,180,1,6,0,0,0,0,0,0,0,0,0,0,0,0
2018,6,3,2,0,,20.9,10.6,52,101160,0,0,374,0,0,0,0,0,0,0,200,1.1,7,0,0,0,0,0,0,0,0,0,0,0,0
2018,6,3,3,0,,21.1,10.5,51,101160,0,0,381,0,0,0,0,0,0,0,180,1.3,8,0,0,0,0,0,0,0,0,0,0,0,0
2018,6,3,4,0,,21.3,11.8,55,101110,0,0,370,0,0,0,0,0,0,0,180,1,5,0,0,0,0,0,0,0,0,0,0,0,0
2018,6,3,5,0,,20.8,12.2,58,101130,0,0,371,0,0,0,0,0,0,0,180,0.9,6,0,0,0,0,0,0,0,0,0,0,0,0
2018,6,3,6,0,,20.9,12.3,58,101190,0,0,371,25,9,15,2498,844,2138,0,230,0.8,6,0,0,0,0,0,0,0,0,0,0,0,0
2018,6,3,7,0,,21.5,12.3,56,101190,0,0,385,97,149,67,19288,14137,10654,0,230,0.6,8,0,0,0,0,0,0,0,0,0,0,0,0
2018,6,3,8,0,,22.2,13.5,58,101180,0,0,390,212,155,150,31039,14762,19717,0,320,1.1,8,0,0,0,0,0,0,0,0,0,0,0,0
2018,6,3,9,0,,22.4,13.7,58,101210,0,0,391,315,130,238,39897,12501,28830,0,340,1.9,8,0,0,0,0,0,0,0,0,0,0,0,0
2018,6,3,10,0,,23.3,12.8,52,101220,0,0,389,478,182,342,57575,17416,40900,0,360,2,7,0,0,0,0,0,0,0,0,0,0,0,0
2018,6,3,11,0,,22.5,13.2,56,101270,0,0,385,538,147,409,61423,14118,47605,0,20,2.6,7,0,0,0,0,0,0,0,0,0,0,0,0
2018,6,3,12,0,,22.5,14.8,62,101240,0,0,379,689,219,480,75042,20559,55557,0,20,3.1,5,0,0,0,0,0,0,0,0,0,0,0,0
2018,6,3,13,0,,22.9,14.9,61,101230,0,0,389,579,123,459,63108,11452,53185,0,20,3.4,7,0,0,0,0,0,0,0,0,0,0,0,0
2018,6,3,14,0,,22.3,16.1,68,101190,0,0,388,547,114,438,57906,10740,49954,0,20,3.2,7,0,0,0,0,0,0,0,0,0,0,0,0
2018,6,3,15,0,,22.8,16.5,68,101170,0,0,383,610,204,430,59982,17963,49593,0,20,2.7,5,0,0,0,0,0,0,0,0,0,0,0,0
2018,6,3,16,0,,23.3,17.5,70,101130,0,0,384,565,286,348,49078,22722,40189,0,360,2.6,4,0,0,0,0,0,0,0,0,0,0,0,0
2018,6,3,17,0,,22.4,17.5,74,101090,0,0,379,432,312,245,31120,17296,27804,0,360,2.2,4,0,0,0,0,0,0,0,0,0,0,0,0
2018,6,3,18,0,,21.5,18,81,101130,0,0,375,284,339,143,0,0,0,0,20,2.1,4,0,0,0,0,0,0,0,0,0,0,0,0
2018,6,3,19,0,,21.5,18.6,84,101150,0,0,372,145,348,70,0,0,0,0,360,1.6,3,0,0,0,0,0,0,0,0,0,0,0,0
2018,6,3,20,0,,20.9,18.4,86,101130,0,0,363,34,14,20,0,0,0,0,20,2,1,0,0,0,0,0,0,0,0,0,0,0,0
2018,6,3,21,0,,20.8,18.5,87,101150,0,0,354,0,0,0,0,0,0,0,20,1.7,0,0,0,0,0,0,0,0,0,0,0,0,0
2018,6,3,22,0,,20.5,18.6,89,101230,0,0,353,0,0,0,0,0,0,0,0,0.4,0,0,0,0,0,0,0,0,0,0,0,0,0
2018,6,3,23,0,,20.5,17.8,85,101190,0,0,352,0,0,0,0,0,0,0,20,1.1,0,0,0,0,0,0,0,0,0,0,0,0,0
2018,6,3,24,0,,20.5,17.1,81,101170,0,0,351,0,0,0,0,0,0,0,180,0.6,0,0,0,0,0,0,0,0,0,0,0,0,0
2018,6,4,1,0,,20,15.4,75,101170,0,0,347,0,0,0,0,0,0,0,200,0.5,0,0,0,0,0,0,0,0,0,0,0,0,0
2018,6,4,2,0,,20,15,73,101170,0,0,346,0,0,0,0,0,0,0,200,0.8,0,0,0,0,0,0,0,0,0,0,0,0,0
2018,6,4,3,0,,20,14.5,71,101200,0,0,346,0,0,0,0,0,0,0,0,0.2,0,0,0,0,0,0,0,0,0,0,0,0,0
2018,6,4,4,0,,19.8,14.1,70,101200,0,0,365,0,0,0,0,0,0,0,160,1.1,5,0,0,0,0,0,0,0,0,0,0,0,0
2018,6,4,5,0,,19.7,14.2,71,101190,0,0,368,0,0,0,0,0,0,0,200,0.6,6,0,0,0,0,0,0,0,0,0,0,0,0
2018,6,4,6,0,,19.7,14.2,71,101180,0,0,364,25,10,15,2543,884,2165,0,0,0.4,5,0,0,0,0,0,0,0,0,0,0,0,0
2018,6,4,7,0,,20,13.6,67,101160,0,0,373,108,204,67,22484,19283,10703,0,70,1.4,7,0,0,0,0,0,0,0,0,0,0,0,0
2018,6,4,8,0,,21.6,14.9,66,101120,0,0,383,240,224,151,37867,21155,21638,0,270,0.9,7,0,0,0,0,0,0,0,0,0,0,0,0
2018,6,4,9,0,,23.9,14.8,57,101150,0,0,401,353,181,247,46205,17033,31123,0,250,2,8,0,0,0,0,0,0,0,0,0,0,0,0
2018,6,4,10,0,,25.1,15.6,56,101110,0,0,409,459,161,338,54814,15169,40286,0,270,2.2,8,0,0,0,0,0,0,0,0,0,0,0,0
2018,6,4,11,0,,24.2,14.2,54,101130,0,0,402,508,126,398,58355,11962,46642,0,340,1.9,8,0,0,0,0,0,0,0,0,0,0,0,0
2018,6,4,12,0,,24.4,17.1,64,101120,0,0,407,490,86,409,54774,7928,47256,0,360,1.8,8,0,0,0,0,0,0,0,0,0,0,0,0
2018,6,4,13,0,,24.5,17.9,67,101070,0,0,402,556,109,449,60414,10131,51628,0,320,2.2,7,0,0,0,0,0,0,0,0,0,0,0,0
2018,6,4,14,0,,22.9,19.2,80,101030,0,0,410,333,30,304,37362,2660,35389,0,360,1.8,9,0,0,0,0,0,0,0,0,0,0,0,0
2018,6,4,15,0,,25.4,18.5,66,101030,0,0,423,388,59,336,41638,5346,38539,0,340,2.1,9,0,0,0,0,0,0,0,0,0,0,0,0
2018,6,4,16,0,,25.2,16.8,60,101010,0,0,420,335,65,286,34647,5754,32388,0,340,2.6,9,0,0,0,0,0,0,0,0,0,0,0,0
2018,6,4,17,0,,24.5,17.4,65,101010,0,0,428,207,38,185,19218,2737,18689,0,270,2.1,10,0,0,0,0,0,0,0,0,0,0,0,0
2018,6,4,18,0,,24,17.4,67,100970,0,0,425,113,23,103,0,0,0,0,340,1.5,10,0,0,0,0,0,0,0,0,0,0,0,0
2018,6,4,19,0,,23.1,17.9,73,100950,0,0,421,54,22,49,0,0,0,0,360,1.3,10,0,0,0,0,0,0,0,0,0,0,0,0
2018,6,4,20,0,,22.3,18,77,101020,0,0,416,6,0,6,0,0,0,0,270,1.7,10,0,0,0,0,0,0,0,0,0,0,0,0
2018,6,4,21,0,,23.2,17.6,71,101030,0,0,421,0,0,0,0,0,0,0,250,1.8,10,0,0,0,0,0,0,0,0,0,0,0,0
2018,6,4,22,0,,23,17.8,73,101040,0,0,420,0,0,0,0,0,0,0,340,0.8,10,0,0,0,0,0,0,0,0,0,0,0,0
2018,6,4,23,0,,20.9,19.1,90,101010,0,0,410,0,0,0,0,0,0,0,360,1.3,10,0,0,0,0,0,0,0,0,0,0,0,0
2018,6,4,24,0,,21.5,19,86,100980,0,0,413,0,0,0,0,0,0,0,250,1.9,10,0,0,0,0,0,0,0,0,0,0,0,0
2018,6,5,1,0,,22.6,17.7,74,100930,0,0,418,0,0,0,0,0,0,0,250,1,10,0,0,0,0,0,0,0,0,0,0,0,0
2018,6,5,2,0,,20.8,19,90,100930,0,0,409,0,0,0,0,0,0,0,270,1.1,10,0,0,0,0,0,0,0,0,0,0,0,0
2018,6,5,3,0,,20.3,18.5,90,100900,0,0,406,0,0,0,0,0,0,0,230,0.9,10,0,0,0,0,0,0,0,0,0,0,0,0
2018,6,5,4,0,,20.1,18.7,92,100920,0,0,405,0,0,0,0,0,0,0,0,0.2,10,0,0,0,0,0,0,0,0,0,0,0,0
2018,6,5,5,0,,19.8,19.1,96,100900,0,0,404,0,0,0,0,0,0,0,70,1.1,10,0,0,0,0,0,0,0,0,0,0,0,0
2018,6,5,6,0,,19.5,19.1,98,100910,0,0,402,3,0,3,470,0,470,0,50,1.5,10,0,0,0,0,0,0,0,0,0,0,0,0
2018,6,5,7,0,,19.3,19.1,99,100920,0,0,401,45,17,42,6039,1426,5167,0,50,2.7,10,0,0,0,0,0,0,0,0,0,0,0,0
2018,6,5,8,0,,19.6,19.4,99,100970,0,0,403,101,19,93,12576,1648,11312,0,50,4,10,0,0,0,0,0,0,0,0,0,0,0,0
2018,6,5,9,0,,19.8,19.4,98,100970,0,0,405,162,20,150,19526,1777,17952,0,70,3.2,10,0,0,0,0,0,0,0,0,0,0,0,0
2018,6,5,10,0,,19.3,19.1,99,101050,0,0,401,210,19,196,24933,1649,23353,0,50,4.2,10,0,0,0,0,0,0,0,0,0,0,0,0
2018,6,5,11,0,,19.5,19.1,98,101040,0,0,402,233,15,220,27466,1324,26169,0,50,3.4,10,0,0,0,0,0,0,0,0,0,0,0,0
2018,6,5,12,0,,19.4,19,98,101040,0,0,402,260,15,246,30789,969,29870,0,50,4.3,10,0,0,0,0,0,0,0,0,0,0,0,0
2018,6,5,13,0,,20,19.5,97,100980,0,0,406,270,15,255,31317,1009,30441,0,70,2.6,10,0,0,0,0,0,0,0,0,0,0,0,0
2018,6,5,14,0,,20.7,19.1,91,100940,0,0,409,283,19,265,31781,1346,30781,0,70,2.4,10,0,0,0,0,0,0,0,0,0,0,0,0
2018,6,5,15,0,,20.4,18.8,91,100890,0,0,407,265,21,247,28683,1529,27795,0,70,2.9,10,0,0,0,0,0,0,0,0,0,0,0,0
2018,6,5,16,0,,20.3,19.1,93,100840,0,0,407,220,20,205,22819,1437,22253,0,50,2.9,10,0,0,0,0,0,0,0,0,0,0,0,0
2018,6,5,17,0,,20.4,19,92,100840,0,0,407,160,18,149,15539,989,15347,0,50,2.3,10,0,0,0,0,0,0,0,0,0,0,0,0
2018,6,5,18,0,,19.8,18.8,94,100880,0,0,404,110,21,101,0,0,0,0,50,3.7,10,0,0,0,0,0,0,0,0,0,0,0,0
2018,6,5,19,0,,20.1,19,94,100880,0,0,406,49,16,46,0,0,0,0,50,2.4,10,0,0,0,0,0,0,0,0,0,0,0,0
2018,6,5,20,0,,19.6,18.7,95,100920,0,0,402,7,0,6,0,0,0,0,50,2.9,10,0,0,0,0,0,0,0,0,0,0,0,0
2018,6,5,21,0,,19.5,18.6,95,100980,0,0,402,0,0,0,0,0,0,0,50,2.8,10,0,0,0,0,0,0,0,0,0,0,0,0
2018,6,5,22,0,,19.2,18.3,95,101010,0,0,400,0,0,0,0,0,0,0,70,1.8,10,0,0,0,0,0,0,0,0,0,0,0,0
2018,6,5,23,0,,19.4,18.5,95,100970,0,0,401,0,0,0,0,0,0,0,90,1.3,10,0,0,0,0,0,0,0,0,0,0,0,0
2018,6,5,24,0,,19.4,18.5,95,100960,0,0,401,0,0,0,0,0,0,0,70,1.8,10,0,0,0,0,0,0,0,0,0,0,0,0
2018,6,6,1,0,,18.9,18.5,98,100970,0,0,398,0,0,0,0,0,0,0,50,1,10,0,0,0,0,0,0,0,0,0,0,0,0
2018,6,6,2,0,,19.1,18.6,97,101010,0,0,400,0,0,0,0,0,0,0,50,1.1,10,0,0,0,0,0,0,0,0,0,0,0,0
2018,6,6,3,0,,19,18.3,96,100960,0,0,399,0,0,0,0,0,0,0,90,1.4,10,0,0,0,0,0,0,0,0,0,0,0,0
2018,6,6,4,0,,19,18.3,96,100980,0,0,399,0,0,0,0,0,0,0,200,0.5,10,0,0,0,0,0,0,0,0,0,0,0,0
2018,6,6,5,0,,19,18.3,96,101020,0,0,399,0,0,0,0,0,0,0,160,0.9,10,0,0,0,0,0,0,0,0,0,0,0,0
2018,6,6,6,0,,19,18.1,95,101070,0,0,398,4,0,4,580,0,580,0,0,0.2,10,0,0,0,0,0,0,0,0,0,0,0,0
2018,6,6,7,0,,19.5,18.1,92,101080,0,0,401,48,19,44,7027,1715,5979,0,200,0.7,10,0,0,0,0,0,0,0,0,0,0,0,0
2018,6,6,8,0,,20.5,18.2,87,101100,0,0,387,192,115,146,27888,10320,19969,0,50,1.4,8,0,0,0,0,0,0,0,0,0,0,0,0
2018,6,6,9,0,,21.1,18.8,87,101100,0,0,391,295,108,231,37450,9804,28767,0,20,2.1,8,0,0,0,0,0,0,0,0,0,0,0,0
2018,6,6,10,0,,21.1,18.6,86,101090,0,0,391,381,96,309,46077,8779,37665,0,20,3.4,8,0,0,0,0,0,0,0,0,0,0,0,0
2018,6,6,11,0,,22.2,19.1,83,101090,0,0,391,513,129,400,59441,11624,48051,0,20,3.3,7,0,0,0,0,0,0,0,0,0,0,0,0
2018,6,6,12,0,,21.7,19.2,86,101070,0,0,389,521,101,425,58030,9183,49312,0,20,2.1,7,0,0,0,0,0,0,0,0,0,0,0,0
2018,6,6,13,0,,20.8,19,90,101030,0,0,384,512,88,426,56250,8011,49291,0,20,2.4,7,0,0,0,0,0,0,0,0,0,0,0,0
2018,6,6,14,0,,22.3,17.8,76,101010,0,0,396,464,73,394,50266,6705,45282,0,360,2.7,8,0,0,0,0,0,0,0,0,0,0,0,0
2018,6,6,15,0,,21.8,17.9,79,100940,0,0,383,538,143,412,54574,13213,46885,0,20,2.3,6,0,0,0,0,0,0,0,0,0,0,0,0
2018,6,6,16,0,,21.8,18.9,84,100940,0,0,403,305,49,267,32139,4289,30443,0,20,2.4,9,0,0,0,0,0,0,0,0,0,0,0,0
2018,6,6,17,0,,21.8,18.5,82,100960,0,0,414,161,19,150,15685,1033,15482,0,20,1.7,10,0,0,0,0,0,0,0,0,0,0,0,0
2018,6,6,18,0,,22,18.7,82,100930,0,0,404,159,59,134,0,0,0,0,360,1.7,9,0,0,0,0,0,0,0,0,0,0,0,0
2018,6,6,19,0,,21.4,18.7,85,100980,0,0,392,95,105,72,0,0,0,0,270,1.2,8,0,0,0,0,0,0,0,0,0,0,0,0
2018,6,6,20,0,,21.1,19,88,101030,0,0,385,23,6,18,0,0,0,0,320,1.9,7,0,0,0,0,0,0,0,0,0,0,0,0
2018,6,6,21,0,,21,19.2,90,101050,0,0,380,0,0,0,0,0,0,0,290,1.1,6,0,0,0,0,0,0,0,0,0,0,0,0
2018,6,6,22,0,,20.5,18.9,91,101110,0,0,380,0,0,0,0,0,0,0,270,1.1,7,0,0,0,0,0,0,0,0,0,0,0,0
2018,6,6,23,0,,20.3,19.4,95,101140,0,0,383,0,0,0,0,0,0,0,290,1.3,7,0,0,0,0,0,0,0,0,0,0,0,0
2018,6,6,24,0,,20,19.5,97,101120,0,0,386,0,0,0,0,0,0,0,250,0.9,8,0,0,0,0,0,0,0,0,0,0,0,0
2018,6,7,1,0,,20,19.3,96,101090,0,0,386,0,0,0,0,0,0,0,270,1.3,8,0,0,0,0,0,0,0,0,0,0,0,0
2018,6,7,2,0,,20,19.1,95,101100,0,0,386,0,0,0,0,0,0,0,320,0.8,8,0,0,0,0,0,0,0,0,0,0,0,0
2018,6,7,3,0,,19.5,18.3,93,101100,0,0,382,0,0,0,0,0,0,0,270,0.6,8,0,0,0,0,0,0,0,0,0,0,0,0
2018,6,7,4,0,,19.1,17.4,90,101050,0,0,360,0,0,0,0,0,0,0,360,1.3,3,0,0,0,0,0,0,0,0,0,0,0,0
2018,6,7,5,0,,19.3,17.6,90,101070,0,0,388,0,0,0,0,0,0,0,160,1.6,9,0,0,0,0,0,0,0,0,0,0,0,0
2018,6,7,6,0,,19.8,17.5,87,101060,0,0,377,19,4,15,2026,367,1869,0,160,1,7,0,0,0,0,0,0,0,0,0,0,0,0
2018,6,7,7,0,,21,17.6,81,101070,0,0,383,110,210,67,22799,19184,11073,0,200,0.6,7,0,0,0,0,0,0,0,0,0,0,0,0
2018,6,7,8,0,,22.7,16.9,70,101080,0,0,377,324,540,106,57743,56170,14638,0,320,0.8,3,0,0,0,0,0,0,0,0,0,0,0,0
2018,6,7,9,0,,22.5,16.7,70,101070,0,0,379,459,448,195,65962,44319,26705,0,360,2.1,4,0,0,0,0,0,0,0,0,0,0,0,0
2018,6,7,10,0,,23.5,17.7,70,101080,0,0,385,577,322,335,69955,29229,41942,0,360,2.1,4,0,0,0,0,0,0,0,0,0,0,0,0
2018,6,7,11,0,,22.2,18.9,82,101090,0,0,373,666,272,428,76379,24168,52688,0,360,3,2,0,0,0,0,0,0,0,0,0,0,0,0
2018,6,7,12,0,,22.1,19.4,85,101060,0,0,368,737,267,483,81262,23392,59042,0,20,3.1,1,0,0,0,0,0,0,0,0,0,0,0,0
2018,6,7,13,0,,22.6,18.9,80,101030,0,0,370,765,267,503,79723,23737,59084,0,360,3.1,1,0,0,0,0,0,0,0,0,0,0,0,0
2018,6,7,14,0,,22.5,19,81,100950,0,0,375,750,276,486,74992,24245,56946,0,360,2.7,2,0,0,0,0,0,0,0,0,0,0,0,0
2018,6,7,15,0,,23.1,19,78,100840,0,0,366,711,322,427,66004,27512,49962,0,20,2.5,0,0,0,0,0,0,0,0,0,0,0,0,0
2018,6,7,16,0,,22.7,18.8,79,100790,0,0,364,598,336,341,50245,26338,39797,0,360,2.8,0,0,0,0,0,0,0,0,0,0,0,0,0
2018,6,7,17,0,,23.7,18.9,75,100830,0,0,369,489,497,188,28365,26062,23208,0,340,2.4,0,0,0,0,0,0,0,0,0,0,0,0,0
2018,6,7,18,0,,22,18.9,83,100870,0,0,390,221,147,159,16707,11082,16705,0,320,2.9,7,0,0,0,0,0,0,0,0,0,0,0,0
2018,6,7,19,0,,21.8,19.1,85,100840,0,0,383,121,210,75,0,0,0,0,360,1.7,6,0,0,0,0,0,0,0,0,0,0,0,0
2018,6,7,20,0,,21.2,18.9,87,100830,0,0,376,30,12,18,0,0,0,0,320,1,4,0,0,0,0,0,0,0,0,0,0,0,0
2018,6,7,21,0,,20.8,19,90,100870,0,0,370,0,0,0,0,0,0,0,270,2.4,3,0,0,0,0,0,0,0,0,0,0,0,0
2018,6,7,22,0,,20.6,19,91,100900,0,0,368,0,0,0,0,0,0,0,290,1.6,3,0,0,0,0,0,0,0,0,0,0,0,0
2018,6,7,23,0,,20.6,18.5,88,100920,0,0,366,0,0,0,0,0,0,0,270,2,2,0,0,0,0,0,0,0,0,0,0,0,0
2018,6,7,24,0,,20.3,18.9,92,100890,0,0,364,0,0,0,0,0,0,0,250,1.5,2,0,0,0,0,0,0,0,0,0,0,0,0
2018,6,8,1,0,,20.1,18.4,90,100810,0,0,365,0,0,0,0,0,0,0,230,1,3,0,0,0,0,0,0,0,0,0,0,0,0
2018,6,8,2,0,,20,18.4,91,100780,0,0,366,0,0,0,0,0,0,0,230,1.8,3,0,0,0,0,0,0,0,0,0,0,0,0
2018,6,8,3,0,,20.1,17.6,86,100770,0,0,368,0,0,0,0,0,0,0,200,1.8,4,0,0,0,0,0,0,0,0,0,0,0,0
2018,6,8,4,0,,19.6,18,91,100740,0,0,359,0,0,0,0,0,0,0,250,2.1,2,0,0,0,0,0,0,0,0,0,0,0,0
2018,6,8,5,0,,19.5,17.9,91,100800,0,0,376,0,0,0,0,0,0,0,250,2.1,7,0,0,0,0,0,0,0,0,0,0,0,0
2018,6,8,6,0,,19.4,18,92,100770,0,0,400,6,0,5,770,3,769,0,270,2.5,10,0,0,0,0,0,0,0,0,0,0,0,0
2018,6,8,7,0,,19.2,18.5,96,100770,0,0,400,47,18,43,6204,1513,5279,0,270,1.9,10,0,0,0,0,0,0,0,0,0,0,0,0
2018,6,8,8,0,,20,18.3,90,100800,0,0,404,106,21,97,13155,1881,11711,0,320,1.8,10,0,0,0,0,0,0,0,0,0,0,0,0
2018,6,8,9,0,,20.4,18.3,88,100770,0,0,395,227,52,197,28916,4814,24652,0,290,1.3,9,0,0,0,0,0,0,0,0,0,0,0,0
2018,6,8,10,0,,20.1,18,88,100740,0,0,404,208,18,194,24633,1624,23077,0,320,2.1,10,0,0,0,0,0,0,0,0,0,0,0,0
2018,6,8,11,0,,21,18.1,84,100680,0,0,383,498,119,394,57692,10832,47070,0,290,1.9,7,0,0,0,0,0,0,0,0,0,0,0,0
2018,6,8,12,0,,21.6,18.1,81,100670,0,0,413,300,22,278,34623,2027,32696,0,340,2.8,10,0,0,0,0,0,0,0,0,0,0,0,0
2018,6,8,13,0,,22.9,18,74,100650,0,0,400,524,93,433,57381,8592,49904,0,320,1.7,8,0,0,0,0,0,0,0,0,0,0,0,0
2018,6,8,14,0,,22.4,17.5,74,100600,0,0,396,507,92,419,54398,8567,48014,0,320,4.3,8,0,0,0,0,0,0,0,0,0,0,0,0
2018,6,8,15,0,,22.4,17.9,76,100600,0,0,397,447,86,372,47021,7881,42417,0,320,3.7,8,0,0,0,0,0,0,0,0,0,0,0,0
2018,6,8,16,0,,22.3,18,77,100590,0,0,390,431,127,334,42252,11343,37737,0,290,3.9,7,0,0,0,0,0,0,0,0,0,0,0,0
2018,6,8,17,0,,22.4,18.3,78,100560,0,0,387,382,204,258,31931,16054,28731,0,290,3.6,6,0,0,0,0,0,0,0,0,0,0,0,0
2018,6,8,18,0,,21.9,18.6,82,100600,0,0,395,193,100,151,15961,7191,15948,0,270,3.1,8,0,0,0,0,0,0,0,0,0,0,0,0
2018,6,8,19,0,,21.3,18.6,85,100580,0,0,392,93,95,72,0,0,0,0,290,2.8,8,0,0,0,0,0,0,0,0,0,0,0,0
2018,6,8,20,0,,21,18.7,87,100610,0,0,390,19,3,16,0,0,0,0,270,2.5,8,0,0,0,0,0,0,0,0,0,0,0,0
2018,6,8,21,0,,20.7,18.6,88,100650,0,0,389,0,0,0,0,0,0,0,290,2.7,8,0,0,0,0,0,0,0,0,0,0,0,0
2018,6,8,22,0,,20.6,18.3,87,100650,0,0,390,0,0,0,0,0,0,0,250,2.9,8,0,0,0,0,0,0,0,0,0,0,0,0
2018,6,8,23,0,,20.4,18.6,90,100650,0,0,392,0,0,0,0,0,0,0,270,2.3,9,0,0,0,0,0,0,0,0,0,0,0,0
2018,6,8,24,0,,20.6,18.5,88,100640,0,0,396,0,0,0,0,0,0,0,230,1.6,9,0,0,0,0,0,0,0,0,0,0,0,0
2018,6,9,1,0,,20.1,18.2,89,100550,0,0,390,0,0,0,0,0,0,0,270,1,9,0,0,0,0,0,0,0,0,0,0,0,0
2018,6,9,2,0,,19.6,17.7,89,100480,0,0,384,0,0,0,0,0,0,0,250,0.7,8,0,0,0,0,0,0,0,0,0,0,0,0
2018,6,9,3,0,,19.7,17.2,86,100440,0,0,382,0,0,0,0,0,0,0,230,0.7,8,0,0,0,0,0,0,0,0,0,0,0,0
2018,6,9,4,0,,19.5,17.9,91,100410,0,0,390,0,0,0,0,0,0,0,70,1,9,0,0,0,0,0,0,0,0,0,0,0,0
2018,6,9,5,0,,19,18,94,100430,0,0,379,0,0,0,0,0,0,0,0,0.2,8,0,0,0,0,0,0,0,0,0,0,0,0
2018,6,9,6,0,,19.1,17.9,93,100460,0,0,379,13,1,12,1592,45,1572,0,0,0.2,8,0,0,0,0,0,0,0,0,0,0,0,0
2018,6,9,7,0,,19.6,17.7,89,100450,0,0,354,144,409,61,35205,42560,9191,0,200,0.6,1,0,0,0,0,0,0,0,0,0,0,0,0
2018,6,9,8,0,,23.2,17.4,70,100380,0,0,365,352,662,85,65045,69425,11772,0,70,2.5,0,0,0,0,0,0,0,0,0,0,0,0,0
2018,6,9,9,0,,25.1,18.7,68,100320,0,0,388,539,697,128,81397,72811,16898,0,70,3.7,2,0,0,0,0,0,0,0,0,0,0,0,0
2018,6,9,10,0,,25.4,17.5,62,100330,0,0,395,670,618,206,86560,61064,28020,0,90,4.9,4,0,0,0,0,0,0,0,0,0,0,0,0
2018,6,9,11,0,,25.6,16.9,59,100380,0,0,383,771,561,280,89192,54780,35461,0,110,4.5,1,0,0,0,0,0,0,0,0,0,0,0,0
2018,6,9,12,0,,25.8,17.1,59,100350,0,0,390,808,465,364,86926,42948,46088,0,90,5.4,2,0,0,0,0,0,0,0,0,0,0,0,0
2018,6,9,13,0,,26.4,18.5,62,100320,0,0,395,844,481,372,85451,43645,47444,0,90,5.5,2,0,0,0,0,0,0,0,0,0,0,0,0
2018,6,9,14,0,,25.8,19.1,67,100270,0,0,406,642,175,474,67209,15329,55771,0,70,5.1,6,0,0,0,0,0,0,0,0,0,0,0,0
2018,6,9,15,0,,24.7,18.8,70,100300,0,0,399,582,176,427,58037,16203,48554,0,50,6.5,6,0,0,0,0,0,0,0,0,0,0,0,0
2018,6,9,16,0,,22.8,17.9,74,100310,0,0,419,200,15,188,21055,1039,20640,0,90,4.9,10,0,0,0,0,0,0,0,0,0,0,0,0
2018,6,9,17,0,,21.8,17.5,77,100280,0,0,413,155,16,145,15238,886,15060,0,70,5.5,10,0,0,0,0,0,0,0,0,0,0,0,0
2018,6,9,18,0,,21.5,17.4,78,100240,0,0,411,110,20,101,8838,3914,8825,0,90,4.7,10,0,0,0,0,0,0,0,0,0,0,0,0
2018,6,9,19,0,,21.3,17.7,80,100310,0,0,410,58,24,52,0,0,0,0,90,4.4,10,0,0,0,0,0,0,0,0,0,0,0,0
2018,6,9,20,0,,21.1,17.7,81,100360,0,0,409,10,1,10,0,0,0,0,90,3.5,10,0,0,0,0,0,0,0,0,0,0,0,0
2018,6,9,21,0,,21,17.8,82,100400,0,0,409,0,0,0,0,0,0,0,90,3.7,10,0,0,0,0,0,0,0,0,0,0,0,0
2018,6,9,22,0,,20.8,17.7,83,100430,0,0,408,0,0,0,0,0,0,0,90,4.3,10,0,0,0,0,0,0,0,0,0,0,0,0
2018,6,9,23,0,,20.9,17.7,82,100440,0,0,408,0,0,0,0,0,0,0,90,4.1,10,0,0,0,0,0,0,0,0,0,0,0,0
2018,6,9,24,0,,20.8,17.4,81,100380,0,0,407,0,0,0,0,0,0,0,90,4,10,0,0,0,0,0,0,0,0,0,0,0,0
2018,6,10,1,0,,20.5,17.3,82,100130,0,0,405,0,0,0,0,0,0,0,90,6,10,0,0,0,0,0,0,0,0,0,0,0,0
2018,6,10,2,0,,20.4,17.4,83,100080,0,0,405,0,0,0,0,0,0,0,90,4.3,10,0,0,0,0,0,0,0,0,0,0,0,0
2018,6,10,3,0,,20.4,17.4,83,100060,0,0,405,0,0,0,0,0,0,0,90,5.2,10,0,0,0,0,0,0,0,0,0,0,0,0
2018,6,10,4,0,,20.4,17.5,84,100110,0,0,405,0,0,0,0,0,0,0,90,3.4,10,0,0,0,0,0,0,0,0,0,0,0,0
2018,6,10,5,0,,20.2,17.5,85,100170,0,0,404,0,0,0,0,0,0,0,70,2.8,10,0,0,0,0,0,0,0,0,0,0,0,0
2018,6,10,6,0,,20,17.5,86,100190,0,0,403,6,0,6,852,6,849,0,70,3.2,10,0,0,0,0,0,0,0,0,0,0,0,0
2018,6,10,7,0,,19.7,17.2,86,100260,0,0,401,48,20,44,7139,1800,6039,0,70,3,10,0,0,0,0,0,0,0,0,0,0,0,0
2018,6,10,8,0,,19.8,17.3,86,100280,0,0,402,114,26,103,14237,2356,12429,0,90,3.7,10,0,0,0,0,0,0,0,0,0,0,0,0
2018,6,10,9,0,,20,17,83,100300,0,0,402,176,26,161,21234,2328,19172,0,70,3.7,10,0,0,0,0,0,0,0,0,0,0,0,0
2018,6,10,10,0,,20.1,16.9,82,100220,0,0,403,241,27,221,28450,2489,26063,0,70,4.4,10,0,0,0,0,0,0,0,0,0,0,0,0
2018,6,10,11,0,,20.3,17.1,82,100180,0,0,404,276,24,255,32178,2166,30053,0,90,3.6,10,0,0,0,0,0,0,0,0,0,0,0,0
2018,6,10,12,0,,20.8,17,79,100150,0,0,407,296,22,276,34198,1982,32313,0,70,3.3,10,0,0,0,0,0,0,0,0,0,0,0,0
2018,6,10,13,0,,20.7,16.9,79,100110,0,0,406,321,25,297,36588,2258,34620,0,70,4.5,10,0,0,0,0,0,0,0,0,0,0,0,0
2018,6,10,14,0,,20.3,17.6,85,100070,0,0,405,294,21,274,32969,1536,31822,0,70,3.7,10,0,0,0,0,0,0,0,0,0,0,0,0
2018,6,10,15,0,,20.7,17.3,81,100060,0,0,406,271,22,251,29352,1651,28383,0,70,3.7,10,0,0,0,0,0,0,0,0,0,0,0,0
2018,6,10,16,0,,20.8,17.2,80,100000,0,0,407,236,24,217,24329,1816,23602,0,90,4,10,0,0,0,0,0,0,0,0,0,0,0,0
2018,6,10,17,0,,19.6,17.9,90,100020,0,0,401,150,15,141,14820,770,14664,0,70,2.1,10,0,0,0,0,0,0,0,0,0,0,0,0
2018,6,10,18,0,,19.4,18,92,99920,0,0,400,109,20,100,8797,3566,8781,0,90,3.8,10,0,0,0,0,0,0,0,0,0,0,0,0
2018,6,10,19,0,,19.3,18.3,94,99940,0,0,400,50,16,47,0,0,0,0,90,3.2,10,0,0,0,0,0,0,0,0,0,0,0,0
2018,6,10,20,0,,19.3,18.1,93,99990,0,0,400,9,0,9,0,0,0,0,90,2.6,10,0,0,0,0,0,0,0,0,0,0,0,0
2018,6,10,21,0,,19.3,18.1,93,100030,0,0,400,0,0,0,0,0,0,0,90,2.7,10,0,0,0,0,0,0,0,0,0,0,0,0
2018,6,10,22,0,,19.4,17.7,90,100080,0,0,400,0,0,0,0,0,0,0,110,3.6,10,0,0,0,0,0,0,0,0,0,0,0,0
2018,6,10,23,0,,18.9,17.9,94,100060,0,0,398,0,0,0,0,0,0,0,70,3.1,10,0,0,0,0,0,0,0,0,0,0,0,0
2018,6,10,24,0,,18.5,17.6,95,100020,0,0,395,0,0,0,0,0,0,0,90,2.4,10,0,0,0,0,0,0,0,0,0,0,0,0
2018,6,11,1,0,,18.1,17.7,98,99970,0,0,393,0,0,0,0,0,0,0,90,3,10,0,0,0,0,0,0,0,0,0,0,0,0
2018,6,11,2,0,,18.1,17.6,97,99910,0,0,393,0,0,0,0,0,0,0,90,2.3,10,0,0,0,0,0,0,0,0,0,0,0,0
2018,6,11,3,0,,18.1,17.6,97,99860,0,0,393,0,0,0,0,0,0,0,110,1.8,10,0,0,0,0,0,0,0,0,0,0,0,0
2018,6,11,4,0,,18,17.5,97,99860,0,0,392,0,0,0,0,0,0,0,110,2.2,10,0,0,0,0,0,0,0,0,0,0,0,0
2018,6,11,5,0,,18.2,17.3,95,99820,0,0,393,0,0,0,0,0,0,0,140,1.5,10,0,0,0,0,0,0,0,0,0,0,0,0
2018,6,11,6,0,,18.5,17.3,93,99850,0,0,395,5,0,5,717,3,716,0,140,1.7,10,0,0,0,0,0,0,0,0,0,0,0,0
2018,6,11,7,0,,18.5,17.3,93,99880,0,0,395,48,19,44,7076,1750,6007,0,140,1.6,10,0,0,0,0,0,0,0,0,0,0,0,0
2018,6,11,8,0,,18.5,17.8,96,99940,0,0,395,97,17,90,11992,1461,10871,0,110,1,10,0,0,0,0,0,0,0,0,0,0,0,0
2018,6,11,9,0,,18.3,17.9,98,99950,0,0,394,151,17,141,18225,1489,16906,0,90,2.1,10,0,0,0,0,0,0,0,0,0,0,0,0
2018,6,11,10,0,,20.2,18.8,92,99930,0,0,406,212,19,197,25113,1692,23491,0,70,1.5,10,0,0,0,0,0,0,0,0,0,0,0,0
2018,6,11,11,0,,19.6,18,91,99910,0,0,401,273,23,253,31878,2084,29833,0,20,4,10,0,0,0,0,0,0,0,0,0,0,0,0
2018,6,11,12,0,,19.8,18.1,90,99890,0,0,403,307,24,284,35367,2154,33317,0,20,4,10,0,0,0,0,0,0,0,0,0,0,0,0
2018,6,11,13,0,,20.4,17.4,83,99890,0,0,394,411,48,364,45958,4421,42103,0,50,4.3,9,0,0,0,0,0,0,0,0,0,0,0,0
2018,6,11,14,0,,20.9,17.8,83,99890,0,0,397,420,55,367,46119,5085,42316,0,20,4,9,0,0,0,0,0,0,0,0,0,0,0,0
2018,6,11,15,0,,21,17.6,81,99820,0,0,397,365,49,322,39495,4475,36867,0,20,2.5,9,0,0,0,0,0,0,0,0,0,0,0,0
2018,6,11,16,0,,21.4,17.9,81,99820,0,0,400,316,54,275,33160,4716,31266,0,20,2.2,9,0,0,0,0,0,0,0,0,0,0,0,0
2018,6,11,17,0,,20.5,17.6,84,99820,0,0,395,228,47,199,20901,3661,20157,0,20,2.4,9,0,0,0,0,0,0,0,0,0,0,0,0
2018,6,11,18,0,,20.6,17.9,85,99860,0,0,396,149,47,129,13721,2957,13703,0,320,1.6,9,0,0,0,0,0,0,0,0,0,0,0,0
2018,6,11,19,0,,20.6,18.3,87,99870,0,0,399,75,48,64,0,0,0,0,270,2.3,9,0,0,0,0,0,0,0,0,0,0,0,0
2018,6,11,20,0,,20.5,18.4,88,99900,0,0,403,10,0,9,0,0,0,0,290,2.3,10,0,0,0,0,0,0,0,0,0,0,0,0
2018,6,11,21,0,,20.1,18,88,99970,0,0,404,0,0,0,0,0,0,0,320,2.1,10,0,0,0,0,0,0,0,0,0,0,0,0
2018,6,11,22,0,,18.9,18.5,98,100030,0,0,398,0,0,0,0,0,0,0,270,2.2,10,0,0,0,0,0,0,0,0,0,0,0,0
2018,6,11,23,0,,18.8,18.4,98,100020,0,0,398,0,0,0,0,0,0,0,230,1.7,10,0,0,0,0,0,0,0,0,0,0,0,0
2018,6,11,24,0,,18.9,18.4,97,100000,0,0,398,0,0,0,0,0,0,0,180,1.4,10,0,0,0,0,0,0,0,0,0,0,0,0
2018,6,12,1,0,,19.4,18.4,94,100020,0,0,401,0,0,0,0,0,0,0,250,0.9,10,0,0,0,0,0,0,0,0,0,0,0,0
2018,6,12,2,0,,19.4,18.4,94,100010,0,0,401,0,0,0,0,0,0,0,270,2.2,10,0,0,0,0,0,0,0,0,0,0,0,0
2018,6,12,3,0,,19,18.6,98,100020,0,0,399,0,0,0,0,0,0,0,230,1.9,10,0,0,0,0,0,0,0,0,0,0,0,0
2018,6,12,4,0,,19.2,18.5,96,100030,0,0,375,0,0,0,0,0,0,0,230,1.7,7,0,0,0,0,0,0,0,0,0,0,0,0
2018,6,12,5,0,,19.2,18.3,95,100040,0,0,381,0,0,0,0,0,0,0,250,1.7,8,0,0,0,0,0,0,0,0,0,0,0,0
2018,6,12,6,0,,19.4,18.5,95,100120,0,0,382,15,2,13,1776,66,1748,0,250,1.7,8,0,0,0,0,0,0,0,0,0,0,0,0
2018,6,12,7,0,,19.9,18.5,92,100140,0,0,378,103,168,69,20605,15200,11322,0,270,2,7,0,0,0,0,0,0,0,0,0,0,0,0
2018,6,12,8,0,,21.2,18.9,87,100190,0,0,392,195,118,147,28278,10507,20220,0,270,2.3,8,0,0,0,0,0,0,0,0,0,0,0,0
2018,6,12,9,0,,21.8,18.5,82,100210,0,0,388,345,169,246,45457,15118,32068,0,320,2.5,7,0,0,0,0,0,0,0,0,0,0,0,0
2018,6,12,10,0,,21.4,18.3,83,100230,0,0,386,439,142,332,52672,12984,40222,0,290,2.9,7,0,0,0,0,0,0,0,0,0,0,0,0
2018,6,12,11,0,,22.1,18.2,79,100260,0,0,381,619,219,428,71577,19642,52297,0,340,3.5,5,0,0,0,0,0,0,0,0,0,0,0,0
2018,6,12,12,0,,22.8,18.3,76,100270,0,0,382,711,238,483,77407,21517,56919,0,340,3.1,4,0,0,0,0,0,0,0,0,0,0,0,0
2018,6,12,13,0,,23.1,18.8,77,100250,0,0,378,805,311,499,84241,27436,60298,0,320,3.2,2,0,0,0,0,0,0,0,0,0,0,0,0
2018,6,12,14,0,,23.3,18.3,74,100200,0,0,373,786,316,482,77304,28059,56300,0,320,3.3,1,0,0,0,0,0,0,0,0,0,0,0,0
2018,6,12,15,0,,23.6,17.1,67,100180,0,0,373,724,337,426,66710,29532,49336,0,320,3.3,1,0,0,0,0,0,0,0,0,0,0,0,0
2018,6,12,16,0,,23.6,16.6,65,100180,0,0,366,623,457,273,48243,36942,33366,0,340,3.2,0,0,0,0,0,0,0,0,0,0,0,0,0
2018,6,12,17,0,,23,16.9,69,100160,0,0,363,483,465,199,29365,26181,24010,0,320,2.9,0,0,0,0,0,0,0,0,0,0,0,0,0
2018,6,12,18,0,,22.6,16.8,70,100180,0,0,361,335,503,121,12522,0,12522,0,290,3.2,0,0,0,0,0,0,0,0,0,0,0,0,0
2018,6,12,19,0,,21.7,16.4,72,100170,0,0,356,169,454,64,0,0,0,0,290,2.4,0,0,0,0,0,0,0,0,0,0,0,0,0
2018,6,12,20,0,,20.7,16.7,78,100220,0,0,352,39,16,23,0,0,0,0,250,2.1,0,0,0,0,0,0,0,0,0,0,0,0,0
2018,6,12,21,0,,20.5,16.5,78,100280,0,0,350,0,0,0,0,0,0,0,270,1.9,0,0,0,0,0,0,0,0,0,0,0,0,0
2018,6,12,22,0,,20.2,16.6,80,100300,0,0,349,0,0,0,0,0,0,0,200,1.8,0,0,0,0,0,0,0,0,0,0,0,0,0
2018,6,12,23,0,,19.7,15.7,78,100350,0,0,346,0,0,0,0,0,0,0,160,1.2,0,0,0,0,0,0,0,0,0,0,0,0,0
2018,6,12,24,0,,19.3,14.7,75,100370,0,0,343,0,0,0,0,0,0,0,200,0.6,0,0,0,0,0,0,0,0,0,0,0,0,0
2018,6,13,1,0,,19,15.2,79,100360,0,0,342,0,0,0,0,0,0,0,160,1.1,0,0,0,0,0,0,0,0,0,0,0,0,0
2018,6,13,2,0,,18.6,15.4,82,100300,0,0,340,0,0,0,0,0,0,0,180,0.6,0,0,0,0,0,0,0,0,0,0,0,0,0
2018,6,13,3,0,,17.9,14.5,81,100300,0,0,336,0,0,0,0,0,0,0,200,1.2,0,0,0,0,0,0,0,0,0,0,0,0,0
2018,6,13,4,0,,18,14.2,79,100300,0,0,336,0,0,0,0,0,0,0,180,1.9,0,0,0,0,0,0,0,0,0,0,0,0,0
2018,6,13,5,0,,18.3,13.5,74,100340,0,0,337,0,0,0,0,0,0,0,160,1.7,0,0,0,0,0,0,0,0,0,0,0,0,0
2018,6,13,6,0,,18.3,12.7,70,100380,0,0,336,33,16,17,3015,1463,2390,0,180,0.8,0,0,0,0,0,0,0,0,0,0,0,0,0
2018,6,13,7,0,,19.3,13.2,68,100420,0,0,341,161,545,49,41496,56045,7281,0,180,0.7,0,0,0,0,0,0,0,0,0,0,0,0,0
2018,6,13,8,0,,21.6,16.7,74,100460,0,0,368,332,575,100,59807,59880,13896,0,340,1.3,2,0,0,0,0,0,0,0,0,0,0,0,0
2018,6,13,9,0,,22.5,18.2,77,100530,0,0,374,500,578,160,73802,57351,23015,0,290,1.5,2,0,0,0,0,0,0,0,0,0,0,0,0
2018,6,13,10,0,,22.8,17.6,73,100530,0,0,375,635,528,238,81145,51882,31396,0,320,3.3,2,0,0,0,0,0,0,0,0,0,0,0,0
2018,6,13,11,0,,23.7,17.6,69,100570,0,0,379,736,482,315,84822,44522,41114,0,320,3.1,2,0,0,0,0,0,0,0,0,0,0,0,0
2018,6,13,12,0,,23.2,18,73,100520,0,0,377,759,291,481,82862,26153,57951,0,340,2.1,2,0,0,0,0,0,0,0,0,0,0,0,0
2018,6,13,13,0,,25,18.1,66,100490,0,0,374,829,342,492,85781,30468,59175,0,360,2,0,0,0,0,0,0,0,0,0,0,0,0,0
2018,6,13,14,0,,27,17.4,56,100300,0,0,384,880,606,298,80428,55292,38996,0,90,4.5,0,0,0,0,0,0,0,0,0,0,0,0,0
2018,6,13,15,0,,28.2,17.7,53,100250,0,0,391,829,662,241,67099,58923,32380,0,50,2.9,0,0,0,0,0,0,0,0,0,0,0,0,0
2018,6,13,16,0,,27.2,17.6,56,100250,0,0,385,687,615,214,48753,50666,28293,0,70,4.4,0,0,0,0,0,0,0,0,0,0,0,0,0
2018,6,13,17,0,,25.9,16.9,58,100340,0,0,385,506,533,180,28253,30147,22051,0,70,5,1,0,0,0,0,0,0,0,0,0,0,0,0
2018,6,13,18,0,,23.3,16.3,65,100380,0,0,371,311,398,140,14260,0,14260,0,90,4.5,1,0,0,0,0,0,0,0,0,0,0,0,0
2018,6,13,19,0,,22.3,15.8,67,100420,0,0,363,164,413,69,0,0,0,0,90,4.6,1,0,0,0,0,0,0,0,0,0,0,0,0
2018,6,13,20,0,,21.4,16.1,72,100500,0,0,357,40,17,23,0,0,0,0,90,4.2,0,0,0,0,0,0,0,0,0,0,0,0,0
2018,6,13,21,0,,21.1,16.2,74,100530,0,0,353,0,0,0,0,0,0,0,110,3.9,0,0,0,0,0,0,0,0,0,0,0,0,0
2018,6,13,22,0,,20.7,16.5,77,100500,0,0,356,0,0,0,0,0,0,0,90,4.3,1,0,0,0,0,0,0,0,0,0,0,0,0
2018,6,13,23,0,,20.8,16.1,75,100480,0,0,360,0,0,0,0,0,0,0,70,4.2,1,0,0,0,0,0,0,0,0,0,0,0,0
2018,6,13,24,0,,20.5,15.9,75,100450,0,0,361,0,0,0,0,0,0,0,70,4.6,2,0,0,0,0,0,0,0,0,0,0,0,0
2018,6,14,1,0,,20.8,15.7,73,100480,0,0,362,0,0,0,0,0,0,0,110,2.8,2,0,0,0,0,0,0,0,0,0,0,0,0
2018,6,14,2,0,,20.7,14.8,69,100460,0,0,361,0,0,0,0,0,0,0,70,2.4,2,0,0,0,0,0,0,0,0,0,0,0,0
2018,6,14,3,0,,20,16.6,81,100430,0,0,360,0,0,0,0,0,0,0,90,4.1,2,0,0,0,0,0,0,0,0,0,0,0,0
2018,6,14,4,0,,19.8,17,84,100440,0,0,359,0,0,0,0,0,0,0,110,3.6,2,0,0,0,0,0,0,0,0,0,0,0,0
2018,6,14,5,0,,19.9,16.7,82,100480,0,0,359,0,0,0,0,0,0,0,90,2.7,2,0,0,0,0,0,0,0,0,0,0,0,0
2018,6,14,6,0,,20,16.8,82,100510,0,0,366,29,15,14,2608,1298,2053,0,70,3.1,4,0,0,0,0,0,0,0,0,0,0,0,0
2018,6,14,7,0,,20.6,17.2,81,100490,0,0,386,94,128,68,18248,11751,11078,0,70,3.1,8,0,0,0,0,0,0,0,0,0,0,0,0
2018,6,14,8,0,,21.7,17.2,76,100450,0,0,401,171,82,138,23336,7612,17502,0,90,3.3,9,0,0,0,0,0,0,0,0,0,0,0,0
2018,6,14,9,0,,21.9,17.4,76,100430,0,0,402,263,78,217,33275,7260,26848,0,70,4.6,9,0,0,0,0,0,0,0,0,0,0,0,0
2018,6,14,10,0,,22.9,17.5,72,100420,0,0,388,526,240,346,63909,21821,42985,0,70,5.9,6,0,0,0,0,0,0,0,0,0,0,0,0
2018,6,14,11,0,,24.4,17.8,67,100460,0,0,390,707,330,418,80369,29811,51098,0,70,4.3,4,0,0,0,0,0,0,0,0,0,0,0,0
2018,6,14,12,0,,24,18.6,72,100410,0,0,389,762,294,481,83222,26155,58299,0,50,5.9,4,0,0,0,0,0,0,0,0,0,0,0,0
2018,6,14,13,0,,23,18.7,77,100390,0,0,377,808,314,499,84444,27749,60197,0,50,7.4,2,0,0,0,0,0,0,0,0,0,0,0,0
2018,6,14,14,0,,23.5,19,76,100370,0,0,380,764,288,487,76055,25304,57075,0,50,6.6,2,0,0,0,0,0,0,0,0,0,0,0,0
2018,6,14,15,0,,25.1,18.5,67,100350,0,0,388,747,475,325,64731,40827,40637,0,70,4.9,2,0,0,0,0,0,0,0,0,0,0,0,0
2018,6,14,16,0,,24.7,19,71,100310,0,0,386,646,510,254,48167,39755,32072,0,90,4.8,2,0,0,0,0,0,0,0,0,0,0,0,0
2018,6,14,17,0,,24.8,19.1,71,100260,0,0,382,523,582,167,28698,34830,21493,0,90,5.6,1,0,0,0,0,0,0,0,0,0,0,0,0
2018,6,14,18,0,,22.9,19,79,100270,0,0,381,312,398,141,14815,0,14815,0,70,4.9,3,0,0,0,0,0,0,0,0,0,0,0,0
2018,6,14,19,0,,22.2,18.9,82,100270,0,0,378,160,380,72,0,0,0,0,90,4,3,0,0,0,0,0,0,0,0,0,0,0,0
2018,6,14,20,0,,21.7,18.8,84,100300,0,0,376,35,16,19,0,0,0,0,70,3.4,4,0,0,0,0,0,0,0,0,0,0,0,0
2018,6,14,21,0,,21.9,18.8,83,100410,0,0,378,0,0,0,0,0,0,0,70,2.7,4,0,0,0,0,0,0,0,0,0,0,0,0
2018,6,14,22,0,,21.8,18.7,83,100450,0,0,377,0,0,0,0,0,0,0,90,3.8,4,0,0,0,0,0,0,0,0,0,0,0,0
2018,6,14,23,0,,21.5,18.4,83,100460,0,0,374,0,0,0,0,0,0,0,90,4.3,3,0,0,0,0,0,0,0,0,0,0,0,0
2018,6,14,24,0,,21.3,18.6,85,100440,0,0,372,0,0,0,0,0,0,0,90,2.7,3,0,0,0,0,0,0,0,0,0,0,0,0
2018,6,15,1,0,,21,18.5,86,100450,0,0,372,0,0,0,0,0,0,0,70,3.7,4,0,0,0,0,0,0,0,0,0,0,0,0
2018,6,15,2,0,,20.7,18.4,87,100460,0,0,373,0,0,0,0,0,0,0,70,3.1,4,0,0,0,0,0,0,0,0,0,0,0,0
2018,6,15,3,0,,20.5,18,86,100480,0,0,373,0,0,0,0,0,0,0,70,3.6,5,0,0,0,0,0,0,0,0,0,0,0,0
2018,6,15,4,0,,20.3,17.8,86,100520,0,0,394,0,0,0,0,0,0,0,70,2.4,9,0,0,0,0,0,0,0,0,0,0,0,0
2018,6,15,5,0,,20.3,17.6,85,100550,0,0,394,0,0,0,0,0,0,0,90,3.1,9,0,0,0,0,0,0,0,0,0,0,0,0
2018,6,15,6,0,,20.2,17.4,84,100600,0,0,393,11,1,10,1420,29,1407,0,90,3.2,9,0,0,0,0,0,0,0,0,0,0,0,0
2018,6,15,7,0,,20.4,17.2,82,100650,0,0,394,75,68,61,12716,6113,8989,0,90,3.7,9,0,0,0,0,0,0,0,0,0,0,0,0
2018,6,15,8,0,,20.8,17.2,80,100680,0,0,396,154,62,129,20943,5762,16528,0,90,2.9,9,0,0,0,0,0,0,0,0,0,0,0,0
2018,6,15,9,0,,21.3,17,77,100690,0,0,398,255,72,213,32273,6726,26319,0,90,4.3,9,0,0,0,0,0,0,0,0,0,0,0,0
2018,6,15,10,0,,22.5,16.9,71,100700,0,0,396,420,126,325,50385,11714,39154,0,90,4.5,8,0,0,0,0,0,0,0,0,0,0,0,0
2018,6,15,11,0,,21.7,16.4,72,100740,0,0,391,471,102,381,54626,9515,45282,0,90,5,8,0,0,0,0,0,0,0,0,0,0,0,0
2018,6,15,12,0,,22.1,16.3,70,100750,0,0,402,430,60,373,48530,5567,43223,0,70,4.1,9,0,0,0,0,0,0,0,0,0,0,0,0
2018,6,15,13,0,,23.3,16,64,100720,0,0,399,544,102,444,59274,9600,50881,0,70,4.9,8,0,0,0,0,0,0,0,0,0,0,0,0
2018,6,15,14,0,,23.2,16,64,100730,0,0,399,551,114,441,58395,10744,50329,0,70,5.3,8,0,0,0,0,0,0,0,0,0,0,0,0
2018,6,15,15,0,,23.5,16.2,64,100710,0,0,390,612,199,434,60489,17646,50060,0,70,4.6,6,0,0,0,0,0,0,0,0,0,0,0,0
2018,6,15,16,0,,23.2,15.2,61,100730,0,0,381,599,327,348,50716,27000,39759,0,90,4.7,4,0,0,0,0,0,0,0,0,0,0,0,0
2018,6,15,17,0,,22.6,14.6,61,100720,0,0,377,469,416,214,30252,24692,25118,0,90,4.8,4,0,0,0,0,0,0,0,0,0,0,0,0
2018,6,15,18,0,,22.4,14.5,61,100710,0,0,364,350,553,112,10456,0,10456,0,90,5.4,1,0,0,0,0,0,0,0,0,0,0,0,0
2018,6,15,19,0,,21.5,15.3,68,100750,0,0,359,181,527,58,0,0,0,0,110,5.2,1,0,0,0,0,0,0,0,0,0,0,0,0
2018,6,15,20,0,,20.4,15.8,75,100880,0,0,352,43,22,21,0,0,0,0,110,4.2,0,0,0,0,0,0,0,0,0,0,0,0,0
2018,6,15,21,0,,19.8,15.6,77,100900,0,0,346,0,0,0,0,0,0,0,110,3.4,0,0,0,0,0,0,0,0,0,0,0,0,0
2018,6,15,22,0,,19.4,15.6,79,100950,0,0,344,0,0,0,0,0,0,0,90,3.3,0,0,0,0,0,0,0,0,0,0,0,0,0
2018,6,15,23,0,,19.3,15.3,78,101000,0,0,343,0,0,0,0,0,0,0,90,3.2,0,0,0,0,0,0,0,0,0,0,0,0,0
2018,6,15,24,0,,19,15.2,79,101000,0,0,342,0,0,0,0,0,0,0,90,2.3,0,0,0,0,0,0,0,0,0,0,0,0,0
2018,6,16,1,0,,18.8,15,79,100960,0,0,341,0,0,0,0,0,0,0,90,2.7,0,0,0,0,0,0,0,0,0,0,0,0,0
2018,6,16,2,0,,18.4,14.6,79,100930,0,0,338,0,0,0,0,0,0,0,110,2.7,0,0,0,0,0,0,0,0,0,0,0,0,0
2018,6,16,3,0,,18.4,14.4,78,100920,0,0,338,0,0,0,0,0,0,0,90,2.6,0,0,0,0,0,0,0,0,0,0,0,0,0
2018,6,16,4,0,,18.4,13.8,75,100970,0,0,348,0,0,0,0,0,0,0,90,2.7,2,0,0,0,0,0,0,0,0,0,0,0,0
2018,6,16,5,0,,18.9,14.5,76,100950,0,0,358,0,0,0,0,0,0,0,90,2.2,4,0,0,0,0,0,0,0,0,0,0,0,0
2018,6,16,6,0,,19,14.8,77,100950,0,0,369,22,7,16,2204,554,1967,0,70,3.9,7,0,0,0,0,0,0,0,0,0,0,0,0
2018,6,16,7,0,,19.5,14.3,72,100980,0,0,377,100,154,68,19736,14457,10926,0,70,3.1,8,0,0,0,0,0,0,0,0,0,0,0,0
2018,6,16,8,0,,20,14.5,71,101020,0,0,380,211,151,150,30769,14237,19866,0,70,4.7,8,0,0,0,0,0,0,0,0,0,0,0,0
2018,6,16,9,0,,20.6,13.7,65,101000,0,0,376,374,213,248,48943,20363,30922,0,70,4.6,7,0,0,0,0,0,0,0,0,0,0,0,0
2018,6,16,10,0,,20.8,14.6,68,100980,0,0,384,410,118,322,49095,11267,38293,0,90,4.9,8,0,0,0,0,0,0,0,0,0,0,0,0
2018,6,16,11,0,,20.8,14.2,66,101010,0,0,384,476,105,384,54949,10038,45090,0,50,5.8,8,0,0,0,0,0,0,0,0,0,0,0,0
2018,6,16,12,0,,22.2,13.7,59,101000,0,0,390,551,117,440,61588,11143,50963,0,70,4.7,8,0,0,0,0,0,0,0,0,0,0,0,0
2018,6,16,13,0,,22,13.6,59,100960,0,0,383,648,164,486,69320,15519,55743,0,90,5.2,7,0,0,0,0,0,0,0,0,0,0,0,0
2018,6,16,14,0,,22.5,14.3,60,100970,0,0,393,554,116,443,58654,11044,50355,0,70,3.5,8,0,0,0,0,0,0,0,0,0,0,0,0
2018,6,16,15,0,,21.8,14.9,65,100910,0,0,390,470,96,385,48990,9094,43609,0,70,5.5,8,0,0,0,0,0,0,0,0,0,0,0,0
2018,6,16,16,0,,22.5,14.8,62,100890,0,0,393,416,111,330,41197,10216,37042,0,70,4,8,0,0,0,0,0,0,0,0,0,0,0,0
2018,6,16,17,0,,22.2,14.8,63,100890,0,0,378,441,303,255,32459,18595,28573,0,70,4.5,5,0,0,0,0,0,0,0,0,0,0,0,0
2018,6,16,18,0,,21.9,15.2,66,100870,0,0,385,249,193,166,16770,0,16770,0,50,3.6,7,0,0,0,0,0,0,0,0,0,0,0,0
2018,6,16,19,0,,20.4,15.1,72,100890,0,0,377,122,181,80,0,0,0,0,70,4.8,7,0,0,0,0,0,0,0,0,0,0,0,0
2018,6,16,20,0,,19.8,15.4,76,100920,0,0,374,27,7,20,0,0,0,0,70,3.4,7,0,0,0,0,0,0,0,0,0,0,0,0
2018,6,16,21,0,,19.5,15.7,79,100950,0,0,373,0,0,0,0,0,0,0,90,2.8,7,0,0,0,0,0,0,0,0,0,0,0,0
2018,6,16,22,0,,19.3,15.9,81,100980,0,0,370,0,0,0,0,0,0,0,110,3.2,7,0,0,0,0,0,0,0,0,0,0,0,0
2018,6,16,23,0,,19.1,15.9,82,100950,0,0,368,0,0,0,0,0,0,0,70,2.4,6,0,0,0,0,0,0,0,0,0,0,0,0
2018,6,16,24,0,,18.9,16.1,84,100950,0,0,366,0,0,0,0,0,0,0,70,2.3,6,0,0,0,0,0,0,0,0,0,0,0,0
2018,6,17,1,0,,19,16.4,85,100920,0,0,367,0,0,0,0,0,0,0,70,2.5,6,0,0,0,0,0,0,0,0,0,0,0,0
2018,6,17,2,0,,19,16.4,85,100880,0,0,367,0,0,0,0,0,0,0,70,2.5,6,0,0,0,0,0,0,0,0,0,0,0,0
2018,6,17,3,0,,19.1,16.5,85,100870,0,0,367,0,0,0,0,0,0,0,90,2.4,6,0,0,0,0,0,0,0,0,0,0,0,0
2018,6,17,4,0,,19,16.4,85,100860,0,0,371,0,0,0,0,0,0,0,70,2.5,7,0,0,0,0,0,0,0,0,0,0,0,0
2018,6,17,5,0,,19.1,16.3,84,100870,0,0,367,0,0,0,0,0,0,0,90,2.4,6,0,0,0,0,0,0,0,0,0,0,0,0
2018,6,17,6,0,,19,16.5,86,100870,0,0,361,28,14,15,2612,1222,2091,0,70,2.9,4,0,0,0,0,0,0,0,0,0,0,0,0
2018,6,17,7,0,,19.7,16.9,84,100840,0,0,381,92,122,67,17779,11184,10968,0,90,3.3,8,0,0,0,0,0,0,0,0,0,0,0,0
2018,6,17,8,0,,21.1,17.1,78,100860,0,0,378,270,325,139,43779,30241,20630,0,70,3.9,6,0,0,0,0,0,0,0,0,0,0,0,0
2018,6,17,9,0,,22.1,17.4,75,100830,0,0,388,377,220,248,49636,20049,31897,0,70,4.3,7,0,0,0,0,0,0,0,0,0,0,0,0
2018,6,17,10,0,,21.9,17.2,75,100850,0,0,387,460,163,338,55063,15091,40595,0,70,3.9,7,0,0,0,0,0,0,0,0,0,0,0,0
2018,6,17,11,0,,24.2,17.9,68,100870,0,0,407,499,120,394,57864,10964,47095,0,70,3.2,8,0,0,0,0,0,0,0,0,0,0,0,0
2018,6,17,12,0,,22.8,17.9,74,100820,0,0,393,574,131,449,64404,11885,53068,0,50,5.3,7,0,0,0,0,0,0,0,0,0,0,0,0
2018,6,17,13,0,,22.1,17.8,77,100770,0,0,395,518,90,430,56805,8280,49558,0,50,5.5,8,0,0,0,0,0,0,0,0,0,0,0,0
2018,6,17,14,0,,21.9,17.8,78,100740,0,0,394,451,66,387,49095,6106,44503,0,50,6.3,8,0,0,0,0,0,0,0,0,0,0,0,0
2018,6,17,15,0,,21.9,17.8,78,100670,0,0,402,355,45,315,38581,4080,36163,0,50,4.5,9,0,0,0,0,0,0,0,0,0,0,0,0
2018,6,17,16,0,,22.4,18.5,79,100620,0,0,398,385,90,315,39027,7987,35771,0,50,4.9,8,0,0,0,0,0,0,0,0,0,0,0,0
2018,6,17,17,0,,21.9,18.4,81,100630,0,0,395,303,100,241,28608,7851,26960,0,50,4.5,8,0,0,0,0,0,0,0,0,0,0,0,0
2018,6,17,18,0,,20.9,18.2,85,100660,0,0,398,165,59,139,14886,3770,14838,0,50,3.5,9,0,0,0,0,0,0,0,0,0,0,0,0
2018,6,17,19,0,,20.7,18.2,86,100670,0,0,396,78,50,67,0,0,0,0,50,3.8,9,0,0,0,0,0,0,0,0,0,0,0,0
2018,6,17,20,0,,20.3,18.2,88,100670,0,0,394,16,2,15,0,0,0,0,50,3,9,0,0,0,0,0,0,0,0,0,0,0,0
2018,6,17,21,0,,20.5,18.2,87,100640,0,0,395,0,0,0,0,0,0,0,140,1.5,9,0,0,0,0,0,0,0,0,0,0,0,0
2018,6,17,22,0,,21.3,17.3,78,100680,0,0,399,0,0,0,0,0,0,0,110,2,9,0,0,0,0,0,0,0,0,0,0,0,0
2018,6,17,23,0,,20.3,17.5,84,100680,0,0,393,0,0,0,0,0,0,0,50,2.5,9,0,0,0,0,0,0,0,0,0,0,0,0
2018,6,17,24,0,,20,18.4,91,100690,0,0,393,0,0,0,0,0,0,0,20,3,9,0,0,0,0,0,0,0,0,0,0,0,0
2018,6,18,1,0,,19.8,18.1,90,100620,0,0,392,0,0,0,0,0,0,0,180,0.7,9,0,0,0,0,0,0,0,0,0,0,0,0
2018,6,18,2,0,,19.6,18.4,93,100580,0,0,391,0,0,0,0,0,0,0,90,1.3,9,0,0,0,0,0,0,0,0,0,0,0,0
2018,6,18,3,0,,19.7,17.6,88,100560,0,0,390,0,0,0,0,0,0,0,200,0.7,9,0,0,0,0,0,0,0,0,0,0,0,0
2018,6,18,4,0,,19.7,17.4,87,100550,0,0,390,0,0,0,0,0,0,0,0,0.1,9,0,0,0,0,0,0,0,0,0,0,0,0
2018,6,18,5,0,,20,16,78,100590,0,0,390,0,0,0,0,0,0,0,230,0.7,9,0,0,0,0,0,0,0,0,0,0,0,0
2018,6,18,6,0,,20.3,16.1,77,100620,0,0,392,13,1,11,1554,44,1536,0,230,1.1,9,0,0,0,0,0,0,0,0,0,0,0,0
2018,6,18,7,0,,20.7,18.2,86,100620,0,0,396,73,63,60,12300,5577,8907,0,270,1.3,9,0,0,0,0,0,0,0,0,0,0,0,0
2018,6,18,8,0,,22.1,18.8,82,100630,0,0,396,199,128,148,29012,11401,20290,0,290,1.3,8,0,0,0,0,0,0,0,0,0,0,0,0
2018,6,18,9,0,,21.9,18.6,82,100570,0,0,395,282,96,226,35842,8776,28080,0,20,1.8,8,0,0,0,0,0,0,0,0,0,0,0,0
2018,6,18,10,0,,22.5,17.8,75,100580,0,0,397,389,103,312,46959,9458,37893,0,20,1.7,8,0,0,0,0,0,0,0,0,0,0,0,0
2018,6,18,11,0,,23.1,18.4,75,100550,0,0,401,456,94,374,53352,8541,44962,0,20,3.4,8,0,0,0,0,0,0,0,0,0,0,0,0
2018,6,18,12,0,,23.2,18,73,100550,0,0,401,506,93,417,56508,8550,48351,0,20,2.8,8,0,0,0,0,0,0,0,0,0,0,0,0
2018,6,18,13,0,,23.6,18.2,72,100530,0,0,404,506,84,423,55608,7717,48850,0,20,3.5,8,0,0,0,0,0,0,0,0,0,0,0,0
2018,6,18,14,0,,23.5,18.1,72,100540,0,0,412,390,45,347,43205,4104,40116,0,20,2.8,9,0,0,0,0,0,0,0,0,0,0,0,0
2018,6,18,15,0,,23,18.3,75,100540,0,0,421,262,19,245,28565,1446,27707,0,20,3,10,0,0,0,0,0,0,0,0,0,0,0,0
2018,6,18,16,0,,22.9,18.6,77,100500,0,0,421,222,20,207,23171,1427,22588,0,20,2.7,10,0,0,0,0,0,0,0,0,0,0,0,0
2018,6,18,17,0,,23.1,19,78,100480,0,0,422,176,22,162,17014,1324,16735,0,20,1.4,10,0,0,0,0,0,0,0,0,0,0,0,0
2018,6,18,18,0,,22.4,19.7,85,100460,0,0,419,108,18,100,8954,2550,8919,0,340,1.2,10,0,0,0,0,0,0,0,0,0,0,0,0
2018,6,18,19,0,,21.9,19.9,89,100440,0,0,417,51,15,48,0,0,0,0,360,1.8,10,0,0,0,0,0,0,0,0,0,0,0,0
2018,6,18,20,0,,22,19.7,87,100510,0,0,417,8,0,8,0,0,0,0,0,0.1,10,0,0,0,0,0,0,0,0,0,0,0,0
2018,6,18,21,0,,22.7,18,75,100530,0,0,419,0,0,0,0,0,0,0,320,0.8,10,0,0,0,0,0,0,0,0,0,0,0,0
2018,6,18,22,0,,22.7,18.2,76,100520,0,0,419,0,0,0,0,0,0,0,50,1,10,0,0,0,0,0,0,0,0,0,0,0,0
2018,6,18,23,0,,21.7,19.9,90,100530,0,0,416,0,0,0,0,0,0,0,360,1,10,0,0,0,0,0,0,0,0,0,0,0,0
2018,6,18,24,0,,22.4,17.9,76,100490,0,0,417,0,0,0,0,0,0,0,0,0.3,10,0,0,0,0,0,0,0,0,0,0,0,0
2018,6,19,1,0,,22.3,18.8,81,100400,0,0,413,0,0,0,0,0,0,0,230,0.5,10,0,0,0,0,0,0,0,0,0,0,0,0
2018,6,19,2,0,,22,17.1,74,100360,0,0,406,0,0,0,0,0,0,0,270,0.7,9,0,0,0,0,0,0,0,0,0,0,0,0
2018,6,19,3,0,,21.9,17.6,77,100290,0,0,402,0,0,0,0,0,0,0,0,0.4,9,0,0,0,0,0,0,0,0,0,0,0,0
2018,6,19,4,0,,21.5,18.4,83,100280,0,0,401,0,0,0,0,0,0,0,320,0.9,9,0,0,0,0,0,0,0,0,0,0,0,0
2018,6,19,5,0,,22.1,18.6,81,100280,0,0,405,0,0,0,0,0,0,0,230,0.7,9,0,0,0,0,0,0,0,0,0,0,0,0
2018,6,19,6,0,,22.2,18.9,82,100240,0,0,417,6,0,6,876,6,874,0,250,0.5,10,0,0,0,0,0,0,0,0,0,0,0,0
2018,6,19,7,0,,21.9,19,84,100240,0,0,415,48,19,44,7063,1723,6016,0,360,1.1,10,0,0,0,0,0,0,0,0,0,0,0,0
2018,6,19,8,0,,22.9,19.2,80,100330,0,0,421,110,24,100,13758,2130,12130,0,250,0.8,10,0,0,0,0,0,0,0,0,0,0,0,0
2018,6,19,9,0,,23.4,19.9,81,100300,0,0,405,282,96,225,35852,8594,28253,0,360,1.8,8,0,0,0,0,0,0,0,0,0,0,0,0
2018,6,19,10,0,,23,19.9,83,100360,0,0,423,218,21,203,25928,1843,24161,0,340,1.5,10,0,0,0,0,0,0,0,0,0,0,0,0
2018,6,19,11,0,,22.7,20.6,88,100340,0,0,422,234,15,221,27623,1315,26331,0,270,0.8,10,0,0,0,0,0,0,0,0,0,0,0,0
2018,6,19,12,0,,23,20.8,88,100330,0,0,424,242,12,230,28789,745,28078,0,320,1.3,10,0,0,0,0,0,0,0,0,0,0,0,0
2018,6,19,13,0,,23.2,21,88,100220,0,0,426,285,18,268,32892,1158,31877,0,20,2.3,10,0,0,0,0,0,0,0,0,0,0,0,0
2018,6,19,14,0,,23.2,21.4,90,100160,0,0,426,288,20,270,32292,1345,31278,0,20,2.9,10,0,0,0,0,0,0,0,0,0,0,0,0
2018,6,19,15,0,,23.3,21.7,91,100130,0,0,427,241,15,227,26377,1035,25762,0,200,0.9,10,0,0,0,0,0,0,0,0,0,0,0,0
2018,6,19,16,0,,22.8,21.6,93,100220,0,0,424,183,11,174,19458,697,19172,0,270,1.1,10,0,0,0,0,0,0,0,0,0,0,0,0
2018,6,19,17,0,,22.1,21.4,96,100140,0,0,420,139,11,132,13922,504,13816,0,140,1.2,10,0,0,0,0,0,0,0,0,0,0,0,0
2018,6,19,18,0,,21.9,20.3,91,100090,0,0,417,99,14,93,8346,1657,8322,0,140,1.9,10,0,0,0,0,0,0,0,0,0,0,0,0
2018,6,19,19,0,,21.2,20.3,95,100130,0,0,413,47,11,44,0,0,0,0,70,1.5,10,0,0,0,0,0,0,0,0,0,0,0,0
2018,6,19,20,0,,20.8,20.3,97,100100,0,0,411,7,0,7,0,0,0,0,70,2.1,10,0,0,0,0,0,0,0,0,0,0,0,0
2018,6,19,21,0,,20.3,19.9,98,100060,0,0,408,0,0,0,0,0,0,0,90,2.5,10,0,0,0,0,0,0,0,0,0,0,0,0
2018,6,19,22,0,,20.2,19.8,98,100080,0,0,407,0,0,0,0,0,0,0,20,1.5,10,0,0,0,0,0,0,0,0,0,0,0,0
2018,6,19,23,0,,20,19.6,98,100120,0,0,406,0,0,0,0,0,0,0,360,0.8,10,0,0,0,0,0,0,0,0,0,0,0,0
2018,6,19,24,0,,19.7,19.3,98,100120,0,0,404,0,0,0,0,0,0,0,50,3.4,10,0,0,0,0,0,0,0,0,0,0,0,0
2018,6,20,1,0,,19.9,19.7,99,100100,0,0,405,0,0,0,0,0,0,0,70,2.9,10,0,0,0,0,0,0,0,0,0,0,0,0
2018,6,20,2,0,,19.8,19.6,99,100110,0,0,405,0,0,0,0,0,0,0,90,1.9,10,0,0,0,0,0,0,0,0,0,0,0,0
2018,6,20,3,0,,19.9,19.5,98,100090,0,0,405,0,0,0,0,0,0,0,110,1.4,10,0,0,0,0,0,0,0,0,0,0,0,0
2018,6,20,4,0,,20,19.6,98,100110,0,0,406,0,0,0,0,0,0,0,70,1.3,10,0,0,0,0,0,0,0,0,0,0,0,0
2018,6,20,5,0,,20.2,19.7,97,100120,0,0,407,0,0,0,0,0,0,0,160,0.7,10,0,0,0,0,0,0,0,0,0,0,0,0
2018,6,20,6,0,,20.4,19.7,96,100150,0,0,389,15,2,13,1732,60,1707,0,160,1.4,8,0,0,0,0,0,0,0,0,0,0,0,0
2018,6,20,7,0,,21.2,19.4,90,100130,0,0,386,103,172,68,20646,15378,11306,0,110,1.2,7,0,0,0,0,0,0,0,0,0,0,0,0
2018,6,20,8,0,,22.4,19.1,82,100170,0,0,398,201,132,148,29329,11716,20376,0,50,2,8,0,0,0,0,0,0,0,0,0,0,0,0
2018,6,20,9,0,,23.1,18.2,74,100220,0,0,401,307,122,235,38977,11174,29100,0,360,1,8,0,0,0,0,0,0,0,0,0,0,0,0
2018,6,20,10,0,,22.8,19.5,82,100230,0,0,401,375,93,305,45501,8371,37480,0,360,2.8,8,0,0,0,0,0,0,0,0,0,0,0,0
2018,6,20,11,0,,22.6,19.9,85,100240,0,0,409,346,45,307,40085,3967,36188,0,20,2.8,9,0,0,0,0,0,0,0,0,0,0,0,0
2018,6,20,12,0,,22.8,19.7,83,100270,0,0,410,361,37,325,41309,3323,38137,0,20,2.5,9,0,0,0,0,0,0,0,0,0,0,0,0
2018,6,20,13,0,,23.7,19.6,78,100240,0,0,400,573,118,458,62271,10733,52862,0,360,3.2,7,0,0,0,0,0,0,0,0,0,0,0,0
2018,6,20,14,0,,24.3,18.9,72,100220,0,0,408,505,90,418,54326,8218,48131,0,340,2,8,0,0,0,0,0,0,0,0,0,0,0,0
2018,6,20,15,0,,23.7,18.3,72,100210,0,0,425,295,27,271,31687,2100,30437,0,320,2.3,10,0,0,0,0,0,0,0,0,0,0,0,0
2018,6,20,16,0,,23.5,19.8,80,100210,0,0,426,225,21,210,23439,1461,22840,0,290,3.4,10,0,0,0,0,0,0,0,0,0,0,0,0
2018,6,20,17,0,,22.9,19.6,82,100180,0,0,410,217,39,193,20190,2834,19588,0,320,2.7,9,0,0,0,0,0,0,0,0,0,0,0,0
2018,6,20,18,0,,22.4,19.7,85,100250,0,0,419,108,18,100,8984,2416,8947,0,290,3.1,10,0,0,0,0,0,0,0,0,0,0,0,0
2018,6,20,19,0,,22,19.9,88,100260,0,0,417,56,19,52,0,0,0,0,290,2.8,10,0,0,0,0,0,0,0,0,0,0,0,0
2018,6,20,20,0,,21.9,19.9,89,100300,0,0,417,9,0,9,0,0,0,0,270,2.7,10,0,0,0,0,0,0,0,0,0,0,0,0
2018,6,20,21,0,,21.9,19.9,89,100350,0,0,417,0,0,0,0,0,0,0,230,1.9,10,0,0,0,0,0,0,0,0,0,0,0,0
2018,6,20,22,0,,21.6,19.8,90,100350,0,0,407,0,0,0,0,0,0,0,270,1.8,9,0,0,0,0,0,0,0,0,0,0,0,0
2018,6,20,23,0,,21.6,20,91,100440,0,0,401,0,0,0,0,0,0,0,250,1.9,9,0,0,0,0,0,0,0,0,0,0,0,0
2018,6,20,24,0,,21.3,19.9,92,100470,0,0,394,0,0,0,0,0,0,0,250,2.3,8,0,0,0,0,0,0,0,0,0,0,0,0
2018,6,21,1,0,,21.2,19.8,92,100450,0,0,398,0,0,0,0,0,0,0,270,2.3,9,0,0,0,0,0,0,0,0,0,0,0,0
2018,6,21,2,0,,20.8,19.6,93,100360,0,0,402,0,0,0,0,0,0,0,250,1.5,9,0,0,0,0,0,0,0,0,0,0,0,0
2018,6,21,3,0,,20.7,19.6,94,100360,0,0,410,0,0,0,0,0,0,0,230,1.3,10,0,0,0,0,0,0,0,0,0,0,0,0
2018,6,21,4,0,,20.7,19.3,92,100370,0,0,409,0,0,0,0,0,0,0,200,1.2,10,0,0,0,0,0,0,0,0,0,0,0,0
2018,6,21,5,0,,20.5,19.4,94,100380,0,0,408,0,0,0,0,0,0,0,250,1.3,10,0,0,0,0,0,0,0,0,0,0,0,0
2018,6,21,6,0,,20.3,19.4,95,100460,0,0,388,15,2,13,1680,171,1607,0,320,2.1,8,0,0,0,0,0,0,0,0,0,0,0,0
2018,6,21,7,0,,20.6,19.4,93,100520,0,0,389,82,89,64,14152,7689,9486,0,290,1.6,8,0,0,0,0,0,0,0,0,0,0,0,0
2018,6,21,8,0,,21.1,19.2,89,100580,0,0,400,145,53,124,19664,4781,16013,0,340,1.6,9,0,0,0,0,0,0,0,0,0,0,0,0
2018,6,21,9,0,,22.3,18.8,81,100600,0,0,383,399,264,244,54929,24115,33624,0,360,1.1,5,0,0,0,0,0,0,0,0,0,0,0,0
2018,6,21,10,0,,22.1,18.2,79,100620,0,0,379,561,297,339,68143,26758,42506,0,360,2.6,4,0,0,0,0,0,0,0,0,0,0,0,0
2018,6,21,11,0,,22.6,17.5,73,100620,0,0,374,704,327,418,80040,29691,50872,0,20,2,2,0,0,0,0,0,0,0,0,0,0,0,0
2018,6,21,12,0,,23.9,17.6,68,100610,0,0,375,799,447,373,86427,41125,47164,0,360,2.6,1,0,0,0,0,0,0,0,0,0,0,0,0
2018,6,21,13,0,,25,17.2,62,100610,0,0,381,851,491,367,85981,45188,46354,0,320,2.5,1,0,0,0,0,0,0,0,0,0,0,0,0
2018,6,21,14,0,,25.3,18.7,67,100580,0,0,393,807,342,478,80396,29885,57851,0,340,2.9,3,0,0,0,0,0,0,0,0,0,0,0,0
2018,6,21,15,0,,26.6,18.9,63,100570,0,0,400,742,457,335,65161,39013,41933,0,340,2,3,0,0,0,0,0,0,0,0,0,0,0,0
2018,6,21,16,0,,25.6,19.2,68,100590,0,0,386,639,482,266,49022,37564,33592,0,320,3.6,1,0,0,0,0,0,0,0,0,0,0,0,0
2018,6,21,17,0,,24.8,19.6,73,100570,0,0,375,487,458,204,30661,24853,25365,0,290,3.3,0,0,0,0,0,0,0,0,0,0,0,0,0
2018,6,21,18,0,,24.6,19.2,72,100550,0,0,374,323,422,139,14882,0,14882,0,270,2.4,0,0,0,0,0,0,0,0,0,0,0,0,0
2018,6,21,19,0,,23,19.5,81,100590,0,0,373,168,397,73,0,0,0,0,290,3.1,1,0,0,0,0,0,0,0,0,0,0,0,0
2018,6,21,20,0,,22.4,19.9,86,100660,0,0,376,41,24,17,0,0,0,0,270,2.9,2,0,0,0,0,0,0,0,0,0,0,0,0
2018,6,21,21,0,,21.7,19.9,90,100700,0,0,376,0,0,0,0,0,0,0,270,3.2,3,0,0,0,0,0,0,0,0,0,0,0,0
2018,6,21,22,0,,21.4,19.8,91,100760,0,0,374,0,0,0,0,0,0,0,270,3.3,3,0,0,0,0,0,0,0,0,0,0,0,0
2018,6,21,23,0,,21.3,19.7,91,100750,0,0,383,0,0,0,0,0,0,0,250,2.1,6,0,0,0,0,0,0,0,0,0,0,0,0
2018,6,21,24,0,,21.1,19.9,93,100750,0,0,382,0,0,0,0,0,0,0,250,2.3,6,0,0,0,0,0,0,0,0,0,0,0,0
2018,6,22,1,0,,21.2,20,93,100700,0,0,383,0,0,0,0,0,0,0,230,1.1,6,0,0,0,0,0,0,0,0,0,0,0,0
2018,6,22,2,0,,21.3,18.6,85,100660,0,0,386,0,0,0,0,0,0,0,180,1.3,7,0,0,0,0,0,0,0,0,0,0,0,0
2018,6,22,3,0,,21.4,15.6,70,100690,0,0,382,0,0,0,0,0,0,0,200,1.4,7,0,0,0,0,0,0,0,0,0,0,0,0
2018,6,22,4,0,,21.1,12.7,59,100680,0,0,377,0,0,0,0,0,0,0,180,1.1,7,0,0,0,0,0,0,0,0,0,0,0,0
2018,6,22,5,0,,20.4,12.3,60,100680,0,0,369,0,0,0,0,0,0,0,180,1.6,6,0,0,0,0,0,0,0,0,0,0,0,0
2018,6,22,6,0,,21.3,10.1,49,100720,0,0,381,18,4,14,1927,333,1786,0,180,1.8,8,0,0,0,0,0,0,0,0,0,0,0,0
2018,6,22,7,0,,22.6,12.2,52,100750,0,0,391,104,181,67,21090,17203,10663,0,230,0.7,8,0,0,0,0,0,0,0,0,0,0,0,0
2018,6,22,8,0,,22.7,17.3,72,100730,0,0,398,205,142,148,29983,12952,20099,0,340,1.1,8,0,0,0,0,0,0,0,0,0,0,0,0
2018,6,22,9,0,,23.5,18.3,73,100730,0,0,403,305,121,234,38843,11106,29035,0,20,1.9,8,0,0,0,0,0,0,0,0,0,0,0,0
2018,6,22,10,0,,24.9,15.7,57,100700,0,0,416,358,82,297,43201,7760,35768,0,50,2.5,9,0,0,0,0,0,0,0,0,0,0,0,0
2018,6,22,11,0,,25.2,16.6,59,100700,0,0,419,428,79,359,48864,7304,41689,0,50,3.9,9,0,0,0,0,0,0,0,0,0,0,0,0
2018,6,22,12,0,,24.6,16.8,62,100710,0,0,416,442,65,381,49820,5979,44111,0,50,3.9,9,0,0,0,0,0,0,0,0,0,0,0,0
2018,6,22,13,0,,24.4,17.8,67,100620,0,0,416,430,54,377,48035,4980,43666,0,50,5.2,9,0,0,0,0,0,0,0,0,0,0,0,0
2018,6,22,14,0,,24.2,18.8,72,100590,0,0,417,413,52,363,45529,4753,41942,0,50,5.2,9,0,0,0,0,0,0,0,0,0,0,0,0
2018,6,22,15,0,,24.2,19,73,100540,0,0,408,462,91,381,48539,8301,43592,0,50,4.5,8,0,0,0,0,0,0,0,0,0,0,0,0
2018,6,22,16,0,,23.8,19.7,78,100560,0,0,415,300,45,265,31980,3907,30372,0,50,3.2,9,0,0,0,0,0,0,0,0,0,0,0,0
2018,6,22,17,0,,24.4,20,77,100520,0,0,419,247,56,212,24858,4243,23951,0,20,2.5,9,0,0,0,0,0,0,0,0,0,0,0,0
2018,6,22,18,0,,24.3,19.3,74,100530,0,0,418,165,58,140,15051,3560,14992,0,250,1,9,0,0,0,0,0,0,0,0,0,0,0,0
2018,6,22,19,0,,24.1,18.7,72,100530,0,0,419,92,73,74,0,0,0,0,270,2.9,9,0,0,0,0,0,0,0,0,0,0,0,0
2018,6,22,20,0,,22.7,18.8,79,100600,0,0,415,11,1,10,0,0,0,0,270,3,10,0,0,0,0,0,0,0,0,0,0,0,0
2018,6,22,21,0,,22.3,19,82,100650,0,0,418,0,0,0,0,0,0,0,250,1.3,10,0,0,0,0,0,0,0,0,0,0,0,0
2018,6,22,22,0,,21.9,19.6,87,100650,0,0,416,0,0,0,0,0,0,0,270,1.1,10,0,0,0,0,0,0,0,0,0,0,0,0
2018,6,22,23,0,,21.2,18.7,86,100550,0,0,400,0,0,0,0,0,0,0,20,1.3,9,0,0,0,0,0,0,0,0,0,0,0,0
2018,6,22,24,0,,21,19.2,90,100530,0,0,411,0,0,0,0,0,0,0,290,1.4,10,0,0,0,0,0,0,0,0,0,0,0,0
2018,6,23,1,0,,21.2,17.8,81,100500,0,0,410,0,0,0,0,0,0,0,250,1.1,10,0,0,0,0,0,0,0,0,0,0,0,0
2018,6,23,2,0,,21.5,17.8,80,100490,0,0,412,0,0,0,0,0,0,0,0,0.4,10,0,0,0,0,0,0,0,0,0,0,0,0
2018,6,23,3,0,,21.6,17.9,80,100480,0,0,412,0,0,0,0,0,0,0,270,1.4,10,0,0,0,0,0,0,0,0,0,0,0,0
2018,6,23,4,0,,20.4,18.6,90,100460,0,0,407,0,0,0,0,0,0,0,230,1.7,10,0,0,0,0,0,0,0,0,0,0,0,0
2018,6,23,5,0,,20.1,18.4,90,100480,0,0,405,0,0,0,0,0,0,0,180,2.3,10,0,0,0,0,0,0,0,0,0,0,0,0
2018,6,23,6,0,,20.1,17.3,84,100450,0,0,403,4,0,4,608,3,607,0,180,2.1,10,0,0,0,0,0,0,0,0,0,0,0,0
2018,6,23,7,0,,20.8,15.9,74,100460,0,0,405,50,23,45,7407,2115,6126,0,200,0.7,10,0,0,0,0,0,0,0,0,0,0,0,0
2018,6,23,8,0,,21.6,17.3,77,100490,0,0,400,159,69,131,21646,6423,16748,0,290,0.7,9,0,0,0,0,0,0,0,0,0,0,0,0
2018,6,23,9,0,,23.5,16.7,66,100500,0,0,410,272,88,221,34458,8217,27205,0,340,0.8,9,0,0,0,0,0,0,0,0,0,0,0,0
2018,6,23,10,0,,23.2,17.1,69,100470,0,0,400,412,122,322,49587,11278,38786,0,320,2,8,0,0,0,0,0,0,0,0,0,0,0,0
2018,6,23,11,0,,23.2,18.9,77,100440,0,0,385,662,270,426,76093,23956,52560,0,360,2.4,4,0,0,0,0,0,0,0,0,0,0,0,0
2018,6,23,12,0,,24.1,17.5,67,100460,0,0,381,779,318,477,84571,28692,57169,0,320,3.7,2,0,0,0,0,0,0,0,0,0,0,0,0
2018,6,23,13,0,,23.9,18.3,71,100430,0,0,381,802,306,501,84012,27187,60153,0,290,4.2,2,0,0,0,0,0,0,0,0,0,0,0,0
2018,6,23,14,0,,24.3,18.9,72,100430,0,0,388,774,298,487,76892,26211,57095,0,290,4.3,3,0,0,0,0,0,0,0,0,0,0,0,0
2018,6,23,15,0,,24.5,17.9,67,100400,0,0,384,743,457,335,65181,39704,41498,0,270,4.9,2,0,0,0,0,0,0,0,0,0,0,0,0
2018,6,23,16,0,,24.3,18.9,72,100360,0,0,372,643,491,263,49024,38539,33147,0,290,4.8,0,0,0,0,0,0,0,0,0,0,0,0,0
2018,6,23,17,0,,24.3,19.3,74,100380,0,0,372,501,495,194,30014,27305,24161,0,290,4.5,0,0,0,0,0,0,0,0,0,0,0,0,0
2018,6,23,18,0,,23.9,18.7,73,100370,0,0,370,344,503,124,13408,0,13408,0,270,4.2,0,0,0,0,0,0,0,0,0,0,0,0,0
2018,6,23,19,0,,22.7,19.4,82,100420,0,0,364,178,461,67,0,0,0,0,270,4.4,0,0,0,0,0,0,0,0,0,0,0,0,0
2018,6,23,20,0,,22.3,18.6,80,100410,0,0,361,44,21,23,0,0,0,0,270,4.3,0,0,0,0,0,0,0,0,0,0,0,0,0
2018,6,23,21,0,,22,18.5,81,100450,0,0,360,0,0,0,0,0,0,0,250,2.8,0,0,0,0,0,0,0,0,0,0,0,0,0
2018,6,23,22,0,,22,19.3,85,100540,0,0,361,0,0,0,0,0,0,0,250,3.5,0,0,0,0,0,0,0,0,0,0,0,0,0
2018,6,23,23,0,,21.8,18.5,82,100570,0,0,359,0,0,0,0,0,0,0,250,3.4,0,0,0,0,0,0,0,0,0,0,0,0,0
2018,6,23,24,0,,21.8,16.9,74,100620,0,0,357,0,0,0,0,0,0,0,250,2.5,0,0,0,0,0,0,0,0,0,0,0,0,0
2018,6,24,1,0,,21.6,18.1,81,100600,0,0,358,0,0,0,0,0,0,0,230,2.7,0,0,0,0,0,0,0,0,0,0,0,0,0
2018,6,24,2,0,,21.5,17.6,79,100560,0,0,356,0,0,0,0,0,0,0,250,3.1,0,0,0,0,0,0,0,0,0,0,0,0,0
2018,6,24,3,0,,21.1,18.6,86,100580,0,0,356,0,0,0,0,0,0,0,250,2.8,0,0,0,0,0,0,0,0,0,0,0,0,0
2018,6,24,4,0,,21.1,18.6,86,100600,0,0,356,0,0,0,0,0,0,0,230,2.7,0,0,0,0,0,0,0,0,0,0,0,0,0
2018,6,24,5,0,,21.1,18.6,86,100640,0,0,356,0,0,0,0,0,0,0,250,3.2,0,0,0,0,0,0,0,0,0,0,0,0,0
2018,6,24,6,0,,20.8,18.1,85,100710,0,0,354,29,17,13,2675,1383,2093,0,230,2.3,0,0,0,0,0,0,0,0,0,0,0,0,0
2018,6,24,7,0,,22.2,17.3,74,100740,0,0,359,154,519,50,40078,53968,7444,0,230,1.7,0,0,0,0,0,0,0,0,0,0,0,0,0
2018,6,24,8,0,,23.9,16.1,62,100760,0,0,367,340,628,90,62557,65580,12585,0,270,2.6,0,0,0,0,0,0,0,0,0,0,0,0,0
2018,6,24,9,0,,25,16.9,61,100760,0,0,373,525,669,134,78866,69527,17521,0,290,2.6,0,0,0,0,0,0,0,0,0,0,0,0,0
2018,6,24,10,0,,25.1,16.5,59,100780,0,0,373,657,596,212,84995,58972,28532,0,290,3.4,0,0,0,0,0,0,0,0,0,0,0,0,0
2018,6,24,11,0,,25.9,16.9,58,100840,0,0,378,767,559,280,89037,54562,35441,0,290,3.7,0,0,0,0,0,0,0,0,0,0,0,0,0
2018,6,24,12,0,,26.1,17.9,61,100820,0,0,380,813,478,357,87650,43872,45745,0,290,3.5,0,0,0,0,0,0,0,0,0,0,0,0,0
2018,6,24,13,0,,26.4,18.5,62,100790,0,0,382,848,486,370,86019,44125,47283,0,320,3.5,0,0,0,0,0,0,0,0,0,0,0,0,0
2018,6,24,14,0,,26.7,18.2,60,100750,0,0,383,809,446,379,76711,39498,46862,0,320,3.7,0,0,0,0,0,0,0,0,0,0,0,0,0
2018,6,24,15,0,,25.9,18.3,63,100740,0,0,379,741,452,338,65245,38977,41977,0,290,3.5,0,0,0,0,0,0,0,0,0,0,0,0,0
2018,6,24,16,0,,25.8,18.4,64,100730,0,0,379,625,445,281,49447,35128,34957,0,270,3.9,0,0,0,0,0,0,0,0,0,0,0,0,0
2018,6,24,17,0,,26.6,17.6,58,100700,0,0,382,509,520,187,29442,29872,23023,0,320,2.7,0,0,0,0,0,0,0,0,0,0,0,0,0
2018,6,24,18,0,,25.9,16.9,58,100700,0,0,378,358,557,114,11223,0,11223,0,320,2.6,0,0,0,0,0,0,0,0,0,0,0,0,0
2018,6,24,19,0,,24.1,18.5,71,100740,0,0,370,180,474,66,0,0,0,0,290,3.1,0,0,0,0,0,0,0,0,0,0,0,0,0
2018,6,24,20,0,,24,17,65,100740,0,0,368,44,21,23,0,0,0,0,250,1.9,0,0,0,0,0,0,0,0,0,0,0,0,0
2018,6,24,21,0,,23.7,15.7,61,100800,0,0,365,0,0,0,0,0,0,0,270,1.3,0,0,0,0,0,0,0,0,0,0,0,0,0
2018,6,24,22,0,,23.4,15.9,63,100870,0,0,364,0,0,0,0,0,0,0,250,1,0,0,0,0,0,0,0,0,0,0,0,0,0
2018,6,24,23,0,,23.4,16.6,66,100850,0,0,365,0,0,0,0,0,0,0,200,1.3,0,0,0,0,0,0,0,0,0,0,0,0,0
2018,6,24,24,0,,22.9,16.2,66,100870,0,0,362,0,0,0,0,0,0,0,250,0.7,0,0,0,0,0,0,0,0,0,0,0,0,0
2018,6,25,1,0,,22.8,15.3,63,100870,0,0,360,0,0,0,0,0,0,0,250,0.5,0,0,0,0,0,0,0,0,0,0,0,0,0
2018,6,25,2,0,,22.6,15.4,64,100870,0,0,359,0,0,0,0,0,0,0,230,0.7,0,0,0,0,0,0,0,0,0,0,0,0,0
2018,6,25,3,0,,22.3,15.8,67,100830,0,0,358,0,0,0,0,0,0,0,200,1.3,0,0,0,0,0,0,0,0,0,0,0,0,0
2018,6,25,4,0,,21.8,14.6,64,100820,0,0,354,0,0,0,0,0,0,0,200,0.8,0,0,0,0,0,0,0,0,0,0,0,0,0
2018,6,25,5,0,,21.4,14.7,66,100830,0,0,353,0,0,0,0,0,0,0,0,0.2,0,0,0,0,0,0,0,0,0,0,0,0,0
2018,6,25,6,0,,21.7,14.5,64,100880,0,0,354,31,14,17,2893,1227,2378,0,180,1.2,0,0,0,0,0,0,0,0,0,0,0,0,0
2018,6,25,7,0,,22,18.3,80,100890,0,0,378,136,369,62,32706,36550,10633,0,340,0.9,4,0,0,0,0,0,0,0,0,0,0,0,0
2018,6,25,8,0,,23.1,19,78,100930,0,0,388,275,343,138,46390,33860,20611,0,20,2.2,5,0,0,0,0,0,0,0,0,0,0,0,0
2018,6,25,9,0,,23.3,20.2,83,101000,0,0,390,399,270,242,55309,24277,33901,0,290,1.8,5,0,0,0,0,0,0,0,0,0,0,0,0
2018,6,25,10,0,,23.7,20.6,83,100990,0,0,390,546,277,340,66730,23897,43856,0,20,2.1,4,0,0,0,0,0,0,0,0,0,0,0,0
2018,6,25,11,0,,24.2,20.7,81,100980,0,0,393,643,248,427,74721,21370,53731,0,20,2.6,4,0,0,0,0,0,0,0,0,0,0,0,0
2018,6,25,12,0,,25,20.6,77,100940,0,0,397,719,248,483,78451,21697,57726,0,20,2.6,4,0,0,0,0,0,0,0,0,0,0,0,0
2018,6,25,13,0,,25.3,21.3,79,100880,0,0,402,707,210,500,75652,18051,59802,0,360,2.9,5,0,0,0,0,0,0,0,0,0,0,0,0
2018,6,25,14,0,,26.3,20.8,72,100900,0,0,404,742,261,490,75041,22304,58177,0,340,2.9,4,0,0,0,0,0,0,0,0,0,0,0,0
2018,6,25,15,0,,26.1,20.4,71,100850,0,0,402,678,266,441,65338,22276,52029,0,360,3.1,4,0,0,0,0,0,0,0,0,0,0,0,0
2018,6,25,16,0,,26.6,20.6,70,100810,0,0,408,558,253,362,50639,19395,42629,0,320,3.1,5,0,0,0,0,0,0,0,0,0,0,0,0
2018,6,25,17,0,,25.6,20.1,72,100780,0,0,411,341,136,257,31078,10600,28795,0,360,2.2,7,0,0,0,0,0,0,0,0,0,0,0,0
2018,6,25,18,0,,25.1,20.3,75,100810,0,0,403,259,205,169,17792,0,17792,0,320,2.3,6,0,0,0,0,0,0,0,0,0,0,0,0
2018,6,25,19,0,,24.5,20.6,79,100840,0,0,402,131,204,82,0,0,0,0,360,1.7,6,0,0,0,0,0,0,0,0,0,0,0,0
2018,6,25,20,0,,23.9,21,84,100790,0,0,401,28,7,21,0,0,0,0,20,2.2,7,0,0,0,0,0,0,0,0,0,0,0,0
2018,6,25,21,0,,24.4,19.4,74,100830,0,0,403,0,0,0,0,0,0,0,0,0.2,7,0,0,0,0,0,0,0,0,0,0,0,0
2018,6,25,22,0,,24.4,19,72,100850,0,0,403,0,0,0,0,0,0,0,320,0.7,7,0,0,0,0,0,0,0,0,0,0,0,0
2018,6,25,23,0,,24.4,19.2,73,100850,0,0,403,0,0,0,0,0,0,0,270,1.6,7,0,0,0,0,0,0,0,0,0,0,0,0
2018,6,25,24,0,,24.4,19.2,73,100810,0,0,403,0,0,0,0,0,0,0,230,1,7,0,0,0,0,0,0,0,0,0,0,0,0
2018,6,26,1,0,,24.7,18.8,70,100750,0,0,404,0,0,0,0,0,0,0,180,1,7,0,0,0,0,0,0,0,0,0,0,0,0
2018,6,26,2,0,,24.8,18.9,70,100710,0,0,405,0,0,0,0,0,0,0,180,0.9,7,0,0,0,0,0,0,0,0,0,0,0,0
2018,6,26,3,0,,25.1,19.2,70,100670,0,0,407,0,0,0,0,0,0,0,180,1.1,7,0,0,0,0,0,0,0,0,0,0,0,0
2018,6,26,4,0,,25.1,20.1,74,100660,0,0,403,0,0,0,0,0,0,0,180,0.8,6,0,0,0,0,0,0,0,0,0,0,0,0
2018,6,26,5,0,,24.9,20.1,75,100630,0,0,402,0,0,0,0,0,0,0,200,0.6,6,0,0,0,0,0,0,0,0,0,0,0,0
2018,6,26,6,0,,24.3,20.4,79,100670,0,0,419,10,1,9,1244,20,1235,0,200,0.5,9,0,0,0,0,0,0,0,0,0,0,0,0
2018,6,26,7,0,,26.3,21.2,74,100650,0,0,432,74,72,60,12822,6059,9168,0,20,1.2,9,0,0,0,0,0,0,0,0,0,0,0,0
2018,6,26,8,0,,27.3,21.8,72,100630,0,0,451,134,44,117,18311,3811,15412,0,90,1.9,10,0,0,0,0,0,0,0,0,0,0,0,0
2018,6,26,9,0,,27.1,22,74,100620,0,0,450,212,45,186,25692,3844,22304,0,360,3.2,10,0,0,0,0,0,0,0,0,0,0,0,0
2018,6,26,10,0,,29.7,21.8,63,100620,0,0,466,317,60,273,37316,5166,32373,0,200,6.1,10,0,0,0,0,0,0,0,0,0,0,0,0
2018,6,26,11,0,,30.9,21.6,58,100570,0,0,473,409,71,348,47057,6193,40976,0,230,8.3,10,0,0,0,0,0,0,0,0,0,0,0,0
2018,6,26,12,0,,31.8,22.2,57,100520,0,0,456,614,158,463,69182,13425,56357,0,230,6.9,8,0,0,0,0,0,0,0,0,0,0,0,0
2018,6,26,13,0,,30.5,23.6,67,100530,0,0,450,568,115,455,62015,9981,53248,0,200,7.6,8,0,0,0,0,0,0,0,0,0,0,0,0
2018,6,26,14,0,,30.5,23.9,68,100470,0,0,451,535,105,434,57541,9086,50669,0,200,8.7,8,0,0,0,0,0,0,0,0,0,0,0,0
2018,6,26,15,0,,29.9,24,71,100480,0,0,447,487,104,394,51031,8983,45661,0,230,10.1,8,0,0,0,0,0,0,0,0,0,0,0,0
2018,6,26,16,0,,30.1,23.7,69,100460,0,0,448,410,105,328,41411,8774,37784,0,230,6.5,8,0,0,0,0,0,0,0,0,0,0,0,0
2018,6,26,17,0,,30.4,23.8,68,100410,0,0,450,343,137,257,31399,10162,29207,0,200,7.6,8,0,0,0,0,0,0,0,0,0,0,0,0
2018,6,26,18,0,,29.7,23.1,68,100380,0,0,454,197,93,156,16977,5682,16874,0,200,8.1,9,0,0,0,0,0,0,0,0,0,0,0,0
2018,6,26,19,0,,29.5,22.9,68,100400,0,0,449,106,108,80,0,0,0,0,200,8.1,9,0,0,0,0,0,0,0,0,0,0,0,0
2018,6,26,20,0,,29,21.9,66,100460,0,0,442,28,7,21,0,0,0,0,230,6,8,0,0,0,0,0,0,0,0,0,0,0,0
2018,6,26,21,0,,29.2,21.1,62,100440,0,0,439,0,0,0,0,0,0,0,230,7.3,8,0,0,0,0,0,0,0,0,0,0,0,0
2018,6,26,22,0,,28.9,21.3,64,100440,0,0,438,0,0,0,0,0,0,0,200,6.5,8,0,0,0,0,0,0,0,0,0,0,0,0
2018,6,26,23,0,,28.6,21.3,65,100400,0,0,436,0,0,0,0,0,0,0,200,7.7,8,0,0,0,0,0,0,0,0,0,0,0,0
2018,6,26,24,0,,28.7,20.9,63,100340,0,0,436,0,0,0,0,0,0,0,200,8.5,8,0,0,0,0,0,0,0,0,0,0,0,0
2018,6,27,1,0,,28.8,20.7,62,100310,0,0,434,0,0,0,0,0,0,0,200,7,8,0,0,0,0,0,0,0,0,0,0,0,0
2018,6,27,2,0,,28.5,20.7,63,100230,0,0,430,0,0,0,0,0,0,0,200,9.2,7,0,0,0,0,0,0,0,0,0,0,0,0
2018,6,27,3,0,,28.4,20.6,63,100150,0,0,427,0,0,0,0,0,0,0,200,9.8,7,0,0,0,0,0,0,0,0,0,0,0,0
2018,6,27,4,0,,28,21.2,67,100170,0,0,442,0,0,0,0,0,0,0,200,10.2,9,0,0,0,0,0,0,0,0,0,0,0,0
2018,6,27,5,0,,28,21.7,69,100080,0,0,442,0,0,0,0,0,0,0,200,9.8,9,0,0,0,0,0,0,0,0,0,0,0,0
2018,6,27,6,0,,27.5,22.6,75,100080,0,0,453,10,1,10,1305,20,1296,0,200,10.8,10,0,0,0,0,0,0,0,0,0,0,0,0
2018,6,27,7,0,,27.8,23.3,77,100190,0,0,456,65,51,55,11136,4041,8702,0,200,8.6,10,0,0,0,0,0,0,0,0,0,0,0,0
2018,6,27,8,0,,26.7,24.3,87,100350,0,0,451,114,28,103,14402,2321,12638,0,250,6.5,10,0,0,0,0,0,0,0,0,0,0,0,0
2018,6,27,9,0,,25.6,24.1,92,100360,0,0,444,150,17,140,18364,1429,17105,0,250,5.8,10,0,0,0,0,0,0,0,0,0,0,0,0
2018,6,27,10,0,,24.6,23.9,96,100430,0,0,438,169,10,161,20596,516,20103,0,200,5,10,0,0,0,0,0,0,0,0,0,0,0,0
2018,6,27,11,0,,26,24.2,90,100460,0,0,446,250,18,234,29688,1534,28182,0,230,3.9,10,0,0,0,0,0,0,0,0,0,0,0,0
2018,6,27,12,0,,25.1,24.2,95,100470,0,0,441,257,15,243,30162,828,29371,0,230,4.1,10,0,0,0,0,0,0,0,0,0,0,0,0
2018,6,27,13,0,,25.5,23.5,89,100320,0,0,442,319,24,295,36827,2043,35032,0,200,4.8,10,0,0,0,0,0,0,0,0,0,0,0,0
2018,6,27,14,0,,26.1,23.7,87,100230,0,0,446,277,17,260,31037,1115,30193,0,250,3.2,10,0,0,0,0,0,0,0,0,0,0,0,0
2018,6,27,15,0,,28.2,23.3,75,100160,0,0,458,329,36,297,36524,3075,34684,0,320,1.9,10,0,0,0,0,0,0,0,0,0,0,0,0
2018,6,27,16,0,,26.6,24,86,100200,0,0,450,235,23,217,24114,1513,23488,0,90,2.1,10,0,0,0,0,0,0,0,0,0,0,0,0
2018,6,27,17,0,,25.2,23.4,90,100200,0,0,440,156,15,146,15339,731,15181,0,50,3.1,10,0,0,0,0,0,0,0,0,0,0,0,0
2018,6,27,18,0,,25.7,23.9,90,100130,0,0,444,92,11,87,7919,979,7901,0,50,2.5,10,0,0,0,0,0,0,0,0,0,0,0,0
2018,6,27,19,0,,24.9,23.5,92,100150,0,0,439,53,15,50,0,0,0,0,50,3.1,10,0,0,0,0,0,0,0,0,0,0,0,0
2018,6,27,20,0,,24.8,23.5,93,100200,0,0,438,12,1,11,0,0,0,0,140,3.8,10,0,0,0,0,0,0,0,0,0,0,0,0
2018,6,27,21,0,,25.2,23.8,92,100280,0,0,441,0,0,0,0,0,0,0,160,2.2,10,0,0,0,0,0,0,0,0,0,0,0,0
2018,6,27,22,0,,25.4,23.8,91,100290,0,0,442,0,0,0,0,0,0,0,200,0.7,10,0,0,0,0,0,0,0,0,0,0,0,0
2018,6,27,23,0,,25.3,23.7,91,100300,0,0,441,0,0,0,0,0,0,0,140,0.8,10,0,0,0,0,0,0,0,0,0,0,0,0
2018,6,27,24,0,,24.8,23.5,93,100240,0,0,438,0,0,0,0,0,0,0,0,0.4,10,0,0,0,0,0,0,0,0,0,0,0,0
2018,6,28,1,0,,24.6,23.3,93,100060,0,0,425,0,0,0,0,0,0,0,320,1.3,9,0,0,0,0,0,0,0,0,0,0,0,0
2018,6,28,2,0,,25.4,23.6,90,99960,0,0,421,0,0,0,0,0,0,0,160,2.3,8,0,0,0,0,0,0,0,0,0,0,0,0
2018,6,28,3,0,,26.7,23.5,83,99950,0,0,421,0,0,0,0,0,0,0,270,5.1,7,0,0,0,0,0,0,0,0,0,0,0,0
2018,6,28,4,0,,28.1,22.7,73,99910,0,0,457,0,0,0,0,0,0,0,250,2.9,10,0,0,0,0,0,0,0,0,0,0,0,0
2018,6,28,5,0,,28.3,22.2,70,99840,0,0,457,0,0,0,0,0,0,0,200,6.2,10,0,0,0,0,0,0,0,0,0,0,0,0
2018,6,28,6,0,,26.7,23.3,82,99930,0,0,449,7,0,7,950,7,947,0,230,5.5,10,0,0,0,0,0,0,0,0,0,0,0,0
2018,6,28,7,0,,26.1,23.9,88,99900,0,0,446,49,22,44,7345,1833,6242,0,230,6.7,10,0,0,0,0,0,0,0,0,0,0,0,0
2018,6,28,8,0,,26.8,23,80,99950,0,0,449,126,38,112,17347,3220,14903,0,230,9.4,10,0,0,0,0,0,0,0,0,0,0,0,0
2018,6,28,9,0,,26,22,79,99990,0,0,443,183,30,165,22159,2556,19909,0,230,5.7,10,0,0,0,0,0,0,0,0,0,0,0,0
2018,6,28,10,0,,24.6,23.2,92,99990,0,0,437,190,15,179,22865,1234,21685,0,230,3.9,10,0,0,0,0,0,0,0,0,0,0,0,0
2018,6,28,11,0,,23.6,23.4,99,99920,0,0,431,161,5,156,19852,262,19595,0,20,1.6,10,0,0,0,0,0,0,0,0,0,0,0,0
2018,6,28,12,0,,24.4,24,98,100050,0,0,437,227,10,217,27030,562,26493,0,270,3.2,10,0,0,0,0,0,0,0,0,0,0,0,0
2018,6,28,13,0,,24.4,22.2,88,99940,0,0,434,304,21,284,35161,1832,33551,0,230,4.9,10,0,0,0,0,0,0,0,0,0,0,0,0
2018,6,28,14,0,,25.2,22.8,87,99910,0,0,440,325,27,299,36946,2336,35179,0,230,4.9,10,0,0,0,0,0,0,0,0,0,0,0,0
2018,6,28,15,0,,25.6,23.2,87,99840,0,0,443,270,21,251,29092,1428,28237,0,250,2.4,10,0,0,0,0,0,0,0,0,0,0,0,0
2018,6,28,16,0,,26.3,22.5,80,99760,0,0,446,263,31,239,26638,2289,25690,0,290,3.4,10,0,0,0,0,0,0,0,0,0,0,0,0
2018,6,28,17,0,,26.8,20.8,70,99840,0,0,446,218,39,194,20263,2739,19670,0,200,3.8,10,0,0,0,0,0,0,0,0,0,0,0,0
2018,6,28,18,0,,26.9,20.4,68,99860,0,0,446,158,50,136,14745,2974,14690,0,200,5.7,10,0,0,0,0,0,0,0,0,0,0,0,0
2018,6,28,19,0,,27.4,21.4,70,99800,0,0,451,73,37,64,0,0,0,0,230,2,10,0,0,0,0,0,0,0,0,0,0,0,0
2018,6,28,20,0,,24.7,22.5,88,99820,0,0,436,8,0,8,0,0,0,0,360,1.9,10,0,0,0,0,0,0,0,0,0,0,0,0
2018,6,28,21,0,,25.3,22.3,84,99840,0,0,440,0,0,0,0,0,0,0,50,1.7,10,0,0,0,0,0,0,0,0,0,0,0,0
2018,6,28,22,0,,23.6,22.9,96,99910,0,0,431,0,0,0,0,0,0,0,70,3.4,10,0,0,0,0,0,0,0,0,0,0,0,0
2018,6,28,23,0,,23.6,23.4,99,99890,0,0,431,0,0,0,0,0,0,0,140,2.6,10,0,0,0,0,0,0,0,0,0,0,0,0
2018,6,28,24,0,,23.6,23.2,98,99840,0,0,431,0,0,0,0,0,0,0,110,2.1,10,0,0,0,0,0,0,0,0,0,0,0,0
2018,6,29,1,0,,23.5,23.1,98,99850,0,0,430,0,0,0,0,0,0,0,50,2.2,10,0,0,0,0,0,0,0,0,0,0,0,0
2018,6,29,2,0,,24.1,23.5,97,99870,0,0,434,0,0,0,0,0,0,0,230,2.8,10,0,0,0,0,0,0,0,0,0,0,0,0
2018,6,29,3,0,,24.6,22.8,90,99840,0,0,415,0,0,0,0,0,0,0,230,4.1,8,0,0,0,0,0,0,0,0,0,0,0,0
2018,6,29,4,0,,24.4,23,92,99850,0,0,435,0,0,0,0,0,0,0,250,2.8,10,0,0,0,0,0,0,0,0,0,0,0,0
2018,6,29,5,0,,24.3,23,93,99870,0,0,435,0,0,0,0,0,0,0,270,2.2,10,0,0,0,0,0,0,0,0,0,0,0,0
2018,6,29,6,0,,24.2,23.1,94,99930,0,0,434,4,0,4,604,2,603,0,270,1.6,10,0,0,0,0,0,0,0,0,0,0,0,0
2018,6,29,7,0,,24.4,23.3,94,100000,0,0,436,44,17,40,5859,1363,5041,0,160,1,10,0,0,0,0,0,0,0,0,0,0,0,0
2018,6,29,8,0,,24.4,23.3,94,100070,0,0,436,95,17,88,11908,1415,10834,0,180,0.5,10,0,0,0,0,0,0,0,0,0,0,0,0
2018,6,29,9,0,,24.5,23.6,95,100100,0,0,437,145,16,136,17695,1304,16548,0,20,1.6,10,0,0,0,0,0,0,0,0,0,0,0,0
2018,6,29,10,0,,26,23.8,88,100140,0,0,446,220,22,204,26337,1841,24577,0,110,1.2,10,0,0,0,0,0,0,0,0,0,0,0,0
2018,6,29,11,0,,26.2,24.2,89,100170,0,0,448,263,21,245,31172,1779,29425,0,290,1.7,10,0,0,0,0,0,0,0,0,0,0,0,0
2018,6,29,12,0,,27.3,22.9,77,100190,0,0,452,365,39,328,41995,3333,38811,0,230,5.3,10,0,0,0,0,0,0,0,0,0,0,0,0
2018,6,29,13,0,,28.1,23.2,75,100170,0,0,458,372,37,336,42395,3148,39629,0,270,5.1,10,0,0,0,0,0,0,0,0,0,0,0,0
2018,6,29,14,0,,28.3,23.2,74,100140,0,0,459,374,40,336,41967,3424,39374,0,270,6.3,10,0,0,0,0,0,0,0,0,0,0,0,0
2018,6,29,15,0,,27.9,22.8,74,100130,0,0,415,700,292,438,66792,23474,52738,0,250,7.5,4,0,0,0,0,0,0,0,0,0,0,0,0
2018,6,29,16,0,,26.8,22.8,79,100110,0,0,437,296,43,262,29390,3357,27999,0,290,4.5,9,0,0,0,0,0,0,0,0,0,0,0,0
2018,6,29,17,0,,26.4,22.4,79,100150,0,0,446,170,20,158,16533,1053,16306,0,290,3.2,10,0,0,0,0,0,0,0,0,0,0,0,0
2018,6,29,18,0,,25.1,22.5,86,100230,0,0,439,99,13,93,8380,1356,8355,0,20,2.9,10,0,0,0,0,0,0,0,0,0,0,0,0
2018,6,29,19,0,,24.6,23,91,100280,0,0,432,51,14,48,0,0,0,0,50,3.1,10,0,0,0,0,0,0,0,0,0,0,0,0
2018,6,29,20,0,,24.4,22.8,91,100340,0,0,427,14,1,13,0,0,0,0,110,0.9,9,0,0,0,0,0,0,0,0,0,0,0,0
2018,6,29,21,0,,24.6,22.8,90,100420,0,0,424,0,0,0,0,0,0,0,50,1,9,0,0,0,0,0,0,0,0,0,0,0,0
2018,6,29,22,0,,24,22.6,92,100470,0,0,417,0,0,0,0,0,0,0,320,1.6,9,0,0,0,0,0,0,0,0,0,0,0,0
2018,6,29,23,0,,23.6,22.7,95,100500,0,0,412,0,0,0,0,0,0,0,360,1.1,8,0,0,0,0,0,0,0,0,0,0,0,0
2018,6,29,24,0,,23.3,22.6,96,100510,0,0,408,0,0,0,0,0,0,0,250,0.8,8,0,0,0,0,0,0,0,0,0,0,0,0
2018,6,30,1,0,,24.1,22.8,93,100480,0,0,412,0,0,0,0,0,0,0,180,1.6,8,0,0,0,0,0,0,0,0,0,0,0,0
2018,6,30,2,0,,24.6,22.2,87,100460,0,0,414,0,0,0,0,0,0,0,0,0.3,8,0,0,0,0,0,0,0,0,0,0,0,0
2018,6,30,3,0,,24.3,21.9,87,100430,0,0,412,0,0,0,0,0,0,0,250,0.5,8,0,0,0,0,0,0,0,0,0,0,0,0
2018,6,30,4,0,,24.2,21.7,86,100520,0,0,420,0,0,0,0,0,0,0,250,1,9,0,0,0,0,0,0,0,0,0,0,0,0
2018,6,30,5,0,,24.1,21.6,86,100460,0,0,420,0,0,0,0,0,0,0,230,0.6,9,0,0,0,0,0,0,0,0,0,0,0,0
2018,6,30,6,0,,24.1,21.9,88,100550,0,0,432,4,0,4,578,2,577,0,200,2.8,10,0,0,0,0,0,0,0,0,0,0,0,0
2018,6,30,7,0,,22.4,21.2,93,100600,0,0,421,38,11,36,4995,939,4432,0,160,3.1,10,0,0,0,0,0,0,0,0,0,0,0,0
2018,6,30,8,0,,23.3,21,87,100570,0,0,426,99,19,91,12373,1648,11124,0,160,1.8,10,0,0,0,0,0,0,0,0,0,0,0,0
2018,6,30,9,0,,23.5,22.2,93,100670,0,0,429,160,21,148,19464,1775,17904,0,140,4.9,10,0,0,0,0,0,0,0,0,0,0,0,0
2018,6,30,10,0,,23.6,22.7,95,100700,0,0,430,199,17,187,23874,1421,22516,0,110,1.2,10,0,0,0,0,0,0,0,0,0,0,0,0
2018,6,30,11,0,,24.5,23.2,93,100650,0,0,436,251,19,234,29657,1572,28114,0,140,1.9,10,0,0,0,0,0,0,0,0,0,0,0,0
2018,6,30,12,0,,25.5,23.3,88,100690,0,0,442,293,21,273,34214,1801,32494,0,250,1,10,0,0,0,0,0,0,0,0,0,0,0,0
2018,6,30,13,0,,26,22.8,83,100720,0,0,444,323,25,298,37164,2141,35282,0,320,1,10,0,0,0,0,0,0,0,0,0,0,0,0
2018,6,30,14,0,,24.9,23.8,94,100720,0,0,439,263,15,248,29649,943,28935,0,90,1.6,10,0,0,0,0,0,0,0,0,0,0,0,0
2018,6,30,15,0,,25.2,23.2,89,100750,0,0,440,229,13,217,25187,837,24686,0,140,2.2,10,0,0,0,0,0,0,0,0,0,0,0,0
2018,6,30,16,0,,24.5,23.1,92,100720,0,0,436,179,11,171,19094,612,18840,0,50,1.7,10,0,0,0,0,0,0,0,0,0,0,0,0
2018,6,30,17,0,,24.5,22.9,91,100720,0,0,436,155,15,146,15316,730,15158,0,180,1.4,10,0,0,0,0,0,0,0,0,0,0,0,0
2018,6,30,18,0,,23.8,23.1,96,100740,0,0,432,98,13,92,8345,1314,8321,0,90,1.5,10,0,0,0,0,0,0,0,0,0,0,0,0
2018,6,30,19,0,,23.6,22.9,96,100770,0,0,431,50,12,47,0,0,0,0,90,2,10,0,0,0,0,0,0,0,0,0,0,0,0
2018,6,30,20,0,,22.9,21.7,93,100790,0,0,425,9,0,9,0,0,0,0,90,3.4,10,0,0,0,0,0,0,0,0,0,0,0,0
2018,6,30,21,0,,22.8,22.1,96,100790,0,0,398,0,0,0,0,0,0,0,90,3.1,7,0,0,0,0,0,0,0,0,0,0,0,0
2018,6,30,22,0,,22.6,22,97,100800,0,0,407,0,0,0,0,0,0,0,90,2.9,9,0,0,0,0,0,0,0,0,0,0,0,0
2018,6,30,23,0,,22.5,22.1,98,100780,0,0,423,0,0,0,0,0,0,0,50,2.6,10,0,0,0,0,0,0,0,0,0,0,0,0
2018,6,30,24,0,,22.7,22.5,99,100690,0,0,425,0,0,0,0,0,0,0,110,1.7,10,0,0,0,0,0,0,0,0,0,0,0,0
2015,7,1,1,0,,21.1,20.5,97,99340,0,0,413,0,0,0,0,0,0,0,250,3.1,10,0,0,0,0,0,0,0,0,0,0,0,0
2015,7,1,2,0,,20.6,19.9,96,99380,0,0,410,0,0,0,0,0,0,0,290,3.3,10,0,0,0,0,0,0,0,0,0,0,0,0
2015,7,1,3,0,,20.6,19.7,95,99420,0,0,409,0,0,0,0,0,0,0,290,3.4,10,0,0,0,0,0,0,0,0,0,0,0,0
2015,7,1,4,0,,20.8,19.6,93,99440,0,0,399,0,0,0,0,0,0,0,250,3,9,0,0,0,0,0,0,0,0,0,0,0,0
2015,7,1,5,0,,21.1,19.7,92,99480,0,0,392,0,0,0,0,0,0,0,230,2.5,8,0,0,0,0,0,0,0,0,0,0,0,0
2015,7,1,6,0,,21.5,19.9,91,99540,0,0,403,10,1,10,1308,25,1298,0,250,3.5,9,0,0,0,0,0,0,0,0,0,0,0,0
2015,7,1,7,0,,21.6,20.2,92,99610,0,0,415,51,27,46,7760,2396,6325,0,250,3.3,10,0,0,0,0,0,0,0,0,0,0,0,0
2015,7,1,8,0,,22,20.2,90,99630,0,0,418,116,31,104,14615,2645,12612,0,250,3.1,10,0,0,0,0,0,0,0,0,0,0,0,0
2015,7,1,9,0,,22.8,20.1,85,99680,0,0,422,179,29,163,21668,2507,19465,0,250,3.4,10,0,0,0,0,0,0,0,0,0,0,0,0
2015,7,1,10,0,,23.6,20.1,81,99700,0,0,427,250,31,227,29588,2771,26941,0,250,4.2,10,0,0,0,0,0,0,0,0,0,0,0,0
2015,7,1,11,0,,23.8,20.5,82,99710,0,0,397,571,178,417,65716,15681,50328,0,270,4.3,6,0,0,0,0,0,0,0,0,0,0,0,0
2015,7,1,12,0,,24.6,20.2,77,99720,0,0,405,589,142,454,66350,12522,54389,0,270,5.6,7,0,0,0,0,0,0,0,0,0,0,0,0
2015,7,1,13,0,,25.1,21.1,79,99690,0,0,401,713,216,501,76108,18603,59758,0,290,4.5,5,0,0,0,0,0,0,0,0,0,0,0,0
2015,7,1,14,0,,25.6,20.3,73,99720,0,0,406,663,189,482,69336,16260,57021,0,270,4.7,6,0,0,0,0,0,0,0,0,0,0,0,0
2015,7,1,15,0,,25.7,20.4,73,99740,0,0,400,684,272,441,65711,22823,52040,0,290,4.7,4,0,0,0,0,0,0,0,0,0,0,0,0
2015,7,1,16,0,,25.7,20,71,99720,0,0,397,621,431,287,49979,33066,36273,0,270,5.4,3,0,0,0,0,0,0,0,0,0,0,0,0
2015,7,1,17,0,,25.2,20.2,74,99720,0,0,394,484,437,212,31525,23552,26426,0,290,6,3,0,0,0,0,0,0,0,0,0,0,0,0
2015,7,1,18,0,,24.2,20.7,81,99770,0,0,396,290,291,162,17243,0,17243,0,290,4,5,0,0,0,0,0,0,0,0,0,0,0,0
2015,7,1,19,0,,23.3,19.8,81,99820,0,0,388,161,331,81,0,0,0,0,270,4.7,4,0,0,0,0,0,0,0,0,0,0,0,0
2015,7,1,20,0,,22.9,19.4,81,99880,0,0,383,40,21,19,0,0,0,0,270,4,4,0,0,0,0,0,0,0,0,0,0,0,0
2015,7,1,21,0,,22.5,19.2,82,99930,0,0,379,0,0,0,0,0,0,0,250,3.4,3,0,0,0,0,0,0,0,0,0,0,0,0
2015,7,1,22,0,,22,18.9,83,100010,0,0,376,0,0,0,0,0,0,0,270,2.5,3,0,0,0,0,0,0,0,0,0,0,0,0
2015,7,1,23,0,,21.6,18.5,83,100030,0,0,373,0,0,0,0,0,0,0,250,2.9,3,0,0,0,0,0,0,0,0,0,0,0,0
2015,7,1,24,0,,21.2,18.3,84,100040,0,0,371,0,0,0,0,0,0,0,250,2.6,3,0,0,0,0,0,0,0,0,0,0,0,0
2015,7,2,1,0,,21.1,18,83,100030,0,0,370,0,0,0,0,0,0,0,230,1.7,3,0,0,0,0,0,0,0,0,0,0,0,0
2015,7,2,2,0,,20.5,16.1,76,100010,0,0,365,0,0,0,0,0,0,0,180,2.3,3,0,0,0,0,0,0,0,0,0,0,0,0
2015,7,2,3,0,,20.2,15.4,74,99980,0,0,363,0,0,0,0,0,0,0,200,2,3,0,0,0,0,0,0,0,0,0,0,0,0
2015,7,2,4,0,,20.1,14.8,72,99950,0,0,364,0,0,0,0,0,0,0,200,2.6,4,0,0,0,0,0,0,0,0,0,0,0,0
2015,7,2,5,0,,19.6,12.5,64,99990,0,0,359,0,0,0,0,0,0,0,180,1.8,4,0,0,0,0,0,0,0,0,0,0,0,0
2015,7,2,6,0,,19.9,13.1,65,100040,0,0,361,26,13,13,2271,1185,1781,0,180,1.5,4,0,0,0,0,0,0,0,0,0,0,0,0
2015,7,2,7,0,,20.8,11.6,56,100090,0,0,370,122,358,53,30119,36988,8002,0,180,1.8,6,0,0,0,0,0,0,0,0,0,0,0,0
2015,7,2,8,0,,22.2,13.2,57,100080,0,0,384,244,260,143,39226,24855,20423,0,200,1.1,7,0,0,0,0,0,0,0,0,0,0,0,0
2015,7,2,9,0,,24.1,14.7,56,100070,0,0,396,379,238,241,50148,22424,30454,0,360,0.9,7,0,0,0,0,0,0,0,0,0,0,0,0
2015,7,2,10,0,,24.5,15.6,58,100040,0,0,399,486,199,339,59201,18533,41505,0,360,1.3,7,0,0,0,0,0,0,0,0,0,0,0,0
2015,7,2,11,0,,24.7,16.4,60,100080,0,0,396,597,202,421,68080,18768,49667,0,360,2.1,6,0,0,0,0,0,0,0,0,0,0,0,0
2015,7,2,12,0,,24.9,17.3,63,100110,0,0,403,577,134,449,64672,12290,52933,0,360,2.8,7,0,0,0,0,0,0,0,0,0,0,0,0
2015,7,2,13,0,,24.3,18.6,71,100100,0,0,408,489,77,414,54040,7057,47837,0,320,2.8,8,0,0,0,0,0,0,0,0,0,0,0,0
2015,7,2,14,0,,24.8,19.1,71,100110,0,0,405,560,118,446,59465,10883,51222,0,340,2.6,7,0,0,0,0,0,0,0,0,0,0,0,0
2015,7,2,15,0,,24.8,19.6,73,100080,0,0,406,511,119,405,52766,10806,46292,0,340,2.4,7,0,0,0,0,0,0,0,0,0,0,0,0
2015,7,2,16,0,,24.3,19.3,74,100080,0,0,418,312,50,274,33056,4328,31262,0,340,2.4,9,0,0,0,0,0,0,0,0,0,0,0,0
2015,7,2,17,0,,24.7,18.8,70,100080,0,0,419,245,53,211,24668,4118,23776,0,290,2.1,9,0,0,0,0,0,0,0,0,0,0,0,0
2015,7,2,18,0,,24.2,17.6,67,100040,0,0,406,214,116,163,17440,7946,17294,0,320,2.4,8,0,0,0,0,0,0,0,0,0,0,0,0
2015,7,2,19,0,,23.3,20,82,100120,0,0,404,103,97,79,0,0,0,0,290,2.3,8,0,0,0,0,0,0,0,0,0,0,0,0
2015,7,2,20,0,,23,18.7,77,100110,0,0,401,24,4,19,0,0,0,0,340,2,8,0,0,0,0,0,0,0,0,0,0,0,0
2015,7,2,21,0,,22.7,19.8,84,100230,0,0,401,0,0,0,0,0,0,0,270,1.9,8,0,0,0,0,0,0,0,0,0,0,0,0
2015,7,2,22,0,,22.8,18.9,79,100260,0,0,396,0,0,0,0,0,0,0,180,0.6,7,0,0,0,0,0,0,0,0,0,0,0,0
2015,7,2,23,0,,21.9,19.2,85,100290,0,0,388,0,0,0,0,0,0,0,0,0,7,0,0,0,0,0,0,0,0,0,0,0,0
2015,7,2,24,0,,22,18.7,82,100300,0,0,385,0,0,0,0,0,0,0,290,1.9,6,0,0,0,0,0,0,0,0,0,0,0,0
2015,7,3,1,0,,22.1,18.4,80,100250,0,0,386,0,0,0,0,0,0,0,200,1,6,0,0,0,0,0,0,0,0,0,0,0,0
2015,7,3,2,0,,22,17.7,77,100240,0,0,387,0,0,0,0,0,0,0,200,0.9,7,0,0,0,0,0,0,0,0,0,0,0,0
2015,7,3,3,0,,22.1,17.6,76,100230,0,0,389,0,0,0,0,0,0,0,200,1.2,7,0,0,0,0,0,0,0,0,0,0,0,0
2015,7,3,4,0,,21.8,17.9,79,100260,0,0,387,0,0,0,0,0,0,0,250,1.2,7,0,0,0,0,0,0,0,0,0,0,0,0
2015,7,3,5,0,,21.8,19.5,87,100300,0,0,389,0,0,0,0,0,0,0,250,2.4,7,0,0,0,0,0,0,0,0,0,0,0,0
2015,7,3,6,0,,22.9,20.6,87,100310,0,0,403,13,2,11,1533,50,1512,0,230,1.9,8,0,0,0,0,0,0,0,0,0,0,0,0
2015,7,3,7,0,,23.7,21.2,86,100300,0,0,429,56,37,49,8704,3212,6787,0,200,2.6,10,0,0,0,0,0,0,0,0,0,0,0,0
2015,7,3,8,0,,23.9,21.7,88,100330,0,0,431,121,35,107,16545,3031,14255,0,250,2.8,10,0,0,0,0,0,0,0,0,0,0,0,0
2015,7,3,9,0,,24.6,21.7,84,100370,0,0,435,175,27,159,21223,2332,19176,0,270,2.2,10,0,0,0,0,0,0,0,0,0,0,0,0
2015,7,3,10,0,,24.8,21.9,84,100410,0,0,436,228,25,210,27170,2123,25143,0,270,2.6,10,0,0,0,0,0,0,0,0,0,0,0,0
2015,7,3,11,0,,24.8,21.9,84,100410,0,0,415,423,78,355,48533,6864,41800,0,320,1.9,8,0,0,0,0,0,0,0,0,0,0,0,0
2015,7,3,12,0,,24.7,21.6,83,100430,0,0,414,445,67,382,50379,5882,44761,0,340,2.2,8,0,0,0,0,0,0,0,0,0,0,0,0
2015,7,3,13,0,,24.6,21.5,83,100400,0,0,407,531,96,437,58308,8566,50779,0,20,2.8,7,0,0,0,0,0,0,0,0,0,0,0,0
2015,7,3,14,0,,25.1,21.6,81,100410,0,0,410,533,104,433,57173,9272,50149,0,320,3,7,0,0,0,0,0,0,0,0,0,0,0,0
2015,7,3,15,0,,25.9,21.7,78,100420,0,0,414,535,135,415,54905,12051,47684,0,320,2.9,7,0,0,0,0,0,0,0,0,0,0,0,0
2015,7,3,16,0,,24,21.3,85,100440,0,0,419,288,40,257,28861,3172,27546,0,290,3.1,9,0,0,0,0,0,0,0,0,0,0,0,0
2015,7,3,17,0,,25.1,20.7,77,100410,0,0,415,296,91,240,28503,6957,26998,0,290,2.5,8,0,0,0,0,0,0,0,0,0,0,0,0
2015,7,3,18,0,,24.8,20.9,79,100450,0,0,403,258,201,170,17979,0,17979,0,290,2.7,6,0,0,0,0,0,0,0,0,0,0,0,0
2015,7,3,19,0,,24.3,19.5,75,100440,0,0,401,132,204,83,0,0,0,0,290,2.1,7,0,0,0,0,0,0,0,0,0,0,0,0
2015,7,3,20,0,,23.1,19.8,82,100520,0,0,399,29,8,21,0,0,0,0,270,2,7,0,0,0,0,0,0,0,0,0,0,0,0
2015,7,3,21,0,,23,18.1,74,100550,0,0,400,0,0,0,0,0,0,0,250,1.5,8,0,0,0,0,0,0,0,0,0,0,0,0
2015,7,3,22,0,,23.2,14.2,57,100650,0,0,396,0,0,0,0,0,0,0,180,1.9,8,0,0,0,0,0,0,0,0,0,0,0,0
2015,7,3,23,0,,23.2,13.9,56,100630,0,0,396,0,0,0,0,0,0,0,180,1.3,8,0,0,0,0,0,0,0,0,0,0,0,0
2015,7,3,24,0,,22.8,12.9,54,100630,0,0,393,0,0,0,0,0,0,0,160,1.5,8,0,0,0,0,0,0,0,0,0,0,0,0
2015,7,4,1,0,,22.5,13.2,56,100620,0,0,394,0,0,0,0,0,0,0,180,1.1,8,0,0,0,0,0,0,0,0,0,0,0,0
2015,7,4,2,0,,22.3,13,56,100610,0,0,395,0,0,0,0,0,0,0,180,1.5,9,0,0,0,0,0,0,0,0,0,0,0,0
2015,7,4,3,0,,22,12.8,56,100580,0,0,397,0,0,0,0,0,0,0,0,0.4,9,0,0,0,0,0,0,0,0,0,0,0,0
2015,7,4,4,0,,22,16.4,71,100580,0,0,401,0,0,0,0,0,0,0,0,0.1,9,0,0,0,0,0,0,0,0,0,0,0,0
2015,7,4,5,0,,21.6,16.1,71,100600,0,0,399,0,0,0,0,0,0,0,230,0.6,9,0,0,0,0,0,0,0,0,0,0,0,0
2015,7,4,6,0,,21.6,15.8,70,100630,0,0,398,9,1,8,1142,19,1134,0,200,0.7,9,0,0,0,0,0,0,0,0,0,0,0,0
2015,7,4,7,0,,21.6,17.3,77,100640,0,0,400,63,51,53,10602,4578,7874,0,0,0.4,9,0,0,0,0,0,0,0,0,0,0,0,0
2015,7,4,8,0,,22.1,19,83,100670,0,0,417,107,25,98,13428,2186,11778,0,250,0.8,10,0,0,0,0,0,0,0,0,0,0,0,0
2015,7,4,9,0,,22.8,19.5,82,100700,0,0,421,174,27,158,21023,2354,18959,0,20,2,10,0,0,0,0,0,0,0,0,0,0,0,0
2015,7,4,10,0,,22.6,19.1,81,100740,0,0,420,235,27,216,27872,2395,25587,0,20,2.5,10,0,0,0,0,0,0,0,0,0,0,0,0
2015,7,4,11,0,,23.5,17.4,69,100770,0,0,422,288,27,264,33465,2489,31024,0,20,2.3,10,0,0,0,0,0,0,0,0,0,0,0,0
2015,7,4,12,0,,23,17.2,70,100790,0,0,408,413,55,361,46788,5024,41990,0,20,4.4,9,0,0,0,0,0,0,0,0,0,0,0,0
2015,7,4,13,0,,23.8,18.8,74,100760,0,0,414,428,54,375,47887,4901,43580,0,20,3.8,9,0,0,0,0,0,0,0,0,0,0,0,0
2015,7,4,14,0,,23.1,19.8,82,100740,0,0,423,305,23,283,34075,1658,32819,0,50,4.1,10,0,0,0,0,0,0,0,0,0,0,0,0
2015,7,4,15,0,,23.9,20.6,82,100730,0,0,417,382,54,334,41434,4815,38549,0,20,4.5,9,0,0,0,0,0,0,0,0,0,0,0,0
2015,7,4,16,0,,24.1,20.6,81,100730,0,0,410,378,84,313,38763,7288,35742,0,20,3.9,8,0,0,0,0,0,0,0,0,0,0,0,0
2015,7,4,17,0,,23.5,20.4,83,100780,0,0,415,236,48,206,24050,3644,23262,0,340,2.2,9,0,0,0,0,0,0,0,0,0,0,0,0
2015,7,4,18,0,,23,20.3,85,100800,0,0,403,194,88,155,16706,5643,16606,0,20,3,8,0,0,0,0,0,0,0,0,0,0,0,0
2015,7,4,19,0,,22.6,20.5,88,100840,0,0,404,102,94,79,0,0,0,0,20,2.5,8,0,0,0,0,0,0,0,0,0,0,0,0
2015,7,4,20,0,,22,20.2,90,100860,0,0,403,17,2,15,0,0,0,0,360,1.3,9,0,0,0,0,0,0,0,0,0,0,0,0
2015,7,4,21,0,,22,20.4,91,100910,0,0,406,0,0,0,0,0,0,0,340,1,9,0,0,0,0,0,0,0,0,0,0,0,0
2015,7,4,22,0,,21.9,20.3,91,100950,0,0,406,0,0,0,0,0,0,0,360,1.5,9,0,0,0,0,0,0,0,0,0,0,0,0
2015,7,4,23,0,,21.5,19.7,90,100960,0,0,403,0,0,0,0,0,0,0,290,0.9,9,0,0,0,0,0,0,0,0,0,0,0,0
2015,7,4,24,0,,21.6,19.1,86,100930,0,0,403,0,0,0,0,0,0,0,250,0.5,9,0,0,0,0,0,0,0,0,0,0,0,0
2015,7,5,1,0,,21.1,18.6,86,100920,0,0,399,0,0,0,0,0,0,0,270,1.2,9,0,0,0,0,0,0,0,0,0,0,0,0
2015,7,5,2,0,,21.2,17.6,80,100940,0,0,398,0,0,0,0,0,0,0,180,1.7,9,0,0,0,0,0,0,0,0,0,0,0,0
2015,7,5,3,0,,21.2,16.9,77,100930,0,0,397,0,0,0,0,0,0,0,180,1.3,9,0,0,0,0,0,0,0,0,0,0,0,0
2015,7,5,4,0,,21.1,16.9,77,100920,0,0,408,0,0,0,0,0,0,0,200,1.3,10,0,0,0,0,0,0,0,0,0,0,0,0
2015,7,5,5,0,,21.1,17.3,79,100920,0,0,389,0,0,0,0,0,0,0,160,1.8,8,0,0,0,0,0,0,0,0,0,0,0,0
2015,7,5,6,0,,21.3,17.5,79,100950,0,0,399,8,1,8,1074,15,1067,0,180,1.1,9,0,0,0,0,0,0,0,0,0,0,0,0
2015,7,5,7,0,,21.1,17.7,81,100970,0,0,390,81,108,61,15910,9803,10079,0,360,1.7,8,0,0,0,0,0,0,0,0,0,0,0,0
2015,7,5,8,0,,22.8,18.5,77,100990,0,0,400,192,129,142,28179,11566,19459,0,50,2.2,8,0,0,0,0,0,0,0,0,0,0,0,0
2015,7,5,9,0,,23,18.5,76,100990,0,0,401,294,116,228,37587,10651,28253,0,50,3,8,0,0,0,0,0,0,0,0,0,0,0,0
2015,7,5,10,0,,22.8,18.9,79,100950,0,0,400,385,104,308,46614,9473,37582,0,50,3.6,8,0,0,0,0,0,0,0,0,0,0,0,0
2015,7,5,11,0,,22.8,18.7,78,100960,0,0,409,357,50,314,41205,4488,36806,0,50,4.1,9,0,0,0,0,0,0,0,0,0,0,0,0
2015,7,5,12,0,,22.3,19.2,83,100980,0,0,406,376,42,336,42976,3822,39327,0,50,4.1,9,0,0,0,0,0,0,0,0,0,0,0,0
2015,7,5,13,0,,22.8,19.7,83,100930,0,0,421,299,20,279,34326,1379,33114,0,50,3.6,10,0,0,0,0,0,0,0,0,0,0,0,0
2015,7,5,14,0,,23,19.7,82,100880,0,0,423,311,24,288,34620,1753,33292,0,50,5.5,10,0,0,0,0,0,0,0,0,0,0,0,0
2015,7,5,15,0,,23.2,19.7,81,100860,0,0,424,301,28,276,32201,2171,30900,0,50,4.1,10,0,0,0,0,0,0,0,0,0,0,0,0
2015,7,5,16,0,,22.8,19.1,80,100850,0,0,409,319,53,278,33685,4614,31772,0,50,4.1,9,0,0,0,0,0,0,0,0,0,0,0,0
2015,7,5,17,0,,23.5,19,76,100770,0,0,390,438,282,262,33676,16394,30135,0,50,4.7,5,0,0,0,0,0,0,0,0,0,0,0,0
2015,7,5,18,0,,22.4,19.1,82,100780,0,0,392,238,158,169,18119,10905,17930,0,50,4.5,7,0,0,0,0,0,0,0,0,0,0,0,0
2015,7,5,19,0,,23.3,18.3,74,100800,0,0,391,149,302,76,0,0,0,0,70,2.8,6,0,0,0,0,0,0,0,0,0,0,0,0
2015,7,5,20,0,,22.6,17.9,75,100870,0,0,384,39,18,20,0,0,0,0,320,1.4,5,0,0,0,0,0,0,0,0,0,0,0,0
2015,7,5,21,0,,21.6,18.3,82,100900,0,0,376,0,0,0,0,0,0,0,340,0.8,4,0,0,0,0,0,0,0,0,0,0,0,0
2015,7,5,22,0,,21.2,18.5,85,100940,0,0,379,0,0,0,0,0,0,0,270,1.1,6,0,0,0,0,0,0,0,0,0,0,0,0
2015,7,5,23,0,,21.3,18.2,83,100940,0,0,387,0,0,0,0,0,0,0,0,0.3,7,0,0,0,0,0,0,0,0,0,0,0,0
2015,7,5,24,0,,20.6,18.3,87,100940,0,0,396,0,0,0,0,0,0,0,0,0.4,9,0,0,0,0,0,0,0,0,0,0,0,0
2015,7,6,1,0,,20.8,17.7,83,100920,0,0,400,0,0,0,0,0,0,0,0,0.2,9,0,0,0,0,0,0,0,0,0,0,0,0
2015,7,6,2,0,,20.6,16.8,79,100880,0,0,401,0,0,0,0,0,0,0,20,1.1,10,0,0,0,0,0,0,0,0,0,0,0,0
2015,7,6,3,0,,20.6,17.9,85,100900,0,0,407,0,0,0,0,0,0,0,110,1.1,10,0,0,0,0,0,0,0,0,0,0,0,0
2015,7,6,4,0,,20.5,18.4,88,100870,0,0,407,0,0,0,0,0,0,0,90,1.9,10,0,0,0,0,0,0,0,0,0,0,0,0
2015,7,6,5,0,,20.6,18.7,89,100920,0,0,408,0,0,0,0,0,0,0,110,1.4,10,0,0,0,0,0,0,0,0,0,0,0,0
2015,7,6,6,0,,20.6,18.8,90,100960,0,0,408,3,0,3,427,0,427,0,70,1,10,0,0,0,0,0,0,0,0,0,0,0,0
2015,7,6,7,0,,20.8,19,90,100920,0,0,409,43,18,39,6368,1601,5417,0,70,1.5,10,0,0,0,0,0,0,0,0,0,0,0,0
2015,7,6,8,0,,21.3,18.8,86,100900,0,0,412,110,27,99,13735,2374,11947,0,110,2.6,10,0,0,0,0,0,0,0,0,0,0,0,0
2015,7,6,9,0,,22,17.5,76,100900,0,0,414,193,36,172,23348,3276,20479,0,90,2.4,10,0,0,0,0,0,0,0,0,0,0,0,0
2015,7,6,10,0,,22.4,16.8,71,100890,0,0,415,254,33,229,29882,3031,26994,0,90,2.9,10,0,0,0,0,0,0,0,0,0,0,0,0
2015,7,6,11,0,,22.4,17,72,100930,0,0,416,286,27,263,33268,2470,30847,0,70,2.5,10,0,0,0,0,0,0,0,0,0,0,0,0
2015,7,6,12,0,,22.5,19.2,82,100850,0,0,419,299,23,277,34581,2015,32657,0,70,3,10,0,0,0,0,0,0,0,0,0,0,0,0
2015,7,6,13,0,,22.2,18.9,82,100850,0,0,417,293,19,275,33827,1320,32666,0,50,3.2,10,0,0,0,0,0,0,0,0,0,0,0,0
2015,7,6,14,0,,23,18.3,75,100850,0,0,421,303,22,282,33966,1663,32706,0,50,3.1,10,0,0,0,0,0,0,0,0,0,0,0,0
2015,7,6,15,0,,21.9,18.6,82,100820,0,0,415,257,18,241,28152,1341,27349,0,50,4.2,10,0,0,0,0,0,0,0,0,0,0,0,0
2015,7,6,16,0,,21.8,18.9,84,100820,0,0,415,222,19,207,23229,1396,22651,0,50,4.3,10,0,0,0,0,0,0,0,0,0,0,0,0
2015,7,6,17,0,,21.4,18.9,86,100760,0,0,413,174,21,161,16904,1234,16638,0,50,3.8,10,0,0,0,0,0,0,0,0,0,0,0,0
2015,7,6,18,0,,21.6,19.1,86,100800,0,0,414,120,23,110,9808,3553,9748,0,50,2.8,10,0,0,0,0,0,0,0,0,0,0,0,0
2015,7,6,19,0,,21.3,19.2,88,100810,0,0,412,61,22,55,0,0,0,0,70,3.6,10,0,0,0,0,0,0,0,0,0,0,0,0
2015,7,6,20,0,,21.1,19.3,90,100840,0,0,411,10,0,10,0,0,0,0,70,2.2,10,0,0,0,0,0,0,0,0,0,0,0,0
2015,7,6,21,0,,20.9,19.1,90,100880,0,0,410,0,0,0,0,0,0,0,70,2.1,10,0,0,0,0,0,0,0,0,0,0,0,0
2015,7,6,22,0,,20.8,19,90,100830,0,0,409,0,0,0,0,0,0,0,90,2.4,10,0,0,0,0,0,0,0,0,0,0,0,0
2015,7,6,23,0,,20.9,19.1,90,100830,0,0,410,0,0,0,0,0,0,0,70,2.2,10,0,0,0,0,0,0,0,0,0,0,0,0
2015,7,6,24,0,,20.7,19.3,92,100850,0,0,409,0,0,0,0,0,0,0,110,2.2,10,0,0,0,0,0,0,0,0,0,0,0,0
2015,7,7,1,0,,20.5,19.4,94,100740,0,0,408,0,0,0,0,0,0,0,70,2.4,10,0,0,0,0,0,0,0,0,0,0,0,0
2015,7,7,2,0,,20.6,19.4,93,100680,0,0,409,0,0,0,0,0,0,0,70,1.8,10,0,0,0,0,0,0,0,0,0,0,0,0
2015,7,7,3,0,,20.5,19.3,93,100620,0,0,408,0,0,0,0,0,0,0,90,2,10,0,0,0,0,0,0,0,0,0,0,0,0
2015,7,7,4,0,,20.3,19.1,93,100590,0,0,407,0,0,0,0,0,0,0,70,2.6,10,0,0,0,0,0,0,0,0,0,0,0,0
2015,7,7,5,0,,20.1,19.2,95,100560,0,0,406,0,0,0,0,0,0,0,70,4.7,10,0,0,0,0,0,0,0,0,0,0,0,0
2015,7,7,6,0,,19.9,19.2,96,100610,0,0,405,3,0,3,454,0,454,0,50,4.1,10,0,0,0,0,0,0,0,0,0,0,0,0
2015,7,7,7,0,,19.2,18.5,96,100620,0,0,400,41,17,38,6189,1519,5289,0,70,4.1,10,0,0,0,0,0,0,0,0,0,0,0,0
2015,7,7,8,0,,19.7,19,96,100680,0,0,403,100,21,92,12522,1856,11125,0,50,4.9,10,0,0,0,0,0,0,0,0,0,0,0,0
2015,7,7,9,0,,19.8,19.1,96,100660,0,0,404,152,19,141,18396,1649,16952,0,70,3,10,0,0,0,0,0,0,0,0,0,0,0,0
2015,7,7,10,0,,20.1,19.4,96,100610,0,0,406,204,18,190,24245,1609,22712,0,70,3.1,10,0,0,0,0,0,0,0,0,0,0,0,0
2015,7,7,11,0,,20.2,19.3,95,100620,0,0,407,250,19,234,29372,1671,27735,0,50,4.1,10,0,0,0,0,0,0,0,0,0,0,0,0
2015,7,7,12,0,,20.6,19.7,95,100480,0,0,409,277,18,260,32283,1635,30723,0,50,4.2,10,0,0,0,0,0,0,0,0,0,0,0,0
2015,7,7,13,0,,20.2,19.5,96,100420,0,0,407,291,19,273,33579,1280,32454,0,50,5.7,10,0,0,0,0,0,0,0,0,0,0,0,0
2015,7,7,14,0,,20.5,19.6,95,100390,0,0,409,292,20,273,32768,1445,31673,0,50,4.9,10,0,0,0,0,0,0,0,0,0,0,0,0
2015,7,7,15,0,,20.8,19.7,94,100380,0,0,410,260,19,243,28372,1366,27554,0,50,5,10,0,0,0,0,0,0,0,0,0,0,0,0
2015,7,7,16,0,,21.2,20.3,95,100360,0,0,413,243,25,224,25018,1835,24259,0,50,5.1,10,0,0,0,0,0,0,0,0,0,0,0,0
2015,7,7,17,0,,21.6,20.5,94,100330,0,0,416,188,26,172,17970,1596,17627,0,70,3.4,10,0,0,0,0,0,0,0,0,0,0,0,0
2015,7,7,18,0,,21,20.1,95,100330,0,0,412,125,26,113,10061,4191,9992,0,50,4,10,0,0,0,0,0,0,0,0,0,0,0,0
2015,7,7,19,0,,20.8,19.9,95,100320,0,0,411,60,22,55,0,0,0,0,50,4.7,10,0,0,0,0,0,0,0,0,0,0,0,0
2015,7,7,20,0,,20.9,20.2,96,100330,0,0,412,9,0,9,0,0,0,0,70,1.8,10,0,0,0,0,0,0,0,0,0,0,0,0
2015,7,7,21,0,,21.5,20.8,96,100340,0,0,416,0,0,0,0,0,0,0,200,1,10,0,0,0,0,0,0,0,0,0,0,0,0
2015,7,7,22,0,,21.9,21.2,96,100400,0,0,419,0,0,0,0,0,0,0,200,2.4,10,0,0,0,0,0,0,0,0,0,0,0,0
2015,7,7,23,0,,21.4,20.5,95,100380,0,0,415,0,0,0,0,0,0,0,90,1,10,0,0,0,0,0,0,0,0,0,0,0,0
2015,7,7,24,0,,21.7,21,96,100350,0,0,417,0,0,0,0,0,0,0,270,1.5,10,0,0,0,0,0,0,0,0,0,0,0,0
2015,7,8,1,0,,22.3,21.6,96,100400,0,0,421,0,0,0,0,0,0,0,200,2.3,10,0,0,0,0,0,0,0,0,0,0,0,0
2015,7,8,2,0,,22.6,21.9,96,100360,0,0,423,0,0,0,0,0,0,0,250,1.2,10,0,0,0,0,0,0,0,0,0,0,0,0
2015,7,8,3,0,,22.7,22.1,97,100360,0,0,424,0,0,0,0,0,0,0,180,1.1,10,0,0,0,0,0,0,0,0,0,0,0,0
2015,7,8,4,0,,22.9,22.3,97,100390,0,0,426,0,0,0,0,0,0,0,230,1.3,10,0,0,0,0,0,0,0,0,0,0,0,0
2015,7,8,5,0,,22.9,22.3,97,100380,0,0,426,0,0,0,0,0,0,0,0,0.1,10,0,0,0,0,0,0,0,0,0,0,0,0
2015,7,8,6,0,,22.7,22.1,97,100400,0,0,424,2,0,2,286,0,286,0,320,0.7,10,0,0,0,0,0,0,0,0,0,0,0,0
2015,7,8,7,0,,23.5,22.9,97,100430,0,0,430,41,17,38,6255,1442,5402,0,90,2.2,10,0,0,0,0,0,0,0,0,0,0,0,0
2015,7,8,8,0,,23.9,23.3,97,100540,0,0,433,100,22,92,12637,1807,11280,0,230,1.3,10,0,0,0,0,0,0,0,0,0,0,0,0
2015,7,8,9,0,,23.5,22.9,97,100580,0,0,418,196,39,174,23853,3264,20999,0,180,0.8,9,0,0,0,0,0,0,0,0,0,0,0,0
2015,7,8,10,0,,26.5,24.5,89,100560,0,0,437,318,62,272,37496,5235,32513,0,140,2.1,9,0,0,0,0,0,0,0,0,0,0,0,0
2015,7,8,11,0,,29.5,24.8,76,100530,0,0,446,500,125,392,59118,10187,49143,0,90,1.6,8,0,0,0,0,0,0,0,0,0,0,0,0
2015,7,8,12,0,,30.7,25.5,74,100530,0,0,464,506,95,416,56848,7960,49254,0,70,2,9,0,0,0,0,0,0,0,0,0,0,0,0
2015,7,8,13,0,,29,25.6,82,100520,0,0,454,407,47,361,46302,3944,42838,0,90,1.4,9,0,0,0,0,0,0,0,0,0,0,0,0
2015,7,8,14,0,,30.3,24.9,73,100510,0,0,461,407,50,358,45418,4233,42213,0,20,1.6,9,0,0,0,0,0,0,0,0,0,0,0,0
2015,7,8,15,0,,31.2,24.5,68,100500,0,0,466,374,51,329,41022,4324,38434,0,360,1.7,9,0,0,0,0,0,0,0,0,0,0,0,0
2015,7,8,16,0,,30.8,24.6,70,100530,0,0,463,335,60,288,35455,4926,33418,0,320,1.7,9,0,0,0,0,0,0,0,0,0,0,0,0
2015,7,8,17,0,,30,24.6,73,100560,0,0,458,241,51,209,24701,3632,23921,0,290,2.2,9,0,0,0,0,0,0,0,0,0,0,0,0
2015,7,8,18,0,,28.6,24.5,79,100610,0,0,450,143,38,126,11044,7266,10931,0,250,2.1,9,0,0,0,0,0,0,0,0,0,0,0,0
2015,7,8,19,0,,27.5,24.3,83,100650,0,0,429,114,132,82,0,0,0,0,250,2.3,7,0,0,0,0,0,0,0,0,0,0,0,0
2015,7,8,20,0,,26.6,24,86,100720,0,0,415,30,8,21,0,0,0,0,270,1.9,6,0,0,0,0,0,0,0,0,0,0,0,0
2015,7,8,21,0,,24.1,22.5,91,100770,0,0,394,0,0,0,0,0,0,0,250,1.3,4,0,0,0,0,0,0,0,0,0,0,0,0
2015,7,8,22,0,,24,22.2,90,100840,0,0,395,0,0,0,0,0,0,0,290,0.6,5,0,0,0,0,0,0,0,0,0,0,0,0
2015,7,8,23,0,,24.7,22.7,89,100830,0,0,402,0,0,0,0,0,0,0,0,0.2,5,0,0,0,0,0,0,0,0,0,0,0,0
2015,7,8,24,0,,23,21.6,92,100850,0,0,394,0,0,0,0,0,0,0,0,0.3,6,0,0,0,0,0,0,0,0,0,0,0,0
2015,7,9,1,0,,22.8,21.4,92,100870,0,0,394,0,0,0,0,0,0,0,20,1.5,6,0,0,0,0,0,0,0,0,0,0,0,0
2015,7,9,2,0,,23.6,22.2,92,100840,0,0,401,0,0,0,0,0,0,0,0,0.3,7,0,0,0,0,0,0,0,0,0,0,0,0
2015,7,9,3,0,,23,21.9,94,100800,0,0,399,0,0,0,0,0,0,0,320,1.2,7,0,0,0,0,0,0,0,0,0,0,0,0
2015,7,9,4,0,,23.4,22.5,95,100820,0,0,402,0,0,0,0,0,0,0,180,0.6,7,0,0,0,0,0,0,0,0,0,0,0,0
2015,7,9,5,0,,23.8,22.7,94,100880,0,0,411,0,0,0,0,0,0,0,50,1.6,8,0,0,0,0,0,0,0,0,0,0,0,0
2015,7,9,6,0,,23.4,22.5,95,100890,0,0,397,16,4,12,1654,303,1531,0,70,2.2,6,0,0,0,0,0,0,0,0,0,0,0,0
2015,7,9,7,0,,24.8,23,90,100950,0,0,405,109,301,54,27058,29330,9743,0,90,2.9,6,0,0,0,0,0,0,0,0,0,0,0,0
2015,7,9,8,0,,25.3,22.5,85,100960,0,0,401,284,440,116,50639,43099,18301,0,50,3.9,4,0,0,0,0,0,0,0,0,0,0,0,0
2015,7,9,9,0,,24.9,22.3,86,100990,0,0,401,409,319,226,57315,27955,32898,0,50,5.2,5,0,0,0,0,0,0,0,0,0,0,0,0
2015,7,9,10,0,,26.7,23.3,82,101000,0,0,409,557,313,327,68162,25533,43870,0,50,4.8,4,0,0,0,0,0,0,0,0,0,0,0,0
2015,7,9,11,0,,26.7,23.3,82,101020,0,0,416,563,175,412,65215,14657,50869,0,70,4.8,6,0,0,0,0,0,0,0,0,0,0,0,0
2015,7,9,12,0,,27.8,23.3,77,101020,0,0,422,672,208,475,74532,17326,58006,0,70,5.6,6,0,0,0,0,0,0,0,0,0,0,0,0
2015,7,9,13,0,,27.4,23.2,78,101000,0,0,420,639,160,482,70292,13300,58613,0,70,4.7,6,0,0,0,0,0,0,0,0,0,0,0,0
2015,7,9,14,0,,28.5,23.4,74,100980,0,0,426,663,189,481,69950,15431,58272,0,90,5.7,6,0,0,0,0,0,0,0,0,0,0,0,0
2015,7,9,15,0,,27.2,23.2,79,100970,0,0,430,447,83,373,47532,7198,43226,0,70,5.6,8,0,0,0,0,0,0,0,0,0,0,0,0
2015,7,9,16,0,,25.2,22.6,86,100970,0,0,439,192,13,182,20357,804,20025,0,50,3.8,10,0,0,0,0,0,0,0,0,0,0,0,0
2015,7,9,17,0,,26.3,22.5,80,100930,0,0,424,280,78,232,27506,5814,26261,0,90,4,8,0,0,0,0,0,0,0,0,0,0,0,0
2015,7,9,18,0,,25.4,22.2,83,100940,0,0,419,201,98,158,17043,6273,16950,0,70,5.2,8,0,0,0,0,0,0,0,0,0,0,0,0
2015,7,9,19,0,,24.8,22,85,101000,0,0,415,111,125,81,0,0,0,0,70,4.1,8,0,0,0,0,0,0,0,0,0,0,0,0
2015,7,9,20,0,,24.6,21.9,85,101060,0,0,414,22,4,19,0,0,0,0,90,3.1,8,0,0,0,0,0,0,0,0,0,0,0,0
2015,7,9,21,0,,24.4,21.7,85,101090,0,0,413,0,0,0,0,0,0,0,90,3.7,8,0,0,0,0,0,0,0,0,0,0,0,0
2015,7,9,22,0,,24,21.6,87,101130,0,0,413,0,0,0,0,0,0,0,70,3.7,8,0,0,0,0,0,0,0,0,0,0,0,0
2015,7,9,23,0,,23.8,21.6,88,101130,0,0,415,0,0,0,0,0,0,0,90,3,9,0,0,0,0,0,0,0,0,0,0,0,0
2015,7,9,24,0,,23.2,21.2,89,101090,0,0,414,0,0,0,0,0,0,0,90,4.5,9,0,0,0,0,0,0,0,0,0,0,0,0
2015,7,10,1,0,,22.9,21.1,90,101080,0,0,416,0,0,0,0,0,0,0,90,4.3,9,0,0,0,0,0,0,0,0,0,0,0,0
2015,7,10,2,0,,22.6,21,91,101050,0,0,418,0,0,0,0,0,0,0,90,4.2,10,0,0,0,0,0,0,0,0,0,0,0,0
2015,7,10,3,0,,22.3,21.1,93,101030,0,0,421,0,0,0,0,0,0,0,70,4.1,10,0,0,0,0,0,0,0,0,0,0,0,0
2015,7,10,4,0,,22.2,21,93,101030,0,0,420,0,0,0,0,0,0,0,70,4.7,10,0,0,0,0,0,0,0,0,0,0,0,0
2015,7,10,5,0,,22.1,21,94,101010,0,0,419,0,0,0,0,0,0,0,70,3.2,10,0,0,0,0,0,0,0,0,0,0,0,0
2015,7,10,6,0,,22.4,21.2,93,101030,0,0,421,3,0,3,425,0,425,0,70,3.9,10,0,0,0,0,0,0,0,0,0,0,0,0
2015,7,10,7,0,,22.7,21.3,92,101050,0,0,423,46,25,42,7088,2161,5815,0,70,3.6,10,0,0,0,0,0,0,0,0,0,0,0,0
2015,7,10,8,0,,22.9,21.5,92,101080,0,0,425,107,27,97,13489,2261,11794,0,70,3.7,10,0,0,0,0,0,0,0,0,0,0,0,0
2015,7,10,9,0,,23.1,21.5,91,101090,0,0,426,174,28,158,21073,2388,18989,0,70,4,10,0,0,0,0,0,0,0,0,0,0,0,0
2015,7,10,10,0,,23.5,21.7,90,101050,0,0,428,211,20,196,25215,1761,23541,0,70,3.2,10,0,0,0,0,0,0,0,0,0,0,0,0
2015,7,10,11,0,,23.3,21.5,90,101040,0,0,427,259,21,241,30533,1817,28755,0,70,4.3,10,0,0,0,0,0,0,0,0,0,0,0,0
2015,7,10,12,0,,23.8,21.8,89,100980,0,0,430,296,22,275,34424,1923,32590,0,90,4.5,10,0,0,0,0,0,0,0,0,0,0,0,0
2015,7,10,13,0,,24,21.6,87,100980,0,0,431,297,20,277,34029,1315,32875,0,70,3.7,10,0,0,0,0,0,0,0,0,0,0,0,0
2015,7,10,14,0,,24.6,21.9,85,100940,0,0,435,296,21,276,33043,1452,31944,0,70,3.1,10,0,0,0,0,0,0,0,0,0,0,0,0
2015,7,10,15,0,,24.5,21.8,85,100880,0,0,434,280,23,259,30135,1674,29134,0,70,4.4,10,0,0,0,0,0,0,0,0,0,0,0,0
2015,7,10,16,0,,25.1,22,83,100850,0,0,438,248,26,228,25369,1913,24579,0,70,3.5,10,0,0,0,0,0,0,0,0,0,0,0,0
2015,7,10,17,0,,23.9,21.7,88,100830,0,0,431,168,19,157,16390,1040,16168,0,70,3.3,10,0,0,0,0,0,0,0,0,0,0,0,0
2015,7,10,18,0,,24.2,22,88,100830,0,0,433,126,27,114,10071,4645,10006,0,70,4,10,0,0,0,0,0,0,0,0,0,0,0,0
2015,7,10,19,0,,24.3,21.9,87,100810,0,0,433,62,24,56,0,0,0,0,70,3.7,10,0,0,0,0,0,0,0,0,0,0,0,0
2015,7,10,20,0,,24.2,22,88,100820,0,0,433,14,1,13,0,0,0,0,70,4.6,10,0,0,0,0,0,0,0,0,0,0,0,0
2015,7,10,21,0,,24.3,22.1,88,100810,0,0,433,0,0,0,0,0,0,0,70,3.3,10,0,0,0,0,0,0,0,0,0,0,0,0
2015,7,10,22,0,,24.3,22.3,89,100810,0,0,434,0,0,0,0,0,0,0,70,3.4,10,0,0,0,0,0,0,0,0,0,0,0,0
2015,7,10,23,0,,24.2,22.4,90,100820,0,0,433,0,0,0,0,0,0,0,90,3.8,10,0,0,0,0,0,0,0,0,0,0,0,0
2015,7,10,24,0,,24,22.2,90,100780,0,0,432,0,0,0,0,0,0,0,70,4.1,10,0,0,0,0,0,0,0,0,0,0,0,0
2015,7,11,1,0,,23.7,21.9,90,100730,0,0,430,0,0,0,0,0,0,0,70,4,10,0,0,0,0,0,0,0,0,0,0,0,0
2015,7,11,2,0,,23.4,21.8,91,100700,0,0,428,0,0,0,0,0,0,0,70,4.5,10,0,0,0,0,0,0,0,0,0,0,0,0
2015,7,11,3,0,,23.3,21.9,92,100680,0,0,427,0,0,0,0,0,0,0,70,3.3,10,0,0,0,0,0,0,0,0,0,0,0,0
2015,7,11,4,0,,23.3,22,93,100630,0,0,428,0,0,0,0,0,0,0,70,3.4,10,0,0,0,0,0,0,0,0,0,0,0,0
2015,7,11,5,0,,23.2,21.9,93,100590,0,0,427,0,0,0,0,0,0,0,50,4.5,10,0,0,0,0,0,0,0,0,0,0,0,0
2015,7,11,6,0,,23.2,22.1,94,100580,0,0,427,3,0,3,439,0,439,0,50,4.1,10,0,0,0,0,0,0,0,0,0,0,0,0
2015,7,11,7,0,,23.3,22.2,94,100570,0,0,428,43,21,40,6629,1820,5559,0,50,4.1,10,0,0,0,0,0,0,0,0,0,0,0,0
2015,7,11,8,0,,23.4,22.3,94,100560,0,0,429,102,23,93,12785,1950,11326,0,50,4.1,10,0,0,0,0,0,0,0,0,0,0,0,0
2015,7,11,9,0,,24,22.7,93,100580,0,0,433,159,22,146,19308,1831,17711,0,50,3.5,10,0,0,0,0,0,0,0,0,0,0,0,0
2015,7,11,10,0,,23.9,22.6,93,100550,0,0,432,220,23,204,26317,1973,24442,0,50,4.5,10,0,0,0,0,0,0,0,0,0,0,0,0
2015,7,11,11,0,,23.3,22,93,100500,0,0,428,262,22,243,30867,1867,29041,0,50,5.7,10,0,0,0,0,0,0,0,0,0,0,0,0
2015,7,11,12,0,,23.6,22.5,94,100410,0,0,430,267,17,252,31372,1007,30412,0,50,5,10,0,0,0,0,0,0,0,0,0,0,0,0
2015,7,11,13,0,,23.6,22.5,94,100350,0,0,430,268,15,253,30967,927,30153,0,70,3.9,10,0,0,0,0,0,0,0,0,0,0,0,0
2015,7,11,14,0,,24,22.9,94,100270,0,0,433,279,18,262,31257,1174,30370,0,50,4.3,10,0,0,0,0,0,0,0,0,0,0,0,0
2015,7,11,15,0,,24.3,22.9,92,100160,0,0,435,285,24,263,30512,1728,29480,0,70,5.4,10,0,0,0,0,0,0,0,0,0,0,0,0
2015,7,11,16,0,,24.2,22.9,93,100130,0,0,434,246,26,226,25173,1841,24414,0,70,4.9,10,0,0,0,0,0,0,0,0,0,0,0,0
2015,7,11,17,0,,23.7,22.8,95,100090,0,0,431,167,19,156,16240,979,16032,0,50,2.5,10,0,0,0,0,0,0,0,0,0,0,0,0
2015,7,11,18,0,,24.2,23.1,94,100010,0,0,434,127,27,115,10061,4831,9998,0,70,5.1,10,0,0,0,0,0,0,0,0,0,0,0,0
2015,7,11,19,0,,24.5,23.2,93,99990,0,0,436,63,25,57,0,0,0,0,70,4.2,10,0,0,0,0,0,0,0,0,0,0,0,0
2015,7,11,20,0,,24.6,23.3,93,99970,0,0,437,13,1,12,0,0,0,0,50,5.5,10,0,0,0,0,0,0,0,0,0,0,0,0
2015,7,11,21,0,,25.2,23.6,91,99900,0,0,441,0,0,0,0,0,0,0,90,5.6,10,0,0,0,0,0,0,0,0,0,0,0,0
2015,7,11,22,0,,25.7,24.1,91,99890,0,0,444,0,0,0,0,0,0,0,90,7.3,10,0,0,0,0,0,0,0,0,0,0,0,0
2015,7,11,23,0,,26.1,24.3,90,99840,0,0,447,0,0,0,0,0,0,0,110,6.7,10,0,0,0,0,0,0,0,0,0,0,0,0
2015,7,11,24,0,,26.2,24.4,90,99800,0,0,448,0,0,0,0,0,0,0,90,6.7,10,0,0,0,0,0,0,0,0,0,0,0,0
2015,7,12,1,0,,26.1,24.5,91,99780,0,0,447,0,0,0,0,0,0,0,90,5,10,0,0,0,0,0,0,0,0,0,0,0,0
2015,7,12,2,0,,26.5,24.7,90,99500,0,0,450,0,0,0,0,0,0,0,90,7.8,10,0,0,0,0,0,0,0,0,0,0,0,0
2015,7,12,3,0,,26.8,24.8,89,99460,0,0,452,0,0,0,0,0,0,0,110,6.2,10,0,0,0,0,0,0,0,0,0,0,0,0
2015,7,12,4,0,,27,24.6,87,99360,0,0,453,0,0,0,0,0,0,0,110,7.8,10,0,0,0,0,0,0,0,0,0,0,0,0
2015,7,12,5,0,,27.2,24.6,86,99260,0,0,454,0,0,0,0,0,0,0,140,9.2,10,0,0,0,0,0,0,0,0,0,0,0,0
2015,7,12,6,0,,26.9,24.5,87,99190,0,0,452,4,0,4,560,2,559,0,140,6.7,10,0,0,0,0,0,0,0,0,0,0,0,0
2015,7,12,7,0,,27.2,24.6,86,99080,0,0,454,58,50,49,10146,3815,7908,0,140,10.1,10,0,0,0,0,0,0,0,0,0,0,0,0
2015,7,12,8,0,,26.5,24.5,89,99060,0,0,450,112,31,101,14223,2550,12318,0,140,6.7,10,0,0,0,0,0,0,0,0,0,0,0,0
2015,7,12,9,0,,27.3,24.5,85,99040,0,0,455,173,28,157,21100,2302,19095,0,160,3.8,10,0,0,0,0,0,0,0,0,0,0,0,0
2015,7,12,10,0,,26.5,24.7,90,98980,0,0,450,195,17,183,23546,1374,22242,0,50,2.8,10,0,0,0,0,0,0,0,0,0,0,0,0
2015,7,12,11,0,,27.8,24,80,98980,0,0,457,272,24,251,32080,2022,30103,0,160,2.5,10,0,0,0,0,0,0,0,0,0,0,0,0
2015,7,12,12,0,,27.3,23.9,82,98970,0,0,454,269,17,253,31640,1436,30272,0,140,1.9,10,0,0,0,0,0,0,0,0,0,0,0,0
2015,7,12,13,0,,26.6,23.8,85,98910,0,0,449,274,16,259,31574,975,30719,0,90,1.5,10,0,0,0,0,0,0,0,0,0,0,0,0
2015,7,12,14,0,,27.2,23.4,80,98860,0,0,452,287,19,269,32078,1283,31109,0,140,3.4,10,0,0,0,0,0,0,0,0,0,0,0,0
2015,7,12,15,0,,28.1,23,74,98840,0,0,445,395,59,342,42776,5142,39707,0,200,4.1,9,0,0,0,0,0,0,0,0,0,0,0,0
2015,7,12,16,0,,28.5,22.2,69,98870,0,0,446,361,74,303,37408,6294,34818,0,200,4.4,9,0,0,0,0,0,0,0,0,0,0,0,0
2015,7,12,17,0,,27.5,22.2,73,98880,0,0,440,281,79,232,27480,5889,26232,0,200,6.7,9,0,0,0,0,0,0,0,0,0,0,0,0
2015,7,12,18,0,,26.7,22.1,76,98960,0,0,435,173,65,145,15596,4044,15548,0,200,6.1,9,0,0,0,0,0,0,0,0,0,0,0,0
2015,7,12,19,0,,25.9,22.3,81,99000,0,0,425,110,123,80,0,0,0,0,200,7.1,8,0,0,0,0,0,0,0,0,0,0,0,0
2015,7,12,20,0,,25.7,21.7,79,99050,0,0,417,24,5,20,0,0,0,0,230,6.1,8,0,0,0,0,0,0,0,0,0,0,0,0
2015,7,12,21,0,,25.2,21.4,80,99110,0,0,410,0,0,0,0,0,0,0,230,6.3,7,0,0,0,0,0,0,0,0,0,0,0,0
2015,7,12,22,0,,25,21,79,99200,0,0,410,0,0,0,0,0,0,0,230,7.4,7,0,0,0,0,0,0,0,0,0,0,0,0
2015,7,12,23,0,,24.2,20.9,82,99280,0,0,408,0,0,0,0,0,0,0,230,8.5,8,0,0,0,0,0,0,0,0,0,0,0,0
2015,7,12,24,0,,23.8,20.9,84,99380,0,0,408,0,0,0,0,0,0,0,230,6.8,8,0,0,0,0,0,0,0,0,0,0,0,0
2015,7,13,1,0,,23.8,20.9,84,99430,0,0,406,0,0,0,0,0,0,0,230,8.6,8,0,0,0,0,0,0,0,0,0,0,0,0
2015,7,13,2,0,,24.1,20.6,81,99440,0,0,405,0,0,0,0,0,0,0,230,8.6,7,0,0,0,0,0,0,0,0,0,0,0,0
2015,7,13,3,0,,24.1,20.6,81,99470,0,0,403,0,0,0,0,0,0,0,230,9,7,0,0,0,0,0,0,0,0,0,0,0,0
2015,7,13,4,0,,24.3,20.4,79,99460,0,0,404,0,0,0,0,0,0,0,230,9.4,7,0,0,0,0,0,0,0,0,0,0,0,0
2015,7,13,5,0,,24.1,20.6,81,99490,0,0,398,0,0,0,0,0,0,0,230,8.3,6,0,0,0,0,0,0,0,0,0,0,0,0
2015,7,13,6,0,,24.6,20.2,77,99520,0,0,391,22,9,13,2246,724,1958,0,230,8.1,3,0,0,0,0,0,0,0,0,0,0,0,0
2015,7,13,7,0,,25,20.6,77,99600,0,0,394,139,552,42,40235,58065,6241,0,230,8.6,3,0,0,0,0,0,0,0,0,0,0,0,0
2015,7,13,8,0,,25.8,20.3,72,99690,0,0,401,308,570,93,57849,59783,13232,0,230,9.4,4,0,0,0,0,0,0,0,0,0,0,0,0
2015,7,13,9,0,,26.8,20.8,70,99780,0,0,400,487,607,144,74079,63287,19001,0,230,6.5,2,0,0,0,0,0,0,0,0,0,0,0,0
2015,7,13,10,0,,27.7,20.7,66,99850,0,0,404,654,628,195,85854,61567,27430,0,250,7.4,2,0,0,0,0,0,0,0,0,0,0,0,0
2015,7,13,11,0,,28.7,20.6,62,99870,0,0,414,770,594,260,90494,57499,34322,0,250,7.2,3,0,0,0,0,0,0,0,0,0,0,0,0
2015,7,13,12,0,,30.2,20.7,57,99890,0,0,418,859,597,295,92521,57202,38050,0,250,5.9,2,0,0,0,0,0,0,0,0,0,0,0,0
2015,7,13,13,0,,31.2,20.1,52,99900,0,0,427,880,564,327,87772,50258,43711,0,250,5.6,3,0,0,0,0,0,0,0,0,0,0,0,0
2015,7,13,14,0,,31.9,18.8,46,99890,0,0,430,878,601,301,80658,53848,39986,0,250,7,3,0,0,0,0,0,0,0,0,0,0,0,0
2015,7,13,15,0,,32.1,19,46,99870,0,0,435,774,528,303,65262,44737,38581,0,250,6.9,4,0,0,0,0,0,0,0,0,0,0,0,0
2015,7,13,16,0,,32.3,19.5,47,99870,0,0,433,669,554,239,48347,42626,30838,0,250,5.9,3,0,0,0,0,0,0,0,0,0,0,0,0
2015,7,13,17,0,,31.4,19.3,49,99920,0,0,431,501,495,194,29903,26561,24297,0,230,5.8,4,0,0,0,0,0,0,0,0,0,0,0,0
2015,7,13,18,0,,30.1,22.2,63,99920,0,0,414,342,498,125,14000,0,14000,0,230,4.8,1,0,0,0,0,0,0,0,0,0,0,0,0
2015,7,13,19,0,,29.4,22.1,65,99950,0,0,415,179,479,65,0,0,0,0,250,5.1,2,0,0,0,0,0,0,0,0,0,0,0,0
2015,7,13,20,0,,28.7,21.7,66,100000,0,0,415,42,18,24,0,0,0,0,250,3.5,3,0,0,0,0,0,0,0,0,0,0,0,0
2015,7,13,21,0,,27.4,21.8,72,100060,0,0,411,0,0,0,0,0,0,0,290,2.8,4,0,0,0,0,0,0,0,0,0,0,0,0
2015,7,13,22,0,,27.4,22.1,73,100130,0,0,407,0,0,0,0,0,0,0,250,1.6,3,0,0,0,0,0,0,0,0,0,0,0,0
2015,7,13,23,0,,26.8,22.2,76,100160,0,0,398,0,0,0,0,0,0,0,230,1.1,1,0,0,0,0,0,0,0,0,0,0,0,0
2015,7,13,24,0,,26.8,21.9,75,100150,0,0,388,0,0,0,0,0,0,0,180,1.1,0,0,0,0,0,0,0,0,0,0,0,0,0
2015,7,14,1,0,,26.2,18.8,64,100160,0,0,381,0,0,0,0,0,0,0,160,0.9,0,0,0,0,0,0,0,0,0,0,0,0,0
2015,7,14,2,0,,25.7,18.6,65,100170,0,0,379,0,0,0,0,0,0,0,180,0.8,0,0,0,0,0,0,0,0,0,0,0,0,0
2015,7,14,3,0,,25.3,19.4,70,100150,0,0,377,0,0,0,0,0,0,0,160,1.6,0,0,0,0,0,0,0,0,0,0,0,0,0
2015,7,14,4,0,,24.7,19,71,100160,0,0,374,0,0,0,0,0,0,0,180,1.5,0,0,0,0,0,0,0,0,0,0,0,0,0
2015,7,14,5,0,,24.8,18.7,69,100150,0,0,374,0,0,0,0,0,0,0,140,1.8,0,0,0,0,0,0,0,0,0,0,0,0,0
2015,7,14,6,0,,24.5,18.8,71,100160,0,0,373,19,9,10,1831,755,1531,0,180,1.2,0,0,0,0,0,0,0,0,0,0,0,0,0
2015,7,14,7,0,,25.5,19.1,68,100210,0,0,378,135,530,43,38766,55416,6394,0,110,1.3,0,0,0,0,0,0,0,0,0,0,0,0,0
2015,7,14,8,0,,26.1,20.6,72,100280,0,0,383,297,527,99,55160,55119,14083,0,340,0.9,0,0,0,0,0,0,0,0,0,0,0,0,0
2015,7,14,9,0,,26.1,21.9,78,100330,0,0,384,463,531,163,69160,51937,24003,0,20,3.6,0,0,0,0,0,0,0,0,0,0,0,0,0
2015,7,14,10,0,,26.3,22.1,78,100370,0,0,386,581,439,261,73563,38554,37002,0,50,3.2,0,0,0,0,0,0,0,0,0,0,0,0,0
2015,7,14,11,0,,27.2,22.1,74,100370,0,0,390,711,458,318,82785,40127,43606,0,20,3.8,0,0,0,0,0,0,0,0,0,0,0,0,0
2015,7,14,12,0,,28.2,22.4,71,100370,0,0,396,801,473,355,87145,41109,48017,0,20,2.9,0,0,0,0,0,0,0,0,0,0,0,0,0
2015,7,14,13,0,,27.7,22.1,72,100320,0,0,393,819,336,490,86252,27805,61888,0,20,3.7,0,0,0,0,0,0,0,0,0,0,0,0,0
2015,7,14,14,0,,28.6,22.5,70,100280,0,0,422,691,214,485,71748,17769,58336,0,20,3.2,5,0,0,0,0,0,0,0,0,0,0,0,0
2015,7,14,15,0,,28.5,22,68,100240,0,0,414,685,276,439,65808,22462,52426,0,20,2.5,3,0,0,0,0,0,0,0,0,0,0,0,0
2015,7,14,16,0,,29.2,21.9,65,100190,0,0,401,650,508,257,48909,37297,33618,0,360,1.9,0,0,0,0,0,0,0,0,0,0,0,0,0
2015,7,14,17,0,,28.2,21.9,69,100180,0,0,395,494,475,200,30552,23657,25582,0,20,2.6,0,0,0,0,0,0,0,0,0,0,0,0,0
2015,7,14,18,0,,28.1,21.8,69,100180,0,0,402,346,516,121,13501,0,13501,0,20,2,1,0,0,0,0,0,0,0,0,0,0,0,0
2015,7,14,19,0,,27.7,22.1,72,100190,0,0,404,172,437,68,0,0,0,0,20,2.5,2,0,0,0,0,0,0,0,0,0,0,0,0
2015,7,14,20,0,,25.6,22.6,84,100230,0,0,397,39,21,18,0,0,0,0,360,1.8,2,0,0,0,0,0,0,0,0,0,0,0,0
2015,7,14,21,0,,25.8,22.2,81,100270,0,0,400,0,0,0,0,0,0,0,0,0.3,3,0,0,0,0,0,0,0,0,0,0,0,0
2015,7,14,22,0,,25.3,22.1,83,100330,0,0,397,0,0,0,0,0,0,0,290,0.7,3,0,0,0,0,0,0,0,0,0,0,0,0
2015,7,14,23,0,,25.5,22.3,83,100370,0,0,398,0,0,0,0,0,0,0,0,0.2,3,0,0,0,0,0,0,0,0,0,0,0,0
2015,7,14,24,0,,25.5,22.1,82,100380,0,0,398,0,0,0,0,0,0,0,320,0.8,3,0,0,0,0,0,0,0,0,0,0,0,0
2015,7,15,1,0,,25,22.2,85,100360,0,0,398,0,0,0,0,0,0,0,270,1.2,4,0,0,0,0,0,0,0,0,0,0,0,0
2015,7,15,2,0,,25.2,22.2,84,100320,0,0,401,0,0,0,0,0,0,0,230,0.5,4,0,0,0,0,0,0,0,0,0,0,0,0
2015,7,15,3,0,,25.4,21.8,81,100310,0,0,403,0,0,0,0,0,0,0,0,0.2,5,0,0,0,0,0,0,0,0,0,0,0,0
2015,7,15,4,0,,25.2,21,78,100300,0,0,401,0,0,0,0,0,0,0,180,1.5,5,0,0,0,0,0,0,0,0,0,0,0,0
2015,7,15,5,0,,24.1,22.1,89,100350,0,0,400,0,0,0,0,0,0,0,0,0.4,6,0,0,0,0,0,0,0,0,0,0,0,0
2015,7,15,6,0,,23.2,22.1,94,100380,0,0,396,11,2,9,1206,124,1156,0,290,0.6,6,0,0,0,0,0,0,0,0,0,0,0,0
2015,7,15,7,0,,23.1,22,94,100360,0,0,395,88,183,56,19034,15722,9870,0,340,1,6,0,0,0,0,0,0,0,0,0,0,0,0
2015,7,15,8,0,,25.4,22.2,83,100350,0,0,404,250,333,125,43666,32563,19433,0,90,1,5,0,0,0,0,0,0,0,0,0,0,0,0
2015,7,15,9,0,,25.7,22.5,83,100310,0,0,410,361,227,233,48425,18900,32009,0,50,2.1,6,0,0,0,0,0,0,0,0,0,0,0,0
2015,7,15,10,0,,26.2,22.8,82,100280,0,0,403,588,459,253,74297,39971,36421,0,50,4.2,3,0,0,0,0,0,0,0,0,0,0,0,0
2015,7,15,11,0,,27.1,22.7,77,100310,0,0,398,722,484,306,83700,42112,42607,0,50,4.4,1,0,0,0,0,0,0,0,0,0,0,0,0
2015,7,15,12,0,,27.2,22.5,76,100290,0,0,408,768,316,470,84738,26080,59928,0,50,5,3,0,0,0,0,0,0,0,0,0,0,0,0
2015,7,15,13,0,,27.2,22.1,74,100260,0,0,414,718,225,498,76584,19023,59925,0,20,5.1,5,0,0,0,0,0,0,0,0,0,0,0,0
2015,7,15,14,0,,26.6,22.6,79,100230,0,0,411,665,192,480,69838,15959,57801,0,50,5.9,5,0,0,0,0,0,0,0,0,0,0,0,0
2015,7,15,15,0,,27.3,22,73,100170,0,0,411,673,263,439,65200,21397,52467,0,50,5.3,4,0,0,0,0,0,0,0,0,0,0,0,0
2015,7,15,16,0,,27.8,22.5,73,100180,0,0,411,616,423,288,50056,30536,37563,0,20,4.9,3,0,0,0,0,0,0,0,0,0,0,0,0
2015,7,15,17,0,,26.6,22.4,78,100180,0,0,414,401,219,265,33350,16593,29882,0,50,5.3,6,0,0,0,0,0,0,0,0,0,0,0,0
2015,7,15,18,0,,25.8,22.4,82,100240,0,0,396,309,369,149,15885,0,15885,0,340,1.8,2,0,0,0,0,0,0,0,0,0,0,0,0
2015,7,15,19,0,,24,22.2,90,100250,0,0,400,115,146,80,0,0,0,0,340,1.5,6,0,0,0,0,0,0,0,0,0,0,0,0
2015,7,15,20,0,,22.9,22,95,100300,0,0,425,4,0,4,0,0,0,0,20,1.8,10,0,0,0,0,0,0,0,0,0,0,0,0
2015,7,15,21,0,,22.6,21.7,95,100380,0,0,423,0,0,0,0,0,0,0,20,2.6,10,0,0,0,0,0,0,0,0,0,0,0,0
2015,7,15,22,0,,24.4,22.4,89,100400,0,0,402,0,0,0,0,0,0,0,90,1.7,6,0,0,0,0,0,0,0,0,0,0,0,0
2015,7,15,23,0,,24.4,21.7,85,100370,0,0,396,0,0,0,0,0,0,0,90,2.6,5,0,0,0,0,0,0,0,0,0,0,0,0
2015,7,15,24,0,,24.2,20.3,79,100350,0,0,389,0,0,0,0,0,0,0,110,4.1,3,0,0,0,0,0,0,0,0,0,0,0,0
2015,7,16,1,0,,24,19.5,76,100320,0,0,387,0,0,0,0,0,0,0,90,2.8,3,0,0,0,0,0,0,0,0,0,0,0,0
2015,7,16,2,0,,23.2,19.5,80,100290,0,0,383,0,0,0,0,0,0,0,110,4.6,3,0,0,0,0,0,0,0,0,0,0,0,0
2015,7,16,3,0,,22.9,19.2,80,100280,0,0,381,0,0,0,0,0,0,0,110,4.8,3,0,0,0,0,0,0,0,0,0,0,0,0
2015,7,16,4,0,,22.5,19.2,82,100260,0,0,379,0,0,0,0,0,0,0,110,4.7,3,0,0,0,0,0,0,0,0,0,0,0,0
2015,7,16,5,0,,22.3,19.2,83,100260,0,0,362,0,0,0,0,0,0,0,110,4,0,0,0,0,0,0,0,0,0,0,0,0,0
2015,7,16,6,0,,22.2,18.9,82,100250,0,0,377,17,7,10,1742,569,1518,0,110,3.1,3,0,0,0,0,0,0,0,0,0,0,0,0
2015,7,16,7,0,,22.9,18.8,78,100290,0,0,380,123,439,48,34094,45732,7499,0,110,3.7,3,0,0,0,0,0,0,0,0,0,0,0,0
2015,7,16,8,0,,23.8,19.3,76,100320,0,0,386,294,525,99,54640,54778,13934,0,110,4.1,3,0,0,0,0,0,0,0,0,0,0,0,0
2015,7,16,9,0,,24.3,18.9,72,100300,0,0,408,299,132,225,39942,11782,29718,0,110,2.8,8,0,0,0,0,0,0,0,0,0,0,0,0
2015,7,16,10,0,,25.3,18.7,67,100300,0,0,423,353,87,290,43036,7904,35552,0,50,3.8,9,0,0,0,0,0,0,0,0,0,0,0,0
2015,7,16,11,0,,26,19.1,66,100290,0,0,412,543,161,404,62679,14502,48537,0,70,3.1,7,0,0,0,0,0,0,0,0,0,0,0,0
2015,7,16,12,0,,26,19.1,66,100280,0,0,412,597,152,454,66933,13588,54013,0,50,4.3,7,0,0,0,0,0,0,0,0,0,0,0,0
2015,7,16,13,0,,26.8,18.9,62,100210,0,0,411,687,198,493,73534,17628,58106,0,50,5.2,6,0,0,0,0,0,0,0,0,0,0,0,0
2015,7,16,14,0,,27.9,19.1,59,100150,0,0,411,776,306,483,76945,26767,56774,0,50,4.4,4,0,0,0,0,0,0,0,0,0,0,0,0
2015,7,16,15,0,,27.4,18.9,60,100140,0,0,408,706,305,434,66351,26080,50851,0,50,4.7,4,0,0,0,0,0,0,0,0,0,0,0,0
2015,7,16,16,0,,27.9,18.8,58,100130,0,0,410,613,418,290,49445,32526,36168,0,50,4.3,4,0,0,0,0,0,0,0,0,0,0,0,0
2015,7,16,17,0,,28.1,18.7,57,100100,0,0,408,503,506,190,29318,27504,23601,0,90,3.6,3,0,0,0,0,0,0,0,0,0,0,0,0
2015,7,16,18,0,,28.3,18.6,56,100080,0,0,409,351,540,116,12393,0,12393,0,90,2.4,3,0,0,0,0,0,0,0,0,0,0,0,0
2015,7,16,19,0,,25.1,19.9,73,100120,0,0,397,154,319,79,0,0,0,0,20,3.6,4,0,0,0,0,0,0,0,0,0,0,0,0
2015,7,16,20,0,,23.6,21.3,87,100210,0,0,395,24,5,19,0,0,0,0,360,1.1,6,0,0,0,0,0,0,0,0,0,0,0,0
2015,7,16,21,0,,23.5,21.7,90,100250,0,0,401,0,0,0,0,0,0,0,270,2.5,7,0,0,0,0,0,0,0,0,0,0,0,0
2015,7,16,22,0,,23.3,21.9,92,100280,0,0,395,0,0,0,0,0,0,0,320,1.7,6,0,0,0,0,0,0,0,0,0,0,0,0
2015,7,16,23,0,,23.6,21.8,90,100280,0,0,392,0,0,0,0,0,0,0,270,1.1,4,0,0,0,0,0,0,0,0,0,0,0,0
2015,7,16,24,0,,23.7,21.5,88,100240,0,0,388,0,0,0,0,0,0,0,270,1.5,3,0,0,0,0,0,0,0,0,0,0,0,0
2015,7,17,1,0,,22.9,21.5,92,100200,0,0,387,0,0,0,0,0,0,0,290,1.5,4,0,0,0,0,0,0,0,0,0,0,0,0
2015,7,17,2,0,,22.9,21.5,92,100170,0,0,390,0,0,0,0,0,0,0,270,1.8,5,0,0,0,0,0,0,0,0,0,0,0,0
2015,7,17,3,0,,23.1,21.1,89,100140,0,0,394,0,0,0,0,0,0,0,0,0.3,6,0,0,0,0,0,0,0,0,0,0,0,0
2015,7,17,4,0,,22.3,21.2,94,100150,0,0,394,0,0,0,0,0,0,0,270,0.7,7,0,0,0,0,0,0,0,0,0,0,0,0
2015,7,17,5,0,,22.2,21,93,100250,0,0,389,0,0,0,0,0,0,0,250,2.3,6,0,0,0,0,0,0,0,0,0,0,0,0
2015,7,17,6,0,,21.9,21,95,100280,0,0,362,15,5,10,1462,410,1301,0,250,1.5,0,0,0,0,0,0,0,0,0,0,0,0,0
2015,7,17,7,0,,22.2,21,93,100270,0,0,380,114,367,52,30441,38358,8184,0,230,2.2,3,0,0,0,0,0,0,0,0,0,0,0,0
2015,7,17,8,0,,24.8,19.8,74,100290,0,0,388,305,582,89,58019,60998,12758,0,270,2.6,2,0,0,0,0,0,0,0,0,0,0,0,0
2015,7,17,9,0,,24.7,21.2,81,100320,0,0,393,436,457,180,64607,44670,25886,0,340,1.7,3,0,0,0,0,0,0,0,0,0,0,0,0
2015,7,17,10,0,,23.6,21.4,88,100360,0,0,408,341,79,284,41982,6947,35409,0,360,2.2,8,0,0,0,0,0,0,0,0,0,0,0,0
2015,7,17,11,0,,25.2,21.9,82,100360,0,0,399,607,223,416,71543,18719,53300,0,360,2.4,4,0,0,0,0,0,0,0,0,0,0,0,0
2015,7,17,12,0,,25,21.5,81,100350,0,0,401,636,182,465,70980,15659,56102,0,360,2.7,5,0,0,0,0,0,0,0,0,0,0,0,0
2015,7,17,13,0,,26.2,21.8,77,100330,0,0,416,601,137,467,66546,11717,56299,0,360,2.8,7,0,0,0,0,0,0,0,0,0,0,0,0
2015,7,17,14,0,,26.2,21.1,74,100300,0,0,411,623,161,469,66251,13749,55899,0,360,2.6,6,0,0,0,0,0,0,0,0,0,0,0,0
2015,7,17,15,0,,25.8,19.4,68,100280,0,0,411,528,132,411,54103,12085,46930,0,20,3.1,7,0,0,0,0,0,0,0,0,0,0,0,0
2015,7,17,16,0,,26.1,20.6,72,100280,0,0,403,565,266,359,50568,20346,42284,0,360,2.5,4,0,0,0,0,0,0,0,0,0,0,0,0
2015,7,17,17,0,,25.7,20,71,100300,0,0,400,442,301,257,33058,16574,29633,0,360,2.4,4,0,0,0,0,0,0,0,0,0,0,0,0
2015,7,17,18,0,,25,20.6,77,100340,0,0,397,303,356,148,15544,0,15544,0,360,2.1,4,0,0,0,0,0,0,0,0,0,0,0,0
2015,7,17,19,0,,25,20.6,77,100370,0,0,398,157,343,77,0,0,0,0,20,2.1,4,0,0,0,0,0,0,0,0,0,0,0,0
2015,7,17,20,0,,24.6,20.5,78,100400,0,0,396,35,16,19,0,0,0,0,20,2.5,5,0,0,0,0,0,0,0,0,0,0,0,0
2015,7,17,21,0,,24.7,20.3,77,100460,0,0,398,0,0,0,0,0,0,0,50,1.5,5,0,0,0,0,0,0,0,0,0,0,0,0
2015,7,17,22,0,,24.4,20.3,78,100500,0,0,394,0,0,0,0,0,0,0,340,0.9,4,0,0,0,0,0,0,0,0,0,0,0,0
2015,7,17,23,0,,23.9,20.8,83,100540,0,0,390,0,0,0,0,0,0,0,270,1.8,4,0,0,0,0,0,0,0,0,0,0,0,0
2015,7,17,24,0,,23.5,20.6,84,100550,0,0,386,0,0,0,0,0,0,0,250,1,3,0,0,0,0,0,0,0,0,0,0,0,0
2015,7,18,1,0,,23.6,19.9,80,100540,0,0,385,0,0,0,0,0,0,0,200,1.6,3,0,0,0,0,0,0,0,0,0,0,0,0
2015,7,18,2,0,,23.5,20,81,100530,0,0,385,0,0,0,0,0,0,0,200,1.4,3,0,0,0,0,0,0,0,0,0,0,0,0
2015,7,18,3,0,,23.6,19.7,79,100500,0,0,385,0,0,0,0,0,0,0,180,0.8,3,0,0,0,0,0,0,0,0,0,0,0,0
2015,7,18,4,0,,23.1,19.8,82,100530,0,0,367,0,0,0,0,0,0,0,0,0.4,0,0,0,0,0,0,0,0,0,0,0,0,0
2015,7,18,5,0,,22.9,18.8,78,100550,0,0,380,0,0,0,0,0,0,0,200,0.5,3,0,0,0,0,0,0,0,0,0,0,0,0
2015,7,18,6,0,,23,19.3,80,100600,0,0,391,11,2,9,1167,145,1110,0,230,0.7,6,0,0,0,0,0,0,0,0,0,0,0,0
2015,7,18,7,0,,23.3,20.2,83,100650,0,0,394,93,241,53,22985,23627,9308,0,320,0.9,6,0,0,0,0,0,0,0,0,0,0,0,0
2015,7,18,8,0,,23.9,20.6,82,100650,0,0,402,201,175,136,30396,15115,19197,0,20,1.4,7,0,0,0,0,0,0,0,0,0,0,0,0
2015,7,18,9,0,,25.7,20.2,72,100640,0,0,411,342,198,231,45856,17275,30898,0,20,2.3,7,0,0,0,0,0,0,0,0,0,0,0,0
2015,7,18,10,0,,27.1,19.9,65,100620,0,0,419,486,215,330,60121,18806,42342,0,20,4.2,7,0,0,0,0,0,0,0,0,0,0,0,0
2015,7,18,11,0,,28.3,19.2,58,100650,0,0,420,646,270,415,74720,23758,51582,0,70,3.6,6,0,0,0,0,0,0,0,0,0,0,0,0
2015,7,18,12,0,,27.9,19.9,62,100650,0,0,408,800,477,351,86787,42801,46145,0,50,5.3,3,0,0,0,0,0,0,0,0,0,0,0,0
2015,7,18,13,0,,27.6,19.9,63,100620,0,0,403,816,335,489,85368,28982,60039,0,70,4.7,2,0,0,0,0,0,0,0,0,0,0,0,0
2015,7,18,14,0,,28.2,19.4,59,100610,0,0,406,803,446,376,76249,38672,47161,0,70,4.9,2,0,0,0,0,0,0,0,0,0,0,0,0
2015,7,18,15,0,,29,19.8,58,100600,0,0,405,767,519,306,64903,43547,39096,0,50,4.4,1,0,0,0,0,0,0,0,0,0,0,0,0
2015,7,18,16,0,,27.6,19.9,63,100580,0,0,397,645,501,258,48514,38335,32946,0,50,4.7,1,0,0,0,0,0,0,0,0,0,0,0,0
2015,7,18,17,0,,27.2,18.7,60,100570,0,0,399,499,498,192,29236,26872,23718,0,70,4.7,2,0,0,0,0,0,0,0,0,0,0,0,0
2015,7,18,18,0,,24.9,19.2,71,100640,0,0,382,323,434,135,14145,0,14145,0,50,5.6,1,0,0,0,0,0,0,0,0,0,0,0,0
2015,7,18,19,0,,24.9,17.8,65,100640,0,0,383,173,471,64,0,0,0,0,70,3.8,1,0,0,0,0,0,0,0,0,0,0,0,0
2015,7,18,20,0,,23.9,18.5,72,100680,0,0,380,40,17,23,0,0,0,0,70,3.5,2,0,0,0,0,0,0,0,0,0,0,0,0
2015,7,18,21,0,,23.1,18.6,76,100700,0,0,378,0,0,0,0,0,0,0,90,4,2,0,0,0,0,0,0,0,0,0,0,0,0
2015,7,18,22,0,,22.9,18.4,76,100700,0,0,378,0,0,0,0,0,0,0,70,4.5,2,0,0,0,0,0,0,0,0,0,0,0,0
2015,7,18,23,0,,22.8,18.7,78,100680,0,0,379,0,0,0,0,0,0,0,90,2.8,3,0,0,0,0,0,0,0,0,0,0,0,0
2015,7,18,24,0,,23,18.9,78,100650,0,0,381,0,0,0,0,0,0,0,180,0.7,3,0,0,0,0,0,0,0,0,0,0,0,0
2015,7,19,1,0,,22.8,19.1,80,100620,0,0,381,0,0,0,0,0,0,0,110,2.4,3,0,0,0,0,0,0,0,0,0,0,0,0
2015,7,19,2,0,,23.5,19.4,78,100600,0,0,386,0,0,0,0,0,0,0,90,1.5,4,0,0,0,0,0,0,0,0,0,0,0,0
2015,7,19,3,0,,23.3,19.8,81,100600,0,0,387,0,0,0,0,0,0,0,110,1.5,4,0,0,0,0,0,0,0,0,0,0,0,0
2015,7,19,4,0,,23.6,20.1,81,100630,0,0,389,0,0,0,0,0,0,0,250,1,4,0,0,0,0,0,0,0,0,0,0,0,0
2015,7,19,5,0,,23.9,20.4,81,100610,0,0,397,0,0,0,0,0,0,0,110,1.6,6,0,0,0,0,0,0,0,0,0,0,0,0
2015,7,19,6,0,,24.3,21.4,84,100630,0,0,412,8,1,7,975,19,968,0,70,4.7,8,0,0,0,0,0,0,0,0,0,0,0,0
2015,7,19,7,0,,24.6,21.9,85,100620,0,0,403,98,296,49,25547,28969,8817,0,70,3.4,6,0,0,0,0,0,0,0,0,0,0,0,0
2015,7,19,8,0,,25.2,22.2,84,100660,0,0,406,234,289,128,38945,25285,20241,0,70,4.6,6,0,0,0,0,0,0,0,0,0,0,0,0
2015,7,19,9,0,,25.7,22.5,83,100680,0,0,414,322,168,229,43497,13941,31438,0,50,4.3,7,0,0,0,0,0,0,0,0,0,0,0,0
2015,7,19,10,0,,24.4,21.8,86,100710,0,0,413,354,88,290,43455,7691,36190,0,50,4.9,8,0,0,0,0,0,0,0,0,0,0,0,0
2015,7,19,11,0,,25.5,21.9,81,100720,0,0,408,566,183,409,65316,15798,49941,0,50,5.6,6,0,0,0,0,0,0,0,0,0,0,0,0
2015,7,19,12,0,,27.5,22.6,75,100720,0,0,413,736,279,473,82177,23000,60353,0,50,3.8,4,0,0,0,0,0,0,0,0,0,0,0,0
2015,7,19,13,0,,26.1,21.9,78,100710,0,0,404,766,275,498,80164,23380,59748,0,50,6,4,0,0,0,0,0,0,0,0,0,0,0,0
2015,7,19,14,0,,28.5,22.7,71,100660,0,0,415,795,333,476,80866,26949,60617,0,50,4,3,0,0,0,0,0,0,0,0,0,0,0,0
2015,7,19,15,0,,28,22.6,73,100610,0,0,416,671,263,438,65030,21144,52520,0,50,5.2,4,0,0,0,0,0,0,0,0,0,0,0,0
2015,7,19,16,0,,28.3,22.7,72,100580,0,0,414,642,495,260,48711,35499,34336,0,50,5.5,3,0,0,0,0,0,0,0,0,0,0,0,0
2015,7,19,17,0,,29.4,23.5,71,100580,0,0,428,443,306,255,33289,15090,30212,0,50,3.8,5,0,0,0,0,0,0,0,0,0,0,0,0
2015,7,19,18,0,,26.8,23.2,81,100590,0,0,421,231,154,164,17534,11057,17508,0,70,3.7,7,0,0,0,0,0,0,0,0,0,0,0,0
2015,7,19,19,0,,25.3,22.5,85,100650,0,0,412,111,140,78,0,0,0,0,70,3.8,7,0,0,0,0,0,0,0,0,0,0,0,0
2015,7,19,20,0,,24.8,23,90,100670,0,0,410,22,4,18,0,0,0,0,70,3.6,7,0,0,0,0,0,0,0,0,0,0,0,0
2015,7,19,21,0,,24.6,23,91,100700,0,0,436,0,0,0,0,0,0,0,50,2.8,10,0,0,0,0,0,0,0,0,0,0,0,0
2015,7,19,22,0,,23.8,22.4,92,100720,0,0,431,0,0,0,0,0,0,0,50,3.3,10,0,0,0,0,0,0,0,0,0,0,0,0
2015,7,19,23,0,,23.9,22.5,92,100700,0,0,432,0,0,0,0,0,0,0,50,3.7,10,0,0,0,0,0,0,0,0,0,0,0,0
2015,7,19,24,0,,24.6,23,91,100670,0,0,436,0,0,0,0,0,0,0,70,2.8,10,0,0,0,0,0,0,0,0,0,0,0,0
2015,7,20,1,0,,23.9,22.3,91,100650,0,0,431,0,0,0,0,0,0,0,70,3.2,10,0,0,0,0,0,0,0,0,0,0,0,0
2015,7,20,2,0,,23.6,22.3,93,100630,0,0,430,0,0,0,0,0,0,0,50,2.1,10,0,0,0,0,0,0,0,0,0,0,0,0
2015,7,20,3,0,,22.9,21.8,94,100630,0,0,425,0,0,0,0,0,0,0,50,3.1,10,0,0,0,0,0,0,0,0,0,0,0,0
2015,7,20,4,0,,23.7,22.6,94,100600,0,0,431,0,0,0,0,0,0,0,70,2.9,10,0,0,0,0,0,0,0,0,0,0,0,0
2015,7,20,5,0,,23.7,22.6,94,100540,0,0,419,0,0,0,0,0,0,0,70,3.6,9,0,0,0,0,0,0,0,0,0,0,0,0
2015,7,20,6,0,,23.6,22.2,92,100550,0,0,402,8,1,7,975,20,967,0,70,3.1,7,0,0,0,0,0,0,0,0,0,0,0,0
2015,7,20,7,0,,23.4,22.3,94,100590,0,0,417,52,48,44,9224,3855,7004,0,50,3.7,9,0,0,0,0,0,0,0,0,0,0,0,0
2015,7,20,8,0,,23.9,22.5,92,100600,0,0,420,134,57,113,18624,4877,15022,0,70,3.6,9,0,0,0,0,0,0,0,0,0,0,0,0
2015,7,20,9,0,,24.2,22.6,91,100610,0,0,422,222,59,189,28772,5083,24380,0,70,3.1,9,0,0,0,0,0,0,0,0,0,0,0,0
2015,7,20,10,0,,26.2,23,83,100580,0,0,413,482,213,328,60272,17471,43784,0,70,2.9,6,0,0,0,0,0,0,0,0,0,0,0,0
2015,7,20,11,0,,25.6,23,86,100570,0,0,410,559,178,407,64796,15062,50148,0,50,4.4,6,0,0,0,0,0,0,0,0,0,0,0,0
2015,7,20,12,0,,26,23,84,100580,0,0,423,498,94,410,55927,8170,48180,0,50,5,8,0,0,0,0,0,0,0,0,0,0,0,0
2015,7,20,13,0,,25.9,22.5,82,100570,0,0,422,489,79,412,54192,6947,48132,0,50,4.5,8,0,0,0,0,0,0,0,0,0,0,0,0
2015,7,20,14,0,,26.4,22.6,80,100560,0,0,414,632,169,471,67248,14018,56726,0,50,4.5,6,0,0,0,0,0,0,0,0,0,0,0,0
2015,7,20,15,0,,25.9,22.5,82,100520,0,0,411,577,170,426,57917,15062,49021,0,50,5.6,6,0,0,0,0,0,0,0,0,0,0,0,0
2015,7,20,16,0,,25.7,22.3,82,100500,0,0,414,428,121,335,42450,10339,38276,0,50,4.7,7,0,0,0,0,0,0,0,0,0,0,0,0
2015,7,20,17,0,,25.2,22.4,85,100480,0,0,427,219,41,194,20120,2888,19535,0,50,4.1,9,0,0,0,0,0,0,0,0,0,0,0,0
2015,7,20,18,0,,24.5,22.7,90,100490,0,0,435,102,15,95,8221,2779,8219,0,20,3.2,10,0,0,0,0,0,0,0,0,0,0,0,0
2015,7,20,19,0,,24.1,22.7,92,100500,0,0,433,47,13,44,0,0,0,0,50,2.8,10,0,0,0,0,0,0,0,0,0,0,0,0
2015,7,20,20,0,,23.6,22.7,95,100520,0,0,430,7,0,7,0,0,0,0,50,3.1,10,0,0,0,0,0,0,0,0,0,0,0,0
2015,7,20,21,0,,23.6,22.5,94,100540,0,0,418,0,0,0,0,0,0,0,20,2.4,9,0,0,0,0,0,0,0,0,0,0,0,0
2015,7,20,22,0,,23.2,22.3,95,100570,0,0,416,0,0,0,0,0,0,0,20,2.6,9,0,0,0,0,0,0,0,0,0,0,0,0
2015,7,20,23,0,,23.4,22.3,94,100590,0,0,417,0,0,0,0,0,0,0,360,1.3,9,0,0,0,0,0,0,0,0,0,0,0,0
2015,7,20,24,0,,23.5,22.4,94,100530,0,0,417,0,0,0,0,0,0,0,20,1,9,0,0,0,0,0,0,0,0,0,0,0,0
2015,7,21,1,0,,23.1,22.4,96,100530,0,0,415,0,0,0,0,0,0,0,320,0.6,9,0,0,0,0,0,0,0,0,0,0,0,0
2015,7,21,2,0,,23,22.3,96,100510,0,0,415,0,0,0,0,0,0,0,340,0.8,9,0,0,0,0,0,0,0,0,0,0,0,0
2015,7,21,3,0,,22.8,22.2,97,100500,0,0,425,0,0,0,0,0,0,0,270,0.6,10,0,0,0,0,0,0,0,0,0,0,0,0
2015,7,21,4,0,,22.9,22.3,97,100500,0,0,426,0,0,0,0,0,0,0,270,1.2,10,0,0,0,0,0,0,0,0,0,0,0,0
2015,7,21,5,0,,22.9,22.3,97,100520,0,0,399,0,0,0,0,0,0,0,270,0.8,7,0,0,0,0,0,0,0,0,0,0,0,0
2015,7,21,6,0,,23.2,22.5,96,100570,0,0,407,5,0,4,627,4,625,0,270,0.8,8,0,0,0,0,0,0,0,0,0,0,0,0
2015,7,21,7,0,,23.2,22.5,96,100590,0,0,416,51,47,44,9104,3801,6919,0,290,1.6,9,0,0,0,0,0,0,0,0,0,0,0,0
2015,7,21,8,0,,23.2,22.5,96,100590,0,0,428,90,19,83,11314,1571,10156,0,340,1.2,10,0,0,0,0,0,0,0,0,0,0,0,0
2015,7,21,9,0,,23.6,22.7,95,100530,0,0,430,144,18,134,17529,1506,16229,0,20,2.6,10,0,0,0,0,0,0,0,0,0,0,0,0
2015,7,21,10,0,,24.3,22.7,91,100550,0,0,434,207,20,192,24724,1730,23092,0,20,1.9,10,0,0,0,0,0,0,0,0,0,0,0,0
2015,7,21,11,0,,24.8,22.8,89,100530,0,0,437,264,23,245,31145,1961,29240,0,20,2.4,10,0,0,0,0,0,0,0,0,0,0,0,0
2015,7,21,12,0,,26.4,23,82,100490,0,0,414,649,194,467,72344,16312,56889,0,20,3.6,6,0,0,0,0,0,0,0,0,0,0,0,0
2015,7,21,13,0,,27.2,22.8,77,100440,0,0,411,766,277,497,80192,23127,60032,0,20,3.5,4,0,0,0,0,0,0,0,0,0,0,0,0
2015,7,21,14,0,,26.7,23.1,81,100450,0,0,427,494,86,411,53537,7561,47869,0,360,3,8,0,0,0,0,0,0,0,0,0,0,0,0
2015,7,21,15,0,,25.1,22.9,88,100460,0,0,427,302,29,276,32010,2137,30751,0,360,2.1,9,0,0,0,0,0,0,0,0,0,0,0,0
2015,7,21,16,0,,26,23.2,85,100410,0,0,412,454,143,344,44250,12102,39380,0,20,2.4,6,0,0,0,0,0,0,0,0,0,0,0,0
2015,7,21,17,0,,25.5,22.9,86,100380,0,0,402,423,267,259,33170,13254,30508,0,20,2.9,4,0,0,0,0,0,0,0,0,0,0,0,0
2015,7,21,18,0,,24.9,23.3,91,100360,0,0,439,115,22,105,0,0,0,0,20,3.1,10,0,0,0,0,0,0,0,0,0,0,0,0
2015,7,21,19,0,,24.3,23.2,94,100370,0,0,435,47,12,44,0,0,0,0,20,1.7,10,0,0,0,0,0,0,0,0,0,0,0,0
2015,7,21,20,0,,23.9,23.2,96,100390,0,0,433,5,0,5,0,0,0,0,290,0.5,10,0,0,0,0,0,0,0,0,0,0,0,0
2015,7,21,21,0,,24.4,23.5,95,100420,0,0,436,0,0,0,0,0,0,0,290,1.1,10,0,0,0,0,0,0,0,0,0,0,0,0
2015,7,21,22,0,,24.7,23.4,93,100440,0,0,438,0,0,0,0,0,0,0,0,0.3,10,0,0,0,0,0,0,0,0,0,0,0,0
2015,7,21,23,0,,23.9,23,95,100450,0,0,432,0,0,0,0,0,0,0,0,0.3,10,0,0,0,0,0,0,0,0,0,0,0,0
2015,7,21,24,0,,23.8,23.1,96,100420,0,0,432,0,0,0,0,0,0,0,0,0.3,10,0,0,0,0,0,0,0,0,0,0,0,0
2015,7,22,1,0,,24.5,23.2,93,100440,0,0,436,0,0,0,0,0,0,0,320,0.8,10,0,0,0,0,0,0,0,0,0,0,0,0
2015,7,22,2,0,,25,23.6,92,100430,0,0,440,0,0,0,0,0,0,0,270,0.6,10,0,0,0,0,0,0,0,0,0,0,0,0
2015,7,22,3,0,,24.7,23.3,92,100380,0,0,437,0,0,0,0,0,0,0,0,0.3,10,0,0,0,0,0,0,0,0,0,0,0,0
2015,7,22,4,0,,25.6,23.8,90,100360,0,0,443,0,0,0,0,0,0,0,140,1.1,10,0,0,0,0,0,0,0,0,0,0,0,0
2015,7,22,5,0,,24.8,23.5,93,100350,0,0,438,0,0,0,0,0,0,0,290,0.5,10,0,0,0,0,0,0,0,0,0,0,0,0
2015,7,22,6,0,,24.6,23.3,93,100370,0,0,437,0,0,0,0,0,0,0,0,0.2,10,0,0,0,0,0,0,0,0,0,0,0,0
2015,7,22,7,0,,24.4,23.1,93,100400,0,0,435,31,11,29,4155,928,3623,0,340,0.9,10,0,0,0,0,0,0,0,0,0,0,0,0
2015,7,22,8,0,,24.2,23.3,95,100450,0,0,435,85,16,79,10695,1346,9704,0,20,0.9,10,0,0,0,0,0,0,0,0,0,0,0,0
2015,7,22,9,0,,24.8,24.1,96,100460,0,0,439,140,17,130,17092,1368,15912,0,360,0.9,10,0,0,0,0,0,0,0,0,0,0,0,0
2015,7,22,10,0,,26.4,24.4,89,100440,0,0,449,226,26,207,27030,2185,24972,0,20,2.2,10,0,0,0,0,0,0,0,0,0,0,0,0
2015,7,22,11,0,,25.8,23.6,88,100450,0,0,444,249,20,233,29511,1649,27910,0,20,2.4,10,0,0,0,0,0,0,0,0,0,0,0,0
2015,7,22,12,0,,27.9,24.5,82,100410,0,0,446,410,56,358,46901,4722,42430,0,20,2.4,9,0,0,0,0,0,0,0,0,0,0,0,0
2015,7,22,13,0,,27,24.4,86,100390,0,0,431,461,68,395,51554,5789,46513,0,20,1.6,8,0,0,0,0,0,0,0,0,0,0,0,0
2015,7,22,14,0,,26.3,25,93,100420,0,0,449,255,14,242,28726,858,28083,0,320,1.7,10,0,0,0,0,0,0,0,0,0,0,0,0
2015,7,22,15,0,,27,25,89,100360,0,0,453,236,15,223,25704,916,25166,0,290,1.9,10,0,0,0,0,0,0,0,0,0,0,0,0
2015,7,22,16,0,,27.5,24.9,86,100380,0,0,456,240,25,221,24371,1655,23708,0,200,4.2,10,0,0,0,0,0,0,0,0,0,0,0,0
2015,7,22,17,0,,26.8,24.8,89,100360,0,0,452,189,28,172,17713,1567,17401,0,250,5.5,10,0,0,0,0,0,0,0,0,0,0,0,0
2015,7,22,18,0,,28,24.6,82,100370,0,0,459,134,34,119,0,0,0,0,230,5.1,10,0,0,0,0,0,0,0,0,0,0,0,0
2015,7,22,19,0,,27.9,24.7,83,100380,0,0,446,83,66,68,0,0,0,0,230,3.7,9,0,0,0,0,0,0,0,0,0,0,0,0
2015,7,22,20,0,,26.3,24.8,92,100450,0,0,449,8,0,7,0,0,0,0,90,1.3,10,0,0,0,0,0,0,0,0,0,0,0,0
2015,7,22,21,0,,26.9,24.9,89,100520,0,0,453,0,0,0,0,0,0,0,180,2.6,10,0,0,0,0,0,0,0,0,0,0,0,0
2015,7,22,22,0,,26.7,24.9,90,100600,0,0,451,0,0,0,0,0,0,0,200,1.7,10,0,0,0,0,0,0,0,0,0,0,0,0
2015,7,22,23,0,,27.5,24.5,84,100600,0,0,456,0,0,0,0,0,0,0,200,7.4,10,0,0,0,0,0,0,0,0,0,0,0,0
2015,7,22,24,0,,27.9,24.3,81,100600,0,0,445,0,0,0,0,0,0,0,230,5.4,9,0,0,0,0,0,0,0,0,0,0,0,0
2015,7,23,1,0,,28.2,23.9,78,100580,0,0,452,0,0,0,0,0,0,0,230,5.8,10,0,0,0,0,0,0,0,0,0,0,0,0
2015,7,23,2,0,,28.5,23.8,76,100580,0,0,461,0,0,0,0,0,0,0,230,5.7,10,0,0,0,0,0,0,0,0,0,0,0,0
2015,7,23,3,0,,28.5,23.8,76,100560,0,0,461,0,0,0,0,0,0,0,230,5.4,10,0,0,0,0,0,0,0,0,0,0,0,0
2015,7,23,4,0,,28.5,23.4,74,100570,0,0,460,0,0,0,0,0,0,0,230,4.7,10,0,0,0,0,0,0,0,0,0,0,0,0
2015,7,23,5,0,,28.6,23.9,76,100580,0,0,462,0,0,0,0,0,0,0,230,5.3,10,0,0,0,0,0,0,0,0,0,0,0,0
2015,7,23,6,0,,29,22.9,70,100560,0,0,463,1,0,1,170,0,170,0,230,5.2,10,0,0,0,0,0,0,0,0,0,0,0,0
2015,7,23,7,0,,29.1,23.2,71,100620,0,0,451,60,81,48,11247,6459,7553,0,200,4,9,0,0,0,0,0,0,0,0,0,0,0,0
2015,7,23,8,0,,29.3,23.4,71,100660,0,0,465,125,50,108,17519,4202,14431,0,200,5.4,10,0,0,0,0,0,0,0,0,0,0,0,0
2015,7,23,9,0,,29.9,23.3,68,100660,0,0,439,341,205,228,46057,16729,31654,0,230,4.4,7,0,0,0,0,0,0,0,0,0,0,0,0
2015,7,23,10,0,,30.8,23.4,65,100650,0,0,452,402,129,309,49211,10864,38985,0,230,5,8,0,0,0,0,0,0,0,0,0,0,0,0
2015,7,23,11,0,,32.2,23.1,59,100630,0,0,460,509,139,391,59759,11665,48443,0,200,5.4,8,0,0,0,0,0,0,0,0,0,0,0,0
2015,7,23,12,0,,32.5,23.4,59,100600,0,0,450,700,243,472,76832,20139,57784,0,200,5.5,6,0,0,0,0,0,0,0,0,0,0,0,0
2015,7,23,13,0,,32.2,23.9,62,100570,0,0,449,668,186,487,72745,15171,59548,0,340,2.7,6,0,0,0,0,0,0,0,0,0,0,0,0
2015,7,23,14,0,,30.4,24,69,100540,0,0,450,462,73,393,50626,6258,45948,0,50,3.7,8,0,0,0,0,0,0,0,0,0,0,0,0
2015,7,23,15,0,,31.8,24.3,65,100510,0,0,452,531,136,410,54427,11697,47559,0,200,6,7,0,0,0,0,0,0,0,0,0,0,0,0
2015,7,23,16,0,,32.5,23.1,58,100500,0,0,455,487,176,352,46251,14889,40303,0,200,5,7,0,0,0,0,0,0,0,0,0,0,0,0
2015,7,23,17,0,,31.7,22.9,60,100470,0,0,457,354,159,257,31268,11681,28961,0,230,6.7,8,0,0,0,0,0,0,0,0,0,0,0,0
2015,7,23,18,0,,31.8,22.5,58,100500,0,0,444,291,331,149,0,0,0,0,200,5.6,6,0,0,0,0,0,0,0,0,0,0,0,0
2015,7,23,19,0,,30.7,22.5,62,100550,0,0,441,125,219,75,0,0,0,0,200,5.6,7,0,0,0,0,0,0,0,0,0,0,0,0
2015,7,23,20,0,,30.4,22.8,64,100520,0,0,444,28,9,19,0,0,0,0,200,5,7,0,0,0,0,0,0,0,0,0,0,0,0
2015,7,23,21,0,,30.1,23,66,100580,0,0,447,0,0,0,0,0,0,0,230,5.2,8,0,0,0,0,0,0,0,0,0,0,0,0
2015,7,23,22,0,,29.8,23.4,69,100610,0,0,468,0,0,0,0,0,0,0,200,5.6,10,0,0,0,0,0,0,0,0,0,0,0,0
2015,7,23,23,0,,29.5,23.4,70,100600,0,0,454,0,0,0,0,0,0,0,200,7.2,9,0,0,0,0,0,0,0,0,0,0,0,0
2015,7,23,24,0,,29.8,23.2,68,100550,0,0,455,0,0,0,0,0,0,0,200,5.6,9,0,0,0,0,0,0,0,0,0,0,0,0
2015,7,24,1,0,,29,23.8,74,100500,0,0,464,0,0,0,0,0,0,0,200,6.1,10,0,0,0,0,0,0,0,0,0,0,0,0
2015,7,24,2,0,,28.8,24.1,76,100480,0,0,463,0,0,0,0,0,0,0,200,5.1,10,0,0,0,0,0,0,0,0,0,0,0,0
2015,7,24,3,0,,28.3,24.3,79,100470,0,0,460,0,0,0,0,0,0,0,200,6.4,10,0,0,0,0,0,0,0,0,0,0,0,0
2015,7,24,4,0,,28.2,24.4,80,100460,0,0,460,0,0,0,0,0,0,0,200,7.6,10,0,0,0,0,0,0,0,0,0,0,0,0
2015,7,24,5,0,,28.6,23.9,76,100400,0,0,439,0,0,0,0,0,0,0,200,7.2,8,0,0,0,0,0,0,0,0,0,0,0,0
2015,7,24,6,0,,28.7,23.3,73,100410,0,0,420,12,4,8,1137,303,1021,0,230,6.6,4,0,0,0,0,0,0,0,0,0,0,0,0
2015,7,24,7,0,,29.2,23.1,70,100420,0,0,423,117,501,40,36332,53200,5986,0,200,6.6,4,0,0,0,0,0,0,0,0,0,0,0,0
2015,7,24,8,0,,29,23.8,74,100470,0,0,430,237,330,119,42381,32019,18886,0,230,6,6,0,0,0,0,0,0,0,0,0,0,0,0
2015,7,24,9,0,,30.2,24.1,70,100460,0,0,430,436,484,169,65495,46797,25251,0,200,6.8,4,0,0,0,0,0,0,0,0,0,0,0,0
2015,7,24,10,0,,30.9,23.7,66,100450,0,0,433,591,493,236,77281,47292,32813,0,230,7,4,0,0,0,0,0,0,0,0,0,0,0,0
2015,7,24,11,0,,30.9,23.2,64,100490,0,0,440,637,266,411,74771,21619,53816,0,230,7.8,6,0,0,0,0,0,0,0,0,0,0,0,0
2015,7,24,12,0,,31.9,23.9,63,100480,0,0,447,679,224,470,75115,18366,57760,0,200,7.1,6,0,0,0,0,0,0,0,0,0,0,0,0
2015,7,24,13,0,,31.4,23.7,64,100490,0,0,456,535,102,436,58784,8835,51108,0,230,4.9,8,0,0,0,0,0,0,0,0,0,0,0,0
2015,7,24,14,0,,31,23.8,66,100450,0,0,454,521,101,425,56108,8749,49577,0,230,6.3,8,0,0,0,0,0,0,0,0,0,0,0,0
2015,7,24,15,0,,30.7,24.1,68,100420,0,0,452,455,90,376,48161,7708,43646,0,200,5.9,8,0,0,0,0,0,0,0,0,0,0,0,0
2015,7,24,16,0,,30.6,24.2,69,100380,0,0,452,397,100,320,40184,8273,36892,0,230,6,8,0,0,0,0,0,0,0,0,0,0,0,0
2015,7,24,17,0,,30.5,23.4,66,100390,0,0,450,324,125,248,29813,9054,28041,0,230,6,8,0,0,0,0,0,0,0,0,0,0,0,0
2015,7,24,18,0,,30.3,23.2,66,100400,0,0,442,258,227,161,0,0,0,0,250,5.5,7,0,0,0,0,0,0,0,0,0,0,0,0
2015,7,24,19,0,,30.1,23.5,68,100420,0,0,439,126,232,74,0,0,0,0,250,4.8,7,0,0,0,0,0,0,0,0,0,0,0,0
2015,7,24,20,0,,30.1,22.7,65,100370,0,0,436,31,13,18,0,0,0,0,250,3.7,6,0,0,0,0,0,0,0,0,0,0,0,0
2015,7,24,21,0,,28.7,23.3,73,100460,0,0,427,0,0,0,0,0,0,0,90,1.8,6,0,0,0,0,0,0,0,0,0,0,0,0
2015,7,24,22,0,,28.1,23.2,75,100480,0,0,424,0,0,0,0,0,0,0,20,3.6,6,0,0,0,0,0,0,0,0,0,0,0,0
2015,7,24,23,0,,27.7,23.5,78,100500,0,0,422,0,0,0,0,0,0,0,90,2.6,6,0,0,0,0,0,0,0,0,0,0,0,0
2015,7,24,24,0,,27.2,23.2,79,100530,0,0,419,0,0,0,0,0,0,0,360,2.9,6,0,0,0,0,0,0,0,0,0,0,0,0
2015,7,25,1,0,,27.9,23.2,76,100490,0,0,423,0,0,0,0,0,0,0,110,2.7,6,0,0,0,0,0,0,0,0,0,0,0,0
2015,7,25,2,0,,27.2,23.4,80,100470,0,0,419,0,0,0,0,0,0,0,20,4.1,6,0,0,0,0,0,0,0,0,0,0,0,0
2015,7,25,3,0,,27.7,22.8,75,100440,0,0,421,0,0,0,0,0,0,0,20,1.6,6,0,0,0,0,0,0,0,0,0,0,0,0
2015,7,25,4,0,,27.2,23.4,80,100450,0,0,415,0,0,0,0,0,0,0,200,1.3,5,0,0,0,0,0,0,0,0,0,0,0,0
2015,7,25,5,0,,27,23.4,81,100430,0,0,418,0,0,0,0,0,0,0,70,2.2,6,0,0,0,0,0,0,0,0,0,0,0,0
2015,7,25,6,0,,27,23.6,82,100480,0,0,430,3,0,3,450,2,449,0,70,2.1,8,0,0,0,0,0,0,0,0,0,0,0,0
2015,7,25,7,0,,27.6,23.4,78,100510,0,0,433,67,118,49,14453,9958,8788,0,20,1.7,8,0,0,0,0,0,0,0,0,0,0,0,0
2015,7,25,8,0,,29,23.4,72,100520,0,0,429,228,297,123,38441,25497,19762,0,50,2,6,0,0,0,0,0,0,0,0,0,0,0,0
2015,7,25,9,0,,29.2,23.1,70,100520,0,0,423,441,505,163,66522,49134,24321,0,20,5,4,0,0,0,0,0,0,0,0,0,0,0,0
2015,7,25,10,0,,29.7,22.9,67,100530,0,0,422,595,507,231,77874,48869,31969,0,50,5.3,3,0,0,0,0,0,0,0,0,0,0,0,0
2015,7,25,11,0,,30.2,22.8,65,100490,0,0,425,693,440,320,81203,38068,44339,0,20,4.8,3,0,0,0,0,0,0,0,0,0,0,0,0
2015,7,25,12,0,,31,22.3,60,100500,0,0,429,804,498,338,87028,43304,46148,0,20,6.4,3,0,0,0,0,0,0,0,0,0,0,0,0
2015,7,25,13,0,,31.4,20.9,54,100470,0,0,429,854,529,341,86057,46578,45630,0,20,6.4,3,0,0,0,0,0,0,0,0,0,0,0,0
2015,7,25,14,0,,33.7,20.4,46,100450,0,0,442,865,591,302,79543,51872,40883,0,50,4.1,3,0,0,0,0,0,0,0,0,0,0,0,0
2015,7,25,15,0,,32.5,19.7,47,100430,0,0,434,779,561,284,66247,48460,37926,0,360,6.4,3,0,0,0,0,0,0,0,0,0,0,0,0
2015,7,25,16,0,,33,19.8,46,100390,0,0,419,681,609,215,48299,48325,29147,0,50,5,0,0,0,0,0,0,0,0,0,0,0,0,0
2015,7,25,17,0,,31,21.7,58,100390,0,0,410,479,457,200,29580,21146,25483,0,360,4.2,0,0,0,0,0,0,0,0,0,0,0,0,0
2015,7,25,18,0,,30.8,22.4,61,100430,0,0,410,325,473,125,0,0,0,0,320,2.8,0,0,0,0,0,0,0,0,0,0,0,0,0
2015,7,25,19,0,,29,21.9,66,100460,0,0,400,154,389,68,0,0,0,0,20,1.7,0,0,0,0,0,0,0,0,0,0,0,0,0
2015,7,25,20,0,,27.7,23,76,100500,0,0,394,35,20,15,0,0,0,0,20,2.6,0,0,0,0,0,0,0,0,0,0,0,0,0
2015,7,25,21,0,,26.8,23.6,83,100530,0,0,390,0,0,0,0,0,0,0,20,1.6,0,0,0,0,0,0,0,0,0,0,0,0,0
2015,7,25,22,0,,26.6,23.6,84,100590,0,0,389,0,0,0,0,0,0,0,290,1.8,0,0,0,0,0,0,0,0,0,0,0,0,0
2015,7,25,23,0,,27.6,22.3,73,100570,0,0,393,0,0,0,0,0,0,0,270,2.5,0,0,0,0,0,0,0,0,0,0,0,0,0
2015,7,25,24,0,,27.7,22.1,72,100560,0,0,393,0,0,0,0,0,0,0,230,3.2,0,0,0,0,0,0,0,0,0,0,0,0,0
2015,7,26,1,0,,27.1,21.8,73,100520,0,0,390,0,0,0,0,0,0,0,230,1.1,0,0,0,0,0,0,0,0,0,0,0,0,0
2015,7,26,2,0,,26.1,22.5,81,100500,0,0,385,0,0,0,0,0,0,0,250,2.1,0,0,0,0,0,0,0,0,0,0,0,0,0
2015,7,26,3,0,,26.1,21.7,77,100520,0,0,384,0,0,0,0,0,0,0,200,1.3,0,0,0,0,0,0,0,0,0,0,0,0,0
2015,7,26,4,0,,25.9,21.1,75,100500,0,0,383,0,0,0,0,0,0,0,180,1.3,0,0,0,0,0,0,0,0,0,0,0,0,0
2015,7,26,5,0,,25.8,21.2,76,100530,0,0,399,0,0,0,0,0,0,0,200,1.2,3,0,0,0,0,0,0,0,0,0,0,0,0
2015,7,26,6,0,,26,20.9,74,100560,0,0,403,9,2,7,933,149,877,0,160,1.1,4,0,0,0,0,0,0,0,0,0,0,0,0
2015,7,26,7,0,,26.4,21.6,75,100540,0,0,412,86,266,46,23063,25952,8336,0,0,0.1,6,0,0,0,0,0,0,0,0,0,0,0,0
2015,7,26,8,0,,27.8,22.5,73,100560,0,0,421,232,318,119,41419,31066,18700,0,320,1.9,6,0,0,0,0,0,0,0,0,0,0,0,0
2015,7,26,9,0,,28,23.1,75,100560,0,0,423,355,240,224,47949,19704,31047,0,20,2.7,6,0,0,0,0,0,0,0,0,0,0,0,0
2015,7,26,10,0,,28.3,24.3,79,100560,0,0,423,512,266,322,63677,21193,43790,0,50,4.2,5,0,0,0,0,0,0,0,0,0,0,0,0
2015,7,26,11,0,,28,24,79,100560,0,0,421,590,214,409,70614,17092,54078,0,50,5.2,5,0,0,0,0,0,0,0,0,0,0,0,0
2015,7,26,12,0,,28,23.7,78,100540,0,0,417,701,248,470,79670,19862,60939,0,50,6.2,4,0,0,0,0,0,0,0,0,0,0,0,0
2015,7,26,13,0,,28.5,23.4,74,100500,0,0,426,637,165,477,69939,13630,58123,0,50,5.6,6,0,0,0,0,0,0,0,0,0,0,0,0
2015,7,26,14,0,,29,23.2,71,100490,0,0,429,646,182,472,68258,14920,57156,0,50,5.4,6,0,0,0,0,0,0,0,0,0,0,0,0
2015,7,26,15,0,,29.4,23.1,69,100470,0,0,424,699,306,428,65859,24327,51677,0,50,5,4,0,0,0,0,0,0,0,0,0,0,0,0
2015,7,26,16,0,,28.8,23,71,100510,0,0,421,588,316,346,50551,22783,41561,0,20,4.9,4,0,0,0,0,0,0,0,0,0,0,0,0
2015,7,26,17,0,,29.1,22.8,69,100510,0,0,422,453,384,220,29761,18824,26152,0,20,3.9,4,0,0,0,0,0,0,0,0,0,0,0,0
2015,7,26,18,0,,28.7,23.3,73,100520,0,0,424,280,303,152,0,0,0,0,360,2.4,5,0,0,0,0,0,0,0,0,0,0,0,0
2015,7,26,19,0,,27.5,23,77,100540,0,0,411,153,387,68,0,0,0,0,340,1.3,3,0,0,0,0,0,0,0,0,0,0,0,0
2015,7,26,20,0,,28,22.2,71,100600,0,0,406,36,16,20,0,0,0,0,270,2.3,2,0,0,0,0,0,0,0,0,0,0,0,0
2015,7,26,21,0,,27.6,22.7,75,100650,0,0,393,0,0,0,0,0,0,0,250,2.8,0,0,0,0,0,0,0,0,0,0,0,0,0
2015,7,26,22,0,,27.5,23.3,78,100640,0,0,401,0,0,0,0,0,0,0,270,0.9,1,0,0,0,0,0,0,0,0,0,0,0,0
2015,7,26,23,0,,26.3,23.9,87,100650,0,0,401,0,0,0,0,0,0,0,340,1,2,0,0,0,0,0,0,0,0,0,0,0,0
2015,7,26,24,0,,26.5,23.1,82,100660,0,0,405,0,0,0,0,0,0,0,90,1.4,3,0,0,0,0,0,0,0,0,0,0,0,0
2015,7,27,1,0,,26.3,22.5,80,100660,0,0,405,0,0,0,0,0,0,0,20,1.5,4,0,0,0,0,0,0,0,0,0,0,0,0
2015,7,27,2,0,,26.6,23,81,100630,0,0,409,0,0,0,0,0,0,0,70,1.1,4,0,0,0,0,0,0,0,0,0,0,0,0
2015,7,27,3,0,,26.4,21.6,75,100570,0,0,409,0,0,0,0,0,0,0,20,1,5,0,0,0,0,0,0,0,0,0,0,0,0
2015,7,27,4,0,,26.3,21.7,76,100620,0,0,408,0,0,0,0,0,0,0,320,0.6,5,0,0,0,0,0,0,0,0,0,0,0,0
2015,7,27,5,0,,25.9,21.7,78,100610,0,0,403,0,0,0,0,0,0,0,200,0.6,4,0,0,0,0,0,0,0,0,0,0,0,0
2015,7,27,6,0,,26.1,22.3,80,100660,0,0,423,2,0,2,256,0,256,0,320,0.7,8,0,0,0,0,0,0,0,0,0,0,0,0
2015,7,27,7,0,,26.7,22.3,77,100680,0,0,408,99,52,47,9747,4230,7353,0,320,0.8,4,0,0,0,0,0,0,0,0,0,0,0,0
2015,7,27,8,0,,28.1,22.3,71,100690,0,0,416,267,472,101,50089,46269,16310,0,20,2.2,4,0,0,0,0,0,0,0,0,0,0,0,0
2015,7,27,9,0,,29.3,23.4,71,100740,0,0,427,405,395,189,57879,34006,28745,0,20,2,5,0,0,0,0,0,0,0,0,0,0,0,0
2015,7,27,10,0,,29,23.8,74,100750,0,0,426,513,270,320,63710,21727,43345,0,20,2,5,0,0,0,0,0,0,0,0,0,0,0,0
2015,7,27,11,0,,29.4,24.2,74,100780,0,0,438,496,132,385,58578,10879,48064,0,20,2.6,7,0,0,0,0,0,0,0,0,0,0,0,0
2015,7,27,12,0,,28.5,24.2,78,100780,0,0,432,493,93,406,55354,7964,47851,0,20,2.3,7,0,0,0,0,0,0,0,0,0,0,0,0
2015,7,27,13,0,,28.4,23.9,77,100710,0,0,426,597,139,463,66596,11358,56763,0,20,2.6,6,0,0,0,0,0,0,0,0,0,0,0,0
2015,7,27,14,0,,29.6,25.1,77,100670,0,0,440,538,111,432,57614,9455,50592,0,20,2.9,7,0,0,0,0,0,0,0,0,0,0,0,0
2015,7,27,15,0,,30.2,25.2,75,100640,0,0,451,450,88,372,47725,7432,43404,0,20,1.9,8,0,0,0,0,0,0,0,0,0,0,0,0
2015,7,27,16,0,,30.3,25.8,77,100620,0,0,452,424,122,331,42182,9868,38306,0,270,5.1,8,0,0,0,0,0,0,0,0,0,0,0,0
2015,7,27,17,0,,29.5,25.8,81,100620,0,0,447,299,102,237,28403,7013,27073,0,270,4.6,8,0,0,0,0,0,0,0,0,0,0,0,0
2015,7,27,18,0,,28.8,25.8,84,100640,0,0,443,181,85,146,0,0,0,0,250,2,8,0,0,0,0,0,0,0,0,0,0,0,0
2015,7,27,19,0,,28,26.3,91,100660,0,0,432,95,110,71,0,0,0,0,270,1.4,7,0,0,0,0,0,0,0,0,0,0,0,0
2015,7,27,20,0,,27.5,25.8,91,100670,0,0,440,11,1,10,0,0,0,0,290,1.2,9,0,0,0,0,0,0,0,0,0,0,0,0
2015,7,27,21,0,,26.9,25.6,93,100700,0,0,454,0,0,0,0,0,0,0,50,1.5,10,0,0,0,0,0,0,0,0,0,0,0,0
2015,7,27,22,0,,27,25.7,93,100720,0,0,454,0,0,0,0,0,0,0,50,1.6,10,0,0,0,0,0,0,0,0,0,0,0,0
2015,7,27,23,0,,26.6,25.7,95,100720,0,0,452,0,0,0,0,0,0,0,20,0.8,10,0,0,0,0,0,0,0,0,0,0,0,0
2015,7,27,24,0,,26.3,25.6,96,100720,0,0,450,0,0,0,0,0,0,0,20,1.7,10,0,0,0,0,0,0,0,0,0,0,0,0
2015,7,28,1,0,,26.7,25.8,95,100670,0,0,431,0,0,0,0,0,0,0,140,1.8,8,0,0,0,0,0,0,0,0,0,0,0,0
2015,7,28,2,0,,26.8,25.7,94,100650,0,0,431,0,0,0,0,0,0,0,70,1.3,8,0,0,0,0,0,0,0,0,0,0,0,0
2015,7,28,3,0,,26.2,25.3,95,100680,0,0,428,0,0,0,0,0,0,0,290,0.6,8,0,0,0,0,0,0,0,0,0,0,0,0
2015,7,28,4,0,,26.1,25.2,95,100680,0,0,448,0,0,0,0,0,0,0,340,1.1,10,0,0,0,0,0,0,0,0,0,0,0,0
2015,7,28,5,0,,26.1,25.5,97,100680,0,0,449,0,0,0,0,0,0,0,340,0.7,10,0,0,0,0,0,0,0,0,0,0,0,0
2015,7,28,6,0,,26.2,25.3,95,100700,0,0,449,0,0,0,0,0,0,0,20,1.6,10,0,0,0,0,0,0,0,0,0,0,0,0
2015,7,28,7,0,,26.4,25.1,93,100720,0,0,450,32,2,29,3863,77,3819,0,320,0.8,10,0,0,0,0,0,0,0,0,0,0,0,0
2015,7,28,8,0,,26.5,25,92,100740,0,0,422,180,151,127,27628,11726,19083,0,360,1.4,7,0,0,0,0,0,0,0,0,0,0,0,0
2015,7,28,9,0,,27.6,25.4,88,100740,0,0,414,405,400,187,60463,38240,27746,0,20,1.4,3,0,0,0,0,0,0,0,0,0,0,0,0
2015,7,28,10,0,,27.2,24.4,85,100740,0,0,420,437,169,317,55834,13413,43275,0,340,2.2,6,0,0,0,0,0,0,0,0,0,0,0,0
2015,7,28,11,0,,28.1,24.7,82,100720,0,0,419,626,258,408,74092,20224,54567,0,320,1.9,4,0,0,0,0,0,0,0,0,0,0,0,0
2015,7,28,12,0,,28.8,25.2,81,100780,0,0,430,599,159,450,68090,12745,56097,0,320,2.9,6,0,0,0,0,0,0,0,0,0,0,0,0
2015,7,28,13,0,,29.4,25.1,78,100780,0,0,434,649,175,480,71295,13909,59270,0,340,3,6,0,0,0,0,0,0,0,0,0,0,0,0
2015,7,28,14,0,,29.9,25.2,76,100720,0,0,437,635,175,468,67897,13727,57720,0,340,3.3,6,0,0,0,0,0,0,0,0,0,0,0,0
2015,7,28,15,0,,29.2,24.9,78,100670,0,0,432,563,164,419,56752,14019,48624,0,340,2.9,6,0,0,0,0,0,0,0,0,0,0,0,0
2015,7,28,16,0,,30,25.2,76,100650,0,0,433,529,230,354,49280,15656,43160,0,320,2.6,5,0,0,0,0,0,0,0,0,0,0,0,0
2015,7,28,17,0,,30.4,25.4,75,100630,0,0,429,459,409,212,31019,15385,28135,0,320,2.3,3,0,0,0,0,0,0,0,0,0,0,0,0
2015,7,28,18,0,,28.6,25.8,85,100630,0,0,420,291,346,146,0,0,0,0,320,2.3,3,0,0,0,0,0,0,0,0,0,0,0,0
2015,7,28,19,0,,27.7,25.9,90,100670,0,0,415,143,335,71,0,0,0,0,340,3,3,0,0,0,0,0,0,0,0,0,0,0,0
2015,7,28,20,0,,27.6,25.8,90,100670,0,0,414,29,13,17,0,0,0,0,340,1.8,3,0,0,0,0,0,0,0,0,0,0,0,0
2015,7,28,21,0,,27.2,25.7,92,100690,0,0,412,0,0,0,0,0,0,0,340,2.5,3,0,0,0,0,0,0,0,0,0,0,0,0
2015,7,28,22,0,,27.2,25.5,91,100730,0,0,417,0,0,0,0,0,0,0,360,1.1,5,0,0,0,0,0,0,0,0,0,0,0,0
2015,7,28,23,0,,27,25.5,92,100720,0,0,422,0,0,0,0,0,0,0,320,1.1,6,0,0,0,0,0,0,0,0,0,0,0,0
2015,7,28,24,0,,26.9,25.6,93,100660,0,0,432,0,0,0,0,0,0,0,250,0.7,8,0,0,0,0,0,0,0,0,0,0,0,0
2015,7,29,1,0,,27,25.5,92,100620,0,0,430,0,0,0,0,0,0,0,0,0.4,8,0,0,0,0,0,0,0,0,0,0,0,0
2015,7,29,2,0,,27,25.3,91,100560,0,0,427,0,0,0,0,0,0,0,250,0.6,7,0,0,0,0,0,0,0,0,0,0,0,0
2015,7,29,3,0,,26.8,25,90,100540,0,0,424,0,0,0,0,0,0,0,250,0.7,7,0,0,0,0,0,0,0,0,0,0,0,0
2015,7,29,4,0,,26.1,25.2,95,100560,0,0,427,0,0,0,0,0,0,0,340,1.3,8,0,0,0,0,0,0,0,0,0,0,0,0
2015,7,29,5,0,,26.4,25.1,93,100570,0,0,417,0,0,0,0,0,0,0,70,1.6,6,0,0,0,0,0,0,0,0,0,0,0,0
2015,7,29,6,0,,26.7,25.1,91,100580,0,0,418,3,0,3,435,2,434,0,230,0.5,6,0,0,0,0,0,0,0,0,0,0,0,0
2015,7,29,7,0,,26.8,25,90,100620,0,0,419,77,32,45,7873,2551,6437,0,270,0.9,6,0,0,0,0,0,0,0,0,0,0,0,0
2015,7,29,8,0,,29.3,25,78,100670,0,0,423,274,521,92,53568,55127,13466,0,340,2.2,3,0,0,0,0,0,0,0,0,0,0,0,0
2015,7,29,9,0,,31.4,24.2,66,100680,0,0,434,469,619,133,73806,65178,18116,0,270,2.4,3,0,0,0,0,0,0,0,0,0,0,0,0
2015,7,29,10,0,,34.2,23.5,54,100680,0,0,445,703,809,128,98304,87351,16608,0,200,4.8,2,0,0,0,0,0,0,0,0,0,0,0,0
2015,7,29,11,0,,34.7,22.7,50,100700,0,0,441,806,715,202,95699,69422,28748,0,200,5.2,1,0,0,0,0,0,0,0,0,0,0,0,0
2015,7,29,12,0,,35.4,23.7,51,100680,0,0,446,874,661,258,94531,62991,35327,0,230,5,1,0,0,0,0,0,0,0,0,0,0,0,0
2015,7,29,13,0,,36,24.2,51,100640,0,0,450,863,556,326,86249,46528,46081,0,230,4.4,1,0,0,0,0,0,0,0,0,0,0,0,0
2015,7,29,14,0,,35.8,24.7,53,100620,0,0,456,817,496,346,78667,40678,48568,0,230,4.1,2,0,0,0,0,0,0,0,0,0,0,0,0
2015,7,29,15,0,,34.9,25.1,57,100590,0,0,451,734,468,323,64037,34244,44239,0,230,5,2,0,0,0,0,0,0,0,0,0,0,0,0
2015,7,29,16,0,,33.9,25.5,62,100570,0,0,445,593,332,340,50496,22284,41828,0,230,4.7,2,0,0,0,0,0,0,0,0,0,0,0,0
2015,7,29,17,0,,33.2,25.4,64,100530,0,0,435,482,485,190,28884,18035,25543,0,200,5.6,1,0,0,0,0,0,0,0,0,0,0,0,0
2015,7,29,18,0,,32.7,25.2,65,100550,0,0,432,310,436,129,0,0,0,0,290,1.5,1,0,0,0,0,0,0,0,0,0,0,0,0
2015,7,29,19,0,,29.4,25.3,79,100580,0,0,414,146,371,67,0,0,0,0,340,3.6,1,0,0,0,0,0,0,0,0,0,0,0,0
2015,7,29,20,0,,28.6,25.4,83,100600,0,0,410,29,12,16,0,0,0,0,320,1.4,1,0,0,0,0,0,0,0,0,0,0,0,0
2015,7,29,21,0,,28.1,25.3,85,100650,0,0,407,0,0,0,0,0,0,0,340,1.9,1,0,0,0,0,0,0,0,0,0,0,0,0
2015,7,29,22,0,,28,25.4,86,100680,0,0,404,0,0,0,0,0,0,0,340,1.7,1,0,0,0,0,0,0,0,0,0,0,0,0
2015,7,29,23,0,,28,25.4,86,100700,0,0,401,0,0,0,0,0,0,0,340,1.9,0,0,0,0,0,0,0,0,0,0,0,0,0
2015,7,29,24,0,,27.9,25.3,86,100680,0,0,398,0,0,0,0,0,0,0,50,1,0,0,0,0,0,0,0,0,0,0,0,0,0
2015,7,30,1,0,,27.5,25.7,90,100720,0,0,408,0,0,0,0,0,0,0,360,1.3,2,0,0,0,0,0,0,0,0,0,0,0,0
2015,7,30,2,0,,27.1,25.3,90,100720,0,0,412,0,0,0,0,0,0,0,20,1.3,3,0,0,0,0,0,0,0,0,0,0,0,0
2015,7,30,3,0,,27,25.2,90,100700,0,0,417,0,0,0,0,0,0,0,340,2.4,5,0,0,0,0,0,0,0,0,0,0,0,0
2015,7,30,4,0,,27,25.2,90,100690,0,0,417,0,0,0,0,0,0,0,50,1.4,5,0,0,0,0,0,0,0,0,0,0,0,0
2015,7,30,5,0,,27,25,89,100740,0,0,413,0,0,0,0,0,0,0,360,1.3,4,0,0,0,0,0,0,0,0,0,0,0,0
2015,7,30,6,0,,26.6,24.8,90,100740,0,0,411,0,0,0,0,0,0,0,70,1.6,4,0,0,0,0,0,0,0,0,0,0,0,0
2015,7,30,7,0,,26.6,24.4,88,100750,0,0,390,98,55,42,9258,4254,6870,0,90,1.8,0,0,0,0,0,0,0,0,0,0,0,0,0
2015,7,30,8,0,,28.4,24.6,80,100760,0,0,400,270,512,93,52814,54094,13536,0,340,2.3,0,0,0,0,0,0,0,0,0,0,0,0,0
2015,7,30,9,0,,28.5,24.7,80,100830,0,0,400,438,520,157,66766,50327,23823,0,340,3.3,0,0,0,0,0,0,0,0,0,0,0,0,0
2015,7,30,10,0,,29.2,24.7,77,100860,0,0,412,589,510,227,77654,48827,32042,0,320,2.1,1,0,0,0,0,0,0,0,0,0,0,0,0
2015,7,30,11,0,,29.3,25,78,100830,0,0,413,683,430,321,80470,35931,45857,0,340,3,1,0,0,0,0,0,0,0,0,0,0,0,0
2015,7,30,12,0,,29.2,25.3,80,100880,0,0,422,724,278,465,82021,21364,61966,0,320,2.9,3,0,0,0,0,0,0,0,0,0,0,0,0
2015,7,30,13,0,,29.6,25.3,78,100820,0,0,407,770,291,489,83915,22232,64751,0,340,3.5,0,0,0,0,0,0,0,0,0,0,0,0,0
2015,7,30,14,0,,30,25,75,100780,0,0,427,746,283,478,75127,22284,58672,0,340,4.3,3,0,0,0,0,0,0,0,0,0,0,0,0
2015,7,30,15,0,,29.4,25.1,78,100760,0,0,430,613,210,428,61712,15926,52532,0,340,4.4,5,0,0,0,0,0,0,0,0,0,0,0,0
2015,7,30,16,0,,29.3,24.8,77,100730,0,0,429,529,233,352,48945,15990,42759,0,340,4.4,5,0,0,0,0,0,0,0,0,0,0,0,0
2015,7,30,17,0,,29.5,25,77,100710,0,0,427,427,299,247,31913,12671,29595,0,340,3.1,4,0,0,0,0,0,0,0,0,0,0,0,0
2015,7,30,18,0,,29.7,24.7,75,100680,0,0,424,307,431,129,0,0,0,0,340,2.7,3,0,0,0,0,0,0,0,0,0,0,0,0
2015,7,30,19,0,,28.6,24.5,79,100680,0,0,418,148,399,64,0,0,0,0,340,3.2,3,0,0,0,0,0,0,0,0,0,0,0,0
2015,7,30,20,0,,28.4,24.6,80,100660,0,0,417,30,16,15,0,0,0,0,20,1.5,3,0,0,0,0,0,0,0,0,0,0,0,0
2015,7,30,21,0,,27.4,24.6,85,100690,0,0,412,0,0,0,0,0,0,0,340,2.7,3,0,0,0,0,0,0,0,0,0,0,0,0
2015,7,30,22,0,,27.4,24.8,86,100740,0,0,414,0,0,0,0,0,0,0,340,2.3,4,0,0,0,0,0,0,0,0,0,0,0,0
2015,7,30,23,0,,27.2,25.2,89,100780,0,0,416,0,0,0,0,0,0,0,50,0.9,4,0,0,0,0,0,0,0,0,0,0,0,0
2015,7,30,24,0,,27.3,24.9,87,100820,0,0,418,0,0,0,0,0,0,0,360,1,5,0,0,0,0,0,0,0,0,0,0,0,0
2015,7,31,1,0,,27.2,24.4,85,100790,0,0,414,0,0,0,0,0,0,0,70,2.2,4,0,0,0,0,0,0,0,0,0,0,0,0
2015,7,31,2,0,,26.8,24.8,89,100800,0,0,411,0,0,0,0,0,0,0,270,0.8,4,0,0,0,0,0,0,0,0,0,0,0,0
2015,7,31,3,0,,26.5,24.1,87,100790,0,0,406,0,0,0,0,0,0,0,140,0.5,3,0,0,0,0,0,0,0,0,0,0,0,0
2015,7,31,4,0,,26.4,21.6,75,100780,0,0,386,0,0,0,0,0,0,0,160,0.9,0,0,0,0,0,0,0,0,0,0,0,0,0
2015,7,31,5,0,,25.6,23.6,89,100830,0,0,384,0,0,0,0,0,0,0,230,1.2,0,0,0,0,0,0,0,0,0,0,0,0,0
2015,7,31,6,0,,25.6,24,91,100850,0,0,384,0,0,0,0,0,0,0,320,1.1,0,0,0,0,0,0,0,0,0,0,0,0,0
2015,7,31,7,0,,26.4,23.4,84,100820,0,0,388,99,59,40,9027,4636,6432,0,110,1.5,0,0,0,0,0,0,0,0,0,0,0,0,0
2015,7,31,8,0,,27.5,23.3,78,100850,0,0,393,280,569,84,55863,60104,12302,0,320,2.5,0,0,0,0,0,0,0,0,0,0,0,0,0
2015,7,31,9,0,,28.1,24.1,79,100880,0,0,398,443,544,150,67931,52815,22930,0,290,1.8,0,0,0,0,0,0,0,0,0,0,0,0,0
2015,7,31,10,0,,28.9,24.6,78,100850,0,0,402,580,490,233,76407,46828,32714,0,290,2.3,0,0,0,0,0,0,0,0,0,0,0,0,0
2015,7,31,11,0,,29.4,23.5,71,100810,0,0,412,695,461,307,81295,39523,43266,0,320,1.9,1,0,0,0,0,0,0,0,0,0,0,0,0
2015,7,31,12,0,,29.4,24.4,75,100800,0,0,422,736,294,463,82508,23133,60821,0,320,3.4,3,0,0,0,0,0,0,0,0,0,0,0,0
2015,7,31,13,0,,29.5,24.8,76,100800,0,0,419,763,284,489,83191,22020,64240,0,340,2.9,2,0,0,0,0,0,0,0,0,0,0,0,0
2015,7,31,14,0,,31.3,25.6,72,100760,0,0,430,774,320,471,76523,24758,58279,0,360,3,2,0,0,0,0,0,0,0,0,0,0,0,0
2015,7,31,15,0,,31.9,25.2,68,100720,0,0,438,730,464,323,63739,34092,44151,0,340,4.4,3,0,0,0,0,0,0,0,0,0,0,0,0
2015,7,31,16,0,,30.3,25.1,74,100680,0,0,428,615,459,267,47815,29973,36282,0,340,4.9,3,0,0,0,0,0,0,0,0,0,0,0,0
2015,7,31,17,0,,29,24.7,78,100700,0,0,421,433,316,243,31450,13449,29023,0,360,4.3,3,0,0,0,0,0,0,0,0,0,0,0,0
2015,7,31,18,0,,29.2,24.9,78,100730,0,0,422,291,367,140,0,0,0,0,360,2.9,3,0,0,0,0,0,0,0,0,0,0,0,0
2015,7,31,19,0,,28.8,24.7,79,100720,0,0,415,148,410,62,0,0,0,0,340,2.3,2,0,0,0,0,0,0,0,0,0,0,0,0
2015,7,31,20,0,,28,24.4,81,100730,0,0,405,31,18,13,0,0,0,0,340,2.5,1,0,0,0,0,0,0,0,0,0,0,0,0
2015,7,31,21,0,,27.4,25,87,100820,0,0,395,0,0,0,0,0,0,0,320,1.1,0,0,0,0,0,0,0,0,0,0,0,0,0
2015,7,31,22,0,,27.7,24.9,85,100800,0,0,412,0,0,0,0,0,0,0,0,0.3,3,0,0,0,0,0,0,0,0,0,0,0,0
2015,7,31,23,0,,27.1,25.1,89,100850,0,0,418,0,0,0,0,0,0,0,230,1.9,5,0,0,0,0,0,0,0,0,0,0,0,0
2015,7,31,24,0,,26.7,25.2,92,100880,0,0,430,0,0,0,0,0,0,0,320,2.4,8,0,0,0,0,0,0,0,0,0,0,0,0
1996,8,1,1,0,,27.8,24.2,85,100850,0,0,409,0,0,0,0,0,0,0,90,3,2,0,0,0,0,0,0,0,0,0,0,0,0
1996,8,1,2,0,,27.5,23.9,86,100850,0,0,407,0,0,0,0,0,0,0,90,2.7,2,0,0,0,0,0,0,0,0,0,0,0,0
1996,8,1,3,0,,25.7,23.5,88,100860,0,0,397,0,0,0,0,0,0,0,50,3.7,2,0,0,0,0,0,0,0,0,0,0,0,0
1996,8,1,4,0,,25.8,24,88,100850,0,0,398,0,0,0,0,0,0,0,70,2.7,2,0,0,0,0,0,0,0,0,0,0,0,0
1996,8,1,5,0,,27.3,24.4,87,100840,0,0,407,0,0,0,0,0,0,0,90,2.8,2,0,0,0,0,0,0,0,0,0,0,0,0
1996,8,1,6,0,,27.2,24.9,87,100830,0,0,407,0,0,0,0,0,0,0,110,2.7,2,0,0,0,0,0,0,0,0,0,0,0,0
1996,8,1,7,0,,27.4,23.9,77,100860,0,0,407,100,64,37,8782,4948,6023,0,110,2,2,0,0,0,0,0,0,0,0,0,0,0,0
1996,8,1,8,0,,30,22.9,67,100880,0,0,420,294,647,72,60416,69421,10245,0,140,5,2,0,0,0,0,0,0,0,0,0,0,0,0
1996,8,1,9,0,,31.5,21.9,57,100910,0,0,427,494,718,108,79872,76918,14478,0,140,5.3,2,0,0,0,0,0,0,0,0,0,0,0,0
1996,8,1,10,0,,32.9,22,55,100930,0,0,435,673,743,148,91900,77930,19329,0,140,5.5,2,0,0,0,0,0,0,0,0,0,0,0,0
1996,8,1,11,0,,33.6,22.1,52,100950,0,0,439,746,585,255,88404,56260,34375,0,140,2.8,2,0,0,0,0,0,0,0,0,0,0,0,0
1996,8,1,12,0,,33.9,22.2,50,100970,0,0,441,833,580,296,90276,55119,38714,0,110,5.5,2,0,0,0,0,0,0,0,0,0,0,0,0
1996,8,1,13,0,,34.1,21.9,49,100970,0,0,444,846,528,338,85282,45806,45965,0,140,5,2,0,0,0,0,0,0,0,0,0,0,0,0
1996,8,1,14,0,,34.4,21.6,49,100970,0,0,447,824,518,334,77836,44664,45047,0,140,6.3,3,0,0,0,0,0,0,0,0,0,0,0,0
1996,8,1,15,0,,33.8,21.3,48,100970,0,0,444,731,469,321,63211,37668,41688,0,140,5,3,0,0,0,0,0,0,0,0,0,0,0,0
1996,8,1,16,0,,33.5,21.6,50,100970,0,0,441,617,468,263,46934,33319,34236,0,160,4.5,3,0,0,0,0,0,0,0,0,0,0,0,0
1996,8,1,17,0,,33.1,22,53,100960,0,0,438,492,530,176,26530,22181,22619,0,160,4.5,2,0,0,0,0,0,0,0,0,0,0,0,0
1996,8,1,18,0,,32.3,22.3,55,100960,0,0,432,333,556,105,0,0,0,0,140,6.3,2,0,0,0,0,0,0,0,0,0,0,0,0
1996,8,1,19,0,,31.5,22.2,57,101000,0,0,426,158,508,53,0,0,0,0,140,4,2,0,0,0,0,0,0,0,0,0,0,0,0
1996,8,1,20,0,,30.4,22.1,60,101050,0,0,417,32,15,17,0,0,0,0,90,5.2,1,0,0,0,0,0,0,0,0,0,0,0,0
1996,8,1,21,0,,29.9,22,62,101090,0,0,412,0,0,0,0,0,0,0,110,3.3,1,0,0,0,0,0,0,0,0,0,0,0,0
1996,8,1,22,0,,29.6,22.5,65,101090,0,0,411,0,0,0,0,0,0,0,110,3.3,1,0,0,0,0,0,0,0,0,0,0,0,0
1996,8,1,23,0,,29,23.1,68,101100,0,0,409,0,0,0,0,0,0,0,160,3.3,1,0,0,0,0,0,0,0,0,0,0,0,0
1996,8,1,24,0,,29.3,23.6,71,101100,0,0,411,0,0,0,0,0,0,0,110,4.3,1,0,0,0,0,0,0,0,0,0,0,0,0
1996,8,2,1,0,,29,23.7,73,101080,0,0,410,0,0,0,0,0,0,0,110,3,1,0,0,0,0,0,0,0,0,0,0,0,0
1996,8,2,2,0,,28.8,23.9,74,101060,0,0,409,0,0,0,0,0,0,0,90,3.7,1,0,0,0,0,0,0,0,0,0,0,0,0
1996,8,2,3,0,,28.7,24,76,101040,0,0,408,0,0,0,0,0,0,0,140,1.3,1,0,0,0,0,0,0,0,0,0,0,0,0
1996,8,2,4,0,,28.8,23.4,74,101020,0,0,410,0,0,0,0,0,0,0,140,1.3,1,0,0,0,0,0,0,0,0,0,0,0,0
1996,8,2,5,0,,28.5,22.8,73,100990,0,0,410,0,0,0,0,0,0,0,0,0.2,2,0,0,0,0,0,0,0,0,0,0,0,0
1996,8,2,6,0,,27.9,22.2,71,100970,0,0,407,0,0,0,0,0,0,0,180,2,2,0,0,0,0,0,0,0,0,0,0,0,0
1996,8,2,7,0,,28.5,22.5,68,100970,0,0,411,99,63,36,8612,5084,5785,0,110,3.7,2,0,0,0,0,0,0,0,0,0,0,0,0
1996,8,2,8,0,,30.2,22.9,64,100970,0,0,421,278,577,82,55930,60909,11996,0,110,3,2,0,0,0,0,0,0,0,0,0,0,0,0
1996,8,2,9,0,,31.7,23.2,61,100970,0,0,430,470,642,126,74543,67645,17117,0,140,3.3,2,0,0,0,0,0,0,0,0,0,0,0,0
1996,8,2,10,0,,32.8,23.1,58,100980,0,0,439,624,616,190,83036,59758,27459,0,140,3.7,3,0,0,0,0,0,0,0,0,0,0,0,0
1996,8,2,11,0,,33.4,23,56,101000,0,0,445,726,541,272,86074,51670,36517,0,180,3.3,3,0,0,0,0,0,0,0,0,0,0,0,0
1996,8,2,12,0,,33.8,22.9,53,101010,0,0,450,758,327,455,83685,26484,58945,0,270,3,4,0,0,0,0,0,0,0,0,0,0,0,0
1996,8,2,13,0,,33.6,22.4,50,100980,0,0,448,745,267,489,78243,22250,59179,0,250,2,4,0,0,0,0,0,0,0,0,0,0,0,0
1996,8,2,14,0,,33.5,22,48,100940,0,0,447,717,254,477,72729,21089,57284,0,20,1,4,0,0,0,0,0,0,0,0,0,0,0,0
1996,8,2,15,0,,35,21.5,45,100910,0,0,455,716,438,334,63200,34860,43352,0,140,3.7,4,0,0,0,0,0,0,0,0,0,0,0,0
1996,8,2,16,0,,35.2,21.7,47,100900,0,0,454,644,543,234,45579,38471,31006,0,270,3.7,3,0,0,0,0,0,0,0,0,0,0,0,0
1996,8,2,17,0,,34,22,50,100890,0,0,445,495,543,171,25991,22351,22109,0,140,4.3,3,0,0,0,0,0,0,0,0,0,0,0,0
1996,8,2,18,0,,33.2,22.2,52,100880,0,0,437,326,535,108,0,0,0,0,140,4.3,2,0,0,0,0,0,0,0,0,0,0,0,0
1996,8,2,19,0,,33.2,22.7,57,100940,0,0,434,157,515,52,0,0,0,0,270,2.7,1,0,0,0,0,0,0,0,0,0,0,0,0
1996,8,2,20,0,,31.3,23.3,63,100990,0,0,419,29,16,13,0,0,0,0,230,1,1,0,0,0,0,0,0,0,0,0,0,0,0
1996,8,2,21,0,,30.3,23.8,68,101050,0,0,409,0,0,0,0,0,0,0,90,1.2,0,0,0,0,0,0,0,0,0,0,0,0,0
1996,8,2,22,0,,29.5,23.7,70,101060,0,0,405,0,0,0,0,0,0,0,160,2,0,0,0,0,0,0,0,0,0,0,0,0,0
1996,8,2,23,0,,28.7,23.5,73,101080,0,0,400,0,0,0,0,0,0,0,200,2,0,0,0,0,0,0,0,0,0,0,0,0,0
1996,8,2,24,0,,28.3,23.4,75,101090,0,0,398,0,0,0,0,0,0,0,200,1.7,0,0,0,0,0,0,0,0,0,0,0,0,0
1996,8,3,1,0,,28.2,23.4,76,101080,0,0,397,0,0,0,0,0,0,0,360,1,0,0,0,0,0,0,0,0,0,0,0,0,0
1996,8,3,2,0,,27.9,23.5,76,101080,0,0,396,0,0,0,0,0,0,0,180,2.2,0,0,0,0,0,0,0,0,0,0,0,0,0
1996,8,3,3,0,,27.9,23.5,77,101070,0,0,396,0,0,0,0,0,0,0,110,0.8,0,0,0,0,0,0,0,0,0,0,0,0,0
1996,8,3,4,0,,27.4,23.7,79,101060,0,0,399,0,0,0,0,0,0,0,180,1,1,0,0,0,0,0,0,0,0,0,0,0,0
1996,8,3,5,0,,27.4,23.9,81,101050,0,0,403,0,0,0,0,0,0,0,160,1,1,0,0,0,0,0,0,0,0,0,0,0,0
1996,8,3,6,0,,27.2,24.1,83,101040,0,0,406,0,0,0,0,0,0,0,200,1.8,2,0,0,0,0,0,0,0,0,0,0,0,0
1996,8,3,7,0,,27.4,24.2,80,101050,0,0,407,90,50,40,8688,3819,6570,0,0,0.2,2,0,0,0,0,0,0,0,0,0,0,0,0
1996,8,3,8,0,,28.5,24.4,76,101050,0,0,413,257,475,96,49194,46250,15899,0,20,1.2,2,0,0,0,0,0,0,0,0,0,0,0,0
1996,8,3,9,0,,29.9,24.5,73,101060,0,0,421,436,536,150,67076,51951,23040,0,20,1.3,2,0,0,0,0,0,0,0,0,0,0,0,0
1996,8,3,10,0,,30.7,25.1,72,101040,0,0,426,588,522,221,77796,49843,31502,0,340,2.3,2,0,0,0,0,0,0,0,0,0,0,0,0
1996,8,3,11,0,,32,25.7,70,101020,0,0,435,716,520,281,85233,48963,38335,0,20,1.5,2,0,0,0,0,0,0,0,0,0,0,0,0
1996,8,3,12,0,,32.8,26.3,69,101000,0,0,440,775,456,353,85328,37064,50757,0,360,2,2,0,0,0,0,0,0,0,0,0,0,0,0
1996,8,3,13,0,,32.3,26,69,100990,0,0,440,776,304,484,84367,22694,64959,0,340,3.7,3,0,0,0,0,0,0,0,0,0,0,0,0
1996,8,3,14,0,,32,25.6,68,100970,0,0,440,748,291,473,74972,22490,58542,0,340,4.5,3,0,0,0,0,0,0,0,0,0,0,0,0
1996,8,3,15,0,,31.9,25.3,68,100960,0,0,441,631,234,427,62411,17565,52448,0,360,3,4,0,0,0,0,0,0,0,0,0,0,0,0
1996,8,3,16,0,,31.4,25.7,71,100950,0,0,439,542,259,346,48918,17130,42471,0,20,2.7,4,0,0,0,0,0,0,0,0,0,0,0,0
1996,8,3,17,0,,31.2,26,74,100940,0,0,438,423,305,242,31138,11501,29171,0,20,3.5,4,0,0,0,0,0,0,0,0,0,0,0,0
1996,8,3,18,0,,30.9,26.4,77,100930,0,0,437,288,378,135,0,0,0,0,20,3.3,4,0,0,0,0,0,0,0,0,0,0,0,0
1996,8,3,19,0,,30,26.5,80,100970,0,0,431,132,323,67,0,0,0,0,20,3,4,0,0,0,0,0,0,0,0,0,0,0,0
1996,8,3,20,0,,29.1,26.5,83,101010,0,0,425,25,10,14,0,0,0,0,50,2.2,3,0,0,0,0,0,0,0,0,0,0,0,0
1996,8,3,21,0,,29.1,26.6,86,101050,0,0,424,0,0,0,0,0,0,0,110,1.7,3,0,0,0,0,0,0,0,0,0,0,0,0
1996,8,3,22,0,,29,26.3,85,101060,0,0,421,0,0,0,0,0,0,0,110,1.5,3,0,0,0,0,0,0,0,0,0,0,0,0
1996,8,3,23,0,,28.9,25.9,84,101080,0,0,419,0,0,0,0,0,0,0,110,1.7,2,0,0,0,0,0,0,0,0,0,0,0,0
1996,8,3,24,0,,28.7,25.6,83,101090,0,0,416,0,0,0,0,0,0,0,140,1.3,2,0,0,0,0,0,0,0,0,0,0,0,0
1996,8,4,1,0,,28.6,24.9,82,101050,0,0,411,0,0,0,0,0,0,0,110,1.3,1,0,0,0,0,0,0,0,0,0,0,0,0
1996,8,4,2,0,,28.3,24.3,80,101010,0,0,404,0,0,0,0,0,0,0,180,0.8,1,0,0,0,0,0,0,0,0,0,0,0,0
1996,8,4,3,0,,27.6,23.6,79,100970,0,0,394,0,0,0,0,0,0,0,180,1,0,0,0,0,0,0,0,0,0,0,0,0,0
1996,8,4,4,0,,27.3,23.4,80,100960,0,0,393,0,0,0,0,0,0,0,180,1,0,0,0,0,0,0,0,0,0,0,0,0,0
1996,8,4,5,0,,26.9,23.2,80,100950,0,0,390,0,0,0,0,0,0,0,180,1.5,0,0,0,0,0,0,0,0,0,0,0,0,0
1996,8,4,6,0,,26.6,23,81,100940,0,0,388,0,0,0,0,0,0,0,180,1.3,0,0,0,0,0,0,0,0,0,0,0,0,0
1996,8,4,7,0,,26.8,23.9,80,100950,0,0,398,90,51,39,8492,3929,6320,0,160,1,1,0,0,0,0,0,0,0,0,0,0,0,0
1996,8,4,8,0,,28.4,24.8,80,100970,0,0,413,259,495,92,51069,52293,13498,0,160,1,2,0,0,0,0,0,0,0,0,0,0,0,0
1996,8,4,9,0,,29.9,25.7,79,100980,0,0,427,428,513,155,65685,49373,23900,0,20,2.2,3,0,0,0,0,0,0,0,0,0,0,0,0
1996,8,4,10,0,,30.2,25.3,75,100980,0,0,428,568,472,237,74991,44848,33394,0,50,2.3,3,0,0,0,0,0,0,0,0,0,0,0,0
1996,8,4,11,0,,30.4,25,72,100970,0,0,429,678,433,316,79954,36243,45287,0,20,3.3,3,0,0,0,0,0,0,0,0,0,0,0,0
1996,8,4,12,0,,31.1,24.6,68,100970,0,0,432,743,310,457,82952,24241,60377,0,50,3.5,3,0,0,0,0,0,0,0,0,0,0,0,0
1996,8,4,13,0,,31.3,25,69,100930,0,0,434,755,281,486,79043,22349,59966,0,20,2.8,3,0,0,0,0,0,0,0,0,0,0,0,0
1996,8,4,14,0,,30.7,25.3,71,100880,0,0,431,710,250,475,72716,19489,58515,0,50,2.2,3,0,0,0,0,0,0,0,0,0,0,0,0
1996,8,4,15,0,,31.3,25.7,72,100840,0,0,435,656,266,425,63588,19745,52430,0,20,2,3,0,0,0,0,0,0,0,0,0,0,0,0
1996,8,4,16,0,,31.4,25.2,70,100820,0,0,433,581,328,335,49152,21999,40927,0,340,2.3,3,0,0,0,0,0,0,0,0,0,0,0,0
1996,8,4,17,0,,30.9,24.6,68,100790,0,0,429,473,488,184,27241,17092,24367,0,360,2.8,2,0,0,0,0,0,0,0,0,0,0,0,0
1996,8,4,18,0,,31.1,24.1,66,100770,0,0,427,313,495,114,0,0,0,0,360,2.3,2,0,0,0,0,0,0,0,0,0,0,0,0
1996,8,4,19,0,,30.5,24.6,71,100790,0,0,423,145,448,56,0,0,0,0,360,2.3,2,0,0,0,0,0,0,0,0,0,0,0,0
1996,8,4,20,0,,29.5,25.2,77,100800,0,0,416,27,14,13,0,0,0,0,340,1.5,1,0,0,0,0,0,0,0,0,0,0,0,0
1996,8,4,21,0,,29,25.7,82,100820,0,0,412,0,0,0,0,0,0,0,20,1.3,1,0,0,0,0,0,0,0,0,0,0,0,0
1996,8,4,22,0,,28.5,25,80,100800,0,0,414,0,0,0,0,0,0,0,200,1.3,2,0,0,0,0,0,0,0,0,0,0,0,0
1996,8,4,23,0,,28,24.2,79,100770,0,0,414,0,0,0,0,0,0,0,200,1.7,3,0,0,0,0,0,0,0,0,0,0,0,0
1996,8,4,24,0,,27.9,23.5,77,100750,0,0,416,0,0,0,0,0,0,0,230,0.5,4,0,0,0,0,0,0,0,0,0,0,0,0
1996,8,5,1,0,,27.4,23,77,100730,0,0,410,0,0,0,0,0,0,0,200,2,3,0,0,0,0,0,0,0,0,0,0,0,0
1996,8,5,2,0,,26.6,22.4,77,100710,0,0,401,0,0,0,0,0,0,0,180,2,2,0,0,0,0,0,0,0,0,0,0,0,0
1996,8,5,3,0,,26.2,21.9,77,100690,0,0,392,0,0,0,0,0,0,0,180,1.7,1,0,0,0,0,0,0,0,0,0,0,0,0
1996,8,5,4,0,,26,21.3,75,100680,0,0,388,0,0,0,0,0,0,0,180,1.5,1,0,0,0,0,0,0,0,0,0,0,0,0
1996,8,5,5,0,,26.1,20.8,72,100680,0,0,386,0,0,0,0,0,0,0,180,1.7,0,0,0,0,0,0,0,0,0,0,0,0,0
1996,8,5,6,0,,26.1,20.2,70,100670,0,0,382,0,0,0,0,0,0,0,180,1.3,0,0,0,0,0,0,0,0,0,0,0,0,0
1996,8,5,7,0,,26.2,22.1,75,100660,0,0,385,90,54,37,8259,4365,5853,0,180,1,0,0,0,0,0,0,0,0,0,0,0,0,0
1996,8,5,8,0,,27.9,23.9,79,100650,0,0,396,262,521,88,52333,55022,12881,0,50,1.7,0,0,0,0,0,0,0,0,0,0,0,0,0
1996,8,5,9,0,,28.8,25.8,84,100640,0,0,403,432,533,150,66609,51307,23254,0,20,2.7,0,0,0,0,0,0,0,0,0,0,0,0,0
1996,8,5,10,0,,29.3,25.5,80,100610,0,0,411,598,557,208,79484,53320,30098,0,50,4.3,1,0,0,0,0,0,0,0,0,0,0,0,0
1996,8,5,11,0,,29.8,25.1,76,100570,0,0,418,722,542,270,85993,51351,36945,0,20,5.5,1,0,0,0,0,0,0,0,0,0,0,0,0
1996,8,5,12,0,,30.3,24.8,72,100540,0,0,424,780,473,343,85196,39581,48394,0,50,5,2,0,0,0,0,0,0,0,0,0,0,0,0
1996,8,5,13,0,,30.2,25,73,100500,0,0,426,769,299,483,83350,22979,63775,0,50,5.7,3,0,0,0,0,0,0,0,0,0,0,0,0
1996,8,5,14,0,,30.3,25.3,75,100460,0,0,430,756,305,469,75147,23832,57828,0,50,6,3,0,0,0,0,0,0,0,0,0,0,0,0
1996,8,5,15,0,,30.2,25.5,76,100420,0,0,432,649,259,424,63119,19355,52226,0,50,6.3,4,0,0,0,0,0,0,0,0,0,0,0,0
1996,8,5,16,0,,29.8,24.8,72,100390,0,0,427,571,313,337,48830,21142,40980,0,50,6,4,0,0,0,0,0,0,0,0,0,0,0,0
1996,8,5,17,0,,30.7,24.1,69,100360,0,0,431,452,429,200,28393,15015,25911,0,90,2.7,3,0,0,0,0,0,0,0,0,0,0,0,0
1996,8,5,18,0,,30.6,23.4,65,100330,0,0,428,307,474,117,0,0,0,0,90,2.3,3,0,0,0,0,0,0,0,0,0,0,0,0
1996,8,5,19,0,,28.9,24.1,73,100360,0,0,424,132,357,62,0,0,0,0,50,3.8,4,0,0,0,0,0,0,0,0,0,0,0,0
1996,8,5,20,0,,28.3,24.7,80,100390,0,0,426,18,5,14,0,0,0,0,20,3.2,6,0,0,0,0,0,0,0,0,0,0,0,0
1996,8,5,21,0,,27.6,25.4,88,100420,0,0,429,0,0,0,0,0,0,0,20,4.2,7,0,0,0,0,0,0,0,0,0,0,0,0
1996,8,5,22,0,,27.3,25.3,88,100410,0,0,429,0,0,0,0,0,0,0,90,2.7,7,0,0,0,0,0,0,0,0,0,0,0,0
1996,8,5,23,0,,27.4,25.1,87,100410,0,0,432,0,0,0,0,0,0,0,90,2.3,8,0,0,0,0,0,0,0,0,0,0,0,0
1996,8,5,24,0,,27.3,25,87,100400,0,0,433,0,0,0,0,0,0,0,70,2.2,8,0,0,0,0,0,0,0,0,0,0,0,0
1996,8,6,1,0,,26.9,24.6,87,100360,0,0,428,0,0,0,0,0,0,0,90,2.3,8,0,0,0,0,0,0,0,0,0,0,0,0
1996,8,6,2,0,,26.5,24.3,86,100330,0,0,423,0,0,0,0,0,0,0,90,4,7,0,0,0,0,0,0,0,0,0,0,0,0
1996,8,6,3,0,,26.3,23.9,86,100290,0,0,419,0,0,0,0,0,0,0,70,2.7,7,0,0,0,0,0,0,0,0,0,0,0,0
1996,8,6,4,0,,26.2,23.3,84,100290,0,0,411,0,0,0,0,0,0,0,90,2.8,5,0,0,0,0,0,0,0,0,0,0,0,0
1996,8,6,5,0,,25.7,22.8,83,100300,0,0,402,0,0,0,0,0,0,0,90,2.5,4,0,0,0,0,0,0,0,0,0,0,0,0
1996,8,6,6,0,,25.6,22.2,81,100300,0,0,395,0,0,0,0,0,0,0,90,1.7,2,0,0,0,0,0,0,0,0,0,0,0,0
1996,8,6,7,0,,25.7,22.1,77,100300,0,0,398,84,45,39,8220,3614,6234,0,90,2.7,3,0,0,0,0,0,0,0,0,0,0,0,0
1996,8,6,8,0,,26.8,22,74,100300,0,0,406,254,488,92,49955,51221,13303,0,110,3,3,0,0,0,0,0,0,0,0,0,0,0,0
1996,8,6,9,0,,27.9,21.9,70,100300,0,0,414,416,482,161,63570,47078,23853,0,50,4.3,4,0,0,0,0,0,0,0,0,0,0,0,0
1996,8,6,10,0,,27.4,22.1,71,100300,0,0,411,549,427,250,70448,37523,35744,0,50,5,4,0,0,0,0,0,0,0,0,0,0,0,0
1996,8,6,11,0,,27.6,22.3,71,100300,0,0,411,673,427,317,79232,37267,43688,0,50,5,3,0,0,0,0,0,0,0,0,0,0,0,0
1996,8,6,12,0,,27.9,22.5,72,100300,0,0,412,730,297,457,81231,24482,58506,0,50,5.7,3,0,0,0,0,0,0,0,0,0,0,0,0
1996,8,6,13,0,,27.8,22.4,72,100250,0,0,412,768,299,482,82112,24563,61230,0,50,5.8,3,0,0,0,0,0,0,0,0,0,0,0,0
1996,8,6,14,0,,28.3,22.4,71,100190,0,0,416,735,281,471,73574,23339,56660,0,50,6.2,4,0,0,0,0,0,0,0,0,0,0,0,0
1996,8,6,15,0,,28.1,22.3,71,100140,0,0,416,670,288,421,63332,23064,50405,0,50,5,4,0,0,0,0,0,0,0,0,0,0,0,0
1996,8,6,16,0,,27.6,22.6,74,100160,0,0,414,567,309,336,48243,21929,40158,0,50,5.8,4,0,0,0,0,0,0,0,0,0,0,0,0
1996,8,6,17,0,,27.5,22.9,76,100180,0,0,415,409,285,241,30101,11718,28199,0,50,5.3,5,0,0,0,0,0,0,0,0,0,0,0,0
1996,8,6,18,0,,27.2,23.2,79,100200,0,0,415,263,310,140,0,0,0,0,50,4.7,5,0,0,0,0,0,0,0,0,0,0,0,0
1996,8,6,19,0,,27.2,23.1,79,100190,0,0,414,122,359,53,0,0,0,0,50,3,5,0,0,0,0,0,0,0,0,0,0,0,0
1996,8,6,20,0,,27.3,23,79,100180,0,0,413,23,11,13,0,0,0,0,90,3.3,4,0,0,0,0,0,0,0,0,0,0,0,0
1996,8,6,21,0,,26.9,22.9,79,100170,0,0,410,0,0,0,0,0,0,0,110,3.3,4,0,0,0,0,0,0,0,0,0,0,0,0
1996,8,6,22,0,,26.9,22.6,78,100190,0,0,409,0,0,0,0,0,0,0,90,3,4,0,0,0,0,0,0,0,0,0,0,0,0
1996,8,6,23,0,,26.7,22.3,76,100200,0,0,406,0,0,0,0,0,0,0,140,2.3,3,0,0,0,0,0,0,0,0,0,0,0,0
1996,8,6,24,0,,26.7,22,75,100220,0,0,404,0,0,0,0,0,0,0,110,2.5,3,0,0,0,0,0,0,0,0,0,0,0,0
1996,8,7,1,0,,27,22.5,77,100200,0,0,407,0,0,0,0,0,0,0,90,1.7,3,0,0,0,0,0,0,0,0,0,0,0,0
1996,8,7,2,0,,26.6,23,79,100180,0,0,405,0,0,0,0,0,0,0,110,3.3,3,0,0,0,0,0,0,0,0,0,0,0,0
1996,8,7,3,0,,26.9,23.5,81,100160,0,0,407,0,0,0,0,0,0,0,90,3.2,3,0,0,0,0,0,0,0,0,0,0,0,0
1996,8,7,4,0,,26.8,22.8,79,100210,0,0,408,0,0,0,0,0,0,0,160,2,4,0,0,0,0,0,0,0,0,0,0,0,0
1996,8,7,5,0,,26.6,22,76,100250,0,0,408,0,0,0,0,0,0,0,200,1.5,4,0,0,0,0,0,0,0,0,0,0,0,0
1996,8,7,6,0,,26.3,21.3,74,100300,0,0,408,0,0,0,0,0,0,0,160,2.3,5,0,0,0,0,0,0,0,0,0,0,0,0
1996,8,7,7,0,,26.7,22.4,76,100310,0,0,409,80,40,40,8126,3235,6354,0,140,1.5,4,0,0,0,0,0,0,0,0,0,0,0,0
1996,8,7,8,0,,27.5,23.4,79,100320,0,0,413,240,421,101,45767,41071,16439,0,70,2.7,4,0,0,0,0,0,0,0,0,0,0,0,0
1996,8,7,9,0,,28,24.5,81,100330,0,0,415,413,476,162,63188,45963,24476,0,50,4.7,3,0,0,0,0,0,0,0,0,0,0,0,0
1996,8,7,10,0,,28.3,24.6,79,100340,0,0,418,552,441,245,70735,37251,36334,0,70,4.3,3,0,0,0,0,0,0,0,0,0,0,0,0
1996,8,7,11,0,,28.9,24.7,76,100360,0,0,422,633,284,397,74458,22305,53217,0,70,4.7,4,0,0,0,0,0,0,0,0,0,0,0,0
1996,8,7,12,0,,29.9,24.8,74,100370,0,0,429,738,308,454,82437,23995,60202,0,50,5.8,4,0,0,0,0,0,0,0,0,0,0,0,0
1996,8,7,13,0,,29.9,24.7,73,100320,0,0,430,755,285,483,82205,22130,63432,0,50,5.7,4,0,0,0,0,0,0,0,0,0,0,0,0
1996,8,7,14,0,,30.1,24.7,71,100270,0,0,432,696,240,471,71471,18976,57759,0,70,6.3,5,0,0,0,0,0,0,0,0,0,0,0,0
1996,8,7,15,0,,30.7,24.6,70,100220,0,0,437,641,253,422,62302,19259,51554,0,50,6.5,5,0,0,0,0,0,0,0,0,0,0,0,0
1996,8,7,16,0,,30.7,24.2,67,100190,0,0,436,532,256,342,47692,17363,41339,0,90,4,5,0,0,0,0,0,0,0,0,0,0,0,0
1996,8,7,17,0,,32.7,23.8,65,100170,0,0,448,450,433,197,27747,14609,25420,0,110,3.7,5,0,0,0,0,0,0,0,0,0,0,0,0
1996,8,7,18,0,,31.7,23.4,62,100140,0,0,441,286,400,128,0,0,0,0,110,3.2,5,0,0,0,0,0,0,0,0,0,0,0,0
1996,8,7,19,0,,31.5,23.6,66,100190,0,0,439,133,398,57,0,0,0,0,140,3,5,0,0,0,0,0,0,0,0,0,0,0,0
1996,8,7,20,0,,30.1,23.9,70,100240,0,0,430,21,8,13,0,0,0,0,230,3,4,0,0,0,0,0,0,0,0,0,0,0,0
1996,8,7,21,0,,29.3,24.1,74,100290,0,0,425,0,0,0,0,0,0,0,230,0.3,4,0,0,0,0,0,0,0,0,0,0,0,0
1996,8,7,22,0,,28.6,23.6,74,100340,0,0,417,0,0,0,0,0,0,0,200,2,3,0,0,0,0,0,0,0,0,0,0,0,0
1996,8,7,23,0,,28,23,75,100380,0,0,409,0,0,0,0,0,0,0,180,2,2,0,0,0,0,0,0,0,0,0,0,0,0
1996,8,7,24,0,,27.4,22.5,75,100430,0,0,399,0,0,0,0,0,0,0,110,2,1,0,0,0,0,0,0,0,0,0,0,0,0
1996,8,8,1,0,,26.8,22.1,74,100400,0,0,394,0,0,0,0,0,0,0,90,2,1,0,0,0,0,0,0,0,0,0,0,0,0
1996,8,8,2,0,,26.5,21.7,73,100360,0,0,389,0,0,0,0,0,0,0,160,1.2,0,0,0,0,0,0,0,0,0,0,0,0,0
1996,8,8,3,0,,26.7,21.3,72,100330,0,0,387,0,0,0,0,0,0,0,160,1.7,0,0,0,0,0,0,0,0,0,0,0,0,0
1996,8,8,4,0,,26.5,21.1,72,100350,0,0,393,0,0,0,0,0,0,0,200,1,1,0,0,0,0,0,0,0,0,0,0,0,0
1996,8,8,5,0,,26.5,21,71,100380,0,0,398,0,0,0,0,0,0,0,140,1.2,2,0,0,0,0,0,0,0,0,0,0,0,0
1996,8,8,6,0,,26.4,20.8,71,100400,0,0,401,0,0,0,0,0,0,0,180,1.8,3,0,0,0,0,0,0,0,0,0,0,0,0
1996,8,8,7,0,,26.9,22.5,75,100420,0,0,407,80,42,38,7922,3395,6068,0,180,0.5,3,0,0,0,0,0,0,0,0,0,0,0,0
1996,8,8,8,0,,28.4,24.1,80,100440,0,0,419,237,415,101,45277,40301,16560,0,50,1.2,4,0,0,0,0,0,0,0,0,0,0,0,0
1996,8,8,9,0,,28.8,25.8,84,100460,0,0,424,386,387,182,55703,32050,28755,0,50,2,4,0,0,0,0,0,0,0,0,0,0,0,0
1996,8,8,10,0,,29.6,26,82,100440,0,0,429,538,406,256,69282,33410,38476,0,50,3.8,4,0,0,0,0,0,0,0,0,0,0,0,0
1996,8,8,11,0,,29.8,26.1,81,100420,0,0,430,640,296,394,75296,22263,54129,0,50,5.3,4,0,0,0,0,0,0,0,0,0,0,0,0
1996,8,8,12,0,,30.4,26.3,79,100400,0,0,434,705,269,458,80642,20017,62126,0,50,4.3,4,0,0,0,0,0,0,0,0,0,0,0,0
1996,8,8,13,0,,30.5,26,77,100390,0,0,435,727,255,483,76978,19819,60202,0,50,4.7,4,0,0,0,0,0,0,0,0,0,0,0,0
1996,8,8,14,0,,30.4,25.8,74,100380,0,0,435,664,210,467,69508,16173,57857,0,50,4.3,5,0,0,0,0,0,0,0,0,0,0,0,0
1996,8,8,15,0,,31.1,25.5,72,100370,0,0,440,619,230,421,61307,17108,51801,0,50,4.3,5,0,0,0,0,0,0,0,0,0,0,0,0
1996,8,8,16,0,,30.6,24.9,70,100360,0,0,434,548,283,338,47930,18832,41092,0,50,3,4,0,0,0,0,0,0,0,0,0,0,0,0
1996,8,8,17,0,,30.6,24.2,68,100360,0,0,431,428,344,228,29010,12940,26989,0,50,2.5,4,0,0,0,0,0,0,0,0,0,0,0,0
1996,8,8,18,0,,30.8,23.6,66,100350,0,0,429,288,422,123,0,0,0,0,50,1,3,0,0,0,0,0,0,0,0,0,0,0,0
1996,8,8,19,0,,30.2,23.7,68,100360,0,0,425,134,429,54,0,0,0,0,50,2,3,0,0,0,0,0,0,0,0,0,0,0,0
1996,8,8,20,0,,29.7,23.8,70,100360,0,0,421,22,10,12,0,0,0,0,360,0.5,2,0,0,0,0,0,0,0,0,0,0,0,0
1996,8,8,21,0,,29.3,23.9,72,100370,0,0,417,0,0,0,0,0,0,0,200,1.2,2,0,0,0,0,0,0,0,0,0,0,0,0
1996,8,8,22,0,,28.9,23,70,100390,0,0,415,0,0,0,0,0,0,0,200,1.7,2,0,0,0,0,0,0,0,0,0,0,0,0
1996,8,8,23,0,,28.3,22.2,69,100420,0,0,412,0,0,0,0,0,0,0,200,1.7,3,0,0,0,0,0,0,0,0,0,0,0,0
1996,8,8,24,0,,28.1,21.3,67,100440,0,0,411,0,0,0,0,0,0,0,180,1.3,3,0,0,0,0,0,0,0,0,0,0,0,0
1996,8,9,1,0,,28,22.1,71,100430,0,0,410,0,0,0,0,0,0,0,200,1.7,3,0,0,0,0,0,0,0,0,0,0,0,0
1996,8,9,2,0,,27.8,22.8,74,100410,0,0,409,0,0,0,0,0,0,0,200,1.3,2,0,0,0,0,0,0,0,0,0,0,0,0
1996,8,9,3,0,,27.7,23.6,78,100400,0,0,408,0,0,0,0,0,0,0,180,1,2,0,0,0,0,0,0,0,0,0,0,0,0
1996,8,9,4,0,,27.4,23.4,79,100410,0,0,406,0,0,0,0,0,0,0,200,1.2,2,0,0,0,0,0,0,0,0,0,0,0,0
1996,8,9,5,0,,27.1,23.1,79,100420,0,0,404,0,0,0,0,0,0,0,180,1.3,2,0,0,0,0,0,0,0,0,0,0,0,0
1996,8,9,6,0,,26.7,22.9,80,100430,0,0,402,0,0,0,0,0,0,0,180,0.8,2,0,0,0,0,0,0,0,0,0,0,0,0
1996,8,9,7,0,,26.6,23.9,81,100450,0,0,404,80,44,36,7762,3371,5926,0,200,1.3,2,0,0,0,0,0,0,0,0,0,0,0,0
1996,8,9,8,0,,28.3,24.8,81,100480,0,0,416,242,447,96,46760,43318,15958,0,360,1.8,3,0,0,0,0,0,0,0,0,0,0,0,0
1996,8,9,9,0,,29.1,25.8,82,100500,0,0,423,404,456,165,61884,43711,25194,0,360,2.7,3,0,0,0,0,0,0,0,0,0,0,0,0
1996,8,9,10,0,,30,25.6,79,100480,0,0,427,558,464,236,73928,44055,33370,0,20,1.7,3,0,0,0,0,0,0,0,0,0,0,0,0
1996,8,9,11,0,,30.5,25.4,76,100450,0,0,430,662,333,386,76804,25627,52477,0,50,2.7,3,0,0,0,0,0,0,0,0,0,0,0,0
1996,8,9,12,0,,30.6,25.2,73,100430,0,0,430,729,301,453,81870,23156,60491,0,20,3.3,3,0,0,0,0,0,0,0,0,0,0,0,0
1996,8,9,13,0,,30.4,25,71,100400,0,0,429,754,288,480,82115,22158,63403,0,50,4.2,3,0,0,0,0,0,0,0,0,0,0,0,0
1996,8,9,14,0,,30.9,24.7,70,100380,0,0,431,737,289,467,73659,22767,57308,0,50,3.3,3,0,0,0,0,0,0,0,0,0,0,0,0
1996,8,9,15,0,,31.1,24.5,68,100350,0,0,432,679,308,414,63542,23497,50546,0,20,3.3,3,0,0,0,0,0,0,0,0,0,0,0,0
1996,8,9,16,0,,31.2,24.7,70,100340,0,0,434,579,407,277,46606,26038,37225,0,50,2.8,3,0,0,0,0,0,0,0,0,0,0,0,0
1996,8,9,17,0,,30.7,24.9,71,100340,0,0,433,419,326,230,29165,11536,27401,0,50,3.3,4,0,0,0,0,0,0,0,0,0,0,0,0
1996,8,9,18,0,,30.5,25.1,73,100330,0,0,433,272,359,132,0,0,0,0,20,2.3,4,0,0,0,0,0,0,0,0,0,0,0,0
1996,8,9,19,0,,30.4,25.3,75,100360,0,0,432,124,356,58,0,0,0,0,50,2.2,4,0,0,0,0,0,0,0,0,0,0,0,0
1996,8,9,20,0,,30.2,25.6,76,100390,0,0,430,21,9,11,0,0,0,0,20,2.2,3,0,0,0,0,0,0,0,0,0,0,0,0
1996,8,9,21,0,,30.1,25.8,78,100420,0,0,428,0,0,0,0,0,0,0,70,1.7,3,0,0,0,0,0,0,0,0,0,0,0,0
1996,8,9,22,0,,29.6,25.6,80,100430,0,0,424,0,0,0,0,0,0,0,110,1.7,3,0,0,0,0,0,0,0,0,0,0,0,0
1996,8,9,23,0,,29,25.5,81,100430,0,0,419,0,0,0,0,0,0,0,110,1.7,2,0,0,0,0,0,0,0,0,0,0,0,0
1996,8,9,24,0,,28.4,25.3,83,100440,0,0,414,0,0,0,0,0,0,0,90,0.8,2,0,0,0,0,0,0,0,0,0,0,0,0
1996,8,10,1,0,,28.1,24.6,81,100420,0,0,414,0,0,0,0,0,0,0,140,1.5,3,0,0,0,0,0,0,0,0,0,0,0,0
1996,8,10,2,0,,27.9,23.8,78,100410,0,0,414,0,0,0,0,0,0,0,160,1.7,3,0,0,0,0,0,0,0,0,0,0,0,0
1996,8,10,3,0,,27.6,23.1,76,100390,0,0,414,0,0,0,0,0,0,0,140,1,4,0,0,0,0,0,0,0,0,0,0,0,0
1996,8,10,4,0,,27.4,23.5,78,100410,0,0,411,0,0,0,0,0,0,0,110,2,3,0,0,0,0,0,0,0,0,0,0,0,0
1996,8,10,5,0,,27.3,23.8,81,100420,0,0,409,0,0,0,0,0,0,0,140,1.5,3,0,0,0,0,0,0,0,0,0,0,0,0
1996,8,10,6,0,,27.3,24.2,83,100440,0,0,406,0,0,0,0,0,0,0,160,1.8,2,0,0,0,0,0,0,0,0,0,0,0,0
1996,8,10,7,0,,27.2,24.5,82,100450,0,0,408,79,45,35,7584,3385,5747,0,140,1.5,2,0,0,0,0,0,0,0,0,0,0,0,0
1996,8,10,8,0,,27.4,24.9,81,100450,0,0,411,233,411,100,44778,39801,16539,0,90,3.3,3,0,0,0,0,0,0,0,0,0,0,0,0
1996,8,10,9,0,,29.1,25.2,80,100460,0,0,422,406,470,161,62450,45242,24542,0,110,3.7,3,0,0,0,0,0,0,0,0,0,0,0,0
1996,8,10,10,0,,29.7,25.5,83,100460,0,0,431,502,284,305,62625,21863,42530,0,50,4.3,5,0,0,0,0,0,0,0,0,0,0,0,0
1996,8,10,11,0,,27.4,25.7,87,100470,0,0,425,495,142,378,58587,11285,47892,0,110,3.3,6,0,0,0,0,0,0,0,0,0,0,0,0
1996,8,10,12,0,,27.8,26,90,100470,0,0,438,407,59,353,46522,4883,42023,0,110,3.8,8,0,0,0,0,0,0,0,0,0,0,0,0
1996,8,10,13,0,,28.7,26.1,89,100420,0,0,446,471,77,397,52425,6442,46998,0,70,6.2,8,0,0,0,0,0,0,0,0,0,0,0,0
1996,8,10,14,0,,27.5,26.2,88,100360,0,0,442,362,41,325,40866,3358,38462,0,90,3.8,9,0,0,0,0,0,0,0,0,0,0,0,0
1996,8,10,15,0,,28.7,26.3,87,100310,0,0,453,361,53,316,39461,4298,37095,0,70,4,9,0,0,0,0,0,0,0,0,0,0,0,0
1996,8,10,16,0,,30.2,26,84,100320,0,0,445,434,146,327,41853,11625,37700,0,90,4,7,0,0,0,0,0,0,0,0,0,0,0,0
1996,8,10,17,0,,30.2,25.7,80,100320,0,0,435,416,323,229,29044,10712,27441,0,90,3,5,0,0,0,0,0,0,0,0,0,0,0,0
1996,8,10,18,0,,29.9,25.4,77,100330,0,0,427,297,483,111,0,0,0,0,90,3.2,3,0,0,0,0,0,0,0,0,0,0,0,0
1996,8,10,19,0,,29.4,24.9,77,100370,0,0,425,121,353,57,0,0,0,0,90,2.7,4,0,0,0,0,0,0,0,0,0,0,0,0
1996,8,10,20,0,,28.4,24.5,78,100420,0,0,421,17,6,12,0,0,0,0,140,2.3,4,0,0,0,0,0,0,0,0,0,0,0,0
1996,8,10,21,0,,28.1,24,78,100460,0,0,421,0,0,0,0,0,0,0,140,2.7,5,0,0,0,0,0,0,0,0,0,0,0,0
1996,8,10,22,0,,27.9,24,79,100480,0,0,420,0,0,0,0,0,0,0,140,2.3,5,0,0,0,0,0,0,0,0,0,0,0,0
1996,8,10,23,0,,27.8,24.1,80,100490,0,0,420,0,0,0,0,0,0,0,110,2.2,5,0,0,0,0,0,0,0,0,0,0,0,0
1996,8,10,24,0,,27.6,24.1,81,100510,0,0,418,0,0,0,0,0,0,0,90,1.8,5,0,0,0,0,0,0,0,0,0,0,0,0
1996,8,11,1,0,,27.5,24.4,83,100490,0,0,417,0,0,0,0,0,0,0,110,2,5,0,0,0,0,0,0,0,0,0,0,0,0
1996,8,11,2,0,,27.4,24.7,85,100480,0,0,416,0,0,0,0,0,0,0,90,2,4,0,0,0,0,0,0,0,0,0,0,0,0
1996,8,11,3,0,,27.3,25,87,100460,0,0,415,0,0,0,0,0,0,0,90,1.3,4,0,0,0,0,0,0,0,0,0,0,0,0
1996,8,11,4,0,,27.2,25,87,100450,0,0,414,0,0,0,0,0,0,0,110,1.8,4,0,0,0,0,0,0,0,0,0,0,0,0
1996,8,11,5,0,,27,25,87,100440,0,0,413,0,0,0,0,0,0,0,90,1.8,4,0,0,0,0,0,0,0,0,0,0,0,0
1996,8,11,6,0,,27.3,25,87,100430,0,0,415,0,0,0,0,0,0,0,90,2.3,4,0,0,0,0,0,0,0,0,0,0,0,0
1996,8,11,7,0,,27,25.1,86,100430,0,0,414,70,31,39,6938,2491,5590,0,90,1.7,4,0,0,0,0,0,0,0,0,0,0,0,0
1996,8,11,8,0,,27.8,25.2,85,100440,0,0,420,207,313,106,38803,30229,17404,0,50,2,5,0,0,0,0,0,0,0,0,0,0,0,0
1996,8,11,9,0,,28.3,25.3,84,100440,0,0,424,365,323,197,53062,26923,30543,0,50,5,5,0,0,0,0,0,0,0,0,0,0,0,0
1996,8,11,10,0,,28.3,24.8,80,100430,0,0,423,490,266,306,61406,20883,42244,0,70,4.8,5,0,0,0,0,0,0,0,0,0,0,0,0
1996,8,11,11,0,,29.1,24.4,75,100410,0,0,427,589,234,395,70331,18532,52800,0,50,4,5,0,0,0,0,0,0,0,0,0,0,0,0
1996,8,11,12,0,,29.9,23.9,71,100400,0,0,431,684,251,455,77921,19984,59542,0,50,5,5,0,0,0,0,0,0,0,0,0,0,0,0
1996,8,11,13,0,,30.2,23.9,69,100380,0,0,431,757,295,477,81640,23384,61988,0,50,5.7,4,0,0,0,0,0,0,0,0,0,0,0,0
1996,8,11,14,0,,30,23.8,67,100360,0,0,427,729,283,465,72876,22774,56626,0,50,5.2,4,0,0,0,0,0,0,0,0,0,0,0,0
1996,8,11,15,0,,31.1,23.8,65,100340,0,0,431,699,434,327,61560,32797,43597,0,50,4,3,0,0,0,0,0,0,0,0,0,0,0,0
1996,8,11,16,0,,30.4,23.5,64,100320,0,0,426,597,465,255,44728,30731,33841,0,50,5.5,3,0,0,0,0,0,0,0,0,0,0,0,0
1996,8,11,17,0,,31,23.2,64,100290,0,0,427,488,581,154,22792,18809,20040,0,50,5.3,2,0,0,0,0,0,0,0,0,0,0,0,0
1996,8,11,18,0,,30.8,22.9,63,100270,0,0,424,303,519,104,0,0,0,0,90,3.7,2,0,0,0,0,0,0,0,0,0,0,0,0
1996,8,11,19,0,,29.6,23.3,68,100320,0,0,418,132,480,47,0,0,0,0,90,4,2,0,0,0,0,0,0,0,0,0,0,0,0
1996,8,11,20,0,,28.8,23.8,73,100370,0,0,414,18,7,11,0,0,0,0,140,2.3,2,0,0,0,0,0,0,0,0,0,0,0,0
1996,8,11,21,0,,28.3,24.2,78,100420,0,0,412,0,0,0,0,0,0,0,90,2.3,2,0,0,0,0,0,0,0,0,0,0,0,0
1996,8,11,22,0,,28.1,24.1,79,100400,0,0,407,0,0,0,0,0,0,0,110,3.3,1,0,0,0,0,0,0,0,0,0,0,0,0
1996,8,11,23,0,,28,24.1,79,100370,0,0,402,0,0,0,0,0,0,0,140,2.3,1,0,0,0,0,0,0,0,0,0,0,0,0
1996,8,11,24,0,,27.8,24,80,100350,0,0,396,0,0,0,0,0,0,0,110,3.5,0,0,0,0,0,0,0,0,0,0,0,0,0
1996,8,12,1,0,,27.7,24.2,81,100300,0,0,396,0,0,0,0,0,0,0,110,2.3,0,0,0,0,0,0,0,0,0,0,0,0,0
1996,8,12,2,0,,27.6,24.3,82,100250,0,0,395,0,0,0,0,0,0,0,110,3,0,0,0,0,0,0,0,0,0,0,0,0,0
1996,8,12,3,0,,27.6,24.5,83,100200,0,0,395,0,0,0,0,0,0,0,90,1.8,0,0,0,0,0,0,0,0,0,0,0,0,0
1996,8,12,4,0,,27.4,23.5,80,100200,0,0,398,0,0,0,0,0,0,0,110,1.8,1,0,0,0,0,0,0,0,0,0,0,0,0
1996,8,12,5,0,,27.2,22.4,76,100210,0,0,400,0,0,0,0,0,0,0,180,1,1,0,0,0,0,0,0,0,0,0,0,0,0
1996,8,12,6,0,,26.6,21.4,73,100210,0,0,399,0,0,0,0,0,0,0,160,0.8,2,0,0,0,0,0,0,0,0,0,0,0,0
1996,8,12,7,0,,26.9,22,71,100240,0,0,409,70,32,38,6740,2706,5281,0,20,0.8,4,0,0,0,0,0,0,0,0,0,0,0,0
1996,8,12,8,0,,28.3,22.5,70,100270,0,0,424,199,283,109,34963,24539,17630,0,180,0.7,6,0,0,0,0,0,0,0,0,0,0,0,0
1996,8,12,9,0,,29.7,23.1,68,100300,0,0,445,276,139,204,38122,11401,28604,0,360,1.3,8,0,0,0,0,0,0,0,0,0,0,0,0
1996,8,12,10,0,,31.9,22.3,61,100290,0,0,446,518,321,297,66989,27896,41435,0,140,2.7,6,0,0,0,0,0,0,0,0,0,0,0,0
1996,8,12,11,0,,32.8,21.4,54,100280,0,0,444,686,479,291,80234,42157,40424,0,110,4.7,5,0,0,0,0,0,0,0,0,0,0,0,0
1996,8,12,12,0,,33.5,20.6,47,100270,0,0,441,820,586,285,88709,56113,37208,0,140,4.3,3,0,0,0,0,0,0,0,0,0,0,0,0
1996,8,12,13,0,,34,20.4,46,100200,0,0,444,827,521,333,83169,45967,44637,0,140,4.3,3,0,0,0,0,0,0,0,0,0,0,0,0
1996,8,12,14,0,,34,20.2,46,100130,0,0,444,795,494,336,75250,43206,44527,0,90,4,3,0,0,0,0,0,0,0,0,0,0,0,0
1996,8,12,15,0,,33.7,20,45,100060,0,0,442,731,514,292,60553,42024,37653,0,110,5,3,0,0,0,0,0,0,0,0,0,0,0,0
1996,8,12,16,0,,33.6,20,46,100050,0,0,438,619,527,232,43082,37688,29848,0,140,4.2,2,0,0,0,0,0,0,0,0,0,0,0,0
1996,8,12,17,0,,32.9,19.9,46,100040,0,0,431,474,547,162,22974,19816,20142,0,140,4.5,2,0,0,0,0,0,0,0,0,0,0,0,0
1996,8,12,18,0,,32.6,19.9,47,100030,0,0,425,316,587,92,0,0,0,0,140,3.7,1,0,0,0,0,0,0,0,0,0,0,0,0
1996,8,12,19,0,,32.6,21.2,56,100060,0,0,429,137,551,41,0,0,0,0,50,2.8,1,0,0,0,0,0,0,0,0,0,0,0,0
1996,8,12,20,0,,29.8,22.5,64,100100,0,0,417,18,8,10,0,0,0,0,140,3.3,2,0,0,0,0,0,0,0,0,0,0,0,0
1996,8,12,21,0,,29.1,23.8,73,100130,0,0,416,0,0,0,0,0,0,0,160,2.2,2,0,0,0,0,0,0,0,0,0,0,0,0
1996,8,12,22,0,,28.5,23.4,73,100110,0,0,412,0,0,0,0,0,0,0,140,2.2,2,0,0,0,0,0,0,0,0,0,0,0,0
1996,8,12,23,0,,28.5,22.9,72,100080,0,0,411,0,0,0,0,0,0,0,110,1.7,2,0,0,0,0,0,0,0,0,0,0,0,0
1996,8,12,24,0,,27.9,22.5,72,100060,0,0,408,0,0,0,0,0,0,0,110,1.2,2,0,0,0,0,0,0,0,0,0,0,0,0
1996,8,13,1,0,,27.8,23.2,76,100020,0,0,409,0,0,0,0,0,0,0,110,1.7,2,0,0,0,0,0,0,0,0,0,0,0,0
1996,8,13,2,0,,27.6,24,81,99970,0,0,411,0,0,0,0,0,0,0,110,1.7,3,0,0,0,0,0,0,0,0,0,0,0,0
1996,8,13,3,0,,27.4,24.7,85,99930,0,0,412,0,0,0,0,0,0,0,110,1.5,3,0,0,0,0,0,0,0,0,0,0,0,0
1996,8,13,4,0,,27.5,24.8,86,99920,0,0,419,0,0,0,0,0,0,0,110,2,5,0,0,0,0,0,0,0,0,0,0,0,0
1996,8,13,5,0,,27.3,25,86,99920,0,0,427,0,0,0,0,0,0,0,110,2,7,0,0,0,0,0,0,0,0,0,0,0,0
1996,8,13,6,0,,27.4,25.1,87,99910,0,0,443,0,0,0,0,0,0,0,90,3,9,0,0,0,0,0,0,0,0,0,0,0,0
1996,8,13,7,0,,27.4,25.2,86,99900,0,0,440,32,4,28,3691,344,3506,0,90,2.7,9,0,0,0,0,0,0,0,0,0,0,0,0
1996,8,13,8,0,,27.9,25.4,84,99880,0,0,440,143,106,109,22385,8127,16658,0,70,2,8,0,0,0,0,0,0,0,0,0,0,0,0
1996,8,13,9,0,,28.6,25.5,83,99870,0,0,442,255,112,197,33501,9092,25924,0,70,3.5,8,0,0,0,0,0,0,0,0,0,0,0,0
1996,8,13,10,0,,28.6,25.4,80,99860,0,0,437,405,154,299,49695,12430,38329,0,50,5,7,0,0,0,0,0,0,0,0,0,0,0,0
1996,8,13,11,0,,29.3,25.2,78,99860,0,0,436,506,154,380,59591,12418,47885,0,50,5.3,7,0,0,0,0,0,0,0,0,0,0,0,0
1996,8,13,12,0,,29.9,25.1,75,99850,0,0,437,617,188,446,69336,15076,55528,0,50,4.2,6,0,0,0,0,0,0,0,0,0,0,0,0
1996,8,13,13,0,,30.2,25.3,76,99790,0,0,442,583,141,450,65284,11168,55947,0,50,5,7,0,0,0,0,0,0,0,0,0,0,0,0
1996,8,13,14,0,,30.3,25.5,77,99730,0,0,447,572,143,439,60018,12172,51393,0,50,5.7,7,0,0,0,0,0,0,0,0,0,0,0,0
1996,8,13,15,0,,30,25.7,78,99670,0,0,450,435,89,359,45888,7453,41848,0,50,5.2,8,0,0,0,0,0,0,0,0,0,0,0,0
1996,8,13,16,0,,30.8,25.7,78,99640,0,0,452,383,106,305,38154,8407,35229,0,70,5,8,0,0,0,0,0,0,0,0,0,0,0,0
1996,8,13,17,0,,30.7,25.7,77,99620,0,0,449,331,168,235,28076,10920,26554,0,50,4.7,7,0,0,0,0,0,0,0,0,0,0,0,0
1996,8,13,18,0,,30.1,25.7,77,99590,0,0,444,213,191,141,0,0,0,0,70,4,7,0,0,0,0,0,0,0,0,0,0,0,0
1996,8,13,19,0,,29.3,25.7,80,99610,0,0,439,87,179,56,0,0,0,0,70,4,7,0,0,0,0,0,0,0,0,0,0,0,0
1996,8,13,20,0,,28.4,25.6,82,99620,0,0,434,8,1,7,0,0,0,0,70,3,7,0,0,0,0,0,0,0,0,0,0,0,0
1996,8,13,21,0,,28.3,25.6,85,99640,0,0,433,0,0,0,0,0,0,0,70,3.3,7,0,0,0,0,0,0,0,0,0,0,0,0
1996,8,13,22,0,,28,25.5,85,99610,0,0,429,0,0,0,0,0,0,0,50,5.3,7,0,0,0,0,0,0,0,0,0,0,0,0
1996,8,13,23,0,,28,25.3,85,99580,0,0,428,0,0,0,0,0,0,0,50,6,6,0,0,0,0,0,0,0,0,0,0,0,0
1996,8,13,24,0,,27.9,25.2,85,99550,0,0,425,0,0,0,0,0,0,0,50,6,6,0,0,0,0,0,0,0,0,0,0,0,0
1996,8,14,1,0,,27.5,24.9,84,99500,0,0,424,0,0,0,0,0,0,0,50,5.3,6,0,0,0,0,0,0,0,0,0,0,0,0
1996,8,14,2,0,,27.2,24.5,84,99450,0,0,424,0,0,0,0,0,0,0,50,4.3,7,0,0,0,0,0,0,0,0,0,0,0,0
1996,8,14,3,0,,27.3,24.2,83,99400,0,0,426,0,0,0,0,0,0,0,20,3.3,7,0,0,0,0,0,0,0,0,0,0,0,0
1996,8,14,4,0,,27,24.3,84,99380,0,0,428,0,0,0,0,0,0,0,20,5.2,8,0,0,0,0,0,0,0,0,0,0,0,0
1996,8,14,5,0,,27.1,24.3,85,99350,0,0,434,0,0,0,0,0,0,0,20,4.8,8,0,0,0,0,0,0,0,0,0,0,0,0
1996,8,14,6,0,,26.9,24.4,86,99330,0,0,440,0,0,0,0,0,0,0,20,4.2,9,0,0,0,0,0,0,0,0,0,0,0,0
1996,8,14,7,0,,26.8,24.4,85,99370,0,0,439,33,5,28,3773,404,3557,0,50,4.7,9,0,0,0,0,0,0,0,0,0,0,0,0
1996,8,14,8,0,,27,24.4,85,99400,0,0,440,121,68,100,17504,5652,13530,0,50,4,9,0,0,0,0,0,0,0,0,0,0,0,0
1996,8,14,9,0,,27.2,24.4,84,99440,0,0,441,208,65,175,27473,5372,23005,0,360,4.3,9,0,0,0,0,0,0,0,0,0,0,0,0
1996,8,14,10,0,,27.4,24.3,82,99480,0,0,442,288,60,246,34115,5057,29500,0,320,5,9,0,0,0,0,0,0,0,0,0,0,0,0
1996,8,14,11,0,,27.8,24.1,80,99510,0,0,444,350,56,303,40594,4759,36117,0,320,5,9,0,0,0,0,0,0,0,0,0,0,0,0
1996,8,14,12,0,,28.2,24,78,99550,0,0,447,424,68,363,48174,5806,42868,0,340,7,9,0,0,0,0,0,0,0,0,0,0,0,0
1996,8,14,13,0,,28.4,23.7,77,99590,0,0,447,441,67,378,49247,5733,44467,0,320,7.2,9,0,0,0,0,0,0,0,0,0,0,0,0
1996,8,14,14,0,,28.3,23.5,75,99640,0,0,447,433,68,370,47345,5850,43215,0,320,8.2,9,0,0,0,0,0,0,0,0,0,0,0,0
1996,8,14,15,0,,28.4,23.2,74,99680,0,0,447,368,57,319,39692,4908,37046,0,320,5,9,0,0,0,0,0,0,0,0,0,0,0,0
1996,8,14,16,0,,28.3,22.6,71,99740,0,0,442,312,61,267,32379,5011,30652,0,320,4.3,9,0,0,0,0,0,0,0,0,0,0,0,0
1996,8,14,17,0,,28.1,22,68,99790,0,0,437,295,123,225,26240,8412,25097,0,320,5,8,0,0,0,0,0,0,0,0,0,0,0,0
1996,8,14,18,0,,28.4,21.4,65,99850,0,0,435,195,151,138,0,0,0,0,320,5,8,0,0,0,0,0,0,0,0,0,0,0,0
1996,8,14,19,0,,27.8,21.7,68,99930,0,0,427,94,249,52,0,0,0,0,320,6.7,7,0,0,0,0,0,0,0,0,0,0,0,0
1996,8,14,20,0,,27.5,22.1,71,100000,0,0,422,10,2,8,0,0,0,0,320,5,7,0,0,0,0,0,0,0,0,0,0,0,0
1996,8,14,21,0,,27.4,22.4,74,100080,0,0,419,0,0,0,0,0,0,0,340,3.7,6,0,0,0,0,0,0,0,0,0,0,0,0
1996,8,14,22,0,,27.4,21.9,73,100140,0,0,421,0,0,0,0,0,0,0,320,4,7,0,0,0,0,0,0,0,0,0,0,0,0
1996,8,14,23,0,,27.2,21.5,71,100200,0,0,423,0,0,0,0,0,0,0,290,3,7,0,0,0,0,0,0,0,0,0,0,0,0
1996,8,14,24,0,,26.9,21,70,100260,0,0,426,0,0,0,0,0,0,0,320,2.3,8,0,0,0,0,0,0,0,0,0,0,0,0
1996,8,15,1,0,,27.1,21.3,71,100280,0,0,427,0,0,0,0,0,0,0,320,3.3,8,0,0,0,0,0,0,0,0,0,0,0,0
1996,8,15,2,0,,27.1,21.6,73,100290,0,0,428,0,0,0,0,0,0,0,340,3.8,8,0,0,0,0,0,0,0,0,0,0,0,0
1996,8,15,3,0,,26.9,21.9,74,100310,0,0,427,0,0,0,0,0,0,0,320,4.8,8,0,0,0,0,0,0,0,0,0,0,0,0
1996,8,15,4,0,,26.6,21.6,73,100350,0,0,422,0,0,0,0,0,0,0,320,3.7,8,0,0,0,0,0,0,0,0,0,0,0,0
1996,8,15,5,0,,26.6,21.3,72,100400,0,0,420,0,0,0,0,0,0,0,290,3.7,7,0,0,0,0,0,0,0,0,0,0,0,0
1996,8,15,6,0,,26.8,21,71,100440,0,0,419,0,0,0,0,0,0,0,320,2.7,7,0,0,0,0,0,0,0,0,0,0,0,0
1996,8,15,7,0,,26.9,20.9,69,100490,0,0,419,53,20,33,5532,1742,4602,0,360,3.8,7,0,0,0,0,0,0,0,0,0,0,0,0
1996,8,15,8,0,,27.3,20.8,68,100530,0,0,421,180,220,111,31333,19575,17602,0,320,3,7,0,0,0,0,0,0,0,0,0,0,0,0
1996,8,15,9,0,,27.7,20.7,66,100580,0,0,423,311,204,206,42610,17594,28005,0,340,3.7,7,0,0,0,0,0,0,0,0,0,0,0,0
1996,8,15,10,0,,28.3,20.1,62,100600,0,0,426,430,186,302,54068,16202,39307,0,320,3.8,7,0,0,0,0,0,0,0,0,0,0,0,0
1996,8,15,11,0,,28.7,19.5,58,100630,0,0,427,520,168,382,60263,15015,46164,0,290,3.3,7,0,0,0,0,0,0,0,0,0,0,0,0
1996,8,15,12,0,,29,18.9,54,100650,0,0,428,578,159,434,64704,14167,51786,0,320,4,7,0,0,0,0,0,0,0,0,0,0,0,0
1996,8,15,13,0,,29.5,19.1,54,100630,0,0,428,662,203,471,70613,17930,55705,0,340,3.5,6,0,0,0,0,0,0,0,0,0,0,0,0
1996,8,15,14,0,,29.7,19.4,54,100620,0,0,427,634,194,455,65570,16770,53775,0,320,3.3,6,0,0,0,0,0,0,0,0,0,0,0,0
1996,8,15,15,0,,29.9,19.6,54,100600,0,0,426,637,268,410,60195,22192,48297,0,320,3.3,5,0,0,0,0,0,0,0,0,0,0,0,0
1996,8,15,16,0,,29.7,19.7,55,100600,0,0,421,552,318,321,45470,23086,37590,0,320,2.7,4,0,0,0,0,0,0,0,0,0,0,0,0
1996,8,15,17,0,,29.6,19.9,57,100610,0,0,415,466,544,159,22064,18260,19651,0,340,4.3,2,0,0,0,0,0,0,0,0,0,0,0,0
1996,8,15,18,0,,29.1,20,58,100610,0,0,406,292,516,100,0,0,0,0,340,2.7,1,0,0,0,0,0,0,0,0,0,0,0,0
1996,8,15,19,0,,28.3,20.1,61,100640,0,0,404,123,491,43,0,0,0,0,320,2.7,1,0,0,0,0,0,0,0,0,0,0,0,0
1996,8,15,20,0,,27.3,20.3,65,100680,0,0,400,13,5,9,0,0,0,0,320,2.2,2,0,0,0,0,0,0,0,0,0,0,0,0
1996,8,15,21,0,,26.8,20.4,68,100710,0,0,399,0,0,0,0,0,0,0,200,2.7,2,0,0,0,0,0,0,0,0,0,0,0,0
1996,8,15,22,0,,25.7,20.2,69,100750,0,0,393,0,0,0,0,0,0,0,200,2,2,0,0,0,0,0,0,0,0,0,0,0,0
1996,8,15,23,0,,25,19.9,71,100790,0,0,389,0,0,0,0,0,0,0,200,2.5,2,0,0,0,0,0,0,0,0,0,0,0,0
1996,8,15,24,0,,25.1,19.7,72,100830,0,0,389,0,0,0,0,0,0,0,200,1.8,2,0,0,0,0,0,0,0,0,0,0,0,0
1996,8,16,1,0,,24.7,18.9,70,100820,0,0,386,0,0,0,0,0,0,0,180,1.8,2,0,0,0,0,0,0,0,0,0,0,0,0
1996,8,16,2,0,,24.2,18.1,69,100810,0,0,383,0,0,0,0,0,0,0,180,1.8,2,0,0,0,0,0,0,0,0,0,0,0,0
1996,8,16,3,0,,23.8,17.3,67,100800,0,0,380,0,0,0,0,0,0,0,180,2.2,2,0,0,0,0,0,0,0,0,0,0,0,0
1996,8,16,4,0,,23.6,17.7,70,100830,0,0,380,0,0,0,0,0,0,0,160,1.3,2,0,0,0,0,0,0,0,0,0,0,0,0
1996,8,16,5,0,,23.6,18.1,72,100870,0,0,382,0,0,0,0,0,0,0,180,0.7,3,0,0,0,0,0,0,0,0,0,0,0,0
1996,8,16,6,0,,23.2,18.5,75,100900,0,0,382,0,0,0,0,0,0,0,160,2,3,0,0,0,0,0,0,0,0,0,0,0,0
1996,8,16,7,0,,23.4,18.7,70,100930,0,0,384,70,39,31,6709,3337,4933,0,160,2,3,0,0,0,0,0,0,0,0,0,0,0,0
1996,8,16,8,0,,26.1,19,65,100950,0,0,400,239,494,85,48367,51621,12245,0,160,0.8,4,0,0,0,0,0,0,0,0,0,0,0,0
1996,8,16,9,0,,27.6,19.2,60,100980,0,0,409,422,559,137,66405,55440,20478,0,50,2.2,4,0,0,0,0,0,0,0,0,0,0,0,0
1996,8,16,10,0,,28.3,18.8,57,100960,0,0,413,579,553,201,77257,54345,27838,0,50,2,4,0,0,0,0,0,0,0,0,0,0,0,0
1996,8,16,11,0,,28.5,18.3,53,100950,0,0,413,648,330,378,74744,29457,47140,0,50,1.7,4,0,0,0,0,0,0,0,0,0,0,0,0
1996,8,16,12,0,,29,17.9,50,100930,0,0,415,720,304,445,78876,27140,54186,0,20,2.8,4,0,0,0,0,0,0,0,0,0,0,0,0
1996,8,16,13,0,,29.1,18.3,51,100890,0,0,419,696,236,473,73196,21066,55731,0,50,3,5,0,0,0,0,0,0,0,0,0,0,0,0
1996,8,16,14,0,,29.2,18.8,53,100840,0,0,422,691,251,460,69413,21903,54069,0,50,3.3,5,0,0,0,0,0,0,0,0,0,0,0,0
1996,8,16,15,0,,29.3,19.2,54,100800,0,0,426,577,201,407,56726,16807,47767,0,50,2.8,6,0,0,0,0,0,0,0,0,0,0,0,0
1996,8,16,16,0,,29.2,19.3,55,100800,0,0,424,489,221,329,43554,19071,37109,0,50,2.3,6,0,0,0,0,0,0,0,0,0,0,0,0
1996,8,16,17,0,,29.2,19.4,55,100790,0,0,423,397,313,222,26553,11411,25088,0,20,1.8,5,0,0,0,0,0,0,0,0,0,0,0,0
1996,8,16,18,0,,29,19.5,56,100790,0,0,421,254,348,126,0,0,0,0,50,2,5,0,0,0,0,0,0,0,0,0,0,0,0
1996,8,16,19,0,,28.1,19.6,59,100810,0,0,417,103,310,54,0,0,0,0,50,2.3,5,0,0,0,0,0,0,0,0,0,0,0,0
1996,8,16,20,0,,27.4,19.6,62,100820,0,0,414,8,1,7,0,0,0,0,20,1.3,6,0,0,0,0,0,0,0,0,0,0,0,0
1996,8,16,21,0,,26.9,19.7,65,100840,0,0,413,0,0,0,0,0,0,0,200,2.7,6,0,0,0,0,0,0,0,0,0,0,0,0
1996,8,16,22,0,,26.1,19.6,67,100850,0,0,403,0,0,0,0,0,0,0,180,2.3,5,0,0,0,0,0,0,0,0,0,0,0,0
1996,8,16,23,0,,25.3,19.5,68,100870,0,0,395,0,0,0,0,0,0,0,180,2,3,0,0,0,0,0,0,0,0,0,0,0,0
1996,8,16,24,0,,25.2,19.4,70,100880,0,0,389,0,0,0,0,0,0,0,180,1.7,2,0,0,0,0,0,0,0,0,0,0,0,0
1996,8,17,1,0,,25,19.7,72,100850,0,0,392,0,0,0,0,0,0,0,200,1.3,3,0,0,0,0,0,0,0,0,0,0,0,0
1996,8,17,2,0,,24.9,19.9,73,100830,0,0,393,0,0,0,0,0,0,0,200,1.3,3,0,0,0,0,0,0,0,0,0,0,0,0
1996,8,17,3,0,,24.9,20.2,75,100800,0,0,396,0,0,0,0,0,0,0,160,1,4,0,0,0,0,0,0,0,0,0,0,0,0
1996,8,17,4,0,,24.7,19.9,75,100810,0,0,394,0,0,0,0,0,0,0,180,1.3,4,0,0,0,0,0,0,0,0,0,0,0,0
1996,8,17,5,0,,24.5,19.5,76,100830,0,0,393,0,0,0,0,0,0,0,180,0.8,4,0,0,0,0,0,0,0,0,0,0,0,0
1996,8,17,6,0,,24,19.2,76,100840,0,0,390,0,0,0,0,0,0,0,180,1.7,4,0,0,0,0,0,0,0,0,0,0,0,0
1996,8,17,7,0,,24.3,20.3,76,100870,0,0,392,65,30,34,6186,2629,4792,0,180,1.7,4,0,0,0,0,0,0,0,0,0,0,0,0
1996,8,17,8,0,,25.2,21.4,76,100900,0,0,397,221,407,95,43376,39963,15479,0,0,0,3,0,0,0,0,0,0,0,0,0,0,0,0
1996,8,17,9,0,,27.1,22.5,76,100930,0,0,407,407,513,146,63624,50159,22156,0,20,1.8,3,0,0,0,0,0,0,0,0,0,0,0,0
1996,8,17,10,0,,27.9,21.8,71,100930,0,0,414,534,434,239,68990,38231,34291,0,50,1.8,4,0,0,0,0,0,0,0,0,0,0,0,0
1996,8,17,11,0,,28.1,21,66,100930,0,0,417,627,299,383,72980,25537,49099,0,50,2.7,5,0,0,0,0,0,0,0,0,0,0,0,0
1996,8,17,12,0,,28.5,20.3,61,100930,0,0,422,613,190,442,68152,16639,53051,0,50,3,6,0,0,0,0,0,0,0,0,0,0,0,0
1996,8,17,13,0,,29.4,21.4,64,100880,0,0,429,646,192,466,69511,16414,55944,0,50,3.3,6,0,0,0,0,0,0,0,0,0,0,0,0
1996,8,17,14,0,,29.7,22.5,68,100820,0,0,432,616,181,449,64623,14916,54215,0,50,3.2,6,0,0,0,0,0,0,0,0,0,0,0,0
1996,8,17,15,0,,29.3,23.6,71,100770,0,0,431,555,182,402,54646,15782,46282,0,50,2.7,6,0,0,0,0,0,0,0,0,0,0,0,0
1996,8,17,16,0,,29,23.7,73,100770,0,0,433,414,139,314,39702,11346,35907,0,50,4.7,7,0,0,0,0,0,0,0,0,0,0,0,0
1996,8,17,17,0,,28.4,23.7,75,100780,0,0,433,309,149,226,26535,9840,25308,0,50,4.5,7,0,0,0,0,0,0,0,0,0,0,0,0
1996,8,17,18,0,,28.1,23.8,77,100780,0,0,436,170,112,129,0,0,0,0,50,4,8,0,0,0,0,0,0,0,0,0,0,0,0
1996,8,17,19,0,,28.1,22.1,71,100820,0,0,427,82,202,50,0,0,0,0,140,3,7,0,0,0,0,0,0,0,0,0,0,0,0
1996,8,17,20,0,,27.9,20.4,65,100870,0,0,419,7,1,6,0,0,0,0,200,2.5,6,0,0,0,0,0,0,0,0,0,0,0,0
1996,8,17,21,0,,27.5,18.7,59,100910,0,0,411,0,0,0,0,0,0,0,230,1.8,5,0,0,0,0,0,0,0,0,0,0,0,0
1996,8,17,22,0,,26.5,17.5,57,100950,0,0,404,0,0,0,0,0,0,0,180,1.2,5,0,0,0,0,0,0,0,0,0,0,0,0
1996,8,17,23,0,,25.8,16.4,56,101000,0,0,399,0,0,0,0,0,0,0,160,1.7,5,0,0,0,0,0,0,0,0,0,0,0,0
1996,8,17,24,0,,25.1,15.2,54,101040,0,0,394,0,0,0,0,0,0,0,160,2,5,0,0,0,0,0,0,0,0,0,0,0,0
1996,8,18,1,0,,24.6,15.8,58,101030,0,0,394,0,0,0,0,0,0,0,160,1.7,6,0,0,0,0,0,0,0,0,0,0,0,0
1996,8,18,2,0,,24.2,16.5,61,101010,0,0,395,0,0,0,0,0,0,0,160,1.5,6,0,0,0,0,0,0,0,0,0,0,0,0
1996,8,18,3,0,,23.9,17.1,65,101000,0,0,398,0,0,0,0,0,0,0,160,2.7,7,0,0,0,0,0,0,0,0,0,0,0,0
1996,8,18,4,0,,23.7,17.9,69,101020,0,0,393,0,0,0,0,0,0,0,140,2.2,6,0,0,0,0,0,0,0,0,0,0,0,0
1996,8,18,5,0,,23.7,18.6,73,101040,0,0,390,0,0,0,0,0,0,0,180,1.5,5,0,0,0,0,0,0,0,0,0,0,0,0
1996,8,18,6,0,,23.8,19.4,77,101060,0,0,389,0,0,0,0,0,0,0,160,1.8,4,0,0,0,0,0,0,0,0,0,0,0,0
1996,8,18,7,0,,24.4,20.3,75,101060,0,0,395,61,34,27,5786,2843,4283,0,160,1.5,5,0,0,0,0,0,0,0,0,0,0,0,0
1996,8,18,8,0,,26.3,21.1,72,101060,0,0,409,217,391,97,42408,38482,15612,0,90,2.5,5,0,0,0,0,0,0,0,0,0,0,0,0
1996,8,18,9,0,,28,22,70,101060,0,0,422,353,320,191,51582,28109,28392,0,90,2.5,6,0,0,0,0,0,0,0,0,0,0,0,0
1996,8,18,10,0,,28.3,22.3,71,101050,0,0,427,438,202,300,55359,16857,40091,0,90,2.8,7,0,0,0,0,0,0,0,0,0,0,0,0
1996,8,18,11,0,,29,22.6,71,101030,0,0,435,516,169,379,60115,14321,46751,0,50,3.8,7,0,0,0,0,0,0,0,0,0,0,0,0
1996,8,18,12,0,,28.4,22.9,72,101020,0,0,437,450,82,376,50676,7103,44246,0,50,2.3,8,0,0,0,0,0,0,0,0,0,0,0,0
1996,8,18,13,0,,29,22.6,72,100990,0,0,446,411,56,358,46031,4910,41984,0,50,4.3,9,0,0,0,0,0,0,0,0,0,0,0,0
1996,8,18,14,0,,28.6,22.4,73,100960,0,0,451,386,51,339,42659,4470,39553,0,70,4.3,9,0,0,0,0,0,0,0,0,0,0,0,0
1996,8,18,15,0,,27.4,22.1,73,100930,0,0,452,271,26,249,28587,1869,27602,0,70,5.7,10,0,0,0,0,0,0,0,0,0,0,0,0
1996,8,18,16,0,,29,21.8,69,100910,0,0,448,300,58,258,31134,4745,29564,0,140,2.5,9,0,0,0,0,0,0,0,0,0,0,0,0
1996,8,18,17,0,,29.4,21.5,66,100890,0,0,441,292,129,221,25539,8711,24487,0,140,2.5,8,0,0,0,0,0,0,0,0,0,0,0,0
1996,8,18,18,0,,29.3,21.2,62,100870,0,0,433,228,280,127,0,0,0,0,70,3.8,7,0,0,0,0,0,0,0,0,0,0,0,0
1996,8,18,19,0,,28.6,21.5,66,100910,0,0,423,88,280,46,0,0,0,0,50,1.7,6,0,0,0,0,0,0,0,0,0,0,0,0
1996,8,18,20,0,,27.7,21.8,70,100960,0,0,414,7,1,6,0,0,0,0,50,0.7,4,0,0,0,0,0,0,0,0,0,0,0,0
1996,8,18,21,0,,27.3,22.1,74,101000,0,0,408,0,0,0,0,0,0,0,200,2.5,3,0,0,0,0,0,0,0,0,0,0,0,0
1996,8,18,22,0,,26.6,21.9,75,101030,0,0,404,0,0,0,0,0,0,0,180,1.5,3,0,0,0,0,0,0,0,0,0,0,0,0
1996,8,18,23,0,,26.1,21.8,76,101060,0,0,401,0,0,0,0,0,0,0,200,2.2,3,0,0,0,0,0,0,0,0,0,0,0,0
1996,8,18,24,0,,26,21.6,77,101090,0,0,400,0,0,0,0,0,0,0,180,1.8,3,0,0,0,0,0,0,0,0,0,0,0,0
1996,8,19,1,0,,25.6,21,76,101070,0,0,398,0,0,0,0,0,0,0,180,1.3,3,0,0,0,0,0,0,0,0,0,0,0,0
1996,8,19,2,0,,25.3,20.5,75,101060,0,0,395,0,0,0,0,0,0,0,160,2.5,3,0,0,0,0,0,0,0,0,0,0,0,0
1996,8,19,3,0,,24.9,19.9,74,101040,0,0,392,0,0,0,0,0,0,0,160,2,3,0,0,0,0,0,0,0,0,0,0,0,0
1996,8,19,4,0,,24.8,19.7,73,101040,0,0,397,0,0,0,0,0,0,0,180,1.7,5,0,0,0,0,0,0,0,0,0,0,0,0
1996,8,19,5,0,,24.8,19.6,72,101040,0,0,402,0,0,0,0,0,0,0,140,1.3,6,0,0,0,0,0,0,0,0,0,0,0,0
1996,8,19,6,0,,25.1,19.4,71,101040,0,0,414,0,0,0,0,0,0,0,160,2.3,8,0,0,0,0,0,0,0,0,0,0,0,0
1996,8,19,7,0,,25.3,20,71,101060,0,0,415,41,11,31,4284,898,3810,0,160,1.2,8,0,0,0,0,0,0,0,0,0,0,0,0
1996,8,19,8,0,,26.2,20.5,71,101080,0,0,421,146,130,107,23117,11151,15372,0,50,0.3,8,0,0,0,0,0,0,0,0,0,0,0,0
1996,8,19,9,0,,26.8,21.1,71,101100,0,0,425,254,120,193,35013,10271,26558,0,50,1,8,0,0,0,0,0,0,0,0,0,0,0,0
1996,8,19,10,0,,28.6,22.3,75,101100,0,0,443,310,78,258,38611,6695,32559,0,20,2.2,9,0,0,0,0,0,0,0,0,0,0,0,0
1996,8,19,11,0,,28.1,23.4,79,101110,0,0,449,362,64,310,41932,5514,36798,0,20,2.5,9,0,0,0,0,0,0,0,0,0,0,0,0
1996,8,19,12,0,,27.7,24.6,83,101110,0,0,457,281,23,261,32937,1910,31212,0,50,3.2,10,0,0,0,0,0,0,0,0,0,0,0,0
1996,8,19,13,0,,27,24.6,83,101110,0,0,453,241,13,229,27777,758,27154,0,70,1.8,10,0,0,0,0,0,0,0,0,0,0,0,0
1996,8,19,14,0,,27.2,24.5,83,101100,0,0,454,227,12,216,25584,709,25094,0,340,0.7,10,0,0,0,0,0,0,0,0,0,0,0,0
1996,8,19,15,0,,27.6,24.5,83,101100,0,0,456,233,17,218,24907,1087,24338,0,270,1.5,10,0,0,0,0,0,0,0,0,0,0,0,0
1996,8,19,16,0,,28.2,24.1,81,101100,0,0,459,223,26,204,22127,1688,21575,0,50,1.7,10,0,0,0,0,0,0,0,0,0,0,0,0
1996,8,19,17,0,,28.2,23.8,78,101090,0,0,459,164,26,150,14736,1548,14555,0,340,0.7,10,0,0,0,0,0,0,0,0,0,0,0,0
1996,8,19,18,0,,28.1,23.4,76,101090,0,0,458,103,29,93,0,0,0,0,20,0.3,10,0,0,0,0,0,0,0,0,0,0,0,0
1996,8,19,19,0,,28.1,22.9,75,101050,0,0,457,37,4,33,0,0,0,0,20,0.8,10,0,0,0,0,0,0,0,0,0,0,0,0
1996,8,19,20,0,,26.8,22.5,74,101010,0,0,449,0,0,0,0,0,0,0,0,0,10,0,0,0,0,0,0,0,0,0,0,0,0
1996,8,19,21,0,,27.3,22,73,100970,0,0,451,0,0,0,0,0,0,0,140,1.7,10,0,0,0,0,0,0,0,0,0,0,0,0
1996,8,19,22,0,,27.7,22.3,75,101000,0,0,454,0,0,0,0,0,0,0,50,2.7,10,0,0,0,0,0,0,0,0,0,0,0,0
1996,8,19,23,0,,26.4,22.5,78,101030,0,0,446,0,0,0,0,0,0,0,20,1.8,10,0,0,0,0,0,0,0,0,0,0,0,0
1996,8,19,24,0,,26.5,22.8,80,101060,0,0,447,0,0,0,0,0,0,0,200,0.5,10,0,0,0,0,0,0,0,0,0,0,0,0
1996,8,20,1,0,,26.5,22.2,78,101020,0,0,446,0,0,0,0,0,0,0,290,0.7,10,0,0,0,0,0,0,0,0,0,0,0,0
1996,8,20,2,0,,26.4,21.5,75,100970,0,0,445,0,0,0,0,0,0,0,180,1.2,10,0,0,0,0,0,0,0,0,0,0,0,0
1996,8,20,3,0,,26.2,20.9,73,100930,0,0,443,0,0,0,0,0,0,0,180,1,10,0,0,0,0,0,0,0,0,0,0,0,0
1996,8,20,4,0,,26.1,21.4,76,100970,0,0,443,0,0,0,0,0,0,0,180,1.2,10,0,0,0,0,0,0,0,0,0,0,0,0
1996,8,20,5,0,,25.9,21.8,79,101000,0,0,442,0,0,0,0,0,0,0,180,1.7,10,0,0,0,0,0,0,0,0,0,0,0,0
1996,8,20,6,0,,25.5,22.3,82,101040,0,0,441,0,0,0,0,0,0,0,180,1.7,10,0,0,0,0,0,0,0,0,0,0,0,0
1996,8,20,7,0,,25.3,22.8,84,101040,0,0,440,19,1,18,2380,36,2362,0,140,1.5,10,0,0,0,0,0,0,0,0,0,0,0,0
1996,8,20,8,0,,25.6,23.4,85,101050,0,0,443,69,16,64,8778,1290,7884,0,0,0.2,10,0,0,0,0,0,0,0,0,0,0,0,0
1996,8,20,9,0,,26.2,23.9,87,101050,0,0,447,131,19,121,16091,1588,14787,0,0,0,10,0,0,0,0,0,0,0,0,0,0,0,0
1996,8,20,10,0,,26.9,23.7,84,101040,0,0,451,190,20,176,22817,1688,21294,0,0,0,10,0,0,0,0,0,0,0,0,0,0,0,0
1996,8,20,11,0,,27.4,23.5,81,101020,0,0,454,245,22,227,28927,1864,27196,0,0,0.2,10,0,0,0,0,0,0,0,0,0,0,0,0
1996,8,20,12,0,,27.6,23.3,78,101010,0,0,455,295,26,271,34298,2239,32282,0,50,2.3,10,0,0,0,0,0,0,0,0,0,0,0,0
1996,8,20,13,0,,27.7,23.6,79,100990,0,0,456,302,25,279,34779,2097,33062,0,50,2.5,10,0,0,0,0,0,0,0,0,0,0,0,0
1996,8,20,14,0,,27.6,24,81,100980,0,0,456,278,21,259,30554,1393,29594,0,50,2.7,10,0,0,0,0,0,0,0,0,0,0,0,0
1996,8,20,15,0,,27.7,24.3,82,100960,0,0,457,238,18,223,25394,1192,24774,0,50,1.7,10,0,0,0,0,0,0,0,0,0,0,0,0
1996,8,20,16,0,,24,23.7,83,100910,0,0,434,125,5,122,13476,226,13403,0,200,2.2,10,0,0,0,0,0,0,0,0,0,0,0,0
1996,8,20,17,0,,25.1,23,84,100850,0,0,439,108,8,104,10435,227,10409,0,0,0,10,0,0,0,0,0,0,0,0,0,0,0,0
1996,8,20,18,0,,25.1,22.4,85,100800,0,0,438,69,10,65,0,0,0,0,20,0.3,10,0,0,0,0,0,0,0,0,0,0,0,0
1996,8,20,19,0,,24.9,22.4,85,100840,0,0,425,47,8,40,0,0,0,0,20,0.3,9,0,0,0,0,0,0,0,0,0,0,0,0
1996,8,20,20,0,,24.8,22.4,85,100890,0,0,416,0,0,0,0,0,0,0,180,0.8,8,0,0,0,0,0,0,0,0,0,0,0,0
1996,8,20,21,0,,25.1,22.4,85,100930,0,0,411,0,0,0,0,0,0,0,180,1.3,7,0,0,0,0,0,0,0,0,0,0,0,0
1996,8,20,22,0,,24.7,22,84,100910,0,0,415,0,0,0,0,0,0,0,180,1.7,8,0,0,0,0,0,0,0,0,0,0,0,0
1996,8,20,23,0,,24.7,21.7,84,100890,0,0,423,0,0,0,0,0,0,0,140,1.7,9,0,0,0,0,0,0,0,0,0,0,0,0
1996,8,20,24,0,,24.5,21.3,83,100870,0,0,433,0,0,0,0,0,0,0,200,1.5,10,0,0,0,0,0,0,0,0,0,0,0,0
1996,8,21,1,0,,24.7,21.4,83,100850,0,0,435,0,0,0,0,0,0,0,160,2.2,10,0,0,0,0,0,0,0,0,0,0,0,0
1996,8,21,2,0,,24.9,21.6,82,100820,0,0,436,0,0,0,0,0,0,0,140,1.3,10,0,0,0,0,0,0,0,0,0,0,0,0
1996,8,21,3,0,,25.1,21.7,82,100800,0,0,438,0,0,0,0,0,0,0,180,1.7,10,0,0,0,0,0,0,0,0,0,0,0,0
1996,8,21,4,0,,24.8,21.8,84,100800,0,0,436,0,0,0,0,0,0,0,180,0.8,10,0,0,0,0,0,0,0,0,0,0,0,0
1996,8,21,5,0,,24.4,21.9,86,100790,0,0,434,0,0,0,0,0,0,0,180,2.3,10,0,0,0,0,0,0,0,0,0,0,0,0
1996,8,21,6,0,,24.1,22,88,100790,0,0,432,0,0,0,0,0,0,0,320,1.2,10,0,0,0,0,0,0,0,0,0,0,0,0
1996,8,21,7,0,,23.7,22.2,88,100770,0,0,426,18,1,17,2292,33,2274,0,180,3.7,10,0,0,0,0,0,0,0,0,0,0,0,0
1996,8,21,8,0,,24.3,22.3,87,100750,0,0,425,102,49,87,14659,4210,11749,0,90,0.5,9,0,0,0,0,0,0,0,0,0,0,0,0
1996,8,21,9,0,,24.8,22.5,87,100730,0,0,425,188,53,161,24733,4569,20988,0,110,0.8,9,0,0,0,0,0,0,0,0,0,0,0,0
1996,8,21,10,0,,26.2,22.8,81,100730,0,0,424,334,97,269,41436,8290,33974,0,200,1,8,0,0,0,0,0,0,0,0,0,0,0,0
1996,8,21,11,0,,30.1,23.1,74,100740,0,0,440,573,234,384,68177,19051,50518,0,270,5,7,0,0,0,0,0,0,0,0,0,0,0,0
1996,8,21,12,0,,29.8,23.4,68,100740,0,0,434,689,277,442,77543,22303,57510,0,250,5.7,6,0,0,0,0,0,0,0,0,0,0,0,0
1996,8,21,13,0,,29.6,23.9,73,100730,0,0,435,673,223,465,71797,18200,56945,0,250,5.5,6,0,0,0,0,0,0,0,0,0,0,0,0
1996,8,21,14,0,,30.4,24.3,78,100710,0,0,442,557,142,428,58263,12273,49845,0,250,5.7,7,0,0,0,0,0,0,0,0,0,0,0,0
1996,8,21,15,0,,27.9,24.8,83,100700,0,0,430,440,100,357,45774,8416,41426,0,230,5,7,0,0,0,0,0,0,0,0,0,0,0,0
1996,8,21,16,0,,29.1,24.6,80,100670,0,0,433,448,184,317,41058,14743,36343,0,290,4.7,6,0,0,0,0,0,0,0,0,0,0,0,0
1996,8,21,17,0,,29.2,24.4,77,100640,0,0,430,335,205,224,26394,13086,24970,0,290,3.7,6,0,0,0,0,0,0,0,0,0,0,0,0
1996,8,21,18,0,,29.4,24.2,74,100610,0,0,429,244,365,116,0,0,0,0,290,2.3,5,0,0,0,0,0,0,0,0,0,0,0,0
1996,8,21,19,0,,28.1,23.4,73,100650,0,0,424,81,39,42,0,0,0,0,290,3,6,0,0,0,0,0,0,0,0,0,0,0,0
1996,8,21,20,0,,27.6,22.7,73,100700,0,0,425,0,0,0,0,0,0,0,270,3.5,7,0,0,0,0,0,0,0,0,0,0,0,0
1996,8,21,21,0,,27.3,21.9,72,100740,0,0,429,0,0,0,0,0,0,0,270,4.5,8,0,0,0,0,0,0,0,0,0,0,0,0
1996,8,21,22,0,,27.1,22.5,77,100740,0,0,432,0,0,0,0,0,0,0,270,3.3,8,0,0,0,0,0,0,0,0,0,0,0,0
1996,8,21,23,0,,27,23,82,100750,0,0,435,0,0,0,0,0,0,0,250,2.5,9,0,0,0,0,0,0,0,0,0,0,0,0
1996,8,21,24,0,,25.9,23.6,87,100750,0,0,433,0,0,0,0,0,0,0,270,2.3,9,0,0,0,0,0,0,0,0,0,0,0,0
1996,8,22,1,0,,25.6,23.2,86,100720,0,0,421,0,0,0,0,0,0,0,230,2,8,0,0,0,0,0,0,0,0,0,0,0,0
1996,8,22,2,0,,25.4,22.7,85,100690,0,0,413,0,0,0,0,0,0,0,180,1.2,7,0,0,0,0,0,0,0,0,0,0,0,0
1996,8,22,3,0,,25.1,22.3,84,100660,0,0,406,0,0,0,0,0,0,0,0,0,6,0,0,0,0,0,0,0,0,0,0,0,0
1996,8,22,4,0,,25.3,22.3,84,100660,0,0,406,0,0,0,0,0,0,0,270,1.7,6,0,0,0,0,0,0,0,0,0,0,0,0
1996,8,22,5,0,,25.1,22.2,84,100670,0,0,403,0,0,0,0,0,0,0,250,2,5,0,0,0,0,0,0,0,0,0,0,0,0
1996,8,22,6,0,,25.1,22.2,84,100670,0,0,402,0,0,0,0,0,0,0,290,1.3,5,0,0,0,0,0,0,0,0,0,0,0,0
1996,8,22,7,0,,24.9,22.6,82,100690,0,0,403,54,25,28,5157,2111,4057,0,270,1.3,5,0,0,0,0,0,0,0,0,0,0,0,0
1996,8,22,8,0,,26.1,23.1,80,100710,0,0,411,179,258,102,32085,22221,16771,0,250,0.8,6,0,0,0,0,0,0,0,0,0,0,0,0
1996,8,22,9,0,,27.6,23.5,78,100730,0,0,421,333,282,193,48981,24241,29158,0,360,2.5,6,0,0,0,0,0,0,0,0,0,0,0,0
1996,8,22,10,0,,28.3,23.5,76,100720,0,0,432,406,170,292,52118,13789,39734,0,20,1.2,7,0,0,0,0,0,0,0,0,0,0,0,0
1996,8,22,11,0,,28.7,23.4,74,100700,0,0,445,358,64,307,41477,5476,36413,0,20,1.8,9,0,0,0,0,0,0,0,0,0,0,0,0
1996,8,22,12,0,,28.8,23.4,72,100690,0,0,462,294,26,271,34249,2252,32232,0,340,2.8,10,0,0,0,0,0,0,0,0,0,0,0,0
1996,8,22,13,0,,28.9,23.4,73,100650,0,0,463,296,24,274,34103,2015,32464,0,360,2.5,10,0,0,0,0,0,0,0,0,0,0,0,0
1996,8,22,14,0,,27.6,23.5,75,100610,0,0,455,252,16,237,28039,1053,27320,0,20,2,10,0,0,0,0,0,0,0,0,0,0,0,0
1996,8,22,15,0,,28.1,23.5,76,100570,0,0,458,241,19,225,25659,1298,24992,0,290,1.8,10,0,0,0,0,0,0,0,0,0,0,0,0
1996,8,22,16,0,,27.1,23.4,76,100560,0,0,430,312,68,264,31961,5444,30241,0,180,2,8,0,0,0,0,0,0,0,0,0,0,0,0
1996,8,22,17,0,,27.2,23.2,75,100540,0,0,419,321,184,221,25837,11942,24587,0,140,1.5,6,0,0,0,0,0,0,0,0,0,0,0,0
1996,8,22,18,0,,27.9,23.1,75,100530,0,0,416,235,330,120,0,0,0,0,50,0.5,4,0,0,0,0,0,0,0,0,0,0,0,0
1996,8,22,19,0,,27.6,23.2,77,100550,0,0,415,92,49,43,0,0,0,0,340,2,4,0,0,0,0,0,0,0,0,0,0,0,0
1996,8,22,20,0,,27.1,23.3,79,100580,0,0,414,0,0,0,0,0,0,0,340,2,5,0,0,0,0,0,0,0,0,0,0,0,0
1996,8,22,21,0,,26.9,23.4,81,100600,0,0,414,0,0,0,0,0,0,0,360,0.7,5,0,0,0,0,0,0,0,0,0,0,0,0
1996,8,22,22,0,,26.7,23.3,82,100600,0,0,414,0,0,0,0,0,0,0,230,1.3,5,0,0,0,0,0,0,0,0,0,0,0,0
1996,8,22,23,0,,26.2,23.1,83,100600,0,0,412,0,0,0,0,0,0,0,230,1.3,6,0,0,0,0,0,0,0,0,0,0,0,0
1996,8,22,24,0,,25.9,23,84,100600,0,0,411,0,0,0,0,0,0,0,200,0.7,6,0,0,0,0,0,0,0,0,0,0,0,0
1996,8,23,1,0,,25.9,22.9,84,100590,0,0,413,0,0,0,0,0,0,0,230,1.7,6,0,0,0,0,0,0,0,0,0,0,0,0
1996,8,23,2,0,,25.9,22.7,83,100580,0,0,414,0,0,0,0,0,0,0,230,1.3,7,0,0,0,0,0,0,0,0,0,0,0,0
1996,8,23,3,0,,25.7,22.6,83,100570,0,0,414,0,0,0,0,0,0,0,290,0.7,7,0,0,0,0,0,0,0,0,0,0,0,0
1996,8,23,4,0,,25.7,22.5,82,100580,0,0,416,0,0,0,0,0,0,0,270,1.7,7,0,0,0,0,0,0,0,0,0,0,0,0
1996,8,23,5,0,,25.6,22.3,82,100590,0,0,418,0,0,0,0,0,0,0,340,1.5,8,0,0,0,0,0,0,0,0,0,0,0,0
1996,8,23,6,0,,25.7,22.2,81,100600,0,0,421,0,0,0,0,0,0,0,360,2.3,8,0,0,0,0,0,0,0,0,0,0,0,0
1996,8,23,7,0,,25.7,22.1,79,100630,0,0,410,50,21,29,5072,1753,4162,0,20,2.2,6,0,0,0,0,0,0,0,0,0,0,0,0
1996,8,23,8,0,,26.1,21.9,77,100660,0,0,406,195,357,90,38833,35039,14751,0,20,2.2,5,0,0,0,0,0,0,0,0,0,0,0,0
1996,8,23,9,0,,26.6,21.8,75,100690,0,0,404,381,457,154,59460,44669,23018,0,360,2.7,3,0,0,0,0,0,0,0,0,0,0,0,0
1996,8,23,10,0,,27.5,21,70,100690,0,0,409,545,492,216,72639,47773,29833,0,20,2.5,3,0,0,0,0,0,0,0,0,0,0,0,0
1996,8,23,11,0,,27.6,20.2,65,100700,0,0,409,631,322,371,73011,27930,47246,0,20,3,4,0,0,0,0,0,0,0,0,0,0,0,0
1996,8,23,12,0,,27.7,19.4,60,100700,0,0,410,684,275,439,75833,24066,54336,0,20,1.7,4,0,0,0,0,0,0,0,0,0,0,0,0
1996,8,23,13,0,,28.3,19.2,58,100670,0,0,413,702,258,464,73299,22737,54873,0,360,1.7,4,0,0,0,0,0,0,0,0,0,0,0,0
1996,8,23,14,0,,27.8,18.9,56,100630,0,0,410,676,251,449,67633,21833,52797,0,20,1.7,4,0,0,0,0,0,0,0,0,0,0,0,0
1996,8,23,15,0,,28.8,18.7,54,100600,0,0,415,653,319,389,59114,26642,45538,0,20,2.7,4,0,0,0,0,0,0,0,0,0,0,0,0
1996,8,23,16,0,,28.5,18.7,56,100600,0,0,415,536,330,304,42610,23520,35270,0,320,2.7,4,0,0,0,0,0,0,0,0,0,0,0,0
1996,8,23,17,0,,28,18.7,58,100600,0,0,413,378,314,209,24144,8712,23268,0,340,2.3,5,0,0,0,0,0,0,0,0,0,0,0,0
1996,8,23,18,0,,27.1,18.7,60,100600,0,0,409,227,335,112,0,0,0,0,320,1.7,5,0,0,0,0,0,0,0,0,0,0,0,0
1996,8,23,19,0,,26.6,19.3,64,100640,0,0,407,81,46,35,0,0,0,0,320,2.2,5,0,0,0,0,0,0,0,0,0,0,0,0
1996,8,23,20,0,,26.2,20,68,100670,0,0,405,0,0,0,0,0,0,0,360,1.7,5,0,0,0,0,0,0,0,0,0,0,0,0
1996,8,23,21,0,,26,20.6,72,100710,0,0,405,0,0,0,0,0,0,0,20,1.3,5,0,0,0,0,0,0,0,0,0,0,0,0
1996,8,23,22,0,,25.8,20.7,74,100730,0,0,406,0,0,0,0,0,0,0,20,2.2,6,0,0,0,0,0,0,0,0,0,0,0,0
1996,8,23,23,0,,25.4,20.7,75,100750,0,0,407,0,0,0,0,0,0,0,20,2.7,6,0,0,0,0,0,0,0,0,0,0,0,0
1996,8,23,24,0,,25.1,20.8,77,100770,0,0,409,0,0,0,0,0,0,0,50,2.3,7,0,0,0,0,0,0,0,0,0,0,0,0
1996,8,24,1,0,,24.9,20.3,76,100770,0,0,409,0,0,0,0,0,0,0,50,2,7,0,0,0,0,0,0,0,0,0,0,0,0
1996,8,24,2,0,,24.6,19.9,75,100770,0,0,409,0,0,0,0,0,0,0,50,1.2,8,0,0,0,0,0,0,0,0,0,0,0,0
1996,8,24,3,0,,24.4,19.4,74,100770,0,0,410,0,0,0,0,0,0,0,50,0.8,8,0,0,0,0,0,0,0,0,0,0,0,0
1996,8,24,4,0,,24.2,19.5,75,100780,0,0,409,0,0,0,0,0,0,0,200,1,8,0,0,0,0,0,0,0,0,0,0,0,0
1996,8,24,5,0,,24.1,19.7,77,100780,0,0,408,0,0,0,0,0,0,0,140,1.3,8,0,0,0,0,0,0,0,0,0,0,0,0
1996,8,24,6,0,,23.9,19.8,78,100790,0,0,407,0,0,0,0,0,0,0,180,1,8,0,0,0,0,0,0,0,0,0,0,0,0
1996,8,24,7,0,,24,20.3,78,100810,0,0,414,26,3,23,3007,267,2869,0,180,1.2,9,0,0,0,0,0,0,0,0,0,0,0,0
1996,8,24,8,0,,24.6,20.8,79,100840,0,0,425,111,66,91,16149,5856,12135,0,180,1.7,9,0,0,0,0,0,0,0,0,0,0,0,0
1996,8,24,9,0,,25.1,21.3,79,100860,0,0,437,156,33,140,19103,2828,16802,0,90,3,10,0,0,0,0,0,0,0,0,0,0,0,0
1996,8,24,10,0,,24.7,21.4,81,100870,0,0,435,217,30,196,25807,2621,23464,0,90,5,10,0,0,0,0,0,0,0,0,0,0,0,0
1996,8,24,11,0,,24.1,21.4,82,100890,0,0,431,229,19,214,26993,1642,25482,0,110,4,10,0,0,0,0,0,0,0,0,0,0,0,0
1996,8,24,12,0,,24.3,21.5,84,100900,0,0,433,255,18,239,29751,1568,28355,0,90,3.3,10,0,0,0,0,0,0,0,0,0,0,0,0
1996,8,24,13,0,,24.4,21.1,82,100880,0,0,433,279,20,260,31686,1362,30587,0,90,3.7,10,0,0,0,0,0,0,0,0,0,0,0,0
1996,8,24,14,0,,24.9,20.8,79,100860,0,0,435,291,25,269,31937,1802,30719,0,110,3,10,0,0,0,0,0,0,0,0,0,0,0,0
1996,8,24,15,0,,24.7,20.4,77,100840,0,0,433,250,22,232,26558,1599,25749,0,90,3.3,10,0,0,0,0,0,0,0,0,0,0,0,0
1996,8,24,16,0,,24.3,20.6,80,100850,0,0,431,219,26,200,21687,1840,21120,0,110,4.2,10,0,0,0,0,0,0,0,0,0,0,0,0
1996,8,24,17,0,,24.4,20.8,82,100850,0,0,432,149,22,137,13361,1357,13231,0,90,2.2,10,0,0,0,0,0,0,0,0,0,0,0,0
1996,8,24,18,0,,23.7,21,85,100860,0,0,428,89,23,81,0,0,0,0,90,2.7,10,0,0,0,0,0,0,0,0,0,0,0,0
1996,8,24,19,0,,23.6,20.8,84,100890,0,0,416,40,6,34,0,0,0,0,90,3.7,9,0,0,0,0,0,0,0,0,0,0,0,0
1996,8,24,20,0,,23.4,20.5,83,100930,0,0,406,0,0,0,0,0,0,0,110,3.8,8,0,0,0,0,0,0,0,0,0,0,0,0
1996,8,24,21,0,,23.5,20.3,82,100960,0,0,399,0,0,0,0,0,0,0,110,3.5,7,0,0,0,0,0,0,0,0,0,0,0,0
1996,8,24,22,0,,23.7,20.1,81,100970,0,0,399,0,0,0,0,0,0,0,110,3.7,7,0,0,0,0,0,0,0,0,0,0,0,0
1996,8,24,23,0,,23.7,20,80,100970,0,0,397,0,0,0,0,0,0,0,110,4,6,0,0,0,0,0,0,0,0,0,0,0,0
1996,8,24,24,0,,23.7,19.8,79,100980,0,0,395,0,0,0,0,0,0,0,110,2.7,6,0,0,0,0,0,0,0,0,0,0,0,0
1996,8,25,1,0,,23.7,19.5,78,100960,0,0,395,0,0,0,0,0,0,0,110,2.8,6,0,0,0,0,0,0,0,0,0,0,0,0
1996,8,25,2,0,,23.7,19.3,77,100930,0,0,395,0,0,0,0,0,0,0,90,2.8,6,0,0,0,0,0,0,0,0,0,0,0,0
1996,8,25,3,0,,23.6,19,76,100910,0,0,394,0,0,0,0,0,0,0,110,3.3,6,0,0,0,0,0,0,0,0,0,0,0,0
1996,8,25,4,0,,23.6,19.1,76,100920,0,0,398,0,0,0,0,0,0,0,110,3.5,7,0,0,0,0,0,0,0,0,0,0,0,0
1996,8,25,5,0,,23.5,19.1,77,100920,0,0,404,0,0,0,0,0,0,0,110,2.5,8,0,0,0,0,0,0,0,0,0,0,0,0
1996,8,25,6,0,,23.6,19.2,77,100930,0,0,414,0,0,0,0,0,0,0,110,3.3,9,0,0,0,0,0,0,0,0,0,0,0,0
1996,8,25,7,0,,23.6,19.6,76,100960,0,0,405,37,9,28,3882,757,3492,0,110,2.7,8,0,0,0,0,0,0,0,0,0,0,0,0
1996,8,25,8,0,,24.3,20,76,100980,0,0,403,168,229,101,30138,20516,16116,0,110,3.7,7,0,0,0,0,0,0,0,0,0,0,0,0
1996,8,25,9,0,,25.1,20.4,75,101010,0,0,404,330,286,189,48426,25653,27599,0,110,4.7,6,0,0,0,0,0,0,0,0,0,0,0,0
1996,8,25,10,0,,25.9,20.3,74,101010,0,0,415,433,211,293,54489,18275,38191,0,90,5.5,7,0,0,0,0,0,0,0,0,0,0,0,0
1996,8,25,11,0,,26.5,20.3,74,101010,0,0,428,393,84,326,46806,7489,39933,0,90,6,9,0,0,0,0,0,0,0,0,0,0,0,0
1996,8,25,12,0,,25.3,20.2,73,101010,0,0,437,316,33,287,36302,2915,33714,0,70,5.7,10,0,0,0,0,0,0,0,0,0,0,0,0
1996,8,25,13,0,,25.9,20.4,73,100960,0,0,436,304,26,280,34667,2307,32811,0,50,4,10,0,0,0,0,0,0,0,0,0,0,0,0
1996,8,25,14,0,,26.1,20.5,72,100920,0,0,433,379,52,332,41645,4617,38539,0,90,4.5,9,0,0,0,0,0,0,0,0,0,0,0,0
1996,8,25,15,0,,26.1,20.7,72,100870,0,0,430,359,60,309,38237,5271,35589,0,90,4.2,9,0,0,0,0,0,0,0,0,0,0,0,0
1996,8,25,16,0,,27.4,20.4,70,100870,0,0,431,381,124,295,36460,10359,33310,0,110,4.5,8,0,0,0,0,0,0,0,0,0,0,0,0
1996,8,25,17,0,,26.9,20,68,100860,0,0,422,274,124,208,23550,8247,22791,0,110,3.7,8,0,0,0,0,0,0,0,0,0,0,0,0
1996,8,25,18,0,,26.5,19.7,66,100860,0,0,415,199,237,119,0,0,0,0,110,4,7,0,0,0,0,0,0,0,0,0,0,0,0
1996,8,25,19,0,,25.8,19.9,69,100890,0,0,408,69,31,38,0,0,0,0,110,3.8,6,0,0,0,0,0,0,0,0,0,0,0,0
1996,8,25,20,0,,25.1,20,72,100930,0,0,402,0,0,0,0,0,0,0,110,4,6,0,0,0,0,0,0,0,0,0,0,0,0
1996,8,25,21,0,,24.9,20.2,75,100960,0,0,399,0,0,0,0,0,0,0,110,3.3,5,0,0,0,0,0,0,0,0,0,0,0,0
1996,8,25,22,0,,24.7,20.3,76,100980,0,0,398,0,0,0,0,0,0,0,110,2.7,5,0,0,0,0,0,0,0,0,0,0,0,0
1996,8,25,23,0,,24.8,20.4,76,101000,0,0,398,0,0,0,0,0,0,0,110,2.7,5,0,0,0,0,0,0,0,0,0,0,0,0
1996,8,25,24,0,,24.8,20.5,77,101020,0,0,399,0,0,0,0,0,0,0,110,1.7,5,0,0,0,0,0,0,0,0,0,0,0,0
1996,8,26,1,0,,24.6,20.4,78,100980,0,0,396,0,0,0,0,0,0,0,110,3.7,5,0,0,0,0,0,0,0,0,0,0,0,0
1996,8,26,2,0,,24.4,20.4,78,100950,0,0,394,0,0,0,0,0,0,0,90,3,4,0,0,0,0,0,0,0,0,0,0,0,0
1996,8,26,3,0,,24,20.3,79,100910,0,0,391,0,0,0,0,0,0,0,110,2.3,4,0,0,0,0,0,0,0,0,0,0,0,0
1996,8,26,4,0,,23.9,20.4,80,100910,0,0,394,0,0,0,0,0,0,0,110,2.2,5,0,0,0,0,0,0,0,0,0,0,0,0
1996,8,26,5,0,,23.8,20.5,82,100910,0,0,397,0,0,0,0,0,0,0,200,1.2,6,0,0,0,0,0,0,0,0,0,0,0,0
1996,8,26,6,0,,23.6,20.6,83,100910,0,0,400,0,0,0,0,0,0,0,140,0.8,7,0,0,0,0,0,0,0,0,0,0,0,0
1996,8,26,7,0,,23.6,21,78,100920,0,0,396,45,16,29,4782,1397,4065,0,140,0.5,6,0,0,0,0,0,0,0,0,0,0,0,0
1996,8,26,8,0,,24.7,21.3,74,100920,0,0,399,185,320,92,36412,31405,15009,0,200,0.7,5,0,0,0,0,0,0,0,0,0,0,0,0
1996,8,26,9,0,,27.7,21.7,69,100930,0,0,413,387,498,143,61176,48834,21626,0,230,0.3,4,0,0,0,0,0,0,0,0,0,0,0,0
1996,8,26,10,0,,29,22.3,70,100930,0,0,423,532,473,219,71151,45648,30540,0,50,3,5,0,0,0,0,0,0,0,0,0,0,0,0
1996,8,26,11,0,,29.2,23,71,100940,0,0,427,639,426,299,75698,36818,41996,0,50,3.7,5,0,0,0,0,0,0,0,0,0,0,0,0
1996,8,26,12,0,,29.1,23.6,72,100940,0,0,430,581,175,426,65322,14503,52483,0,50,3.3,6,0,0,0,0,0,0,0,0,0,0,0,0
1996,8,26,13,0,,29.7,23.2,69,100910,0,0,434,601,169,446,65586,13966,54393,0,20,3,6,0,0,0,0,0,0,0,0,0,0,0,0
1996,8,26,14,0,,30,22.8,66,100870,0,0,437,526,127,412,55219,11176,47737,0,50,2.3,7,0,0,0,0,0,0,0,0,0,0,0,0
1996,8,26,15,0,,30.3,22.4,63,100840,0,0,441,532,179,385,51981,15637,44186,0,340,5,7,0,0,0,0,0,0,0,0,0,0,0,0
1996,8,26,16,0,,28.7,21.7,63,100840,0,0,432,401,145,300,37595,11939,34013,0,340,3.5,7,0,0,0,0,0,0,0,0,0,0,0,0
1996,8,26,17,0,,28.2,20.9,62,100830,0,0,431,253,103,199,22519,6614,21939,0,340,3.3,8,0,0,0,0,0,0,0,0,0,0,0,0
1996,8,26,18,0,,28.2,20.2,62,100830,0,0,432,150,106,115,0,0,0,0,320,2.3,8,0,0,0,0,0,0,0,0,0,0,0,0
1996,8,26,19,0,,27.4,20.9,67,100840,0,0,422,57,19,38,0,0,0,0,290,1.8,7,0,0,0,0,0,0,0,0,0,0,0,0
1996,8,26,20,0,,26.9,21.7,73,100850,0,0,415,0,0,0,0,0,0,0,320,1,6,0,0,0,0,0,0,0,0,0,0,0,0
1996,8,26,21,0,,26.6,22.4,78,100860,0,0,411,0,0,0,0,0,0,0,180,1.3,5,0,0,0,0,0,0,0,0,0,0,0,0
1996,8,26,22,0,,26.1,22,77,100860,0,0,411,0,0,0,0,0,0,0,180,1.3,6,0,0,0,0,0,0,0,0,0,0,0,0
1996,8,26,23,0,,25.6,21.6,77,100870,0,0,413,0,0,0,0,0,0,0,180,1,7,0,0,0,0,0,0,0,0,0,0,0,0
1996,8,26,24,0,,25.7,21.2,76,100870,0,0,419,0,0,0,0,0,0,0,200,1.8,8,0,0,0,0,0,0,0,0,0,0,0,0
1996,8,27,1,0,,25.6,21.6,78,100850,0,0,419,0,0,0,0,0,0,0,160,1.5,8,0,0,0,0,0,0,0,0,0,0,0,0
1996,8,27,2,0,,25.6,22,81,100820,0,0,419,0,0,0,0,0,0,0,180,2,8,0,0,0,0,0,0,0,0,0,0,0,0
1996,8,27,3,0,,25.5,22.4,83,100800,0,0,420,0,0,0,0,0,0,0,270,1.2,8,0,0,0,0,0,0,0,0,0,0,0,0
1996,8,27,4,0,,25.9,22.7,84,100780,0,0,416,0,0,0,0,0,0,0,230,1.7,7,0,0,0,0,0,0,0,0,0,0,0,0
1996,8,27,5,0,,25.8,22.9,86,100760,0,0,411,0,0,0,0,0,0,0,290,2.5,6,0,0,0,0,0,0,0,0,0,0,0,0
1996,8,27,6,0,,25.5,23.2,87,100740,0,0,406,0,0,0,0,0,0,0,250,2,5,0,0,0,0,0,0,0,0,0,0,0,0
1996,8,27,7,0,,25.2,22.9,84,100750,0,0,407,44,16,28,4734,1292,4074,0,270,1.8,6,0,0,0,0,0,0,0,0,0,0,0,0
1996,8,27,8,0,,26,22.5,82,100760,0,0,416,157,195,101,27970,16878,16500,0,250,2.8,7,0,0,0,0,0,0,0,0,0,0,0,0
1996,8,27,9,0,,26.1,22.2,79,100770,0,0,423,238,112,184,31446,9673,23632,0,340,3,8,0,0,0,0,0,0,0,0,0,0,0,0
1996,8,27,10,0,,27.3,22.5,77,100740,0,0,420,440,227,290,55646,18805,38958,0,360,2.5,6,0,0,0,0,0,0,0,0,0,0,0,0
1996,8,27,11,0,,28,22.9,74,100720,0,0,418,559,231,376,66620,18940,49329,0,20,2.3,5,0,0,0,0,0,0,0,0,0,0,0,0
1996,8,27,12,0,,28.7,23.2,72,100690,0,0,417,713,327,425,78735,26531,55321,0,360,1.7,3,0,0,0,0,0,0,0,0,0,0,0,0
1996,8,27,13,0,,28.8,22.4,68,100640,0,0,419,717,286,455,74229,23982,55084,0,340,3.8,4,0,0,0,0,0,0,0,0,0,0,0,0
1996,8,27,14,0,,29,21.6,64,100580,0,0,421,695,287,439,68553,23916,52623,0,320,4.3,4,0,0,0,0,0,0,0,0,0,0,0,0
1996,8,27,15,0,,29.3,20.8,60,100530,0,0,424,603,262,389,56483,21026,46082,0,320,4.3,5,0,0,0,0,0,0,0,0,0,0,0,0
1996,8,27,16,0,,29.2,21.5,64,100500,0,0,425,507,298,301,41385,19605,35583,0,320,4.7,5,0,0,0,0,0,0,0,0,0,0,0,0
1996,8,27,17,0,,28.5,22.2,68,100470,0,0,423,332,231,211,24106,3533,23812,0,290,3.8,6,0,0,0,0,0,0,0,0,0,0,0,0
1996,8,27,18,0,,28.3,22.9,72,100440,0,0,425,196,249,115,0,0,0,0,290,3,6,0,0,0,0,0,0,0,0,0,0,0,0
1996,8,27,19,0,,28,22.4,71,100440,0,0,422,62,27,35,0,0,0,0,270,3,6,0,0,0,0,0,0,0,0,0,0,0,0
1996,8,27,20,0,,27.9,21.9,70,100430,0,0,421,0,0,0,0,0,0,0,200,1.3,6,0,0,0,0,0,0,0,0,0,0,0,0
1996,8,27,21,0,,27.6,21.4,69,100430,0,0,419,0,0,0,0,0,0,0,360,1,6,0,0,0,0,0,0,0,0,0,0,0,0
1996,8,27,22,0,,27.2,21.9,73,100400,0,0,424,0,0,0,0,0,0,0,90,1,7,0,0,0,0,0,0,0,0,0,0,0,0
1996,8,27,23,0,,27,22.4,76,100380,0,0,434,0,0,0,0,0,0,0,140,1.2,9,0,0,0,0,0,0,0,0,0,0,0,0
1996,8,27,24,0,,26.6,22.9,80,100350,0,0,448,0,0,0,0,0,0,0,110,1,10,0,0,0,0,0,0,0,0,0,0,0,0
1996,8,28,1,0,,25.9,22.7,82,100300,0,0,444,0,0,0,0,0,0,0,200,2,10,0,0,0,0,0,0,0,0,0,0,0,0
1996,8,28,2,0,,25.3,22.4,85,100260,0,0,440,0,0,0,0,0,0,0,70,2.3,10,0,0,0,0,0,0,0,0,0,0,0,0
1996,8,28,3,0,,24.6,22.2,87,100210,0,0,435,0,0,0,0,0,0,0,140,2.2,10,0,0,0,0,0,0,0,0,0,0,0,0
1996,8,28,4,0,,24.7,22.5,87,100190,0,0,436,0,0,0,0,0,0,0,290,4.7,10,0,0,0,0,0,0,0,0,0,0,0,0
1996,8,28,5,0,,24.9,22.9,88,100180,0,0,438,0,0,0,0,0,0,0,320,3.7,10,0,0,0,0,0,0,0,0,0,0,0,0
1996,8,28,6,0,,25.3,23.2,88,100160,0,0,441,0,0,0,0,0,0,0,270,2.7,10,0,0,0,0,0,0,0,0,0,0,0,0
1996,8,28,7,0,,24.9,22.6,86,100180,0,0,438,18,1,17,2249,39,2229,0,270,2.3,10,0,0,0,0,0,0,0,0,0,0,0,0
1996,8,28,8,0,,24.8,21.9,83,100190,0,0,436,78,27,70,11149,2347,9558,0,320,3.3,10,0,0,0,0,0,0,0,0,0,0,0,0
1996,8,28,9,0,,24.7,21.3,81,100210,0,0,435,132,22,122,16212,1883,14695,0,340,3.5,10,0,0,0,0,0,0,0,0,0,0,0,0
1996,8,28,10,0,,25.3,21.1,79,100240,0,0,438,210,29,191,24977,2497,22767,0,290,3.3,10,0,0,0,0,0,0,0,0,0,0,0,0
1996,8,28,11,0,,25.2,20.8,76,100280,0,0,437,231,20,215,27246,1767,25637,0,320,2.3,10,0,0,0,0,0,0,0,0,0,0,0,0
1996,8,28,12,0,,25.4,20.6,74,100310,0,0,438,291,27,267,33641,2375,31551,0,340,3.3,10,0,0,0,0,0,0,0,0,0,0,0,0
1996,8,28,13,0,,25.6,19.8,71,100300,0,0,438,296,25,273,33802,2221,32036,0,320,3.7,10,0,0,0,0,0,0,0,0,0,0,0,0
1996,8,28,14,0,,25,19,68,100280,0,0,433,302,29,277,32950,2187,31501,0,320,5.3,10,0,0,0,0,0,0,0,0,0,0,0,0
1996,8,28,15,0,,25.3,18.2,65,100270,0,0,434,279,31,254,29124,2487,27904,0,320,4.3,10,0,0,0,0,0,0,0,0,0,0,0,0
1996,8,28,16,0,,25.4,18.1,65,100260,0,0,419,301,68,254,30312,5673,28657,0,320,4,9,0,0,0,0,0,0,0,0,0,0,0,0
1996,8,28,17,0,,24.9,18,66,100250,0,0,406,312,196,210,23871,13274,22825,0,320,4.7,7,0,0,0,0,0,0,0,0,0,0,0,0
1996,8,28,18,0,,24.7,17.9,66,100240,0,0,398,198,266,112,0,0,0,0,290,3,6,0,0,0,0,0,0,0,0,0,0,0,0
1996,8,28,19,0,,24.3,18.2,69,100260,0,0,397,62,29,33,0,0,0,0,290,3,6,0,0,0,0,0,0,0,0,0,0,0,0
1996,8,28,20,0,,23.7,18.6,72,100290,0,0,394,0,0,0,0,0,0,0,270,2,6,0,0,0,0,0,0,0,0,0,0,0,0
1996,8,28,21,0,,23.4,18.9,75,100310,0,0,393,0,0,0,0,0,0,0,320,1.7,6,0,0,0,0,0,0,0,0,0,0,0,0
1996,8,28,22,0,,23.5,18.9,76,100350,0,0,396,0,0,0,0,0,0,0,320,3,7,0,0,0,0,0,0,0,0,0,0,0,0
1996,8,28,23,0,,23.3,19,76,100380,0,0,399,0,0,0,0,0,0,0,320,3,7,0,0,0,0,0,0,0,0,0,0,0,0
1996,8,28,24,0,,23.2,19,77,100420,0,0,403,0,0,0,0,0,0,0,320,2,8,0,0,0,0,0,0,0,0,0,0,0,0
1996,8,29,1,0,,23.1,18.9,77,100400,0,0,397,0,0,0,0,0,0,0,320,3,7,0,0,0,0,0,0,0,0,0,0,0,0
1996,8,29,2,0,,23,18.8,76,100390,0,0,393,0,0,0,0,0,0,0,320,2.7,7,0,0,0,0,0,0,0,0,0,0,0,0
1996,8,29,3,0,,23.1,18.7,76,100370,0,0,391,0,0,0,0,0,0,0,320,0.7,6,0,0,0,0,0,0,0,0,0,0,0,0
1996,8,29,4,0,,22.5,17.7,75,100380,0,0,382,0,0,0,0,0,0,0,200,1.8,5,0,0,0,0,0,0,0,0,0,0,0,0
1996,8,29,5,0,,21.9,16.8,74,100380,0,0,374,0,0,0,0,0,0,0,180,1.8,3,0,0,0,0,0,0,0,0,0,0,0,0
1996,8,29,6,0,,21,15.8,73,100390,0,0,364,0,0,0,0,0,0,0,180,2.2,2,0,0,0,0,0,0,0,0,0,0,0,0
1996,8,29,7,0,,21,16.2,70,100410,0,0,365,58,31,28,5702,2699,4333,0,180,2.3,2,0,0,0,0,0,0,0,0,0,0,0,0
1996,8,29,8,0,,22.9,16.7,66,100440,0,0,377,214,484,77,45284,50374,11255,0,230,1.7,3,0,0,0,0,0,0,0,0,0,0,0,0
1996,8,29,9,0,,24.8,17.1,63,100460,0,0,388,403,579,124,64933,60036,16687,0,360,1,3,0,0,0,0,0,0,0,0,0,0,0,0
1996,8,29,10,0,,25.8,17.7,63,100480,0,0,393,553,549,193,74469,54108,26700,0,20,1.2,3,0,0,0,0,0,0,0,0,0,0,0,0
1996,8,29,11,0,,26.6,18.2,62,100490,0,0,397,694,578,237,82726,56404,31522,0,20,2.5,2,0,0,0,0,0,0,0,0,0,0,0,0
1996,8,29,12,0,,26.7,18.8,62,100510,0,0,397,736,472,321,79821,42839,42260,0,20,2.5,2,0,0,0,0,0,0,0,0,0,0,0,0
1996,8,29,13,0,,26.8,19,63,100500,0,0,405,697,268,453,72349,23693,53586,0,20,2.7,4,0,0,0,0,0,0,0,0,0,0,0,0
1996,8,29,14,0,,26.7,19.3,63,100480,0,0,411,580,172,427,60231,14893,50419,0,50,3,6,0,0,0,0,0,0,0,0,0,0,0,0
1996,8,29,15,0,,27,19.5,64,100470,0,0,424,422,98,342,43357,8769,39087,0,50,2.3,8,0,0,0,0,0,0,0,0,0,0,0,0
1996,8,29,16,0,,26.7,20.5,71,100460,0,0,417,395,147,295,36751,12174,33252,0,50,3.3,7,0,0,0,0,0,0,0,0,0,0,0,0
1996,8,29,17,0,,25.9,21.5,77,100440,0,0,409,318,213,208,23802,13726,22782,0,140,3.2,6,0,0,0,0,0,0,0,0,0,0,0,0
1996,8,29,18,0,,25.4,22.5,84,100430,0,0,404,195,267,110,0,0,0,0,110,2.3,5,0,0,0,0,0,0,0,0,0,0,0,0
1996,8,29,19,0,,25.4,22.3,85,100480,0,0,406,56,22,33,0,0,0,0,90,2.5,6,0,0,0,0,0,0,0,0,0,0,0,0
1996,8,29,20,0,,24.8,22.2,85,100520,0,0,406,0,0,0,0,0,0,0,140,2.3,6,0,0,0,0,0,0,0,0,0,0,0,0
1996,8,29,21,0,,24.5,22,86,100570,0,0,407,0,0,0,0,0,0,0,110,1.8,7,0,0,0,0,0,0,0,0,0,0,0,0
1996,8,29,22,0,,24.5,22.1,86,100580,0,0,409,0,0,0,0,0,0,0,110,2,7,0,0,0,0,0,0,0,0,0,0,0,0
1996,8,29,23,0,,24.4,22.1,87,100590,0,0,411,0,0,0,0,0,0,0,90,1.7,8,0,0,0,0,0,0,0,0,0,0,0,0
1996,8,29,24,0,,24.5,22.2,87,100600,0,0,414,0,0,0,0,0,0,0,90,1.7,8,0,0,0,0,0,0,0,0,0,0,0,0
1996,8,30,1,0,,24.3,21.9,87,100600,0,0,418,0,0,0,0,0,0,0,110,1.3,9,0,0,0,0,0,0,0,0,0,0,0,0
1996,8,30,2,0,,24,21.7,86,100610,0,0,423,0,0,0,0,0,0,0,110,1.8,9,0,0,0,0,0,0,0,0,0,0,0,0
1996,8,30,3,0,,23.8,21.4,86,100610,0,0,430,0,0,0,0,0,0,0,140,1.3,10,0,0,0,0,0,0,0,0,0,0,0,0
1996,8,30,4,0,,23.6,21.3,87,100620,0,0,428,0,0,0,0,0,0,0,90,2.5,10,0,0,0,0,0,0,0,0,0,0,0,0
1996,8,30,5,0,,23.3,21.2,87,100640,0,0,426,0,0,0,0,0,0,0,90,4.3,10,0,0,0,0,0,0,0,0,0,0,0,0
1996,8,30,6,0,,23.2,21.1,88,100650,0,0,426,0,0,0,0,0,0,0,70,2,10,0,0,0,0,0,0,0,0,0,0,0,0
1996,8,30,7,0,,23,20.9,88,100670,0,0,424,17,1,16,2149,37,2130,0,70,4.8,10,0,0,0,0,0,0,0,0,0,0,0,0
1996,8,30,8,0,,22.8,20.8,88,100680,0,0,423,74,24,67,9559,2057,8174,0,90,4.5,10,0,0,0,0,0,0,0,0,0,0,0,0
1996,8,30,9,0,,22.7,20.6,88,100700,0,0,422,139,26,127,17056,2255,15249,0,70,5.3,10,0,0,0,0,0,0,0,0,0,0,0,0
1996,8,30,10,0,,22.2,20.5,88,100730,0,0,419,181,20,169,21701,1720,20187,0,90,4.2,10,0,0,0,0,0,0,0,0,0,0,0,0
1996,8,30,11,0,,22.1,20.4,88,100750,0,0,419,221,18,206,25999,1580,24569,0,70,4.2,10,0,0,0,0,0,0,0,0,0,0,0,0
1996,8,30,12,0,,22.3,20.3,88,100780,0,0,420,246,17,231,28634,1508,27317,0,90,4,10,0,0,0,0,0,0,0,0,0,0,0,0
1996,8,30,13,0,,22.2,20.2,88,100770,0,0,419,277,21,257,31351,1432,30222,0,70,4.7,10,0,0,0,0,0,0,0,0,0,0,0,0
1996,8,30,14,0,,22.3,20,87,100760,0,0,419,251,18,235,27831,1214,27035,0,90,2.8,10,0,0,0,0,0,0,0,0,0,0,0,0
1996,8,30,15,0,,22.3,19.9,87,100750,0,0,419,249,23,230,26207,1713,25380,0,90,5,10,0,0,0,0,0,0,0,0,0,0,0,0
1996,8,30,16,0,,22,20.1,87,100730,0,0,417,190,20,177,19052,1267,18693,0,90,2.8,10,0,0,0,0,0,0,0,0,0,0,0,0
1996,8,30,17,0,,22.1,20.2,88,100710,0,0,418,150,26,136,12980,2098,12834,0,110,4,10,0,0,0,0,0,0,0,0,0,0,0,0
1996,8,30,18,0,,22.5,20.4,88,100690,0,0,421,86,26,78,0,0,0,0,90,2.7,10,0,0,0,0,0,0,0,0,0,0,0,0
1996,8,30,19,0,,22.9,20.6,88,100720,0,0,423,23,2,21,0,0,0,0,90,2.7,10,0,0,0,0,0,0,0,0,0,0,0,0
1996,8,30,20,0,,23,20.7,87,100750,0,0,424,0,0,0,0,0,0,0,90,2.3,10,0,0,0,0,0,0,0,0,0,0,0,0
1996,8,30,21,0,,23.2,20.9,87,100780,0,0,425,0,0,0,0,0,0,0,90,1.8,10,0,0,0,0,0,0,0,0,0,0,0,0
1996,8,30,22,0,,23,20.8,87,100780,0,0,424,0,0,0,0,0,0,0,50,2.8,10,0,0,0,0,0,0,0,0,0,0,0,0
1996,8,30,23,0,,23.1,20.7,87,100780,0,0,425,0,0,0,0,0,0,0,110,2.2,10,0,0,0,0,0,0,0,0,0,0,0,0
1996,8,30,24,0,,22.9,20.6,87,100780,0,0,423,0,0,0,0,0,0,0,70,2,10,0,0,0,0,0,0,0,0,0,0,0,0
1996,8,31,1,0,,22.4,20.2,87,100770,0,0,420,0,0,0,0,0,0,0,90,1.8,10,0,0,0,0,0,0,0,0,0,0,0,0
1996,8,31,2,0,,22,19.7,87,100760,0,0,417,0,0,0,0,0,0,0,110,3.3,10,0,0,0,0,0,0,0,0,0,0,0,0
1996,8,31,3,0,,21.5,19.3,87,100750,0,0,414,0,0,0,0,0,0,0,90,3.3,10,0,0,0,0,0,0,0,0,0,0,0,0
1996,8,31,4,0,,21.4,19.3,87,100760,0,0,413,0,0,0,0,0,0,0,90,2.5,10,0,0,0,0,0,0,0,0,0,0,0,0
1996,8,31,5,0,,21.4,19.2,88,100760,0,0,413,0,0,0,0,0,0,0,70,2.7,10,0,0,0,0,0,0,0,0,0,0,0,0
1996,8,31,6,0,,21.3,19.2,88,100770,0,0,412,0,0,0,0,0,0,0,70,2,10,0,0,0,0,0,0,0,0,0,0,0,0
1996,8,31,7,0,,21.3,19.4,88,100770,0,0,413,14,1,14,1853,25,1841,0,140,1.7,10,0,0,0,0,0,0,0,0,0,0,0,0
1996,8,31,8,0,,21.5,19.5,87,100780,0,0,414,71,23,65,9264,1963,7946,0,110,2.2,10,0,0,0,0,0,0,0,0,0,0,0,0
1996,8,31,9,0,,22.1,19.7,87,100780,0,0,418,144,29,130,17649,2541,15618,0,90,3,10,0,0,0,0,0,0,0,0,0,0,0,0
1996,8,31,10,0,,22.3,19.9,87,100810,0,0,419,193,24,177,22982,2068,21166,0,110,2.3,10,0,0,0,0,0,0,0,0,0,0,0,0
1996,8,31,11,0,,22.6,20,86,100840,0,0,421,244,24,225,28609,2129,26687,0,70,2.7,10,0,0,0,0,0,0,0,0,0,0,0,0
1996,8,31,12,0,,22.6,20.2,86,100870,0,0,421,246,17,231,28700,1536,27362,0,50,1.8,10,0,0,0,0,0,0,0,0,0,0,0,0
1996,8,31,13,0,,22.6,20,85,100850,0,0,421,272,20,254,30881,1382,29796,0,70,2.7,10,0,0,0,0,0,0,0,0,0,0,0,0
1996,8,31,14,0,,22.8,19.8,85,100840,0,0,422,261,20,243,28809,1397,27899,0,70,3.3,10,0,0,0,0,0,0,0,0,0,0,0,0
1996,8,31,15,0,,22.4,19.6,84,100820,0,0,419,215,16,203,23107,1089,22586,0,90,2,10,0,0,0,0,0,0,0,0,0,0,0,0
1996,8,31,16,0,,22.6,19.5,82,100830,0,0,412,256,46,225,24301,3668,23278,0,90,2.3,9,0,0,0,0,0,0,0,0,0,0,0,0
1996,8,31,17,0,,22.9,19.4,81,100850,0,0,407,190,52,164,18126,3207,17917,0,90,2,9,0,0,0,0,0,0,0,0,0,0,0,0
1996,8,31,18,0,,23.1,19.3,79,100860,0,0,402,146,122,108,0,0,0,0,110,1.2,8,0,0,0,0,0,0,0,0,0,0,0,0
1996,8,31,19,0,,22.9,19.3,79,100880,0,0,401,40,9,31,0,0,0,0,110,1.5,8,0,0,0,0,0,0,0,0,0,0,0,0
1996,8,31,20,0,,22.6,19.2,80,100910,0,0,400,0,0,0,0,0,0,0,160,1.5,8,0,0,0,0,0,0,0,0,0,0,0,0
1996,8,31,21,0,,22.7,19.2,80,100930,0,0,400,0,0,0,0,0,0,0,160,1.3,8,0,0,0,0,0,0,0,0,0,0,0,0
1996,8,31,22,0,,22.3,18.6,79,100950,0,0,397,0,0,0,0,0,0,0,180,1.8,8,0,0,0,0,0,0,0,0,0,0,0,0
1996,8,31,23,0,,21.9,17.9,77,100980,0,0,394,0,0,0,0,0,0,0,110,1.5,8,0,0,0,0,0,0,0,0,0,0,0,0
1996,8,31,24,0,,21.9,17.3,76,101000,0,0,393,0,0,0,0,0,0,0,140,1.7,8,0,0,0,0,0,0,0,0,0,0,0,0
1992,9,1,1,0,,25.2,23.4,90,100480,0,0,441,0,0,0,0,0,0,0,110,7.7,10,0,0,0,0,0,0,0,0,0,0,0,0
1992,9,1,2,0,,25.2,23.4,90,100460,0,0,440,0,0,0,0,0,0,0,110,6.3,10,0,0,0,0,0,0,0,0,0,0,0,0
1992,9,1,3,0,,25.1,23.3,90,100430,0,0,440,0,0,0,0,0,0,0,140,6,10,0,0,0,0,0,0,0,0,0,0,0,0
1992,9,1,4,0,,25.2,23.4,89,100430,0,0,440,0,0,0,0,0,0,0,140,8.3,10,0,0,0,0,0,0,0,0,0,0,0,0
1992,9,1,5,0,,25.6,23.4,87,100430,0,0,443,0,0,0,0,0,0,0,140,7,10,0,0,0,0,0,0,0,0,0,0,0,0
1992,9,1,6,0,,26,23.5,86,100430,0,0,445,0,0,0,0,0,0,0,110,8.3,10,0,0,0,0,0,0,0,0,0,0,0,0
1992,9,1,7,0,,26.1,23.5,85,100450,0,0,446,21,2,19,2492,61,2461,0,110,5.5,10,0,0,0,0,0,0,0,0,0,0,0,0
1992,9,1,8,0,,26.4,23.4,83,100480,0,0,448,85,38,75,12392,3234,10227,0,140,4.5,10,0,0,0,0,0,0,0,0,0,0,0,0
1992,9,1,9,0,,26.7,23.4,82,100500,0,0,449,158,38,139,19431,3188,16890,0,110,6.7,10,0,0,0,0,0,0,0,0,0,0,0,0
1992,9,1,10,0,,27,23.9,83,100490,0,0,452,217,33,196,25997,2788,23555,0,140,4.5,10,0,0,0,0,0,0,0,0,0,0,0,0
1992,9,1,11,0,,27.5,24.3,84,100470,0,0,455,279,35,251,32721,2947,30069,0,160,6.7,10,0,0,0,0,0,0,0,0,0,0,0,0
1992,9,1,12,0,,27.5,24.8,85,100460,0,0,456,322,37,290,37239,3085,34562,0,160,8.7,10,0,0,0,0,0,0,0,0,0,0,0,0
1992,9,1,13,0,,27.5,24.6,83,100430,0,0,456,296,26,273,34132,2174,32432,0,160,5.7,10,0,0,0,0,0,0,0,0,0,0,0,0
1992,9,1,14,0,,28,24.5,82,100400,0,0,459,294,28,270,31722,1886,30500,0,180,7.3,10,0,0,0,0,0,0,0,0,0,0,0,0
1992,9,1,15,0,,28.1,24.3,80,100370,0,0,459,279,33,253,28607,2350,27491,0,160,6.3,10,0,0,0,0,0,0,0,0,0,0,0,0
1992,9,1,16,0,,27.1,24.4,84,100360,0,0,453,234,37,210,22320,2458,21645,0,180,10,10,0,0,0,0,0,0,0,0,0,0,0,0
1992,9,1,17,0,,26.9,24.6,87,100350,0,0,452,143,24,131,12254,1833,12142,0,110,5.7,10,0,0,0,0,0,0,0,0,0,0,0,0
1992,9,1,18,0,,26.3,24.7,91,100340,0,0,449,94,37,83,0,0,0,0,180,11.7,10,0,0,0,0,0,0,0,0,0,0,0,0
1992,9,1,19,0,,26.6,24.8,86,100370,0,0,446,30,4,26,0,0,0,0,180,13.3,10,0,0,0,0,0,0,0,0,0,0,0,0
1992,9,1,20,0,,27.2,24.9,81,100390,0,0,446,0,0,0,0,0,0,0,180,8.3,9,0,0,0,0,0,0,0,0,0,0,0,0
1992,9,1,21,0,,27.8,25,76,100420,0,0,446,0,0,0,0,0,0,0,180,10.3,9,0,0,0,0,0,0,0,0,0,0,0,0
1992,9,1,22,0,,27.6,25.1,79,100400,0,0,448,0,0,0,0,0,0,0,180,9,9,0,0,0,0,0,0,0,0,0,0,0,0
1992,9,1,23,0,,27.5,25.1,82,100370,0,0,452,0,0,0,0,0,0,0,180,11,10,0,0,0,0,0,0,0,0,0,0,0,0
1992,9,1,24,0,,27.9,25.2,85,100350,0,0,459,0,0,0,0,0,0,0,180,11.3,10,0,0,0,0,0,0,0,0,0,0,0,0
1992,9,2,1,0,,28.3,24.9,82,100350,0,0,452,0,0,0,0,0,0,0,200,7,9,0,0,0,0,0,0,0,0,0,0,0,0
1992,9,2,2,0,,28.7,24.7,79,100340,0,0,447,0,0,0,0,0,0,0,200,3.5,9,0,0,0,0,0,0,0,0,0,0,0,0
1992,9,2,3,0,,29.1,24.4,76,100340,0,0,443,0,0,0,0,0,0,0,230,4,8,0,0,0,0,0,0,0,0,0,0,0,0
1992,9,2,4,0,,28.8,24.6,77,100360,0,0,439,0,0,0,0,0,0,0,230,3.2,8,0,0,0,0,0,0,0,0,0,0,0,0
1992,9,2,5,0,,28.9,24.7,79,100370,0,0,437,0,0,0,0,0,0,0,230,2.8,7,0,0,0,0,0,0,0,0,0,0,0,0
1992,9,2,6,0,,28.8,24.9,80,100390,0,0,435,0,0,0,0,0,0,0,230,7.5,7,0,0,0,0,0,0,0,0,0,0,0,0
1992,9,2,7,0,,28.7,25.2,82,100420,0,0,437,43,17,26,4450,1332,3785,0,200,7.7,7,0,0,0,0,0,0,0,0,0,0,0,0
1992,9,2,8,0,,28.2,25.6,84,100450,0,0,437,136,149,95,24476,12222,16322,0,230,8,8,0,0,0,0,0,0,0,0,0,0,0,0
1992,9,2,9,0,,28.6,25.9,86,100480,0,0,442,233,116,178,33325,8774,26352,0,230,7.2,8,0,0,0,0,0,0,0,0,0,0,0,0
1992,9,2,10,0,,29.2,25.6,81,100470,0,0,438,406,192,282,52515,14736,39648,0,230,9.2,7,0,0,0,0,0,0,0,0,0,0,0,0
1992,9,2,11,0,,31.1,25.2,76,100450,0,0,444,590,291,363,69701,22418,49591,0,230,9.2,6,0,0,0,0,0,0,0,0,0,0,0,0
1992,9,2,12,0,,30.8,24.9,71,100440,0,0,438,680,299,420,76311,23170,56274,0,230,7.5,5,0,0,0,0,0,0,0,0,0,0,0,0
1992,9,2,13,0,,31.4,24.8,70,100420,0,0,441,724,316,439,77347,24317,58418,0,230,9.5,5,0,0,0,0,0,0,0,0,0,0,0,0
1992,9,2,14,0,,31.3,24.7,68,100390,0,0,440,691,305,424,67568,23845,52212,0,230,11.7,5,0,0,0,0,0,0,0,0,0,0,0,0
1992,9,2,15,0,,31.3,24.6,67,100370,0,0,440,605,292,372,55613,21455,45515,0,230,7.5,5,0,0,0,0,0,0,0,0,0,0,0,0
1992,9,2,16,0,,31.2,24.4,67,100370,0,0,438,495,316,285,39344,18419,34370,0,230,8,5,0,0,0,0,0,0,0,0,0,0,0,0
1992,9,2,17,0,,31.2,24.1,67,100370,0,0,437,397,503,146,17973,0,17973,0,230,8.7,4,0,0,0,0,0,0,0,0,0,0,0,0
1992,9,2,18,0,,30.7,23.9,67,100370,0,0,433,222,444,88,0,0,0,0,230,5.2,4,0,0,0,0,0,0,0,0,0,0,0,0
1992,9,2,19,0,,29.8,24,70,100370,0,0,424,66,36,30,0,0,0,0,250,3.3,3,0,0,0,0,0,0,0,0,0,0,0,0
1992,9,2,20,0,,29.2,24,74,100380,0,0,417,0,0,0,0,0,0,0,270,3,2,0,0,0,0,0,0,0,0,0,0,0,0
1992,9,2,21,0,,28.5,24.1,77,100380,0,0,407,0,0,0,0,0,0,0,110,2,1,0,0,0,0,0,0,0,0,0,0,0,0
1992,9,2,22,0,,28,24.2,80,100390,0,0,405,0,0,0,0,0,0,0,230,1.2,1,0,0,0,0,0,0,0,0,0,0,0,0
1992,9,2,23,0,,27.3,24.4,82,100410,0,0,401,0,0,0,0,0,0,0,140,2.8,1,0,0,0,0,0,0,0,0,0,0,0,0
1992,9,2,24,0,,27.2,24.5,85,100420,0,0,401,0,0,0,0,0,0,0,110,1.3,1,0,0,0,0,0,0,0,0,0,0,0,0
1992,9,3,1,0,,26.8,24.3,86,100400,0,0,405,0,0,0,0,0,0,0,180,0.7,2,0,0,0,0,0,0,0,0,0,0,0,0
1992,9,3,2,0,,26.4,24,86,100370,0,0,408,0,0,0,0,0,0,0,160,1.2,4,0,0,0,0,0,0,0,0,0,0,0,0
1992,9,3,3,0,,26.1,23.8,87,100350,0,0,410,0,0,0,0,0,0,0,180,1.2,5,0,0,0,0,0,0,0,0,0,0,0,0
1992,9,3,4,0,,25.9,23.6,86,100340,0,0,408,0,0,0,0,0,0,0,160,0.8,5,0,0,0,0,0,0,0,0,0,0,0,0
1992,9,3,5,0,,25.7,23.3,86,100340,0,0,407,0,0,0,0,0,0,0,110,1.7,5,0,0,0,0,0,0,0,0,0,0,0,0
1992,9,3,6,0,,25.8,23.1,85,100330,0,0,407,0,0,0,0,0,0,0,110,0.3,5,0,0,0,0,0,0,0,0,0,0,0,0
1992,9,3,7,0,,26.2,23,78,100340,0,0,409,47,23,23,4349,1917,3397,0,140,2,5,0,0,0,0,0,0,0,0,0,0,0,0
1992,9,3,8,0,,27.4,22.8,72,100340,0,0,416,183,344,90,37202,33567,14881,0,180,0.8,5,0,0,0,0,0,0,0,0,0,0,0,0
1992,9,3,9,0,,30.1,22.7,65,100350,0,0,431,371,493,138,59378,48144,21228,0,230,3,5,0,0,0,0,0,0,0,0,0,0,0,0
1992,9,3,10,0,,30.4,22.3,61,100320,0,0,428,540,541,191,73205,52499,27498,0,250,3.3,4,0,0,0,0,0,0,0,0,0,0,0,0
1992,9,3,11,0,,30.6,22,58,100290,0,0,424,669,542,246,80119,52125,33509,0,110,1.7,2,0,0,0,0,0,0,0,0,0,0,0,0
1992,9,3,12,0,,32,21.6,54,100260,0,0,424,758,551,280,80872,48297,39260,0,110,2.7,1,0,0,0,0,0,0,0,0,0,0,0,0
1992,9,3,13,0,,31.3,22.6,61,100230,0,0,425,749,459,337,76544,39285,46101,0,140,4.3,2,0,0,0,0,0,0,0,0,0,0,0,0
1992,9,3,14,0,,32,23.7,67,100210,0,0,434,767,556,281,69442,46205,39864,0,270,6,2,0,0,0,0,0,0,0,0,0,0,0,0
1992,9,3,15,0,,29.8,24.7,74,100180,0,0,425,582,264,373,54618,19322,45606,0,140,4,3,0,0,0,0,0,0,0,0,0,0,0,0
1992,9,3,16,0,,30.9,24.5,74,100190,0,0,428,543,498,212,35703,27022,28526,0,320,5.3,2,0,0,0,0,0,0,0,0,0,0,0,0
1992,9,3,17,0,,29.4,24.3,75,100210,0,0,416,358,373,173,19629,0,19629,0,360,2.8,2,0,0,0,0,0,0,0,0,0,0,0,0
1992,9,3,18,0,,28.9,24.1,75,100220,0,0,410,218,442,87,0,0,0,0,50,1.8,1,0,0,0,0,0,0,0,0,0,0,0,0
1992,9,3,19,0,,28.2,24,77,100260,0,0,413,61,29,32,0,0,0,0,140,2,2,0,0,0,0,0,0,0,0,0,0,0,0
1992,9,3,20,0,,27.6,24,80,100290,0,0,414,0,0,0,0,0,0,0,140,2.7,4,0,0,0,0,0,0,0,0,0,0,0,0
1992,9,3,21,0,,27.2,23.9,82,100330,0,0,416,0,0,0,0,0,0,0,340,0.8,5,0,0,0,0,0,0,0,0,0,0,0,0
1992,9,3,22,0,,26.9,23.8,83,100340,0,0,414,0,0,0,0,0,0,0,140,2.3,5,0,0,0,0,0,0,0,0,0,0,0,0
1992,9,3,23,0,,26.5,23.7,84,100340,0,0,412,0,0,0,0,0,0,0,90,2.3,5,0,0,0,0,0,0,0,0,0,0,0,0
1992,9,3,24,0,,26.3,23.6,85,100350,0,0,411,0,0,0,0,0,0,0,180,1.5,5,0,0,0,0,0,0,0,0,0,0,0,0
1992,9,4,1,0,,26,23.3,85,100330,0,0,403,0,0,0,0,0,0,0,0,0.2,3,0,0,0,0,0,0,0,0,0,0,0,0
1992,9,4,2,0,,25.6,23,85,100320,0,0,394,0,0,0,0,0,0,0,110,0.5,2,0,0,0,0,0,0,0,0,0,0,0,0
1992,9,4,3,0,,25.3,22.7,85,100300,0,0,381,0,0,0,0,0,0,0,0,0,0,0,0,0,0,0,0,0,0,0,0,0,0
1992,9,4,4,0,,25.3,22.9,86,100320,0,0,397,0,0,0,0,0,0,0,230,1.7,3,0,0,0,0,0,0,0,0,0,0,0,0
1992,9,4,5,0,,25.3,23.2,88,100330,0,0,406,0,0,0,0,0,0,0,270,0.8,5,0,0,0,0,0,0,0,0,0,0,0,0
1992,9,4,6,0,,25.3,23.4,89,100350,0,0,420,0,0,0,0,0,0,0,320,0.3,8,0,0,0,0,0,0,0,0,0,0,0,0
1992,9,4,7,0,,25.3,23.4,87,100380,0,0,420,29,6,23,3169,462,2940,0,180,1.3,8,0,0,0,0,0,0,0,0,0,0,0,0
1992,9,4,8,0,,25.8,23.4,84,100410,0,0,423,118,103,90,19099,8299,13598,0,340,2,8,0,0,0,0,0,0,0,0,0,0,0,0
1992,9,4,9,0,,26.7,23.4,82,100440,0,0,428,218,98,172,28950,8292,22400,0,340,0.5,8,0,0,0,0,0,0,0,0,0,0,0,0
1992,9,4,10,0,,27.2,23.3,80,100450,0,0,424,371,152,273,45774,12817,34649,0,20,2,7,0,0,0,0,0,0,0,0,0,0,0,0
1992,9,4,11,0,,27.8,23.3,79,100450,0,0,422,525,209,363,63245,16958,48130,0,20,3.5,6,0,0,0,0,0,0,0,0,0,0,0,0
1992,9,4,12,0,,27.4,23.2,77,100460,0,0,416,594,203,418,65951,16980,51376,0,20,3.2,5,0,0,0,0,0,0,0,0,0,0,0,0
1992,9,4,13,0,,27.3,23,76,100430,0,0,418,560,152,424,61492,12631,51750,0,20,2.5,6,0,0,0,0,0,0,0,0,0,0,0,0
1992,9,4,14,0,,27.2,22.7,76,100400,0,0,420,536,149,407,55416,13106,47078,0,20,2.8,6,0,0,0,0,0,0,0,0,0,0,0,0
1992,9,4,15,0,,27.3,22.5,75,100370,0,0,423,435,116,343,44066,10023,39434,0,50,1.8,7,0,0,0,0,0,0,0,0,0,0,0,0
1992,9,4,16,0,,26.9,22.4,75,100380,0,0,419,356,124,275,33695,9736,31153,0,20,2.8,7,0,0,0,0,0,0,0,0,0,0,0,0
1992,9,4,17,0,,27.2,22.4,75,100380,0,0,419,296,206,195,21838,12967,21235,0,50,1.2,6,0,0,0,0,0,0,0,0,0,0,0,0
1992,9,4,18,0,,27.2,22.3,75,100390,0,0,418,175,255,100,0,0,0,0,50,1.7,6,0,0,0,0,0,0,0,0,0,0,0,0
1992,9,4,19,0,,26.8,22.3,76,100450,0,0,409,58,27,32,0,0,0,0,20,1.2,4,0,0,0,0,0,0,0,0,0,0,0,0
1992,9,4,20,0,,26.6,22.3,77,100520,0,0,400,0,0,0,0,0,0,0,0,0,2,0,0,0,0,0,0,0,0,0,0,0,0
1992,9,4,21,0,,26.5,22.3,78,100580,0,0,387,0,0,0,0,0,0,0,180,0.5,0,0,0,0,0,0,0,0,0,0,0,0,0
1992,9,4,22,0,,25.9,22.4,80,100600,0,0,393,0,0,0,0,0,0,0,20,1,1,0,0,0,0,0,0,0,0,0,0,0,0
1992,9,4,23,0,,25.7,22.6,83,100620,0,0,399,0,0,0,0,0,0,0,50,0.8,3,0,0,0,0,0,0,0,0,0,0,0,0
1992,9,4,24,0,,25.5,22.7,85,100640,0,0,402,0,0,0,0,0,0,0,0,0,4,0,0,0,0,0,0,0,0,0,0,0,0
1992,9,5,1,0,,25.5,22.8,86,100620,0,0,398,0,0,0,0,0,0,0,180,0.5,3,0,0,0,0,0,0,0,0,0,0,0,0
1992,9,5,2,0,,25.4,22.8,87,100590,0,0,391,0,0,0,0,0,0,0,180,0.8,1,0,0,0,0,0,0,0,0,0,0,0,0
1992,9,5,3,0,,25,22.9,88,100570,0,0,380,0,0,0,0,0,0,0,180,0.5,0,0,0,0,0,0,0,0,0,0,0,0,0
1992,9,5,4,0,,24.3,22.3,87,100550,0,0,376,0,0,0,0,0,0,0,160,2,0,0,0,0,0,0,0,0,0,0,0,0,0
1992,9,5,5,0,,24.1,21.6,85,100520,0,0,374,0,0,0,0,0,0,0,160,1.8,0,0,0,0,0,0,0,0,0,0,0,0,0
1992,9,5,6,0,,23.8,21,84,100500,0,0,372,0,0,0,0,0,0,0,160,0.5,0,0,0,0,0,0,0,0,0,0,0,0,0
1992,9,5,7,0,,24,21.6,82,100540,0,0,376,51,24,27,4828,2012,3837,0,0,0,0,0,0,0,0,0,0,0,0,0,0,0,0
1992,9,5,8,0,,25.8,22.2,80,100570,0,0,388,204,496,71,45159,52174,10700,0,200,0.3,1,0,0,0,0,0,0,0,0,0,0,0,0
1992,9,5,9,0,,27,22.8,78,100610,0,0,398,390,578,119,64348,60679,16556,0,340,1.5,1,0,0,0,0,0,0,0,0,0,0,0,0
1992,9,5,10,0,,27.8,23,77,100620,0,0,409,545,567,181,74128,55051,26490,0,50,3,2,0,0,0,0,0,0,0,0,0,0,0,0
1992,9,5,11,0,,28.2,23.1,75,100640,0,0,416,608,334,349,70669,27257,46455,0,20,3.3,4,0,0,0,0,0,0,0,0,0,0,0,0
1992,9,5,12,0,,28.5,23.3,74,100650,0,0,422,630,245,419,71731,19806,54796,0,50,5,5,0,0,0,0,0,0,0,0,0,0,0,0
1992,9,5,13,0,,28.8,23.8,76,100620,0,0,430,595,182,433,64499,14888,53069,0,50,4.3,6,0,0,0,0,0,0,0,0,0,0,0,0
1992,9,5,14,0,,28.8,24.2,77,100590,0,0,438,441,88,365,47332,7569,42547,0,50,4.3,8,0,0,0,0,0,0,0,0,0,0,0,0
1992,9,5,15,0,,28.8,24.7,79,100560,0,0,451,324,53,282,34869,4333,32885,0,50,3.3,9,0,0,0,0,0,0,0,0,0,0,0,0
1992,9,5,16,0,,28.8,24.4,78,100580,0,0,447,270,59,231,27692,4376,26570,0,50,4.3,9,0,0,0,0,0,0,0,0,0,0,0,0
1992,9,5,17,0,,28.8,24.1,76,100590,0,0,444,242,118,185,20511,7066,20216,0,50,4.7,8,0,0,0,0,0,0,0,0,0,0,0,0
1992,9,5,18,0,,28.7,23.8,75,100610,0,0,440,139,135,100,0,0,0,0,70,3.8,8,0,0,0,0,0,0,0,0,0,0,0,0
1992,9,5,19,0,,28.4,23.9,78,100640,0,0,438,34,7,27,0,0,0,0,110,1.2,8,0,0,0,0,0,0,0,0,0,0,0,0
1992,9,5,20,0,,28,23.9,80,100660,0,0,436,0,0,0,0,0,0,0,70,1.8,8,0,0,0,0,0,0,0,0,0,0,0,0
1992,9,5,21,0,,27.1,24,83,100690,0,0,431,0,0,0,0,0,0,0,110,2,8,0,0,0,0,0,0,0,0,0,0,0,0
1992,9,5,22,0,,26.9,24,83,100700,0,0,427,0,0,0,0,0,0,0,90,1.3,8,0,0,0,0,0,0,0,0,0,0,0,0
1992,9,5,23,0,,26.8,23.9,84,100720,0,0,424,0,0,0,0,0,0,0,180,0.5,7,0,0,0,0,0,0,0,0,0,0,0,0
1992,9,5,24,0,,26.9,23.9,84,100730,0,0,423,0,0,0,0,0,0,0,340,1.3,7,0,0,0,0,0,0,0,0,0,0,0,0
1992,9,6,1,0,,26.5,23.4,84,100730,0,0,410,0,0,0,0,0,0,0,160,1,5,0,0,0,0,0,0,0,0,0,0,0,0
1992,9,6,2,0,,26.1,22.9,83,100730,0,0,400,0,0,0,0,0,0,0,180,2,2,0,0,0,0,0,0,0,0,0,0,0,0
1992,9,6,3,0,,25.5,22.4,83,100730,0,0,382,0,0,0,0,0,0,0,160,1.3,0,0,0,0,0,0,0,0,0,0,0,0,0
1992,9,6,4,0,,25.5,22.6,84,100740,0,0,382,0,0,0,0,0,0,0,110,0.8,0,0,0,0,0,0,0,0,0,0,0,0,0
1992,9,6,5,0,,25.9,22.9,84,100740,0,0,385,0,0,0,0,0,0,0,110,2.7,0,0,0,0,0,0,0,0,0,0,0,0,0
1992,9,6,6,0,,25.7,23.1,85,100750,0,0,384,0,0,0,0,0,0,0,110,2.3,0,0,0,0,0,0,0,0,0,0,0,0,0
1992,9,6,7,0,,25.7,22.4,79,100790,0,0,397,51,25,26,4747,2065,3734,0,110,0.3,2,0,0,0,0,0,0,0,0,0,0,0,0
1992,9,6,8,0,,26.4,21.7,73,100820,0,0,408,186,389,82,38884,38200,13741,0,110,5.3,5,0,0,0,0,0,0,0,0,0,0,0,0
1992,9,6,9,0,,27.8,21,67,100860,0,0,424,303,268,178,45174,23809,26481,0,110,6,7,0,0,0,0,0,0,0,0,0,0,0,0
1992,9,6,10,0,,28.5,21.3,65,100850,0,0,427,426,233,277,53918,19768,36865,0,110,6,7,0,0,0,0,0,0,0,0,0,0,0,0
1992,9,6,11,0,,29.7,21.7,63,100850,0,0,433,579,288,357,67868,24161,46477,0,90,7,6,0,0,0,0,0,0,0,0,0,0,0,0
1992,9,6,12,0,,30.3,22,61,100840,0,0,435,643,263,417,72254,21847,53647,0,90,6.5,6,0,0,0,0,0,0,0,0,0,0,0,0
1992,9,6,13,0,,29.5,21.7,59,100780,0,0,424,702,302,434,74324,25005,55221,0,140,4.8,4,0,0,0,0,0,0,0,0,0,0,0,0
1992,9,6,14,0,,31.1,21.4,57,100730,0,0,427,738,511,296,67807,43755,40322,0,90,5.3,3,0,0,0,0,0,0,0,0,0,0,0,0
1992,9,6,15,0,,31,21.1,55,100670,0,0,418,694,600,225,53250,48770,31134,0,90,7,1,0,0,0,0,0,0,0,0,0,0,0,0
1992,9,6,16,0,,30.4,20.9,57,100690,0,0,414,577,628,167,33003,40830,22721,0,90,6.3,1,0,0,0,0,0,0,0,0,0,0,0,0
1992,9,6,17,0,,29.6,20.7,60,100720,0,0,409,394,547,130,15021,0,15021,0,110,6.3,1,0,0,0,0,0,0,0,0,0,0,0,0
1992,9,6,18,0,,28.6,20.5,62,100740,0,0,404,222,528,72,0,0,0,0,90,6.7,1,0,0,0,0,0,0,0,0,0,0,0,0
1992,9,6,19,0,,27.2,20.9,66,100780,0,0,408,55,24,31,0,0,0,0,110,5,4,0,0,0,0,0,0,0,0,0,0,0,0
1992,9,6,20,0,,26.6,21.3,71,100820,0,0,414,0,0,0,0,0,0,0,110,2.7,6,0,0,0,0,0,0,0,0,0,0,0,0
1992,9,6,21,0,,26.5,21.7,75,100860,0,0,434,0,0,0,0,0,0,0,110,2.7,9,0,0,0,0,0,0,0,0,0,0,0,0
1992,9,6,22,0,,26.1,19.5,67,100850,0,0,411,0,0,0,0,0,0,0,140,3.3,7,0,0,0,0,0,0,0,0,0,0,0,0
1992,9,6,23,0,,25.6,17.3,58,100840,0,0,397,0,0,0,0,0,0,0,110,4.3,4,0,0,0,0,0,0,0,0,0,0,0,0
1992,9,6,24,0,,26.2,15.1,50,100830,0,0,390,0,0,0,0,0,0,0,140,5.2,2,0,0,0,0,0,0,0,0,0,0,0,0
1992,9,7,1,0,,26.4,16.5,57,100810,0,0,400,0,0,0,0,0,0,0,140,3.7,4,0,0,0,0,0,0,0,0,0,0,0,0
1992,9,7,2,0,,25.4,17.8,63,100800,0,0,405,0,0,0,0,0,0,0,140,2.2,7,0,0,0,0,0,0,0,0,0,0,0,0
1992,9,7,3,0,,25,19.2,70,100780,0,0,422,0,0,0,0,0,0,0,160,2,9,0,0,0,0,0,0,0,0,0,0,0,0
1992,9,7,4,0,,25,18.2,65,100740,0,0,409,0,0,0,0,0,0,0,140,1.2,8,0,0,0,0,0,0,0,0,0,0,0,0
1992,9,7,5,0,,25.2,17.1,59,100700,0,0,401,0,0,0,0,0,0,0,140,1.8,6,0,0,0,0,0,0,0,0,0,0,0,0
1992,9,7,6,0,,26.1,16.1,54,100660,0,0,400,0,0,0,0,0,0,0,160,3.2,5,0,0,0,0,0,0,0,0,0,0,0,0
1992,9,7,7,0,,25.3,18.5,62,100690,0,0,400,47,28,19,4294,2376,3135,0,230,1.8,5,0,0,0,0,0,0,0,0,0,0,0,0
1992,9,7,8,0,,25.7,20.8,70,100710,0,0,406,155,257,88,29270,22764,14340,0,0,0,6,0,0,0,0,0,0,0,0,0,0,0,0
1992,9,7,9,0,,27.3,23.2,78,100740,0,0,419,285,226,180,42707,19458,27478,0,160,1,6,0,0,0,0,0,0,0,0,0,0,0,0
1992,9,7,10,0,,29,23.1,75,100730,0,0,430,437,256,274,55315,20887,37355,0,90,1.5,6,0,0,0,0,0,0,0,0,0,0,0,0
1992,9,7,11,0,,28.6,23.1,72,100720,0,0,430,469,156,348,54970,13143,43374,0,20,1.8,7,0,0,0,0,0,0,0,0,0,0,0,0
1992,9,7,12,0,,29.3,23,69,100710,0,0,435,527,150,399,59734,12574,49068,0,320,2,7,0,0,0,0,0,0,0,0,0,0,0,0
1992,9,7,13,0,,28.2,23.1,70,100660,0,0,426,552,151,418,60615,12493,51118,0,340,2.5,6,0,0,0,0,0,0,0,0,0,0,0,0
1992,9,7,14,0,,29.9,23.3,70,100620,0,0,433,572,186,412,59505,14946,50178,0,20,1.8,6,0,0,0,0,0,0,0,0,0,0,0,0
1992,9,7,15,0,,29.1,23.4,71,100570,0,0,426,520,202,363,50646,15061,43883,0,50,2.3,5,0,0,0,0,0,0,0,0,0,0,0,0
1992,9,7,16,0,,29.5,22.9,70,100560,0,0,433,423,216,283,36187,16781,32040,0,360,1.8,6,0,0,0,0,0,0,0,0,0,0,0,0
1992,9,7,17,0,,29.2,22.5,69,100550,0,0,439,230,108,178,19524,6752,19307,0,340,2.2,8,0,0,0,0,0,0,0,0,0,0,0,0
1992,9,7,18,0,,28.5,22,68,100540,0,0,446,106,68,87,0,0,0,0,20,2.3,9,0,0,0,0,0,0,0,0,0,0,0,0
1992,9,7,19,0,,28.2,22.2,70,100580,0,0,444,25,4,22,0,0,0,0,20,1.3,9,0,0,0,0,0,0,0,0,0,0,0,0
1992,9,7,20,0,,27.8,22.5,73,100620,0,0,442,0,0,0,0,0,0,0,50,1.3,9,0,0,0,0,0,0,0,0,0,0,0,0
1992,9,7,21,0,,27.5,22.7,75,100660,0,0,441,0,0,0,0,0,0,0,180,1.5,9,0,0,0,0,0,0,0,0,0,0,0,0
1992,9,7,22,0,,28,22.2,74,100660,0,0,427,0,0,0,0,0,0,0,160,1.3,7,0,0,0,0,0,0,0,0,0,0,0,0
1992,9,7,23,0,,27.5,21.6,74,100670,0,0,415,0,0,0,0,0,0,0,160,2.2,5,0,0,0,0,0,0,0,0,0,0,0,0
1992,9,7,24,0,,26.3,21.1,73,100670,0,0,401,0,0,0,0,0,0,0,160,2.7,3,0,0,0,0,0,0,0,0,0,0,0,0
1992,9,8,1,0,,26.4,21.1,73,100650,0,0,408,0,0,0,0,0,0,0,160,2,5,0,0,0,0,0,0,0,0,0,0,0,0
1992,9,8,2,0,,26.4,21.2,72,100630,0,0,417,0,0,0,0,0,0,0,160,1.7,7,0,0,0,0,0,0,0,0,0,0,0,0
1992,9,8,3,0,,26.5,21.2,72,100610,0,0,433,0,0,0,0,0,0,0,180,2,9,0,0,0,0,0,0,0,0,0,0,0,0
1992,9,8,4,0,,26.5,20.8,70,100590,0,0,432,0,0,0,0,0,0,0,160,1.3,9,0,0,0,0,0,0,0,0,0,0,0,0
1992,9,8,5,0,,26.6,20.3,69,100560,0,0,432,0,0,0,0,0,0,0,160,1,9,0,0,0,0,0,0,0,0,0,0,0,0
1992,9,8,6,0,,26.6,19.9,67,100540,0,0,432,0,0,0,0,0,0,0,320,0.3,9,0,0,0,0,0,0,0,0,0,0,0,0
1992,9,8,7,0,,26.6,21.3,74,100560,0,0,437,24,4,20,2690,302,2544,0,270,3,9,0,0,0,0,0,0,0,0,0,0,0,0
1992,9,8,8,0,,27.2,22.8,81,100590,0,0,447,75,32,66,10870,2699,9107,0,180,2.3,10,0,0,0,0,0,0,0,0,0,0,0,0
1992,9,8,9,0,,26.4,24.2,88,100610,0,0,449,123,21,113,15194,1743,13835,0,340,2,10,0,0,0,0,0,0,0,0,0,0,0,0
1992,9,8,10,0,,25,23.9,87,100640,0,0,440,155,14,146,18742,1167,17742,0,340,4,10,0,0,0,0,0,0,0,0,0,0,0,0
1992,9,8,11,0,,24.6,23.6,87,100680,0,0,437,155,7,149,18788,363,18469,0,180,1.3,10,0,0,0,0,0,0,0,0,0,0,0,0
1992,9,8,12,0,,25.8,23.3,86,100710,0,0,444,218,13,206,25442,754,24805,0,270,2.3,10,0,0,0,0,0,0,0,0,0,0,0,0
1992,9,8,13,0,,25.7,23.5,87,100690,0,0,444,245,17,230,27740,1006,26979,0,250,1.2,10,0,0,0,0,0,0,0,0,0,0,0,0
1992,9,8,14,0,,26.2,23.7,88,100670,0,0,447,264,23,244,28620,1490,27696,0,320,2.3,10,0,0,0,0,0,0,0,0,0,0,0,0
1992,9,8,15,0,,25.8,23.9,89,100650,0,0,445,222,20,207,23291,1254,22733,0,340,4,10,0,0,0,0,0,0,0,0,0,0,0,0
1992,9,8,16,0,,25.1,23.1,86,100660,0,0,439,169,17,158,16764,899,16546,0,20,3.3,10,0,0,0,0,0,0,0,0,0,0,0,0
1992,9,8,17,0,,25,22.2,84,100660,0,0,438,135,25,123,11049,3425,10955,0,20,5.3,10,0,0,0,0,0,0,0,0,0,0,0,0
1992,9,8,18,0,,24.8,21.4,81,100670,0,0,435,76,28,68,0,0,0,0,20,3.5,10,0,0,0,0,0,0,0,0,0,0,0,0
1992,9,8,19,0,,24.6,21,80,100710,0,0,434,15,1,14,0,0,0,0,50,2.3,10,0,0,0,0,0,0,0,0,0,0,0,0
1992,9,8,20,0,,24.2,20.5,80,100740,0,0,431,0,0,0,0,0,0,0,180,1.8,10,0,0,0,0,0,0,0,0,0,0,0,0
1992,9,8,21,0,,24,20.1,79,100780,0,0,429,0,0,0,0,0,0,0,20,1.7,10,0,0,0,0,0,0,0,0,0,0,0,0
1992,9,8,22,0,,23.2,20.3,84,100790,0,0,425,0,0,0,0,0,0,0,360,2,10,0,0,0,0,0,0,0,0,0,0,0,0
1992,9,8,23,0,,22.1,20.6,89,100810,0,0,419,0,0,0,0,0,0,0,20,2.3,10,0,0,0,0,0,0,0,0,0,0,0,0
1992,9,8,24,0,,21.8,20.8,94,100820,0,0,417,0,0,0,0,0,0,0,0,0,10,0,0,0,0,0,0,0,0,0,0,0,0
1992,9,9,1,0,,21.3,20.2,93,100800,0,0,414,0,0,0,0,0,0,0,20,2.5,10,0,0,0,0,0,0,0,0,0,0,0,0
1992,9,9,2,0,,20.7,19.7,93,100770,0,0,410,0,0,0,0,0,0,0,0,0,10,0,0,0,0,0,0,0,0,0,0,0,0
1992,9,9,3,0,,20.4,19.1,92,100750,0,0,407,0,0,0,0,0,0,0,230,2.5,10,0,0,0,0,0,0,0,0,0,0,0,0
1992,9,9,4,0,,20.6,19,91,100760,0,0,408,0,0,0,0,0,0,0,140,0.8,10,0,0,0,0,0,0,0,0,0,0,0,0
1992,9,9,5,0,,20.7,18.8,89,100770,0,0,409,0,0,0,0,0,0,0,70,2.2,10,0,0,0,0,0,0,0,0,0,0,0,0
1992,9,9,6,0,,20.8,18.7,88,100780,0,0,409,0,0,0,0,0,0,0,20,3.7,10,0,0,0,0,0,0,0,0,0,0,0,0
1992,9,9,7,0,,20.8,18.5,88,100820,0,0,409,15,1,14,1891,35,1874,0,20,5,10,0,0,0,0,0,0,0,0,0,0,0,0
1992,9,9,8,0,,20.1,18.3,87,100860,0,0,405,72,30,65,10425,2724,8652,0,20,6.7,10,0,0,0,0,0,0,0,0,0,0,0,0
1992,9,9,9,0,,20.3,18.1,87,100900,0,0,405,153,39,135,18807,3506,16081,0,50,8,10,0,0,0,0,0,0,0,0,0,0,0,0
1992,9,9,10,0,,19.5,17.4,86,100920,0,0,400,198,28,180,23501,2540,21331,0,20,9,10,0,0,0,0,0,0,0,0,0,0,0,0
1992,9,9,11,0,,18.9,16.8,86,100940,0,0,396,249,28,228,29016,2559,26774,0,20,10,10,0,0,0,0,0,0,0,0,0,0,0,0
1992,9,9,12,0,,18.7,16.1,85,100960,0,0,394,228,15,215,26825,1022,25966,0,20,4.3,10,0,0,0,0,0,0,0,0,0,0,0,0
1992,9,9,13,0,,18.7,16.1,87,100950,0,0,394,268,21,249,30365,1545,29202,0,20,5.5,10,0,0,0,0,0,0,0,0,0,0,0,0
1992,9,9,14,0,,18,16.1,90,100940,0,0,390,258,22,240,28404,1611,27413,0,20,7.3,10,0,0,0,0,0,0,0,0,0,0,0,0
1992,9,9,15,0,,17.3,16.1,92,100930,0,0,387,185,12,176,20042,801,19689,0,140,3.3,10,0,0,0,0,0,0,0,0,0,0,0,0
1992,9,9,16,0,,17.1,15.9,89,100880,0,0,385,150,12,142,15210,680,15048,0,110,1.3,10,0,0,0,0,0,0,0,0,0,0,0,0
1992,9,9,17,0,,18.3,15.8,87,100830,0,0,391,141,29,127,11394,4976,11283,0,140,3.7,10,0,0,0,0,0,0,0,0,0,0,0,0
1992,9,9,18,0,,18.4,15.6,84,100780,0,0,392,74,28,67,0,0,0,0,110,1.7,10,0,0,0,0,0,0,0,0,0,0,0,0
1992,9,9,19,0,,18.6,15.4,82,100780,0,0,389,16,1,15,0,0,0,0,110,1.7,10,0,0,0,0,0,0,0,0,0,0,0,0
1992,9,9,20,0,,18.8,15.1,80,100780,0,0,386,0,0,0,0,0,0,0,180,1.7,9,0,0,0,0,0,0,0,0,0,0,0,0
1992,9,9,21,0,,18.7,14.9,78,100780,0,0,382,0,0,0,0,0,0,0,160,1.3,9,0,0,0,0,0,0,0,0,0,0,0,0
1992,9,9,22,0,,18.7,14.8,78,100780,0,0,369,0,0,0,0,0,0,0,180,2.7,7,0,0,0,0,0,0,0,0,0,0,0,0
1992,9,9,23,0,,18.6,14.7,79,100790,0,0,362,0,0,0,0,0,0,0,180,2.3,6,0,0,0,0,0,0,0,0,0,0,0,0
1992,9,9,24,0,,18.2,14.6,79,100790,0,0,355,0,0,0,0,0,0,0,180,0.8,4,0,0,0,0,0,0,0,0,0,0,0,0
1992,9,10,1,0,,17.6,14.5,80,100770,0,0,352,0,0,0,0,0,0,0,180,2.2,4,0,0,0,0,0,0,0,0,0,0,0,0
1992,9,10,2,0,,17.4,14.4,82,100750,0,0,351,0,0,0,0,0,0,0,180,1.7,4,0,0,0,0,0,0,0,0,0,0,0,0
1992,9,10,3,0,,17.2,14.3,83,100730,0,0,350,0,0,0,0,0,0,0,180,2.2,4,0,0,0,0,0,0,0,0,0,0,0,0
1992,9,10,4,0,,17.1,14.2,82,100740,0,0,350,0,0,0,0,0,0,0,180,2.3,4,0,0,0,0,0,0,0,0,0,0,0,0
1992,9,10,5,0,,17.2,14.1,81,100740,0,0,351,0,0,0,0,0,0,0,180,2,5,0,0,0,0,0,0,0,0,0,0,0,0
1992,9,10,6,0,,17.4,14,80,100750,0,0,353,0,0,0,0,0,0,0,180,3,5,0,0,0,0,0,0,0,0,0,0,0,0
1992,9,10,7,0,,17.4,15.6,83,100790,0,0,359,36,13,23,3805,1210,3223,0,160,2.3,6,0,0,0,0,0,0,0,0,0,0,0,0
1992,9,10,8,0,,18.5,17.1,86,100830,0,0,373,111,103,85,18117,9303,12083,0,140,1.7,8,0,0,0,0,0,0,0,0,0,0,0,0
1992,9,10,9,0,,20.5,18.7,89,100870,0,0,396,189,72,156,24928,6601,19813,0,180,1.3,9,0,0,0,0,0,0,0,0,0,0,0,0
1992,9,10,10,0,,21.5,18.7,84,100850,0,0,398,297,88,242,36753,8006,29937,0,50,3,9,0,0,0,0,0,0,0,0,0,0,0,0
1992,9,10,11,0,,22.6,18.8,80,100820,0,0,402,441,136,337,51555,12328,40795,0,50,4,8,0,0,0,0,0,0,0,0,0,0,0,0
1992,9,10,12,0,,23.5,18.8,75,100800,0,0,404,456,105,368,52063,9409,44181,0,50,3.3,8,0,0,0,0,0,0,0,0,0,0,0,0
1992,9,10,13,0,,23.8,19.1,73,100750,0,0,401,544,151,412,58961,13344,48971,0,50,4.2,7,0,0,0,0,0,0,0,0,0,0,0,0
1992,9,10,14,0,,24.6,19.4,72,100700,0,0,403,519,148,394,53318,13441,45099,0,50,4,7,0,0,0,0,0,0,0,0,0,0,0,0
1992,9,10,15,0,,25.4,19.7,70,100650,0,0,404,537,235,357,50131,18725,41976,0,50,5,6,0,0,0,0,0,0,0,0,0,0,0,0
1992,9,10,16,0,,24.8,19.1,69,100650,0,0,402,432,247,274,35094,15048,31588,0,50,5.3,6,0,0,0,0,0,0,0,0,0,0,0,0
1992,9,10,17,0,,25.1,18.5,68,100660,0,0,404,276,204,182,19521,14664,19266,0,70,4.3,7,0,0,0,0,0,0,0,0,0,0,0,0
1992,9,10,18,0,,24.4,17.9,67,100660,0,0,401,141,185,92,0,0,0,0,70,2,7,0,0,0,0,0,0,0,0,0,0,0,0
1992,9,10,19,0,,23.8,18.3,71,100700,0,0,393,41,16,24,0,0,0,0,50,2.2,6,0,0,0,0,0,0,0,0,0,0,0,0
1992,9,10,20,0,,23.2,18.6,76,100740,0,0,386,0,0,0,0,0,0,0,20,1.8,4,0,0,0,0,0,0,0,0,0,0,0,0
1992,9,10,21,0,,22.5,19,80,100780,0,0,379,0,0,0,0,0,0,0,180,0.3,3,0,0,0,0,0,0,0,0,0,0,0,0
1992,9,10,22,0,,21.5,18.1,79,100770,0,0,374,0,0,0,0,0,0,0,180,2,3,0,0,0,0,0,0,0,0,0,0,0,0
1992,9,10,23,0,,20.9,17.3,77,100760,0,0,370,0,0,0,0,0,0,0,180,2.2,4,0,0,0,0,0,0,0,0,0,0,0,0
1992,9,10,24,0,,20.9,16.4,76,100750,0,0,370,0,0,0,0,0,0,0,160,1.7,4,0,0,0,0,0,0,0,0,0,0,0,0
1992,9,11,1,0,,20.5,16.6,78,100730,0,0,369,0,0,0,0,0,0,0,180,2,4,0,0,0,0,0,0,0,0,0,0,0,0
1992,9,11,2,0,,20.2,16.7,81,100720,0,0,367,0,0,0,0,0,0,0,160,1.7,4,0,0,0,0,0,0,0,0,0,0,0,0
1992,9,11,3,0,,19.9,16.9,83,100700,0,0,366,0,0,0,0,0,0,0,160,1.7,4,0,0,0,0,0,0,0,0,0,0,0,0
1992,9,11,4,0,,20,17,83,100700,0,0,368,0,0,0,0,0,0,0,160,2,5,0,0,0,0,0,0,0,0,0,0,0,0
1992,9,11,5,0,,19.8,17.2,84,100700,0,0,370,0,0,0,0,0,0,0,180,2.2,5,0,0,0,0,0,0,0,0,0,0,0,0
1992,9,11,6,0,,20,17.3,84,100700,0,0,373,0,0,0,0,0,0,0,140,2.7,6,0,0,0,0,0,0,0,0,0,0,0,0
1992,9,11,7,0,,20.2,17.7,80,100740,0,0,379,31,9,23,3147,729,2798,0,140,1.8,7,0,0,0,0,0,0,0,0,0,0,0,0
1992,9,11,8,0,,21.7,18,77,100780,0,0,393,121,136,87,20216,12099,12398,0,140,2,8,0,0,0,0,0,0,0,0,0,0,0,0
1992,9,11,9,0,,23.4,18.4,73,100820,0,0,411,206,94,163,27313,8605,20669,0,90,2.2,9,0,0,0,0,0,0,0,0,0,0,0,0
1992,9,11,10,0,,24.2,18.4,71,100810,0,0,403,420,241,269,53057,21610,34723,0,70,3.7,7,0,0,0,0,0,0,0,0,0,0,0,0
1992,9,11,11,0,,25.2,18.3,68,100790,0,0,400,534,240,352,62763,21433,44127,0,70,2.7,6,0,0,0,0,0,0,0,0,0,0,0,0
1992,9,11,12,0,,25.2,18.3,66,100780,0,0,395,663,310,401,72519,27620,49480,0,20,4,4,0,0,0,0,0,0,0,0,0,0,0,0
1992,9,11,13,0,,25.2,18.5,66,100740,0,0,394,664,272,427,68391,24171,50393,0,20,3.5,4,0,0,0,0,0,0,0,0,0,0,0,0
1992,9,11,14,0,,25.3,18.6,67,100710,0,0,394,673,323,400,64080,27981,47093,0,20,3.2,3,0,0,0,0,0,0,0,0,0,0,0,0
1992,9,11,15,0,,25.4,18.8,67,100670,0,0,394,597,335,341,51651,26967,40030,0,50,2.7,3,0,0,0,0,0,0,0,0,0,0,0,0
1992,9,11,16,0,,24.8,18,65,100680,0,0,392,470,335,258,34381,20662,29668,0,20,2.5,4,0,0,0,0,0,0,0,0,0,0,0,0
1992,9,11,17,0,,24.6,17.2,64,100680,0,0,393,307,293,172,17604,0,17604,0,20,1.5,5,0,0,0,0,0,0,0,0,0,0,0,0
1992,9,11,18,0,,24,16.4,62,100690,0,0,393,153,254,87,0,0,0,0,20,1.7,6,0,0,0,0,0,0,0,0,0,0,0,0
1992,9,11,19,0,,23.4,16.1,65,100710,0,0,389,38,14,24,0,0,0,0,0,0,6,0,0,0,0,0,0,0,0,0,0,0,0
1992,9,11,20,0,,22,15.9,68,100730,0,0,381,0,0,0,0,0,0,0,160,2.3,6,0,0,0,0,0,0,0,0,0,0,0,0
1992,9,11,21,0,,21.2,15.6,71,100750,0,0,377,0,0,0,0,0,0,0,160,2.3,6,0,0,0,0,0,0,0,0,0,0,0,0
1992,9,11,22,0,,20.9,15.1,70,100760,0,0,369,0,0,0,0,0,0,0,160,1.8,4,0,0,0,0,0,0,0,0,0,0,0,0
1992,9,11,23,0,,20.4,14.5,68,100760,0,0,359,0,0,0,0,0,0,0,180,3,2,0,0,0,0,0,0,0,0,0,0,0,0
1992,9,11,24,0,,20.3,14,67,100770,0,0,347,0,0,0,0,0,0,0,180,1.7,0,0,0,0,0,0,0,0,0,0,0,0,0
1992,9,12,1,0,,19.9,14,68,100740,0,0,344,0,0,0,0,0,0,0,180,4,0,0,0,0,0,0,0,0,0,0,0,0,0
1992,9,12,2,0,,19.4,13.9,69,100700,0,0,342,0,0,0,0,0,0,0,180,3.8,0,0,0,0,0,0,0,0,0,0,0,0,0
1992,9,12,3,0,,19.5,13.9,70,100670,0,0,343,0,0,0,0,0,0,0,160,2.3,0,0,0,0,0,0,0,0,0,0,0,0,0
1992,9,12,4,0,,19.3,14.2,71,100660,0,0,352,0,0,0,0,0,0,0,140,3.7,2,0,0,0,0,0,0,0,0,0,0,0,0
1992,9,12,5,0,,19.4,14.4,73,100660,0,0,359,0,0,0,0,0,0,0,160,2.2,3,0,0,0,0,0,0,0,0,0,0,0,0
1992,9,12,6,0,,19.3,14.7,74,100650,0,0,363,0,0,0,0,0,0,0,160,2.3,5,0,0,0,0,0,0,0,0,0,0,0,0
1992,9,12,7,0,,19.4,15,70,100670,0,0,368,38,16,22,3731,1446,3042,0,160,3,6,0,0,0,0,0,0,0,0,0,0,0,0
1992,9,12,8,0,,20.9,15.2,66,100690,0,0,383,128,164,86,23398,15384,13496,0,160,2.5,8,0,0,0,0,0,0,0,0,0,0,0,0
1992,9,12,9,0,,23.2,15.5,62,100710,0,0,407,211,103,165,28007,9695,20546,0,0,0,9,0,0,0,0,0,0,0,0,0,0,0,0
1992,9,12,10,0,,25.6,16.5,62,100690,0,0,410,390,195,268,49194,17951,34018,0,160,1.7,8,0,0,0,0,0,0,0,0,0,0,0,0
1992,9,12,11,0,,26.1,17.4,62,100670,0,0,407,568,295,345,66089,26666,42991,0,360,2,6,0,0,0,0,0,0,0,0,0,0,0,0
1992,9,12,12,0,,26.2,18.4,62,100650,0,0,404,644,287,403,70896,25463,49749,0,340,3.7,5,0,0,0,0,0,0,0,0,0,0,0,0
1992,9,12,13,0,,26.9,18,59,100590,0,0,409,598,202,422,63178,18054,49807,0,360,3.3,6,0,0,0,0,0,0,0,0,0,0,0,0
1992,9,12,14,0,,27.5,17.5,56,100520,0,0,415,596,226,406,59443,19767,47528,0,360,3.2,6,0,0,0,0,0,0,0,0,0,0,0,0
1992,9,12,15,0,,27.5,17.1,53,100460,0,0,418,480,176,347,45956,15934,39162,0,360,2.3,7,0,0,0,0,0,0,0,0,0,0,0,0
1992,9,12,16,0,,26.8,17,55,100440,0,0,420,330,119,255,30612,9604,28468,0,20,2.5,8,0,0,0,0,0,0,0,0,0,0,0,0
1992,9,12,17,0,,26.3,17,56,100420,0,0,426,182,66,152,16081,4609,16046,0,360,2.5,9,0,0,0,0,0,0,0,0,0,0,0,0
1992,9,12,18,0,,25.9,16.9,58,100400,0,0,436,72,31,64,0,0,0,0,360,2.3,10,0,0,0,0,0,0,0,0,0,0,0,0
1992,9,12,19,0,,25.4,17.4,62,100420,0,0,433,14,1,13,0,0,0,0,320,0.8,10,0,0,0,0,0,0,0,0,0,0,0,0
1992,9,12,20,0,,24.9,17.9,66,100440,0,0,431,0,0,0,0,0,0,0,160,1.5,10,0,0,0,0,0,0,0,0,0,0,0,0
1992,9,12,21,0,,24.2,18.4,70,100460,0,0,428,0,0,0,0,0,0,0,160,2.3,10,0,0,0,0,0,0,0,0,0,0,0,0
1992,9,12,22,0,,24.3,18.1,69,100410,0,0,428,0,0,0,0,0,0,0,0,0,10,0,0,0,0,0,0,0,0,0,0,0,0
1992,9,12,23,0,,24.1,17.7,68,100350,0,0,426,0,0,0,0,0,0,0,160,0.5,10,0,0,0,0,0,0,0,0,0,0,0,0
1992,9,12,24,0,,24,17.4,67,100300,0,0,425,0,0,0,0,0,0,0,180,2,10,0,0,0,0,0,0,0,0,0,0,0,0
1992,9,13,1,0,,23.7,17.4,68,100240,0,0,424,0,0,0,0,0,0,0,340,2,10,0,0,0,0,0,0,0,0,0,0,0,0
1992,9,13,2,0,,23.5,17.5,69,100190,0,0,422,0,0,0,0,0,0,0,180,2.5,10,0,0,0,0,0,0,0,0,0,0,0,0
1992,9,13,3,0,,23.2,17.5,70,100130,0,0,421,0,0,0,0,0,0,0,20,1.3,10,0,0,0,0,0,0,0,0,0,0,0,0
1992,9,13,4,0,,22.4,17.8,76,100100,0,0,417,0,0,0,0,0,0,0,20,2.5,10,0,0,0,0,0,0,0,0,0,0,0,0
1992,9,13,5,0,,21.6,18.1,81,100060,0,0,413,0,0,0,0,0,0,0,230,1.5,10,0,0,0,0,0,0,0,0,0,0,0,0
1992,9,13,6,0,,20.6,18.4,87,100030,0,0,407,0,0,0,0,0,0,0,110,2,10,0,0,0,0,0,0,0,0,0,0,0,0
1992,9,13,7,0,,20.9,19.4,89,100010,0,0,410,9,0,9,1271,10,1266,0,140,1.8,10,0,0,0,0,0,0,0,0,0,0,0,0
1992,9,13,8,0,,21.7,20.4,91,99990,0,0,416,65,24,59,9351,2146,7975,0,110,3.7,10,0,0,0,0,0,0,0,0,0,0,0,0
1992,9,13,9,0,,22.5,21.4,93,99970,0,0,422,133,28,120,16343,2426,14483,0,180,1.8,10,0,0,0,0,0,0,0,0,0,0,0,0
1992,9,13,10,0,,25.8,21.9,89,99980,0,0,437,256,60,218,32169,5256,27742,0,250,6.2,10,0,0,0,0,0,0,0,0,0,0,0,0
1992,9,13,11,0,,26.2,22.3,86,99980,0,0,436,390,101,314,46555,8620,39118,0,270,6.7,9,0,0,0,0,0,0,0,0,0,0,0,0
1992,9,13,12,0,,26.1,22.8,82,99990,0,0,433,415,84,345,46527,7266,40520,0,270,7,9,0,0,0,0,0,0,0,0,0,0,0,0
1992,9,13,13,0,,27,22,78,99970,0,0,433,416,75,351,45820,6636,40932,0,270,6.7,9,0,0,0,0,0,0,0,0,0,0,0,0
1992,9,13,14,0,,27.2,21.1,73,99950,0,0,430,480,124,376,49925,11080,43295,0,270,7.7,8,0,0,0,0,0,0,0,0,0,0,0,0
1992,9,13,15,0,,26.3,20.3,69,99930,0,0,421,400,108,319,40326,9389,36367,0,270,6,8,0,0,0,0,0,0,0,0,0,0,0,0
1992,9,13,16,0,,25.4,20.8,74,99960,0,0,420,301,95,242,28877,7250,27294,0,270,5.7,8,0,0,0,0,0,0,0,0,0,0,0,0
1992,9,13,17,0,,24.9,21.4,79,99990,0,0,421,163,51,141,15032,3294,15024,0,270,4.7,9,0,0,0,0,0,0,0,0,0,0,0,0
1992,9,13,18,0,,24.7,21.9,84,100020,0,0,423,83,49,71,0,0,0,0,250,3.5,9,0,0,0,0,0,0,0,0,0,0,0,0
1992,9,13,19,0,,24.3,22,84,100080,0,0,421,19,2,17,0,0,0,0,250,4,9,0,0,0,0,0,0,0,0,0,0,0,0
1992,9,13,20,0,,24.7,22,85,100150,0,0,424,0,0,0,0,0,0,0,270,5,9,0,0,0,0,0,0,0,0,0,0,0,0
1992,9,13,21,0,,24.8,22.1,85,100210,0,0,424,0,0,0,0,0,0,0,290,1.5,9,0,0,0,0,0,0,0,0,0,0,0,0
1992,9,13,22,0,,24.5,21.8,85,100220,0,0,404,0,0,0,0,0,0,0,290,3,6,0,0,0,0,0,0,0,0,0,0,0,0
1992,9,13,23,0,,24.3,21.5,84,100240,0,0,393,0,0,0,0,0,0,0,290,2.2,4,0,0,0,0,0,0,0,0,0,0,0,0
1992,9,13,24,0,,24,21.2,84,100250,0,0,380,0,0,0,0,0,0,0,320,5.2,1,0,0,0,0,0,0,0,0,0,0,0,0
1992,9,14,1,0,,23.7,20.9,84,100280,0,0,390,0,0,0,0,0,0,0,320,5.7,4,0,0,0,0,0,0,0,0,0,0,0,0
1992,9,14,2,0,,23.4,20.5,84,100320,0,0,399,0,0,0,0,0,0,0,340,5,7,0,0,0,0,0,0,0,0,0,0,0,0
1992,9,14,3,0,,23.1,20.2,84,100350,0,0,424,0,0,0,0,0,0,0,340,4.7,10,0,0,0,0,0,0,0,0,0,0,0,0
1992,9,14,4,0,,22.9,19.7,82,100380,0,0,418,0,0,0,0,0,0,0,340,4,10,0,0,0,0,0,0,0,0,0,0,0,0
1992,9,14,5,0,,22.9,19.3,79,100410,0,0,413,0,0,0,0,0,0,0,320,4.7,9,0,0,0,0,0,0,0,0,0,0,0,0
1992,9,14,6,0,,22.9,18.8,77,100440,0,0,409,0,0,0,0,0,0,0,340,4.3,9,0,0,0,0,0,0,0,0,0,0,0,0
1992,9,14,7,0,,22.9,18.7,76,100530,0,0,409,21,3,18,2364,251,2245,0,340,4,9,0,0,0,0,0,0,0,0,0,0,0,0
1992,9,14,8,0,,22.8,18.5,74,100620,0,0,408,96,75,77,15445,6656,11194,0,360,4.3,9,0,0,0,0,0,0,0,0,0,0,0,0
1992,9,14,9,0,,23.4,18.4,73,100710,0,0,412,189,78,154,25020,7113,19586,0,360,4.3,9,0,0,0,0,0,0,0,0,0,0,0,0
1992,9,14,10,0,,23.9,18.4,70,100700,0,0,399,375,179,264,47534,15989,34115,0,340,4,7,0,0,0,0,0,0,0,0,0,0,0,0
1992,9,14,11,0,,23.9,18.4,68,100700,0,0,391,545,266,345,63777,23767,43352,0,320,4.3,5,0,0,0,0,0,0,0,0,0,0,0,0
1992,9,14,12,0,,25.4,18.4,65,100690,0,0,393,698,483,295,75411,44003,39198,0,340,4,3,0,0,0,0,0,0,0,0,0,0,0,0
1992,9,14,13,0,,25.5,19,67,100660,0,0,399,642,257,421,66451,22643,49866,0,320,4,5,0,0,0,0,0,0,0,0,0,0,0,0
1992,9,14,14,0,,25.9,19.5,69,100630,0,0,408,589,225,401,58841,19153,47465,0,320,4.7,6,0,0,0,0,0,0,0,0,0,0,0,0
1992,9,14,15,0,,25.7,20.1,71,100600,0,0,418,387,100,312,39196,8723,35558,0,320,4.7,8,0,0,0,0,0,0,0,0,0,0,0,0
1992,9,14,16,0,,25.2,19.9,72,100640,0,0,405,395,210,265,33187,16440,29676,0,320,5,6,0,0,0,0,0,0,0,0,0,0,0,0
1992,9,14,17,0,,25.1,19.6,72,100690,0,0,398,310,342,157,0,0,0,0,320,6,5,0,0,0,0,0,0,0,0,0,0,0,0
1992,9,14,18,0,,24.5,19.4,73,100730,0,0,390,181,456,69,0,0,0,0,320,5.3,3,0,0,0,0,0,0,0,0,0,0,0,0
1992,9,14,19,0,,23.5,18.8,72,100750,0,0,382,43,20,24,0,0,0,0,320,4,3,0,0,0,0,0,0,0,0,0,0,0,0
1992,9,14,20,0,,23.3,18.2,72,100780,0,0,379,0,0,0,0,0,0,0,320,3.7,2,0,0,0,0,0,0,0,0,0,0,0,0
1992,9,14,21,0,,23,17.6,71,100800,0,0,376,0,0,0,0,0,0,0,230,1.7,2,0,0,0,0,0,0,0,0,0,0,0,0
1992,9,14,22,0,,21.7,16.1,69,100790,0,0,364,0,0,0,0,0,0,0,180,2.5,1,0,0,0,0,0,0,0,0,0,0,0,0
1992,9,14,23,0,,21.2,14.7,66,100780,0,0,356,0,0,0,0,0,0,0,180,2.3,1,0,0,0,0,0,0,0,0,0,0,0,0
1992,9,14,24,0,,20.3,13.2,64,100770,0,0,346,0,0,0,0,0,0,0,180,2.3,0,0,0,0,0,0,0,0,0,0,0,0,0
1992,9,15,1,0,,19.9,12.9,64,100770,0,0,343,0,0,0,0,0,0,0,180,2,0,0,0,0,0,0,0,0,0,0,0,0,0
1992,9,15,2,0,,19.4,12.6,63,100770,0,0,341,0,0,0,0,0,0,0,180,2.5,0,0,0,0,0,0,0,0,0,0,0,0,0
1992,9,15,3,0,,19.3,12.3,63,100770,0,0,340,0,0,0,0,0,0,0,200,1.8,0,0,0,0,0,0,0,0,0,0,0,0,0
1992,9,15,4,0,,19.3,13.2,68,100790,0,0,349,0,0,0,0,0,0,0,180,2,1,0,0,0,0,0,0,0,0,0,0,0,0
1992,9,15,5,0,,19.2,14.2,72,100810,0,0,355,0,0,0,0,0,0,0,180,2.5,3,0,0,0,0,0,0,0,0,0,0,0,0
1992,9,15,6,0,,19.3,15.1,77,100830,0,0,361,0,0,0,0,0,0,0,180,3,4,0,0,0,0,0,0,0,0,0,0,0,0
1992,9,15,7,0,,19.4,16.2,76,100860,0,0,361,43,20,23,4081,1764,3253,0,160,2,3,0,0,0,0,0,0,0,0,0,0,0,0
1992,9,15,8,0,,21.2,17.3,74,100880,0,0,369,184,486,66,41994,50610,9810,0,200,2.3,3,0,0,0,0,0,0,0,0,0,0,0,0
1992,9,15,9,0,,23.6,18.4,73,100910,0,0,380,377,611,105,63198,63731,14696,0,340,3,2,0,0,0,0,0,0,0,0,0,0,0,0
1992,9,15,10,0,,24.2,18.3,70,100900,0,0,380,552,657,147,76250,67996,19399,0,320,2.5,1,0,0,0,0,0,0,0,0,0,0,0,0
1992,9,15,11,0,,24.7,18.2,67,100880,0,0,378,645,558,227,77134,54439,30539,0,340,2.2,1,0,0,0,0,0,0,0,0,0,0,0,0
1992,9,15,12,0,,25.5,18.1,64,100870,0,0,377,705,507,283,75797,46365,37817,0,360,2.3,0,0,0,0,0,0,0,0,0,0,0,0,0
1992,9,15,13,0,,25.8,17.3,60,100850,0,0,378,736,516,293,72668,47071,38387,0,320,4,0,0,0,0,0,0,0,0,0,0,0,0,0
1992,9,15,14,0,,26.1,16.6,56,100820,0,0,378,716,536,271,63686,48247,35244,0,340,3.3,0,0,0,0,0,0,0,0,0,0,0,0,0
1992,9,15,15,0,,26.2,15.8,52,100800,0,0,378,629,522,239,47377,43094,29610,0,340,2.5,0,0,0,0,0,0,0,0,0,0,0,0,0
1992,9,15,16,0,,26.9,16.6,56,100800,0,0,382,515,552,176,28191,31756,21565,0,290,1.8,0,0,0,0,0,0,0,0,0,0,0,0,0
1992,9,15,17,0,,25.2,17.5,60,100800,0,0,375,345,493,127,0,0,0,0,290,2.7,0,0,0,0,0,0,0,0,0,0,0,0,0
1992,9,15,18,0,,25.6,18.3,64,100800,0,0,378,184,505,63,0,0,0,0,290,1.7,0,0,0,0,0,0,0,0,0,0,0,0,0
1992,9,15,19,0,,24.9,18,66,100850,0,0,374,44,23,21,0,0,0,0,320,2.8,0,0,0,0,0,0,0,0,0,0,0,0,0
1992,9,15,20,0,,24,17.6,67,100910,0,0,369,0,0,0,0,0,0,0,230,2.3,0,0,0,0,0,0,0,0,0,0,0,0,0
1992,9,15,21,0,,23.3,17.3,69,100960,0,0,365,0,0,0,0,0,0,0,230,2.2,0,0,0,0,0,0,0,0,0,0,0,0,0
1992,9,15,22,0,,22.7,15.7,65,100950,0,0,360,0,0,0,0,0,0,0,180,2.7,0,0,0,0,0,0,0,0,0,0,0,0,0
1992,9,15,23,0,,22.1,14.1,61,100940,0,0,355,0,0,0,0,0,0,0,160,1.8,0,0,0,0,0,0,0,0,0,0,0,0,0
1992,9,15,24,0,,21.5,12.5,57,100930,0,0,351,0,0,0,0,0,0,0,180,2.2,0,0,0,0,0,0,0,0,0,0,0,0,0
1992,9,16,1,0,,21.3,12.2,56,100920,0,0,356,0,0,0,0,0,0,0,180,1.5,1,0,0,0,0,0,0,0,0,0,0,0,0
1992,9,16,2,0,,20.8,11.9,55,100910,0,0,358,0,0,0,0,0,0,0,180,2.3,2,0,0,0,0,0,0,0,0,0,0,0,0
1992,9,16,3,0,,21.2,11.6,54,100900,0,0,363,0,0,0,0,0,0,0,180,1.8,3,0,0,0,0,0,0,0,0,0,0,0,0
1992,9,16,4,0,,21.3,12.2,56,100910,0,0,364,0,0,0,0,0,0,0,180,1.8,3,0,0,0,0,0,0,0,0,0,0,0,0
1992,9,16,5,0,,21.4,12.8,59,100930,0,0,366,0,0,0,0,0,0,0,180,1.8,3,0,0,0,0,0,0,0,0,0,0,0,0
1992,9,16,6,0,,21.2,13.4,61,100940,0,0,365,0,0,0,0,0,0,0,180,2.3,3,0,0,0,0,0,0,0,0,0,0,0,0
1992,9,16,7,0,,20.6,14.7,62,100970,0,0,360,45,24,21,3956,2166,2945,0,180,2.7,2,0,0,0,0,0,0,0,0,0,0,0,0
1992,9,16,8,0,,22.2,15.9,62,101010,0,0,365,188,526,61,43787,54688,9156,0,180,1.3,1,0,0,0,0,0,0,0,0,0,0,0,0
1992,9,16,9,0,,24.7,17.2,63,101040,0,0,372,377,618,104,63152,64280,14418,0,340,0.8,0,0,0,0,0,0,0,0,0,0,0,0,0
1992,9,16,10,0,,25.2,18.1,65,101030,0,0,380,539,626,155,74203,62047,22523,0,340,2,1,0,0,0,0,0,0,0,0,0,0,0,0
1992,9,16,11,0,,25.7,18.9,66,101010,0,0,388,645,566,223,77276,55167,30251,0,360,2.8,1,0,0,0,0,0,0,0,0,0,0,0,0
1992,9,16,12,0,,26.1,19.8,68,101000,0,0,395,675,442,309,73618,39635,41304,0,340,1.5,2,0,0,0,0,0,0,0,0,0,0,0,0
1992,9,16,13,0,,26.2,19.3,66,100980,0,0,391,721,489,303,71883,43725,40222,0,340,4,1,0,0,0,0,0,0,0,0,0,0,0,0
1992,9,16,14,0,,26.6,18.8,63,100950,0,0,389,697,498,285,61237,42620,36304,0,340,3.2,1,0,0,0,0,0,0,0,0,0,0,0,0
1992,9,16,15,0,,26.5,18.3,61,100930,0,0,382,617,501,245,47090,39611,30947,0,340,3.3,0,0,0,0,0,0,0,0,0,0,0,0,0
1992,9,16,16,0,,26.3,18.8,65,100940,0,0,387,489,488,192,29099,26150,23772,0,340,2,1,0,0,0,0,0,0,0,0,0,0,0,0
1992,9,16,17,0,,25.8,19.3,68,100950,0,0,389,340,491,126,0,0,0,0,340,3,1,0,0,0,0,0,0,0,0,0,0,0,0
1992,9,16,18,0,,25.3,19.8,72,100960,0,0,390,179,497,62,0,0,0,0,340,4.7,2,0,0,0,0,0,0,0,0,0,0,0,0
1992,9,16,19,0,,24.5,19.1,72,100990,0,0,387,42,21,21,0,0,0,0,340,4,2,0,0,0,0,0,0,0,0,0,0,0,0
1992,9,16,20,0,,24.1,18.5,71,101010,0,0,385,0,0,0,0,0,0,0,340,3.7,3,0,0,0,0,0,0,0,0,0,0,0,0
1992,9,16,21,0,,23.4,17.8,71,101040,0,0,382,0,0,0,0,0,0,0,20,5,3,0,0,0,0,0,0,0,0,0,0,0,0
1992,9,16,22,0,,23,16.4,68,101090,0,0,374,0,0,0,0,0,0,0,20,3.2,2,0,0,0,0,0,0,0,0,0,0,0,0
1992,9,16,23,0,,22.4,15.1,64,101130,0,0,365,0,0,0,0,0,0,0,20,3.7,1,0,0,0,0,0,0,0,0,0,0,0,0
1992,9,16,24,0,,21.6,13.7,61,101180,0,0,352,0,0,0,0,0,0,0,20,4.2,0,0,0,0,0,0,0,0,0,0,0,0,0
1992,9,17,1,0,,21.2,13.4,61,101160,0,0,350,0,0,0,0,0,0,0,360,1.8,0,0,0,0,0,0,0,0,0,0,0,0,0
1992,9,17,2,0,,20.7,13.2,61,101150,0,0,347,0,0,0,0,0,0,0,360,1,0,0,0,0,0,0,0,0,0,0,0,0,0
1992,9,17,3,0,,20.7,12.9,61,101130,0,0,347,0,0,0,0,0,0,0,340,3,0,0,0,0,0,0,0,0,0,0,0,0,0
1992,9,17,4,0,,20.6,12.8,61,101150,0,0,349,0,0,0,0,0,0,0,360,4.8,0,0,0,0,0,0,0,0,0,0,0,0,0
1992,9,17,5,0,,20.3,12.6,62,101170,0,0,350,0,0,0,0,0,0,0,360,4.7,1,0,0,0,0,0,0,0,0,0,0,0,0
1992,9,17,6,0,,20.2,12.5,62,101190,0,0,351,0,0,0,0,0,0,0,360,4,1,0,0,0,0,0,0,0,0,0,0,0,0
1992,9,17,7,0,,20,12.2,59,101250,0,0,350,46,26,20,4164,2395,3052,0,20,2.7,1,0,0,0,0,0,0,0,0,0,0,0,0
1992,9,17,8,0,,20.7,11.8,57,101320,0,0,353,194,582,55,45681,59737,8012,0,360,4.3,1,0,0,0,0,0,0,0,0,0,0,0,0
1992,9,17,9,0,,21.5,11.5,54,101380,0,0,356,386,664,94,64980,68748,13060,0,360,4.7,1,0,0,0,0,0,0,0,0,0,0,0,0
1992,9,17,10,0,,22,10.3,49,101350,0,0,355,537,627,154,74052,63242,21581,0,360,1.7,1,0,0,0,0,0,0,0,0,0,0,0,0
1992,9,17,11,0,,22.8,9,43,101310,0,0,355,657,605,208,78527,60380,27274,0,360,1.7,0,0,0,0,0,0,0,0,0,0,0,0,0
1992,9,17,12,0,,22.8,7.8,38,101280,0,0,351,724,567,256,77386,55681,32208,0,340,2,0,0,0,0,0,0,0,0,0,0,0,0,0
1992,9,17,13,0,,23.5,8.3,38,101260,0,0,355,757,580,262,73328,56340,32773,0,340,2.8,0,0,0,0,0,0,0,0,0,0,0,0,0
1992,9,17,14,0,,23.5,8.8,39,101240,0,0,356,713,546,263,62492,51734,32462,0,20,2.2,0,0,0,0,0,0,0,0,0,0,0,0,0
1992,9,17,15,0,,23.9,9.3,39,101220,0,0,359,648,592,211,47184,52139,26185,0,20,2.7,0,0,0,0,0,0,0,0,0,0,0,0,0
1992,9,17,16,0,,23.8,10.1,42,101220,0,0,364,522,601,159,26800,39036,19040,0,20,2.7,1,0,0,0,0,0,0,0,0,0,0,0,0
1992,9,17,17,0,,23.3,11,46,101220,0,0,366,354,565,110,0,0,0,0,20,1.2,1,0,0,0,0,0,0,0,0,0,0,0,0
1992,9,17,18,0,,22.9,11.8,49,101220,0,0,368,179,524,58,0,0,0,0,340,2.3,2,0,0,0,0,0,0,0,0,0,0,0,0
1992,9,17,19,0,,22.1,12.1,54,101240,0,0,365,41,22,19,0,0,0,0,20,2.5,2,0,0,0,0,0,0,0,0,0,0,0,0
1992,9,17,20,0,,21.3,12.4,58,101260,0,0,361,0,0,0,0,0,0,0,180,0.7,2,0,0,0,0,0,0,0,0,0,0,0,0
1992,9,17,21,0,,20.1,12.7,63,101280,0,0,355,0,0,0,0,0,0,0,180,2.7,2,0,0,0,0,0,0,0,0,0,0,0,0
1992,9,17,22,0,,19.3,12.8,65,101280,0,0,359,0,0,0,0,0,0,0,160,1.8,4,0,0,0,0,0,0,0,0,0,0,0,0
1992,9,17,23,0,,18.9,12.9,66,101280,0,0,365,0,0,0,0,0,0,0,180,2.7,7,0,0,0,0,0,0,0,0,0,0,0,0
1992,9,17,24,0,,19.1,13,68,101280,0,0,381,0,0,0,0,0,0,0,180,2.3,9,0,0,0,0,0,0,0,0,0,0,0,0
1992,9,18,1,0,,19.6,13.1,69,101240,0,0,368,0,0,0,0,0,0,0,180,3.3,7,0,0,0,0,0,0,0,0,0,0,0,0
1992,9,18,2,0,,20,13.2,70,101210,0,0,363,0,0,0,0,0,0,0,180,2,4,0,0,0,0,0,0,0,0,0,0,0,0
1992,9,18,3,0,,18.5,13.3,71,101170,0,0,348,0,0,0,0,0,0,0,180,3,2,0,0,0,0,0,0,0,0,0,0,0,0
1992,9,18,4,0,,17.6,12.8,70,101190,0,0,347,0,0,0,0,0,0,0,160,2.7,3,0,0,0,0,0,0,0,0,0,0,0,0
1992,9,18,5,0,,17.6,12.4,69,101220,0,0,349,0,0,0,0,0,0,0,180,2.7,4,0,0,0,0,0,0,0,0,0,0,0,0
1992,9,18,6,0,,17.7,11.9,68,101240,0,0,352,0,0,0,0,0,0,0,160,3,5,0,0,0,0,0,0,0,0,0,0,0,0
1992,9,18,7,0,,17.9,13,67,101270,0,0,352,39,16,23,3885,1491,3197,0,160,2.8,4,0,0,0,0,0,0,0,0,0,0,0,0
1992,9,18,8,0,,20.4,14.2,65,101300,0,0,364,181,505,62,42108,52380,9221,0,180,2.5,4,0,0,0,0,0,0,0,0,0,0,0,0
1992,9,18,9,0,,22.5,15.3,64,101330,0,0,374,375,628,100,62958,65153,13947,0,50,1.8,3,0,0,0,0,0,0,0,0,0,0,0,0
1992,9,18,10,0,,20.1,15.5,63,101320,0,0,366,459,397,217,60532,37425,29604,0,360,2,4,0,0,0,0,0,0,0,0,0,0,0,0
1992,9,18,11,0,,23.6,15.7,63,101320,0,0,388,534,264,338,62132,24478,41443,0,20,4,6,0,0,0,0,0,0,0,0,0,0,0,0
1992,9,18,12,0,,23.6,15.9,62,101310,0,0,394,498,147,377,55464,13630,44459,0,340,3,7,0,0,0,0,0,0,0,0,0,0,0,0
1992,9,18,13,0,,23.9,15.1,58,101300,0,0,397,555,178,404,58698,16378,46978,0,340,1,7,0,0,0,0,0,0,0,0,0,0,0,0
1992,9,18,14,0,,24.9,14.4,55,101280,0,0,404,457,117,361,47268,11040,40909,0,340,2,8,0,0,0,0,0,0,0,0,0,0,0,0
1992,9,18,15,0,,24.4,13.6,51,101270,0,0,402,395,114,311,39116,10483,34944,0,360,1,8,0,0,0,0,0,0,0,0,0,0,0,0
1992,9,18,16,0,,23.9,14.2,55,101270,0,0,398,312,118,241,28461,9432,26633,0,360,2,8,0,0,0,0,0,0,0,0,0,0,0,0
1992,9,18,17,0,,23.6,14.8,58,101270,0,0,395,236,171,163,0,0,0,0,360,2,7,0,0,0,0,0,0,0,0,0,0,0,0
1992,9,18,18,0,,23.1,15.4,62,101270,0,0,391,119,188,76,0,0,0,0,50,0.8,7,0,0,0,0,0,0,0,0,0,0,0,0
1992,9,18,19,0,,22.7,15.6,64,101320,0,0,386,28,10,18,0,0,0,0,20,1.7,6,0,0,0,0,0,0,0,0,0,0,0,0
1992,9,18,20,0,,22.4,15.7,65,101370,0,0,382,0,0,0,0,0,0,0,50,0.7,6,0,0,0,0,0,0,0,0,0,0,0,0
1992,9,18,21,0,,22.2,15.9,67,101420,0,0,379,0,0,0,0,0,0,0,140,0.3,5,0,0,0,0,0,0,0,0,0,0,0,0
1992,9,18,22,0,,21.7,15.9,69,101430,0,0,372,0,0,0,0,0,0,0,110,2.3,3,0,0,0,0,0,0,0,0,0,0,0,0
1992,9,18,23,0,,21.4,15.8,71,101450,0,0,364,0,0,0,0,0,0,0,160,3,2,0,0,0,0,0,0,0,0,0,0,0,0
1992,9,18,24,0,,20.9,15.8,73,101460,0,0,351,0,0,0,0,0,0,0,160,2.2,0,0,0,0,0,0,0,0,0,0,0,0,0
1992,9,19,1,0,,20.3,16,76,101470,0,0,349,0,0,0,0,0,0,0,160,1.8,0,0,0,0,0,0,0,0,0,0,0,0,0
1992,9,19,2,0,,19.6,16.2,80,101490,0,0,346,0,0,0,0,0,0,0,160,1.8,0,0,0,0,0,0,0,0,0,0,0,0,0
1992,9,19,3,0,,19.3,16.4,83,101500,0,0,345,0,0,0,0,0,0,0,160,1.5,0,0,0,0,0,0,0,0,0,0,0,0,0
1992,9,19,4,0,,19,16,82,101530,0,0,343,0,0,0,0,0,0,0,160,2.2,0,0,0,0,0,0,0,0,0,0,0,0,0
1992,9,19,5,0,,18.9,15.6,81,101560,0,0,342,0,0,0,0,0,0,0,160,2.8,0,0,0,0,0,0,0,0,0,0,0,0,0
1992,9,19,6,0,,18.7,15.2,80,101590,0,0,340,0,0,0,0,0,0,0,140,2.3,0,0,0,0,0,0,0,0,0,0,0,0,0
1992,9,19,7,0,,18.8,16.2,78,101630,0,0,349,41,20,21,3772,1766,2961,0,140,2.2,1,0,0,0,0,0,0,0,0,0,0,0,0
1992,9,19,8,0,,21,17.2,75,101680,0,0,365,182,524,59,43104,54634,8954,0,90,1,2,0,0,0,0,0,0,0,0,0,0,0,0
1992,9,19,9,0,,23.3,18.2,73,101720,0,0,382,363,588,107,60722,61119,14930,0,90,2.5,3,0,0,0,0,0,0,0,0,0,0,0,0
1992,9,19,10,0,,23.7,18.3,72,101730,0,0,380,535,635,150,73762,62960,21942,0,70,3.2,2,0,0,0,0,0,0,0,0,0,0,0,0
1992,9,19,11,0,,23.8,18.3,70,101740,0,0,376,633,557,223,75795,54306,30094,0,20,3.7,1,0,0,0,0,0,0,0,0,0,0,0,0
1992,9,19,12,0,,24.3,18.4,69,101750,0,0,371,667,445,302,72501,40510,39955,0,20,2.3,0,0,0,0,0,0,0,0,0,0,0,0,0
1992,9,19,13,0,,24.5,17.7,65,101710,0,0,382,695,452,313,69752,41004,40589,0,20,4.3,2,0,0,0,0,0,0,0,0,0,0,0,0
1992,9,19,14,0,,24.8,17.1,61,101680,0,0,389,667,454,297,59661,39799,36924,0,20,3.7,3,0,0,0,0,0,0,0,0,0,0,0,0
1992,9,19,15,0,,25.3,16.4,57,101640,0,0,396,542,293,328,47187,23724,37860,0,50,3,5,0,0,0,0,0,0,0,0,0,0,0,0
1992,9,19,16,0,,25.6,15.1,54,101650,0,0,397,439,340,237,30294,19468,26617,0,70,2.3,5,0,0,0,0,0,0,0,0,0,0,0,0
1992,9,19,17,0,,25.1,13.7,50,101650,0,0,394,283,313,151,0,0,0,0,90,2.7,6,0,0,0,0,0,0,0,0,0,0,0,0
1992,9,19,18,0,,24.5,12.4,47,101660,0,0,390,139,343,64,0,0,0,0,110,2.7,6,0,0,0,0,0,0,0,0,0,0,0,0
1992,9,19,19,0,,23.5,13.7,55,101680,0,0,382,30,13,17,0,0,0,0,140,1,5,0,0,0,0,0,0,0,0,0,0,0,0
1992,9,19,20,0,,22.5,15.1,62,101700,0,0,375,0,0,0,0,0,0,0,90,1.3,3,0,0,0,0,0,0,0,0,0,0,0,0
1992,9,19,21,0,,22.1,16.4,70,101720,0,0,370,0,0,0,0,0,0,0,90,1.3,2,0,0,0,0,0,0,0,0,0,0,0,0
1992,9,19,22,0,,21.7,17.3,74,101750,0,0,376,0,0,0,0,0,0,0,110,2,4,0,0,0,0,0,0,0,0,0,0,0,0
1992,9,19,23,0,,21.9,18.3,79,101780,0,0,387,0,0,0,0,0,0,0,110,2.3,7,0,0,0,0,0,0,0,0,0,0,0,0
1992,9,19,24,0,,22.1,19.2,83,101810,0,0,405,0,0,0,0,0,0,0,140,1.8,9,0,0,0,0,0,0,0,0,0,0,0,0
1992,9,20,1,0,,21.9,19,83,101780,0,0,386,0,0,0,0,0,0,0,140,1.7,6,0,0,0,0,0,0,0,0,0,0,0,0
1992,9,20,2,0,,21.7,18.8,83,101760,0,0,376,0,0,0,0,0,0,0,140,1.7,4,0,0,0,0,0,0,0,0,0,0,0,0
1992,9,20,3,0,,21.5,18.6,83,101730,0,0,364,0,0,0,0,0,0,0,140,2,1,0,0,0,0,0,0,0,0,0,0,0,0
1992,9,20,4,0,,21.1,18.9,85,101740,0,0,373,0,0,0,0,0,0,0,140,1.7,4,0,0,0,0,0,0,0,0,0,0,0,0
1992,9,20,5,0,,21.1,19.3,88,101740,0,0,382,0,0,0,0,0,0,0,110,2.3,6,0,0,0,0,0,0,0,0,0,0,0,0
1992,9,20,6,0,,21.2,19.6,90,101750,0,0,401,0,0,0,0,0,0,0,110,2.2,9,0,0,0,0,0,0,0,0,0,0,0,0
1992,9,20,7,0,,21.6,19.5,86,101790,0,0,407,16,2,14,1951,59,1924,0,90,2.3,9,0,0,0,0,0,0,0,0,0,0,0,0
1992,9,20,8,0,,22.2,19.5,81,101820,0,0,414,62,27,56,9050,2388,7564,0,90,1.7,10,0,0,0,0,0,0,0,0,0,0,0,0
1992,9,20,9,0,,23.6,19.4,77,101860,0,0,426,152,47,132,20151,4255,16976,0,70,4.8,10,0,0,0,0,0,0,0,0,0,0,0,0
1992,9,20,10,0,,24.4,19.3,74,101830,0,0,426,229,50,200,27239,4393,23638,0,70,5,10,0,0,0,0,0,0,0,0,0,0,0,0
1992,9,20,11,0,,24.6,19.3,70,101790,0,0,423,359,88,295,42686,7907,36061,0,70,7.3,9,0,0,0,0,0,0,0,0,0,0,0,0
1992,9,20,12,0,,25.8,19.2,67,101760,0,0,426,395,80,330,44125,7217,38356,0,90,5,9,0,0,0,0,0,0,0,0,0,0,0,0
1992,9,20,13,0,,25.2,18.4,65,101760,0,0,425,390,69,331,42748,6313,38286,0,70,6,9,0,0,0,0,0,0,0,0,0,0,0,0
1992,9,20,14,0,,25.3,17.7,63,101750,0,0,429,331,50,290,35912,4554,33332,0,70,7.8,10,0,0,0,0,0,0,0,0,0,0,0,0
1992,9,20,15,0,,24.9,16.9,61,101750,0,0,430,272,43,241,28950,3761,27490,0,70,7.7,10,0,0,0,0,0,0,0,0,0,0,0,0
1992,9,20,16,0,,24.5,17,63,101750,0,0,423,221,48,193,22213,3592,21552,0,70,8,10,0,0,0,0,0,0,0,0,0,0,0,0
1992,9,20,17,0,,24.2,17.1,64,101750,0,0,418,182,88,146,0,0,0,0,70,6.7,9,0,0,0,0,0,0,0,0,0,0,0,0
1992,9,20,18,0,,24.1,17.2,66,101750,0,0,414,83,76,67,0,0,0,0,70,4,9,0,0,0,0,0,0,0,0,0,0,0,0
1992,9,20,19,0,,23.4,17.4,68,101790,0,0,414,13,1,12,0,0,0,0,90,3,9,0,0,0,0,0,0,0,0,0,0,0,0
1992,9,20,20,0,,23.2,17.5,70,101830,0,0,417,0,0,0,0,0,0,0,90,3.3,10,0,0,0,0,0,0,0,0,0,0,0,0
1992,9,20,21,0,,22.9,17.7,72,101870,0,0,419,0,0,0,0,0,0,0,90,4.5,10,0,0,0,0,0,0,0,0,0,0,0,0
1992,9,20,22,0,,22.6,17.8,74,101870,0,0,418,0,0,0,0,0,0,0,90,3,10,0,0,0,0,0,0,0,0,0,0,0,0
1992,9,20,23,0,,22.4,17.8,75,101860,0,0,417,0,0,0,0,0,0,0,90,5,10,0,0,0,0,0,0,0,0,0,0,0,0
1992,9,20,24,0,,22.1,17.9,77,101860,0,0,415,0,0,0,0,0,0,0,90,5.3,10,0,0,0,0,0,0,0,0,0,0,0,0
1992,9,21,1,0,,21.7,18.4,81,101800,0,0,413,0,0,0,0,0,0,0,110,2.3,10,0,0,0,0,0,0,0,0,0,0,0,0
1992,9,21,2,0,,21.3,18.8,86,101740,0,0,412,0,0,0,0,0,0,0,140,2.7,10,0,0,0,0,0,0,0,0,0,0,0,0
1992,9,21,3,0,,20.9,19.3,90,101680,0,0,410,0,0,0,0,0,0,0,140,3,10,0,0,0,0,0,0,0,0,0,0,0,0
1992,9,21,4,0,,21,18.5,86,101680,0,0,410,0,0,0,0,0,0,0,110,2.7,10,0,0,0,0,0,0,0,0,0,0,0,0
1992,9,21,5,0,,20.7,17.7,83,101680,0,0,407,0,0,0,0,0,0,0,110,2.3,10,0,0,0,0,0,0,0,0,0,0,0,0
1992,9,21,6,0,,20.5,16.9,79,101680,0,0,405,0,0,0,0,0,0,0,110,1.7,10,0,0,0,0,0,0,0,0,0,0,0,0
1992,9,21,7,0,,20.7,17.2,76,101700,0,0,387,20,4,17,2236,296,2102,0,90,2.2,8,0,0,0,0,0,0,0,0,0,0,0,0
1992,9,21,8,0,,21.5,17.4,74,101710,0,0,381,140,300,71,30331,29804,11870,0,90,2,6,0,0,0,0,0,0,0,0,0,0,0,0
1992,9,21,9,0,,23.3,17.7,71,101730,0,0,384,352,561,110,58626,58235,15355,0,50,6.7,4,0,0,0,0,0,0,0,0,0,0,0,0
1992,9,21,10,0,,24,18,70,101720,0,0,386,526,624,151,72562,61901,22034,0,50,7.7,3,0,0,0,0,0,0,0,0,0,0,0,0
1992,9,21,11,0,,24.4,18.2,70,101720,0,0,386,637,582,211,76303,56853,28883,0,50,7,3,0,0,0,0,0,0,0,0,0,0,0,0
1992,9,21,12,0,,24.4,18.5,69,101710,0,0,384,707,557,254,75025,50731,34679,0,50,9,2,0,0,0,0,0,0,0,0,0,0,0,0
1992,9,21,13,0,,23.8,17.4,64,101670,0,0,382,700,481,297,69498,43789,38737,0,50,9,3,0,0,0,0,0,0,0,0,0,0,0,0
1992,9,21,14,0,,24.9,16.3,59,101630,0,0,389,672,484,281,58940,42748,34915,0,90,6,3,0,0,0,0,0,0,0,0,0,0,0,0
1992,9,21,15,0,,25.1,15.2,54,101590,0,0,391,604,519,229,44407,42217,28220,0,90,9.5,4,0,0,0,0,0,0,0,0,0,0,0,0
1992,9,21,16,0,,24,15.3,56,101610,0,0,384,460,460,190,26826,24121,22511,0,20,5.7,4,0,0,0,0,0,0,0,0,0,0,0,0
1992,9,21,17,0,,23.8,15.4,59,101620,0,0,382,315,469,121,0,0,0,0,110,3.3,3,0,0,0,0,0,0,0,0,0,0,0,0
1992,9,21,18,0,,23.4,15.5,61,101640,0,0,379,157,472,57,0,0,0,0,90,4.7,3,0,0,0,0,0,0,0,0,0,0,0,0
1992,9,21,19,0,,22.4,16.1,67,101670,0,0,377,28,13,15,0,0,0,0,140,1.3,4,0,0,0,0,0,0,0,0,0,0,0,0
1992,9,21,20,0,,21.2,16.6,73,101690,0,0,373,0,0,0,0,0,0,0,90,5.7,4,0,0,0,0,0,0,0,0,0,0,0,0
1992,9,21,21,0,,21,17.2,79,101720,0,0,375,0,0,0,0,0,0,0,90,3.7,5,0,0,0,0,0,0,0,0,0,0,0,0
1992,9,21,22,0,,21.1,16.3,76,101720,0,0,370,0,0,0,0,0,0,0,140,4,4,0,0,0,0,0,0,0,0,0,0,0,0
1992,9,21,23,0,,20.7,15.5,74,101730,0,0,363,0,0,0,0,0,0,0,90,2.7,2,0,0,0,0,0,0,0,0,0,0,0,0
1992,9,21,24,0,,20.1,14.6,71,101730,0,0,353,0,0,0,0,0,0,0,140,2.8,1,0,0,0,0,0,0,0,0,0,0,0,0
1992,9,22,1,0,,20,14.6,71,101700,0,0,352,0,0,0,0,0,0,0,110,2.8,1,0,0,0,0,0,0,0,0,0,0,0,0
1992,9,22,2,0,,20,14.6,70,101670,0,0,352,0,0,0,0,0,0,0,110,2.7,1,0,0,0,0,0,0,0,0,0,0,0,0
1992,9,22,3,0,,20.3,14.6,70,101640,0,0,354,0,0,0,0,0,0,0,110,4,1,0,0,0,0,0,0,0,0,0,0,0,0
1992,9,22,4,0,,20.6,15.1,72,101630,0,0,362,0,0,0,0,0,0,0,110,3.8,2,0,0,0,0,0,0,0,0,0,0,0,0
1992,9,22,5,0,,20.7,15.6,74,101630,0,0,367,0,0,0,0,0,0,0,110,5.5,4,0,0,0,0,0,0,0,0,0,0,0,0
1992,9,22,6,0,,20.5,16.1,76,101620,0,0,371,0,0,0,0,0,0,0,110,4.7,5,0,0,0,0,0,0,0,0,0,0,0,0
1992,9,22,7,0,,20.9,16.5,76,101630,0,0,377,32,15,18,3094,1319,2499,0,90,5.3,6,0,0,0,0,0,0,0,0,0,0,0,0
1992,9,22,8,0,,21.1,16.9,77,101650,0,0,382,129,239,75,25621,21952,12086,0,90,5.3,7,0,0,0,0,0,0,0,0,0,0,0,0
1992,9,22,9,0,,21.5,17.3,77,101660,0,0,391,222,143,161,31220,12969,21624,0,90,5.2,8,0,0,0,0,0,0,0,0,0,0,0,0
1992,9,22,10,0,,22.6,17.3,75,101640,0,0,400,335,147,247,41336,13588,30291,0,70,6,8,0,0,0,0,0,0,0,0,0,0,0,0
1992,9,22,11,0,,22.8,17.4,72,101610,0,0,404,345,81,286,40934,7495,34711,0,70,6.7,9,0,0,0,0,0,0,0,0,0,0,0,0
1992,9,22,12,0,,23.1,17.4,70,101590,0,0,409,392,81,327,43735,7411,37872,0,70,6.5,9,0,0,0,0,0,0,0,0,0,0,0,0
1992,9,22,13,0,,23.8,17.5,69,101540,0,0,413,380,67,324,41689,6120,37417,0,70,4,9,0,0,0,0,0,0,0,0,0,0,0,0
1992,9,22,14,0,,23.9,17.7,69,101500,0,0,413,388,80,324,41127,7338,37037,0,70,7.7,9,0,0,0,0,0,0,0,0,0,0,0,0
1992,9,22,15,0,,24.1,17.8,68,101450,0,0,415,319,69,270,32908,6033,30624,0,70,5,9,0,0,0,0,0,0,0,0,0,0,0,0
1992,9,22,16,0,,23.7,17.8,69,101440,0,0,416,258,77,213,24725,5774,23721,0,90,6.3,9,0,0,0,0,0,0,0,0,0,0,0,0
1992,9,22,17,0,,23.6,17.7,71,101430,0,0,419,131,38,116,0,0,0,0,90,5.3,10,0,0,0,0,0,0,0,0,0,0,0,0
1992,9,22,18,0,,23.1,17.7,72,101420,0,0,420,60,35,53,0,0,0,0,90,4.3,10,0,0,0,0,0,0,0,0,0,0,0,0
1992,9,22,19,0,,22.7,18.1,75,101450,0,0,419,7,0,7,0,0,0,0,90,5,10,0,0,0,0,0,0,0,0,0,0,0,0
1992,9,22,20,0,,22.5,18.6,78,101480,0,0,418,0,0,0,0,0,0,0,90,5,10,0,0,0,0,0,0,0,0,0,0,0,0
1992,9,22,21,0,,22.4,19,81,101510,0,0,418,0,0,0,0,0,0,0,90,2.7,10,0,0,0,0,0,0,0,0,0,0,0,0
1992,9,22,22,0,,22.1,19.2,82,101480,0,0,405,0,0,0,0,0,0,0,90,6.3,9,0,0,0,0,0,0,0,0,0,0,0,0
1992,9,22,23,0,,22.3,19.5,84,101450,0,0,398,0,0,0,0,0,0,0,90,3.3,8,0,0,0,0,0,0,0,0,0,0,0,0
1992,9,22,24,0,,22.3,19.7,85,101420,0,0,392,0,0,0,0,0,0,0,90,4.7,7,0,0,0,0,0,0,0,0,0,0,0,0
1992,9,23,1,0,,22.1,19.8,87,101390,0,0,396,0,0,0,0,0,0,0,90,3,8,0,0,0,0,0,0,0,0,0,0,0,0
1992,9,23,2,0,,22,20,88,101360,0,0,400,0,0,0,0,0,0,0,90,4.7,8,0,0,0,0,0,0,0,0,0,0,0,0
1992,9,23,3,0,,21.8,20.1,90,101330,0,0,405,0,0,0,0,0,0,0,90,4.3,9,0,0,0,0,0,0,0,0,0,0,0,0
1992,9,23,4,0,,22.3,20.3,90,101290,0,0,408,0,0,0,0,0,0,0,90,3.7,9,0,0,0,0,0,0,0,0,0,0,0,0
1992,9,23,5,0,,22.2,20.6,91,101260,0,0,408,0,0,0,0,0,0,0,90,5,9,0,0,0,0,0,0,0,0,0,0,0,0
1992,9,23,6,0,,22.3,20.8,91,101220,0,0,409,0,0,0,0,0,0,0,70,4.2,9,0,0,0,0,0,0,0,0,0,0,0,0
1992,9,23,7,0,,22.7,21.1,90,101250,0,0,415,15,2,13,1787,45,1767,0,70,3.3,9,0,0,0,0,0,0,0,0,0,0,0,0
1992,9,23,8,0,,22.9,21.4,90,101270,0,0,420,58,25,53,8564,2139,7251,0,70,3,10,0,0,0,0,0,0,0,0,0,0,0,0
1992,9,23,9,0,,23.6,21.7,89,101300,0,0,429,123,28,111,15182,2345,13454,0,90,3,10,0,0,0,0,0,0,0,0,0,0,0,0
1992,9,23,10,0,,24.8,21.9,88,101290,0,0,436,206,39,183,24587,3323,21898,0,110,4.5,10,0,0,0,0,0,0,0,0,0,0,0,0
1992,9,23,11,0,,24.8,22.1,88,101270,0,0,436,241,31,219,28269,2657,26073,0,90,3.3,10,0,0,0,0,0,0,0,0,0,0,0,0
1992,9,23,12,0,,24.6,22.3,87,101260,0,0,435,268,29,245,30925,2487,28968,0,110,5.7,10,0,0,0,0,0,0,0,0,0,0,0,0
1992,9,23,13,0,,24.5,22.5,87,101190,0,0,435,214,14,203,24300,842,23716,0,70,2.3,10,0,0,0,0,0,0,0,0,0,0,0,0
1992,9,23,14,0,,24.8,22.7,88,101110,0,0,437,237,21,220,25513,1383,24749,0,90,4.3,10,0,0,0,0,0,0,0,0,0,0,0,0
1992,9,23,15,0,,25,22.9,88,101040,0,0,439,224,26,205,22678,1744,22026,0,90,5,10,0,0,0,0,0,0,0,0,0,0,0,0
1992,9,23,16,0,,25.1,22.5,87,101020,0,0,439,192,35,172,17502,2147,17139,0,110,7.3,10,0,0,0,0,0,0,0,0,0,0,0,0
1992,9,23,17,0,,24.3,22.2,87,101000,0,0,434,120,31,108,0,0,0,0,110,6.3,10,0,0,0,0,0,0,0,0,0,0,0,0
1992,9,23,18,0,,24.1,21.8,86,100980,0,0,432,51,24,46,0,0,0,0,110,5,10,0,0,0,0,0,0,0,0,0,0,0,0
1992,9,23,19,0,,24.3,22.1,88,100970,0,0,433,5,0,5,0,0,0,0,110,3,10,0,0,0,0,0,0,0,0,0,0,0,0
1992,9,23,20,0,,24.2,22.4,90,100950,0,0,433,0,0,0,0,0,0,0,110,8,10,0,0,0,0,0,0,0,0,0,0,0,0
1992,9,23,21,0,,24.1,22.7,92,100940,0,0,433,0,0,0,0,0,0,0,110,6.7,10,0,0,0,0,0,0,0,0,0,0,0,0
1992,9,23,22,0,,23.9,22.5,92,100890,0,0,432,0,0,0,0,0,0,0,50,7.3,10,0,0,0,0,0,0,0,0,0,0,0,0
1992,9,23,23,0,,24,22.2,93,100840,0,0,432,0,0,0,0,0,0,0,110,10,10,0,0,0,0,0,0,0,0,0,0,0,0
1992,9,23,24,0,,23.3,22,93,100790,0,0,428,0,0,0,0,0,0,0,110,9.7,10,0,0,0,0,0,0,0,0,0,0,0,0
1992,9,24,1,0,,23.3,22.1,93,100640,0,0,428,0,0,0,0,0,0,0,110,12,10,0,0,0,0,0,0,0,0,0,0,0,0
1992,9,24,2,0,,23.4,22.3,94,100500,0,0,428,0,0,0,0,0,0,0,110,8.3,10,0,0,0,0,0,0,0,0,0,0,0,0
1992,9,24,3,0,,23.4,22.4,94,100350,0,0,429,0,0,0,0,0,0,0,90,9,10,0,0,0,0,0,0,0,0,0,0,0,0
1992,9,24,4,0,,24.3,22.5,93,100330,0,0,434,0,0,0,0,0,0,0,110,5.3,10,0,0,0,0,0,0,0,0,0,0,0,0
1992,9,24,5,0,,23.8,22.6,91,100310,0,0,431,0,0,0,0,0,0,0,90,3.5,10,0,0,0,0,0,0,0,0,0,0,0,0
1992,9,24,6,0,,24.3,22.7,90,100290,0,0,434,0,0,0,0,0,0,0,50,6.7,10,0,0,0,0,0,0,0,0,0,0,0,0
1992,9,24,7,0,,25.3,22.8,90,100220,0,0,440,11,1,10,1364,16,1357,0,90,3.5,10,0,0,0,0,0,0,0,0,0,0,0,0
1992,9,24,8,0,,24.7,22.8,90,100150,0,0,437,62,31,56,9299,2627,7695,0,200,5,10,0,0,0,0,0,0,0,0,0,0,0,0
1992,9,24,9,0,,24.8,22.9,90,100080,0,0,437,118,25,108,14646,2123,13088,0,180,2.7,10,0,0,0,0,0,0,0,0,0,0,0,0
1992,9,24,10,0,,26.4,22.9,86,100020,0,0,447,213,43,188,25410,3650,22469,0,180,7.3,10,0,0,0,0,0,0,0,0,0,0,0,0
1992,9,24,11,0,,26.8,22.8,82,99950,0,0,449,254,36,228,29668,3072,27142,0,180,4.3,10,0,0,0,0,0,0,0,0,0,0,0,0
1992,9,24,12,0,,26.9,22.8,78,99890,0,0,450,291,37,262,33473,3174,30989,0,200,6,10,0,0,0,0,0,0,0,0,0,0,0,0
1992,9,24,13,0,,26.1,22.9,79,99800,0,0,445,274,28,251,31227,2401,29572,0,200,7.7,10,0,0,0,0,0,0,0,0,0,0,0,0
1992,9,24,14,0,,26.6,22.9,81,99720,0,0,448,296,40,264,32729,3375,30880,0,230,10.2,10,0,0,0,0,0,0,0,0,0,0,0,0
1992,9,24,15,0,,26.3,23,82,99630,0,0,446,237,32,215,23772,2174,22970,0,230,8,10,0,0,0,0,0,0,0,0,0,0,0,0
1992,9,24,16,0,,25.7,23,83,99600,0,0,427,266,89,215,25245,6124,24241,0,230,12.7,9,0,0,0,0,0,0,0,0,0,0,0,0
1992,9,24,17,0,,25.5,22.9,85,99580,0,0,416,238,224,149,0,0,0,0,230,11,7,0,0,0,0,0,0,0,0,0,0,0,0
1992,9,24,18,0,,25.4,22.9,86,99550,0,0,408,127,312,66,0,0,0,0,230,11,6,0,0,0,0,0,0,0,0,0,0,0,0
1992,9,24,19,0,,25.7,22.8,85,99560,0,0,403,26,14,11,0,0,0,0,230,8,4,0,0,0,0,0,0,0,0,0,0,0,0
1992,9,24,20,0,,25.2,22.8,85,99570,0,0,394,0,0,0,0,0,0,0,250,6,2,0,0,0,0,0,0,0,0,0,0,0,0
1992,9,24,21,0,,25.4,22.7,84,99580,0,0,382,0,0,0,0,0,0,0,250,5,0,0,0,0,0,0,0,0,0,0,0,0,0
1992,9,24,22,0,,23.8,22.2,86,99710,0,0,390,0,0,0,0,0,0,0,270,6.7,3,0,0,0,0,0,0,0,0,0,0,0,0
1992,9,24,23,0,,23.2,21.7,88,99840,0,0,398,0,0,0,0,0,0,0,320,6,7,0,0,0,0,0,0,0,0,0,0,0,0
1992,9,24,24,0,,22.9,21.2,90,99970,0,0,424,0,0,0,0,0,0,0,290,8.7,10,0,0,0,0,0,0,0,0,0,0,0,0
1992,9,25,1,0,,22.7,20.6,88,100050,0,0,422,0,0,0,0,0,0,0,290,9.7,10,0,0,0,0,0,0,0,0,0,0,0,0
1992,9,25,2,0,,22.5,20.1,86,100120,0,0,420,0,0,0,0,0,0,0,290,10,10,0,0,0,0,0,0,0,0,0,0,0,0
1992,9,25,3,0,,22.3,19.5,84,100200,0,0,418,0,0,0,0,0,0,0,290,9.7,10,0,0,0,0,0,0,0,0,0,0,0,0
1992,9,25,4,0,,22.3,19.2,84,100240,0,0,418,0,0,0,0,0,0,0,290,9.3,10,0,0,0,0,0,0,0,0,0,0,0,0
1992,9,25,5,0,,22.2,19,83,100290,0,0,417,0,0,0,0,0,0,0,320,7.3,10,0,0,0,0,0,0,0,0,0,0,0,0
1992,9,25,6,0,,21.7,18.7,83,100330,0,0,414,0,0,0,0,0,0,0,320,9,10,0,0,0,0,0,0,0,0,0,0,0,0
1992,9,25,7,0,,21.7,18.7,83,100430,0,0,414,11,1,11,1449,26,1438,0,320,8.7,10,0,0,0,0,0,0,0,0,0,0,0,0
1992,9,25,8,0,,21.6,18.7,83,100540,0,0,413,69,42,60,10329,3824,8005,0,320,9,10,0,0,0,0,0,0,0,0,0,0,0,0
1992,9,25,9,0,,21.7,18.7,83,100640,0,0,414,133,36,118,16500,3193,14169,0,320,6.3,10,0,0,0,0,0,0,0,0,0,0,0,0
1992,9,25,10,0,,21.7,18.3,81,100690,0,0,409,191,32,172,22741,2884,20427,0,320,6.3,10,0,0,0,0,0,0,0,0,0,0,0,0
1992,9,25,11,0,,22.1,18,78,100740,0,0,407,322,70,271,36895,6332,31711,0,320,6.7,9,0,0,0,0,0,0,0,0,0,0,0,0
1992,9,25,12,0,,22.1,17.6,76,100790,0,0,403,369,72,312,41321,6553,36219,0,320,7,9,0,0,0,0,0,0,0,0,0,0,0,0
1992,9,25,13,0,,22,17,74,100800,0,0,402,389,75,328,42443,6878,37735,0,320,8.3,9,0,0,0,0,0,0,0,0,0,0,0,0
1992,9,25,14,0,,22.3,16.5,72,100810,0,0,403,371,75,312,39363,6901,35614,0,320,8,9,0,0,0,0,0,0,0,0,0,0,0,0
1992,9,25,15,0,,21.7,15.9,70,100820,0,0,399,329,80,273,33392,7092,30812,0,320,9.3,9,0,0,0,0,0,0,0,0,0,0,0,0
1992,9,25,16,0,,21.3,15.8,71,100890,0,0,397,249,76,206,23704,5700,22799,0,320,8,9,0,0,0,0,0,0,0,0,0,0,0,0
1992,9,25,17,0,,21.1,15.8,72,100970,0,0,395,158,71,130,0,0,0,0,320,5,9,0,0,0,0,0,0,0,0,0,0,0,0
1992,9,25,18,0,,20.6,15.7,73,101040,0,0,393,77,90,60,0,0,0,0,340,7.7,9,0,0,0,0,0,0,0,0,0,0,0,0
1992,9,25,19,0,,20.3,15,71,101110,0,0,376,16,4,12,0,0,0,0,340,5,7,0,0,0,0,0,0,0,0,0,0,0,0
1992,9,25,20,0,,20,14.4,70,101170,0,0,366,0,0,0,0,0,0,0,360,5.3,5,0,0,0,0,0,0,0,0,0,0,0,0
1992,9,25,21,0,,19.7,13.7,68,101240,0,0,358,0,0,0,0,0,0,0,360,7.7,3,0,0,0,0,0,0,0,0,0,0,0,0
1992,9,25,22,0,,19.6,12.9,66,101300,0,0,358,0,0,0,0,0,0,0,340,6.3,3,0,0,0,0,0,0,0,0,0,0,0,0
1992,9,25,23,0,,19.3,12.2,63,101350,0,0,356,0,0,0,0,0,0,0,340,4.8,4,0,0,0,0,0,0,0,0,0,0,0,0
1992,9,25,24,0,,19.1,11.4,61,101410,0,0,355,0,0,0,0,0,0,0,20,5,4,0,0,0,0,0,0,0,0,0,0,0,0
1992,9,26,1,0,,19.4,11.1,60,101400,0,0,356,0,0,0,0,0,0,0,360,6,4,0,0,0,0,0,0,0,0,0,0,0,0
1992,9,26,2,0,,19.4,10.9,58,101390,0,0,354,0,0,0,0,0,0,0,20,6.7,3,0,0,0,0,0,0,0,0,0,0,0,0
1992,9,26,3,0,,19.1,10.6,57,101380,0,0,352,0,0,0,0,0,0,0,20,7,3,0,0,0,0,0,0,0,0,0,0,0,0
1992,9,26,4,0,,18.9,10.5,58,101400,0,0,352,0,0,0,0,0,0,0,20,6.2,4,0,0,0,0,0,0,0,0,0,0,0,0
1992,9,26,5,0,,18.8,10.5,59,101430,0,0,354,0,0,0,0,0,0,0,20,7.3,4,0,0,0,0,0,0,0,0,0,0,0,0
1992,9,26,6,0,,18.3,10.4,60,101450,0,0,353,0,0,0,0,0,0,0,20,4.3,5,0,0,0,0,0,0,0,0,0,0,0,0
1992,9,26,7,0,,18.3,10.1,58,101520,0,0,350,36,18,18,3233,1652,2505,0,20,6,4,0,0,0,0,0,0,0,0,0,0,0,0
1992,9,26,8,0,,18.3,9.8,56,101590,0,0,347,175,579,50,43022,59008,7342,0,20,7.5,3,0,0,0,0,0,0,0,0,0,0,0,0
1992,9,26,9,0,,18.7,9.5,54,101660,0,0,345,362,651,90,61481,67198,12635,0,20,7,2,0,0,0,0,0,0,0,0,0,0,0,0
1992,9,26,10,0,,19.3,10.3,55,101650,0,0,347,515,632,144,71374,63711,20498,0,20,6.7,2,0,0,0,0,0,0,0,0,0,0,0,0
1992,9,26,11,0,,20.3,11,56,101640,0,0,351,633,612,195,75793,60996,26099,0,20,4,1,0,0,0,0,0,0,0,0,0,0,0,0
1992,9,26,12,0,,20.5,11.8,57,101630,0,0,352,701,584,236,74767,57271,30422,0,20,4.5,1,0,0,0,0,0,0,0,0,0,0,0,0
1992,9,26,13,0,,21.1,11.7,56,101610,0,0,356,726,586,246,69490,55811,31536,0,50,5,1,0,0,0,0,0,0,0,0,0,0,0,0
1992,9,26,14,0,,21.4,11.5,54,101600,0,0,359,683,562,241,58509,52064,30479,0,50,5,2,0,0,0,0,0,0,0,0,0,0,0,0
1992,9,26,15,0,,21.6,11.4,53,101580,0,0,361,600,566,204,42562,47571,25488,0,70,4,2,0,0,0,0,0,0,0,0,0,0,0,0
1992,9,26,16,0,,21.5,12,55,101600,0,0,363,475,575,151,22599,31228,17792,0,70,4.3,2,0,0,0,0,0,0,0,0,0,0,0,0
1992,9,26,17,0,,21.3,12.5,58,101620,0,0,364,308,525,104,0,0,0,0,70,5.3,3,0,0,0,0,0,0,0,0,0,0,0,0
1992,9,26,18,0,,21.2,13.1,60,101640,0,0,365,142,508,47,0,0,0,0,50,4.7,3,0,0,0,0,0,0,0,0,0,0,0,0
1992,9,26,19,0,,20.8,13.4,64,101700,0,0,364,22,12,11,0,0,0,0,90,4,3,0,0,0,0,0,0,0,0,0,0,0,0
1992,9,26,20,0,,19.4,13.7,67,101770,0,0,359,0,0,0,0,0,0,0,140,3.3,4,0,0,0,0,0,0,0,0,0,0,0,0
1992,9,26,21,0,,19.3,14,71,101830,0,0,359,0,0,0,0,0,0,0,140,1,4,0,0,0,0,0,0,0,0,0,0,0,0
1992,9,26,22,0,,20.5,13.6,68,101840,0,0,365,0,0,0,0,0,0,0,50,8.3,4,0,0,0,0,0,0,0,0,0,0,0,0
1992,9,26,23,0,,20.4,13.3,66,101860,0,0,364,0,0,0,0,0,0,0,50,7,4,0,0,0,0,0,0,0,0,0,0,0,0
1992,9,26,24,0,,20.3,12.9,63,101870,0,0,363,0,0,0,0,0,0,0,50,5,4,0,0,0,0,0,0,0,0,0,0,0,0
1992,9,27,1,0,,19.7,12.8,63,101900,0,0,359,0,0,0,0,0,0,0,70,3,4,0,0,0,0,0,0,0,0,0,0,0,0
1992,9,27,2,0,,19.7,12.7,63,101920,0,0,358,0,0,0,0,0,0,0,50,2.3,3,0,0,0,0,0,0,0,0,0,0,0,0
1992,9,27,3,0,,19.7,12.6,63,101950,0,0,357,0,0,0,0,0,0,0,50,4,3,0,0,0,0,0,0,0,0,0,0,0,0
1992,9,27,4,0,,19.2,12.3,64,101970,0,0,353,0,0,0,0,0,0,0,50,6,3,0,0,0,0,0,0,0,0,0,0,0,0
1992,9,27,5,0,,18.7,12.1,64,102000,0,0,349,0,0,0,0,0,0,0,50,4.7,2,0,0,0,0,0,0,0,0,0,0,0,0
1992,9,27,6,0,,18.3,11.8,65,102020,0,0,346,0,0,0,0,0,0,0,70,5.3,2,0,0,0,0,0,0,0,0,0,0,0,0
1992,9,27,7,0,,18.1,10.9,60,102070,0,0,341,37,20,17,3131,1866,2314,0,70,5,1,0,0,0,0,0,0,0,0,0,0,0,0
1992,9,27,8,0,,18.8,9.9,56,102120,0,0,339,175,594,48,43511,60577,7067,0,70,4.7,1,0,0,0,0,0,0,0,0,0,0,0,0
1992,9,27,9,0,,19.5,9,51,102170,0,0,337,363,667,87,61575,68375,12103,0,50,5,0,0,0,0,0,0,0,0,0,0,0,0,0
1992,9,27,10,0,,20.2,9.2,50,102150,0,0,350,513,634,143,71191,64093,20245,0,50,5,2,0,0,0,0,0,0,0,0,0,0,0,0
1992,9,27,11,0,,20.8,9.3,50,102120,0,0,359,619,584,203,73978,58181,26809,0,50,5,3,0,0,0,0,0,0,0,0,0,0,0,0
1992,9,27,12,0,,20.8,9.5,49,102100,0,0,364,618,322,363,66337,31535,42056,0,50,5.7,5,0,0,0,0,0,0,0,0,0,0,0,0
1992,9,27,13,0,,21.2,10.3,51,102070,0,0,366,629,302,383,63260,28890,43746,0,50,4.7,5,0,0,0,0,0,0,0,0,0,0,0,0
1992,9,27,14,0,,21.4,11,54,102030,0,0,367,640,464,277,55942,43115,32936,0,70,4.7,4,0,0,0,0,0,0,0,0,0,0,0,0
1992,9,27,15,0,,21.1,11.8,56,102000,0,0,366,554,453,240,41584,37306,28377,0,70,5,4,0,0,0,0,0,0,0,0,0,0,0,0
1992,9,27,16,0,,21.1,11,54,102000,0,0,371,389,295,224,26675,15093,24427,0,70,5.3,6,0,0,0,0,0,0,0,0,0,0,0,0
1992,9,27,17,0,,20.6,10.3,53,101990,0,0,378,207,167,143,0,0,0,0,70,6,8,0,0,0,0,0,0,0,0,0,0,0,0
1992,9,27,18,0,,20.1,9.5,51,101990,0,0,393,53,37,47,0,0,0,0,90,2.7,10,0,0,0,0,0,0,0,0,0,0,0,0
1992,9,27,19,0,,19.1,10.2,55,101990,0,0,367,9,1,8,0,0,0,0,110,1.7,8,0,0,0,0,0,0,0,0,0,0,0,0
1992,9,27,20,0,,18.4,10.8,60,101980,0,0,355,0,0,0,0,0,0,0,110,2.5,5,0,0,0,0,0,0,0,0,0,0,0,0
1992,9,27,21,0,,18.3,11.5,64,101980,0,0,349,0,0,0,0,0,0,0,110,3.3,3,0,0,0,0,0,0,0,0,0,0,0,0
1992,9,27,22,0,,18.4,12.2,67,101960,0,0,351,0,0,0,0,0,0,0,110,2,3,0,0,0,0,0,0,0,0,0,0,0,0
1992,9,27,23,0,,18.4,13,71,101930,0,0,353,0,0,0,0,0,0,0,110,3,4,0,0,0,0,0,0,0,0,0,0,0,0
1992,9,27,24,0,,18.6,13.7,74,101910,0,0,356,0,0,0,0,0,0,0,110,3,4,0,0,0,0,0,0,0,0,0,0,0,0
1992,9,28,1,0,,18.6,13.8,74,101880,0,0,355,0,0,0,0,0,0,0,110,3.5,4,0,0,0,0,0,0,0,0,0,0,0,0
1992,9,28,2,0,,18.5,13.8,75,101840,0,0,354,0,0,0,0,0,0,0,110,2.5,3,0,0,0,0,0,0,0,0,0,0,0,0
1992,9,28,3,0,,18.5,13.9,75,101810,0,0,353,0,0,0,0,0,0,0,110,2.2,3,0,0,0,0,0,0,0,0,0,0,0,0
1992,9,28,4,0,,18.5,13.8,73,101780,0,0,358,0,0,0,0,0,0,0,110,2.2,5,0,0,0,0,0,0,0,0,0,0,0,0
1992,9,28,5,0,,18.8,13.7,72,101760,0,0,367,0,0,0,0,0,0,0,110,3,7,0,0,0,0,0,0,0,0,0,0,0,0
1992,9,28,6,0,,19.3,13.6,70,101730,0,0,383,0,0,0,0,0,0,0,140,3,9,0,0,0,0,0,0,0,0,0,0,0,0
1992,9,28,7,0,,19.7,13.7,69,101720,0,0,385,15,2,13,1817,77,1784,0,110,3.7,9,0,0,0,0,0,0,0,0,0,0,0,0
1992,9,28,8,0,,20,13.7,68,101720,0,0,387,93,111,69,15994,10356,9796,0,140,5.7,9,0,0,0,0,0,0,0,0,0,0,0,0
1992,9,28,9,0,,20.1,13.8,67,101710,0,0,388,173,80,140,23011,7645,17506,0,110,3.3,9,0,0,0,0,0,0,0,0,0,0,0,0
1992,9,28,10,0,,20.5,14.4,67,101670,0,0,390,263,83,215,32481,7883,26244,0,110,4.8,9,0,0,0,0,0,0,0,0,0,0,0,0
1992,9,28,11,0,,21.4,15,66,101620,0,0,396,325,75,272,37149,6975,31523,0,110,3.3,9,0,0,0,0,0,0,0,0,0,0,0,0
1992,9,28,12,0,,22.3,15.6,66,101580,0,0,402,382,82,317,42464,7638,36616,0,90,4.7,9,0,0,0,0,0,0,0,0,0,0,0,0
1992,9,28,13,0,,22.1,15.9,67,101500,0,0,401,386,77,324,41955,7112,37183,0,90,5.8,9,0,0,0,0,0,0,0,0,0,0,0,0
1992,9,28,14,0,,22.3,16.1,69,101420,0,0,402,347,66,295,36919,6018,33737,0,90,4.5,9,0,0,0,0,0,0,0,0,0,0,0,0
1992,9,28,15,0,,22.1,16.4,70,101340,0,0,402,295,63,252,30393,5527,28463,0,110,4.2,9,0,0,0,0,0,0,0,0,0,0,0,0
1992,9,28,16,0,,21.5,17,77,101300,0,0,403,239,74,198,22687,5301,21923,0,110,6.7,9,0,0,0,0,0,0,0,0,0,0,0,0
1992,9,28,17,0,,21.2,17.5,85,101270,0,0,405,104,25,95,0,0,0,0,110,4,10,0,0,0,0,0,0,0,0,0,0,0,0
1992,9,28,18,0,,19.5,18.1,92,101230,0,0,401,39,16,36,0,0,0,0,90,6,10,0,0,0,0,0,0,0,0,0,0,0,0
1992,9,28,19,0,,18.8,17.9,93,101210,0,0,397,0,0,0,0,0,0,0,90,3.2,10,0,0,0,0,0,0,0,0,0,0,0,0
1992,9,28,20,0,,18.6,17.6,93,101190,0,0,396,0,0,0,0,0,0,0,110,1.7,10,0,0,0,0,0,0,0,0,0,0,0,0
1992,9,28,21,0,,18.5,17.4,94,101170,0,0,395,0,0,0,0,0,0,0,90,2.3,10,0,0,0,0,0,0,0,0,0,0,0,0
1992,9,28,22,0,,18.5,17.2,93,101070,0,0,394,0,0,0,0,0,0,0,90,6.7,10,0,0,0,0,0,0,0,0,0,0,0,0
1992,9,28,23,0,,18.5,16.9,92,100970,0,0,394,0,0,0,0,0,0,0,110,5,10,0,0,0,0,0,0,0,0,0,0,0,0
1992,9,28,24,0,,18.3,16.7,91,100870,0,0,393,0,0,0,0,0,0,0,110,3.7,10,0,0,0,0,0,0,0,0,0,0,0,0
1992,9,29,1,0,,18.4,16.5,89,100840,0,0,393,0,0,0,0,0,0,0,180,2,10,0,0,0,0,0,0,0,0,0,0,0,0
1992,9,29,2,0,,18.4,16.4,88,100810,0,0,393,0,0,0,0,0,0,0,180,2.7,10,0,0,0,0,0,0,0,0,0,0,0,0
1992,9,29,3,0,,18.5,16.2,86,100780,0,0,393,0,0,0,0,0,0,0,0,0.2,10,0,0,0,0,0,0,0,0,0,0,0,0
1992,9,29,4,0,,18.5,16.8,87,100750,0,0,394,0,0,0,0,0,0,0,140,1,10,0,0,0,0,0,0,0,0,0,0,0,0
1992,9,29,5,0,,19.1,17.3,88,100720,0,0,398,0,0,0,0,0,0,0,250,2.5,10,0,0,0,0,0,0,0,0,0,0,0,0
1992,9,29,6,0,,19.7,17.9,89,100690,0,0,402,0,0,0,0,0,0,0,250,4,10,0,0,0,0,0,0,0,0,0,0,0,0
1992,9,29,7,0,,19.6,18.1,89,100750,0,0,402,9,0,8,1157,13,1152,0,270,5.7,10,0,0,0,0,0,0,0,0,0,0,0,0
1992,9,29,8,0,,19.8,18.2,88,100800,0,0,403,65,42,56,9826,3773,7579,0,290,7,10,0,0,0,0,0,0,0,0,0,0,0,0
1992,9,29,9,0,,20.4,18.4,88,100860,0,0,406,143,48,123,19001,4355,15880,0,290,8.3,10,0,0,0,0,0,0,0,0,0,0,0,0
1992,9,29,10,0,,20.9,18,83,100910,0,0,391,326,153,238,40304,14015,29269,0,290,8.7,8,0,0,0,0,0,0,0,0,0,0,0,0
1992,9,29,11,0,,21.9,17.7,78,100950,0,0,386,448,187,316,51799,17136,38046,0,290,7.3,7,0,0,0,0,0,0,0,0,0,0,0,0
1992,9,29,12,0,,22.3,17.3,73,101000,0,0,381,603,308,361,65603,27764,44466,0,290,7.7,5,0,0,0,0,0,0,0,0,0,0,0,0
1992,9,29,13,0,,22,17.2,73,100990,0,0,378,625,308,377,64211,27449,45922,0,290,5,4,0,0,0,0,0,0,0,0,0,0,0,0
1992,9,29,14,0,,22.3,17.1,72,100970,0,0,377,592,307,354,55357,26628,41404,0,290,5,4,0,0,0,0,0,0,0,0,0,0,0,0
1992,9,29,15,0,,22.3,17,72,100960,0,0,375,538,431,243,41158,32744,29889,0,290,5,3,0,0,0,0,0,0,0,0,0,0,0,0
1992,9,29,16,0,,21.9,16.6,73,100970,0,0,373,411,406,188,24297,16267,22036,0,290,3,3,0,0,0,0,0,0,0,0,0,0,0,0
1992,9,29,17,0,,21.3,16.3,75,100970,0,0,369,282,462,109,0,0,0,0,290,5,3,0,0,0,0,0,0,0,0,0,0,0,0
1992,9,29,18,0,,20.4,15.9,76,100980,0,0,364,119,397,51,0,0,0,0,290,3.2,3,0,0,0,0,0,0,0,0,0,0,0,0
1992,9,29,19,0,,19.8,15.6,77,101080,0,0,361,14,5,10,0,0,0,0,290,2,3,0,0,0,0,0,0,0,0,0,0,0,0
1992,9,29,20,0,,19,15.2,78,101180,0,0,357,0,0,0,0,0,0,0,230,1.7,3,0,0,0,0,0,0,0,0,0,0,0,0
1992,9,29,21,0,,18.5,14.9,79,101280,0,0,354,0,0,0,0,0,0,0,230,1.2,3,0,0,0,0,0,0,0,0,0,0,0,0
1992,9,29,22,0,,18.2,14.2,78,101320,0,0,351,0,0,0,0,0,0,0,200,2,3,0,0,0,0,0,0,0,0,0,0,0,0
1992,9,29,23,0,,17.4,13.5,78,101360,0,0,347,0,0,0,0,0,0,0,180,2,3,0,0,0,0,0,0,0,0,0,0,0,0
1992,9,29,24,0,,17,12.8,77,101400,0,0,344,0,0,0,0,0,0,0,180,2,3,0,0,0,0,0,0,0,0,0,0,0,0
1992,9,30,1,0,,16.9,12.9,78,101390,0,0,343,0,0,0,0,0,0,0,200,2,3,0,0,0,0,0,0,0,0,0,0,0,0
1992,9,30,2,0,,16.8,12.9,80,101390,0,0,341,0,0,0,0,0,0,0,200,1.8,2,0,0,0,0,0,0,0,0,0,0,0,0
1992,9,30,3,0,,16.3,13,81,101380,0,0,338,0,0,0,0,0,0,0,180,2.3,2,0,0,0,0,0,0,0,0,0,0,0,0
1992,9,30,4,0,,16.1,12.9,81,101420,0,0,337,0,0,0,0,0,0,0,180,2.7,2,0,0,0,0,0,0,0,0,0,0,0,0
1992,9,30,5,0,,15.9,12.7,81,101450,0,0,336,0,0,0,0,0,0,0,180,1.7,2,0,0,0,0,0,0,0,0,0,0,0,0
1992,9,30,6,0,,15.8,12.6,81,101490,0,0,335,0,0,0,0,0,0,0,160,2,2,0,0,0,0,0,0,0,0,0,0,0,0
1992,9,30,7,0,,15.5,13,76,101510,0,0,331,30,12,18,2994,1122,2512,0,180,2.5,1,0,0,0,0,0,0,0,0,0,0,0,0
1992,9,30,8,0,,17,13.3,72,101520,0,0,335,157,500,54,38800,51671,8199,0,160,1.7,1,0,0,0,0,0,0,0,0,0,0,0,0
1992,9,30,9,0,,19.9,13.7,67,101540,0,0,344,345,623,92,59003,64463,13024,0,0,0.2,0,0,0,0,0,0,0,0,0,0,0,0,0
1992,9,30,10,0,,21,13.3,63,101540,0,0,349,520,685,127,72237,70515,16979,0,360,0.8,0,0,0,0,0,0,0,0,0,0,0,0,0
1992,9,30,11,0,,21.3,12.8,60,101540,0,0,350,626,629,184,75108,62510,25192,0,360,2.7,0,0,0,0,0,0,0,0,0,0,0,0,0
1992,9,30,12,0,,21.5,12.4,56,101540,0,0,350,670,543,246,71218,51899,31934,0,360,2.7,0,0,0,0,0,0,0,0,0,0,0,0,0
1992,9,30,13,0,,21.6,12.5,56,101500,0,0,364,667,480,281,65256,45269,35304,0,20,3,2,0,0,0,0,0,0,0,0,0,0,0,0
1992,9,30,14,0,,22,12.5,55,101450,0,0,373,569,277,356,53733,25107,40698,0,20,2,5,0,0,0,0,0,0,0,0,0,0,0,0
1992,9,30,15,0,,21.4,12.6,55,101410,0,0,379,401,155,295,37711,13978,32969,0,20,1.7,7,0,0,0,0,0,0,0,0,0,0,0,0
1992,9,30,16,0,,21.4,12.7,57,101410,0,0,381,321,181,223,26140,13662,24308,0,360,2,7,0,0,0,0,0,0,0,0,0,0,0,0
1992,9,30,17,0,,20.8,12.7,60,101420,0,0,379,172,111,131,0,0,0,0,20,1.8,8,0,0,0,0,0,0,0,0,0,0,0,0
1992,9,30,18,0,,20.5,12.8,62,101420,0,0,380,73,117,53,0,0,0,0,20,0.3,8,0,0,0,0,0,0,0,0,0,0,0,0
1992,9,30,19,0,,19.6,12.6,66,101460,0,0,364,9,1,7,0,0,0,0,50,0.3,6,0,0,0,0,0,0,0,0,0,0,0,0
1992,9,30,20,0,,17.8,12.4,71,101500,0,0,348,0,0,0,0,0,0,0,180,2.7,3,0,0,0,0,0,0,0,0,0,0,0,0
1992,9,30,21,0,,16.7,12.2,75,101540,0,0,334,0,0,0,0,0,0,0,160,2,1,0,0,0,0,0,0,0,0,0,0,0,0
1992,9,30,22,0,,15.9,12.2,77,101540,0,0,330,0,0,0,0,0,0,0,180,2.7,1,0,0,0,0,0,0,0,0,0,0,0,0
1992,9,30,23,0,,15.7,12.3,80,101540,0,0,330,0,0,0,0,0,0,0,180,2.8,1,0,0,0,0,0,0,0,0,0,0,0,0
1992,9,30,24,0,,15.3,12.3,82,101540,0,0,328,0,0,0,0,0,0,0,160,2.7,1,0,0,0,0,0,0,0,0,0,0,0,0
1996,10,1,1,0,,21.3,15.6,70,100750,0,0,367,0,0,0,0,0,0,0,140,2,3,0,0,0,0,0,0,0,0,0,0,0,0
1996,10,1,2,0,,20.8,15.5,72,100760,0,0,359,0,0,0,0,0,0,0,110,1.7,1,0,0,0,0,0,0,0,0,0,0,0,0
1996,10,1,3,0,,20.2,15.5,74,100770,0,0,348,0,0,0,0,0,0,0,140,1.8,0,0,0,0,0,0,0,0,0,0,0,0,0
1996,10,1,4,0,,19.7,15.1,74,100800,0,0,350,0,0,0,0,0,0,0,140,1.5,1,0,0,0,0,0,0,0,0,0,0,0,0
1996,10,1,5,0,,19.5,14.7,74,100840,0,0,352,0,0,0,0,0,0,0,140,1.3,1,0,0,0,0,0,0,0,0,0,0,0,0
1996,10,1,6,0,,19.1,14.3,74,100870,0,0,352,0,0,0,0,0,0,0,160,1.8,2,0,0,0,0,0,0,0,0,0,0,0,0
1996,10,1,7,0,,19.1,14.5,70,100930,0,0,354,29,18,12,2604,1522,1956,0,140,2,2,0,0,0,0,0,0,0,0,0,0,0,0
1996,10,1,8,0,,20.6,14.8,67,101000,0,0,363,154,491,54,38196,50860,8243,0,110,2,3,0,0,0,0,0,0,0,0,0,0,0,0
1996,10,1,9,0,,22.5,15,63,101060,0,0,374,343,623,92,58843,64566,13024,0,50,3.3,3,0,0,0,0,0,0,0,0,0,0,0,0
1996,10,1,10,0,,22.6,14.8,62,101060,0,0,375,499,626,141,69362,62567,20579,0,70,4.7,3,0,0,0,0,0,0,0,0,0,0,0,0
1996,10,1,11,0,,22.8,14.5,60,101070,0,0,377,562,462,239,66504,43662,31825,0,50,3.2,4,0,0,0,0,0,0,0,0,0,0,0,0
1996,10,1,12,0,,23,14.3,59,101070,0,0,379,598,312,355,64740,29194,42776,0,50,3.7,4,0,0,0,0,0,0,0,0,0,0,0,0
1996,10,1,13,0,,23.6,14,57,101050,0,0,380,641,428,299,62602,39704,36522,0,50,5,4,0,0,0,0,0,0,0,0,0,0,0,0
1996,10,1,14,0,,23.6,13.7,55,101030,0,0,379,635,492,258,54319,44149,31617,0,50,4.7,3,0,0,0,0,0,0,0,0,0,0,0,0
1996,10,1,15,0,,23.3,13.4,53,101010,0,0,376,557,506,214,39370,40058,25984,0,50,4,3,0,0,0,0,0,0,0,0,0,0,0,0
1996,10,1,16,0,,23.2,12.9,52,101040,0,0,378,423,473,168,21721,19497,19206,0,50,4.3,4,0,0,0,0,0,0,0,0,0,0,0,0
1996,10,1,17,0,,22.7,12.4,52,101060,0,0,378,257,380,119,0,0,0,0,70,2.8,5,0,0,0,0,0,0,0,0,0,0,0,0
1996,10,1,18,0,,22.5,11.9,51,101090,0,0,379,102,292,55,0,0,0,0,110,3.5,6,0,0,0,0,0,0,0,0,0,0,0,0
1996,10,1,19,0,,21.6,12.6,56,101140,0,0,372,10,2,8,0,0,0,0,140,2.7,5,0,0,0,0,0,0,0,0,0,0,0,0
1996,10,1,20,0,,20.8,13.3,60,101180,0,0,366,0,0,0,0,0,0,0,160,2.3,4,0,0,0,0,0,0,0,0,0,0,0,0
1996,10,1,21,0,,20.9,14,65,101230,0,0,364,0,0,0,0,0,0,0,160,1.3,3,0,0,0,0,0,0,0,0,0,0,0,0
1996,10,1,22,0,,20.9,14.1,66,101230,0,0,368,0,0,0,0,0,0,0,140,2.7,4,0,0,0,0,0,0,0,0,0,0,0,0
1996,10,1,23,0,,20.5,14.2,67,101230,0,0,370,0,0,0,0,0,0,0,140,2.2,6,0,0,0,0,0,0,0,0,0,0,0,0
1996,10,1,24,0,,20.5,14.3,68,101230,0,0,376,0,0,0,0,0,0,0,140,2,7,0,0,0,0,0,0,0,0,0,0,0,0
1996,10,2,1,0,,20.5,14.3,68,101200,0,0,376,0,0,0,0,0,0,0,110,2.7,7,0,0,0,0,0,0,0,0,0,0,0,0
1996,10,2,2,0,,20.4,14.4,69,101170,0,0,376,0,0,0,0,0,0,0,110,2.7,7,0,0,0,0,0,0,0,0,0,0,0,0
1996,10,2,3,0,,20.3,14.4,69,101140,0,0,375,0,0,0,0,0,0,0,110,2.5,7,0,0,0,0,0,0,0,0,0,0,0,0
1996,10,2,4,0,,19.9,14.7,71,101130,0,0,375,0,0,0,0,0,0,0,110,2.2,7,0,0,0,0,0,0,0,0,0,0,0,0
1996,10,2,5,0,,20,15,72,101110,0,0,378,0,0,0,0,0,0,0,140,3,8,0,0,0,0,0,0,0,0,0,0,0,0
1996,10,2,6,0,,20,15.3,74,101100,0,0,381,0,0,0,0,0,0,0,140,3.2,8,0,0,0,0,0,0,0,0,0,0,0,0
1996,10,2,7,0,,20.1,15.6,74,101120,0,0,387,12,1,10,1439,37,1423,0,110,3.8,9,0,0,0,0,0,0,0,0,0,0,0,0
1996,10,2,8,0,,20.4,16,73,101150,0,0,395,78,79,62,13270,7202,9052,0,110,3.7,9,0,0,0,0,0,0,0,0,0,0,0,0
1996,10,2,9,0,,21.2,16.3,73,101170,0,0,408,129,38,113,15938,3407,13532,0,90,2.7,10,0,0,0,0,0,0,0,0,0,0,0,0
1996,10,2,10,0,,22.5,15.8,68,101130,0,0,407,260,86,212,32248,8068,25988,0,90,1.7,9,0,0,0,0,0,0,0,0,0,0,0,0
1996,10,2,11,0,,23.6,15.3,62,101100,0,0,405,329,83,271,38857,7806,32690,0,320,2.2,9,0,0,0,0,0,0,0,0,0,0,0,0
1996,10,2,12,0,,23.7,14.8,57,101060,0,0,400,443,131,341,49451,12278,40268,0,320,2,8,0,0,0,0,0,0,0,0,0,0,0,0
1996,10,2,13,0,,23.9,15.3,59,101030,0,0,394,490,158,364,52056,14435,42642,0,320,2.8,7,0,0,0,0,0,0,0,0,0,0,0,0
1996,10,2,14,0,,24,15.8,62,101000,0,0,390,544,252,352,52168,22026,40948,0,20,2.8,5,0,0,0,0,0,0,0,0,0,0,0,0
1996,10,2,15,0,,23.6,16.3,64,100970,0,0,384,484,286,292,40886,21901,33674,0,340,1.7,4,0,0,0,0,0,0,0,0,0,0,0,0
1996,10,2,16,0,,21.5,16.7,70,100980,0,0,376,355,262,215,25184,10262,23910,0,50,5,5,0,0,0,0,0,0,0,0,0,0,0,0
1996,10,2,17,0,,21.5,17,76,100990,0,0,378,228,287,125,0,0,0,0,70,3.2,5,0,0,0,0,0,0,0,0,0,0,0,0
1996,10,2,18,0,,20.6,17.4,82,101000,0,0,376,79,184,51,0,0,0,0,110,1.7,6,0,0,0,0,0,0,0,0,0,0,0,0
1996,10,2,19,0,,20.2,16.8,81,101010,0,0,375,6,1,5,0,0,0,0,110,2.7,6,0,0,0,0,0,0,0,0,0,0,0,0
1996,10,2,20,0,,19.9,16.1,80,101010,0,0,374,0,0,0,0,0,0,0,160,2.8,7,0,0,0,0,0,0,0,0,0,0,0,0
1996,10,2,21,0,,19.3,15.5,79,101020,0,0,371,0,0,0,0,0,0,0,160,1.7,7,0,0,0,0,0,0,0,0,0,0,0,0
1996,10,2,22,0,,19,14.3,74,101020,0,0,364,0,0,0,0,0,0,0,180,1.7,6,0,0,0,0,0,0,0,0,0,0,0,0
1996,10,2,23,0,,18.7,13.1,70,101010,0,0,358,0,0,0,0,0,0,0,200,1.5,5,0,0,0,0,0,0,0,0,0,0,0,0
1996,10,2,24,0,,18.6,11.9,65,101010,0,0,353,0,0,0,0,0,0,0,180,2.5,4,0,0,0,0,0,0,0,0,0,0,0,0
1996,10,3,1,0,,18.4,11.7,65,100990,0,0,351,0,0,0,0,0,0,0,180,2.5,3,0,0,0,0,0,0,0,0,0,0,0,0
1996,10,3,2,0,,18.3,11.5,64,100980,0,0,348,0,0,0,0,0,0,0,160,1.5,3,0,0,0,0,0,0,0,0,0,0,0,0
1996,10,3,3,0,,18.1,11.3,64,100960,0,0,344,0,0,0,0,0,0,0,180,1.5,2,0,0,0,0,0,0,0,0,0,0,0,0
1996,10,3,4,0,,18.2,12.3,68,100930,0,0,351,0,0,0,0,0,0,0,180,2.7,4,0,0,0,0,0,0,0,0,0,0,0,0
1996,10,3,5,0,,18.3,13.3,71,100910,0,0,357,0,0,0,0,0,0,0,200,2.2,5,0,0,0,0,0,0,0,0,0,0,0,0
1996,10,3,6,0,,18.8,14.3,75,100880,0,0,367,0,0,0,0,0,0,0,200,3.3,7,0,0,0,0,0,0,0,0,0,0,0,0
1996,10,3,7,0,,19.6,15.1,77,100880,0,0,374,20,5,14,1956,458,1764,0,200,3.5,7,0,0,0,0,0,0,0,0,0,0,0,0
1996,10,3,8,0,,19.5,15.8,78,100880,0,0,377,97,152,66,18945,13994,10794,0,290,4.7,8,0,0,0,0,0,0,0,0,0,0,0,0
1996,10,3,9,0,,20.1,16.6,80,100880,0,0,383,194,124,145,27539,11341,19571,0,230,3.2,8,0,0,0,0,0,0,0,0,0,0,0,0
1996,10,3,10,0,,21.1,16.1,75,100860,0,0,378,388,279,230,49364,25730,29501,0,320,5,6,0,0,0,0,0,0,0,0,0,0,0,0
1996,10,3,11,0,,21.7,15.6,71,100850,0,0,375,515,308,301,59805,28580,37344,0,290,3.7,5,0,0,0,0,0,0,0,0,0,0,0,0
1996,10,3,12,0,,21.9,15.1,66,100830,0,0,371,631,473,267,67884,44285,34958,0,340,4.7,3,0,0,0,0,0,0,0,0,0,0,0,0
1996,10,3,13,0,,21.9,14.5,63,100790,0,0,373,605,301,367,60704,27766,42724,0,320,3.8,4,0,0,0,0,0,0,0,0,0,0,0,0
1996,10,3,14,0,,22.4,14,61,100750,0,0,378,548,263,349,52002,23443,40173,0,340,3.3,5,0,0,0,0,0,0,0,0,0,0,0,0
1996,10,3,15,0,,22.1,13.4,58,100710,0,0,379,466,261,292,39863,20495,33214,0,340,5.3,6,0,0,0,0,0,0,0,0,0,0,0,0
1996,10,3,16,0,,21.3,13.3,60,100720,0,0,372,372,316,204,23948,12964,22403,0,340,3.2,5,0,0,0,0,0,0,0,0,0,0,0,0
1996,10,3,17,0,,21.1,13.3,61,100730,0,0,369,245,359,118,0,0,0,0,340,4,5,0,0,0,0,0,0,0,0,0,0,0,0
1996,10,3,18,0,,20.5,13.2,63,100740,0,0,364,105,395,45,0,0,0,0,340,5,4,0,0,0,0,0,0,0,0,0,0,0,0
1996,10,3,19,0,,20.1,12.9,62,100770,0,0,365,7,1,6,0,0,0,0,320,4,5,0,0,0,0,0,0,0,0,0,0,0,0
1996,10,3,20,0,,20,12.5,61,100790,0,0,367,0,0,0,0,0,0,0,320,4,6,0,0,0,0,0,0,0,0,0,0,0,0
1996,10,3,21,0,,20.1,12.2,60,100820,0,0,371,0,0,0,0,0,0,0,320,3.7,7,0,0,0,0,0,0,0,0,0,0,0,0
1996,10,3,22,0,,20.1,12.7,62,100820,0,0,369,0,0,0,0,0,0,0,320,5.2,6,0,0,0,0,0,0,0,0,0,0,0,0
1996,10,3,23,0,,20.5,13.1,65,100830,0,0,369,0,0,0,0,0,0,0,340,6.3,6,0,0,0,0,0,0,0,0,0,0,0,0
1996,10,3,24,0,,19.9,13.6,67,100830,0,0,365,0,0,0,0,0,0,0,340,3,5,0,0,0,0,0,0,0,0,0,0,0,0
1996,10,4,1,0,,20,13.6,67,100830,0,0,366,0,0,0,0,0,0,0,320,4.3,5,0,0,0,0,0,0,0,0,0,0,0,0
1996,10,4,2,0,,20,13.5,66,100830,0,0,367,0,0,0,0,0,0,0,320,5.3,6,0,0,0,0,0,0,0,0,0,0,0,0
1996,10,4,3,0,,20,13.5,66,100830,0,0,368,0,0,0,0,0,0,0,340,4.7,6,0,0,0,0,0,0,0,0,0,0,0,0
1996,10,4,4,0,,19.8,13.4,66,100830,0,0,365,0,0,0,0,0,0,0,340,3.7,5,0,0,0,0,0,0,0,0,0,0,0,0
1996,10,4,5,0,,19.7,13.2,66,100840,0,0,362,0,0,0,0,0,0,0,340,4.3,5,0,0,0,0,0,0,0,0,0,0,0,0
1996,10,4,6,0,,19.7,13.1,66,100840,0,0,360,0,0,0,0,0,0,0,340,5.8,4,0,0,0,0,0,0,0,0,0,0,0,0
1996,10,4,7,0,,19.8,13,64,100900,0,0,363,25,12,13,2280,1125,1811,0,320,5,5,0,0,0,0,0,0,0,0,0,0,0,0
1996,10,4,8,0,,20.3,13,62,100960,0,0,369,132,351,63,30819,35094,10496,0,340,5,6,0,0,0,0,0,0,0,0,0,0,0,0
1996,10,4,9,0,,21,12.9,60,101020,0,0,377,252,280,142,38979,26691,20324,0,340,5.3,7,0,0,0,0,0,0,0,0,0,0,0,0
1996,10,4,10,0,,21.1,13,59,101050,0,0,373,386,281,228,49185,26861,28555,0,340,3.7,6,0,0,0,0,0,0,0,0,0,0,0,0
1996,10,4,11,0,,21.9,13.1,59,101080,0,0,374,513,312,298,59531,29704,36310,0,340,4.3,5,0,0,0,0,0,0,0,0,0,0,0,0
1996,10,4,12,0,,21.9,13.2,58,101110,0,0,372,599,335,343,64442,31644,41057,0,340,4.7,4,0,0,0,0,0,0,0,0,0,0,0,0
1996,10,4,13,0,,22,12.8,56,101090,0,0,371,633,436,290,61440,40949,35116,0,340,4.3,4,0,0,0,0,0,0,0,0,0,0,0,0
1996,10,4,14,0,,22.6,12.4,53,101060,0,0,372,641,540,235,54443,49031,29939,0,320,5,3,0,0,0,0,0,0,0,0,0,0,0,0
1996,10,4,15,0,,22.5,12,51,101040,0,0,370,564,562,191,38449,45241,23995,0,340,5.3,3,0,0,0,0,0,0,0,0,0,0,0,0
1996,10,4,16,0,,22.5,12.3,53,101070,0,0,371,439,571,139,18804,24602,15991,0,340,5,3,0,0,0,0,0,0,0,0,0,0,0,0
1996,10,4,17,0,,22.2,12.5,56,101100,0,0,369,277,535,90,0,0,0,0,340,4.3,3,0,0,0,0,0,0,0,0,0,0,0,0
1996,10,4,18,0,,21.3,12.8,58,101130,0,0,365,106,65,41,0,0,0,0,340,4.3,3,0,0,0,0,0,0,0,0,0,0,0,0
1996,10,4,19,0,,20.9,12.8,60,101150,0,0,362,0,0,0,0,0,0,0,340,3.7,3,0,0,0,0,0,0,0,0,0,0,0,0
1996,10,4,20,0,,20.7,12.8,61,101180,0,0,360,0,0,0,0,0,0,0,20,3.3,2,0,0,0,0,0,0,0,0,0,0,0,0
1996,10,4,21,0,,20.2,12.8,63,101200,0,0,356,0,0,0,0,0,0,0,360,3.8,2,0,0,0,0,0,0,0,0,0,0,0,0
1996,10,4,22,0,,20,12.8,65,101210,0,0,355,0,0,0,0,0,0,0,340,0.7,2,0,0,0,0,0,0,0,0,0,0,0,0
1996,10,4,23,0,,19.8,12.7,67,101230,0,0,354,0,0,0,0,0,0,0,20,1.3,2,0,0,0,0,0,0,0,0,0,0,0,0
1996,10,4,24,0,,18.5,12.7,69,101240,0,0,348,0,0,0,0,0,0,0,180,2.2,2,0,0,0,0,0,0,0,0,0,0,0,0
1996,10,5,1,0,,18,12.7,70,101240,0,0,342,0,0,0,0,0,0,0,180,1.3,1,0,0,0,0,0,0,0,0,0,0,0,0
1996,10,5,2,0,,17.5,12.8,72,101240,0,0,336,0,0,0,0,0,0,0,180,2,1,0,0,0,0,0,0,0,0,0,0,0,0
1996,10,5,3,0,,17.2,12.8,73,101240,0,0,331,0,0,0,0,0,0,0,180,2.2,0,0,0,0,0,0,0,0,0,0,0,0,0
1996,10,5,4,0,,16.7,12.1,72,101270,0,0,328,0,0,0,0,0,0,0,160,1.2,0,0,0,0,0,0,0,0,0,0,0,0,0
1996,10,5,5,0,,16.3,11.3,71,101300,0,0,325,0,0,0,0,0,0,0,180,2.7,0,0,0,0,0,0,0,0,0,0,0,0,0
1996,10,5,6,0,,16,10.6,70,101330,0,0,323,0,0,0,0,0,0,0,180,2.8,0,0,0,0,0,0,0,0,0,0,0,0,0
1996,10,5,7,0,,16,11.3,67,101380,0,0,324,26,11,16,2612,974,2209,0,180,2.5,0,0,0,0,0,0,0,0,0,0,0,0,0
1996,10,5,8,0,,17.8,11.9,63,101420,0,0,332,153,552,46,39363,56398,6891,0,180,2.3,0,0,0,0,0,0,0,0,0,0,0,0,0
1996,10,5,9,0,,20.7,12.6,60,101470,0,0,347,341,662,82,59060,68293,11576,0,160,0.7,0,0,0,0,0,0,0,0,0,0,0,0,0
1996,10,5,10,0,,21.3,12.9,59,101430,0,0,362,501,672,125,69744,69143,16912,0,50,2.5,2,0,0,0,0,0,0,0,0,0,0,0,0
1996,10,5,11,0,,21.7,13.1,59,101380,0,0,370,570,521,213,68262,51313,28367,0,20,2.5,4,0,0,0,0,0,0,0,0,0,0,0,0
1996,10,5,12,0,,22.1,13.4,58,101340,0,0,379,538,242,353,58104,22895,41287,0,50,3.7,6,0,0,0,0,0,0,0,0,0,0,0,0
1996,10,5,13,0,,22.4,13.6,57,101270,0,0,378,589,289,363,59253,26811,42143,0,20,4,5,0,0,0,0,0,0,0,0,0,0,0,0
1996,10,5,14,0,,23.5,13.8,57,101200,0,0,382,559,294,339,52044,26139,39106,0,360,2,5,0,0,0,0,0,0,0,0,0,0,0,0
1996,10,5,15,0,,23.5,14,56,101130,0,0,381,515,437,228,37948,33328,27462,0,340,2.7,4,0,0,0,0,0,0,0,0,0,0,0,0
1996,10,5,16,0,,23.1,14.7,60,101130,0,0,381,382,387,180,21827,12507,20458,0,340,3.2,5,0,0,0,0,0,0,0,0,0,0,0,0
1996,10,5,17,0,,22.7,15.4,65,101130,0,0,382,240,369,113,0,0,0,0,20,4.2,5,0,0,0,0,0,0,0,0,0,0,0,0
1996,10,5,18,0,,22.1,16.1,69,101130,0,0,382,80,36,43,0,0,0,0,20,2,6,0,0,0,0,0,0,0,0,0,0,0,0
1996,10,5,19,0,,21.7,15.6,70,101170,0,0,376,0,0,0,0,0,0,0,180,1.7,5,0,0,0,0,0,0,0,0,0,0,0,0
1996,10,5,20,0,,20.2,15,71,101200,0,0,365,0,0,0,0,0,0,0,200,1.7,4,0,0,0,0,0,0,0,0,0,0,0,0
1996,10,5,21,0,,19.6,14.5,72,101240,0,0,359,0,0,0,0,0,0,0,180,2.5,3,0,0,0,0,0,0,0,0,0,0,0,0
1996,10,5,22,0,,19.4,14.3,73,101240,0,0,357,0,0,0,0,0,0,0,180,2.2,3,0,0,0,0,0,0,0,0,0,0,0,0
1996,10,5,23,0,,18.9,14.1,73,101230,0,0,355,0,0,0,0,0,0,0,160,1.5,3,0,0,0,0,0,0,0,0,0,0,0,0
1996,10,5,24,0,,18.6,13.9,74,101230,0,0,353,0,0,0,0,0,0,0,180,2.2,3,0,0,0,0,0,0,0,0,0,0,0,0
1996,10,6,1,0,,18.4,14.3,77,101200,0,0,349,0,0,0,0,0,0,0,180,1.7,2,0,0,0,0,0,0,0,0,0,0,0,0
1996,10,6,2,0,,18.3,14.6,79,101170,0,0,344,0,0,0,0,0,0,0,160,1.5,1,0,0,0,0,0,0,0,0,0,0,0,0
1996,10,6,3,0,,18.1,15,82,101140,0,0,337,0,0,0,0,0,0,0,160,2.5,0,0,0,0,0,0,0,0,0,0,0,0,0
1996,10,6,4,0,,17.8,14.7,81,101090,0,0,348,0,0,0,0,0,0,0,160,2.7,2,0,0,0,0,0,0,0,0,0,0,0,0
1996,10,6,5,0,,17.6,14.4,81,101030,0,0,353,0,0,0,0,0,0,0,180,2.8,5,0,0,0,0,0,0,0,0,0,0,0,0
1996,10,6,6,0,,17.7,14.1,80,100980,0,0,362,0,0,0,0,0,0,0,180,2,7,0,0,0,0,0,0,0,0,0,0,0,0
1996,10,6,7,0,,18,14.4,75,101010,0,0,367,12,2,10,1428,51,1407,0,180,1.3,8,0,0,0,0,0,0,0,0,0,0,0,0
1996,10,6,8,0,,19.3,14.7,70,101040,0,0,379,93,155,64,18526,14378,10296,0,200,2,8,0,0,0,0,0,0,0,0,0,0,0,0
1996,10,6,9,0,,21.7,15,65,101070,0,0,398,182,111,139,25720,10306,18592,0,180,1.2,9,0,0,0,0,0,0,0,0,0,0,0,0
1996,10,6,10,0,,22.9,14.7,61,101050,0,0,407,282,116,218,34852,10949,26529,0,160,1.8,9,0,0,0,0,0,0,0,0,0,0,0,0
1996,10,6,11,0,,23.4,14.5,58,101040,0,0,414,272,53,236,31301,4893,27518,0,90,1.7,10,0,0,0,0,0,0,0,0,0,0,0,0
1996,10,6,12,0,,24.1,14.2,54,101020,0,0,422,285,42,253,32165,3895,29321,0,180,1.8,10,0,0,0,0,0,0,0,0,0,0,0,0
1996,10,6,13,0,,24.6,14.7,54,100970,0,0,425,313,49,274,34454,4581,31552,0,200,5.3,10,0,0,0,0,0,0,0,0,0,0,0,0
1996,10,6,14,0,,25,15.2,55,100910,0,0,428,304,54,264,32602,4895,30203,0,230,5.5,10,0,0,0,0,0,0,0,0,0,0,0,0
1996,10,6,15,0,,25.3,15.7,55,100860,0,0,431,287,71,241,29071,6042,27199,0,230,8.7,10,0,0,0,0,0,0,0,0,0,0,0,0
1996,10,6,16,0,,25.6,16.4,58,100860,0,0,429,205,61,173,19511,4063,19086,0,230,6.7,10,0,0,0,0,0,0,0,0,0,0,0,0
1996,10,6,17,0,,25.2,17,62,100870,0,0,424,154,106,118,0,0,0,0,230,6,9,0,0,0,0,0,0,0,0,0,0,0,0
1996,10,6,18,0,,24.7,17.7,65,100870,0,0,418,50,10,40,0,0,0,0,230,4.7,9,0,0,0,0,0,0,0,0,0,0,0,0
1996,10,6,19,0,,24.3,17.8,73,100950,0,0,419,0,0,0,0,0,0,0,230,7,9,0,0,0,0,0,0,0,0,0,0,0,0
1996,10,6,20,0,,24.1,17.8,81,101030,0,0,422,0,0,0,0,0,0,0,270,6.3,10,0,0,0,0,0,0,0,0,0,0,0,0
1996,10,6,21,0,,19.7,17.9,89,101110,0,0,402,0,0,0,0,0,0,0,20,3,10,0,0,0,0,0,0,0,0,0,0,0,0
1996,10,6,22,0,,18.8,17.3,89,101160,0,0,396,0,0,0,0,0,0,0,20,3.5,10,0,0,0,0,0,0,0,0,0,0,0,0
1996,10,6,23,0,,18.5,16.7,88,101210,0,0,394,0,0,0,0,0,0,0,20,2.8,10,0,0,0,0,0,0,0,0,0,0,0,0
1996,10,6,24,0,,18.2,16.1,88,101260,0,0,391,0,0,0,0,0,0,0,20,3.3,10,0,0,0,0,0,0,0,0,0,0,0,0
1996,10,7,1,0,,17,15,87,101340,0,0,384,0,0,0,0,0,0,0,360,8.2,10,0,0,0,0,0,0,0,0,0,0,0,0
1996,10,7,2,0,,15.8,13.8,86,101420,0,0,376,0,0,0,0,0,0,0,360,3.5,10,0,0,0,0,0,0,0,0,0,0,0,0
1996,10,7,3,0,,15.2,12.7,85,101500,0,0,371,0,0,0,0,0,0,0,360,1.7,10,0,0,0,0,0,0,0,0,0,0,0,0
1996,10,7,4,0,,14.7,11.9,83,101500,0,0,368,0,0,0,0,0,0,0,200,2.7,10,0,0,0,0,0,0,0,0,0,0,0,0
1996,10,7,5,0,,14.1,11.2,82,101500,0,0,364,0,0,0,0,0,0,0,200,4.2,10,0,0,0,0,0,0,0,0,0,0,0,0
1996,10,7,6,0,,13.8,10.4,80,101500,0,0,361,0,0,0,0,0,0,0,180,2.2,10,0,0,0,0,0,0,0,0,0,0,0,0
1996,10,7,7,0,,14.1,10.8,82,101570,0,0,363,3,0,3,457,0,457,0,160,2,10,0,0,0,0,0,0,0,0,0,0,0,0
1996,10,7,8,0,,14.5,11.2,83,101640,0,0,366,49,26,44,7251,2479,5840,0,180,2,10,0,0,0,0,0,0,0,0,0,0,0,0
1996,10,7,9,0,,14.2,11.6,85,101710,0,0,365,109,27,99,13439,2487,11728,0,160,2,10,0,0,0,0,0,0,0,0,0,0,0,0
1996,10,7,10,0,,14.3,11.7,85,101710,0,0,365,163,26,149,19286,2388,17481,0,160,2.7,10,0,0,0,0,0,0,0,0,0,0,0,0
1996,10,7,11,0,,14.9,11.8,85,101700,0,0,368,196,22,181,22703,2013,21155,0,360,1.3,10,0,0,0,0,0,0,0,0,0,0,0,0
1996,10,7,12,0,,14.4,11.9,85,101700,0,0,366,209,18,196,24272,1265,23354,0,180,1.3,10,0,0,0,0,0,0,0,0,0,0,0,0
1996,10,7,13,0,,15.4,10.6,76,101670,0,0,369,255,29,233,28437,2714,26730,0,200,2.7,10,0,0,0,0,0,0,0,0,0,0,0,0
1996,10,7,14,0,,15.9,9.4,68,101630,0,0,370,250,32,226,26552,2567,25306,0,200,1.8,10,0,0,0,0,0,0,0,0,0,0,0,0
1996,10,7,15,0,,16.3,8.1,59,101600,0,0,371,228,38,203,22592,3048,21662,0,360,1,10,0,0,0,0,0,0,0,0,0,0,0,0
1996,10,7,16,0,,16.8,7.3,56,101620,0,0,372,187,49,162,17934,3422,17592,0,20,3,10,0,0,0,0,0,0,0,0,0,0,0,0
1996,10,7,17,0,,16.7,6.6,52,101640,0,0,371,121,56,102,0,0,0,0,20,3.5,10,0,0,0,0,0,0,0,0,0,0,0,0
1996,10,7,18,0,,16.3,5.8,49,101660,0,0,368,38,5,33,0,0,0,0,50,1.7,10,0,0,0,0,0,0,0,0,0,0,0,0
1996,10,7,19,0,,15.9,6.2,53,101700,0,0,366,0,0,0,0,0,0,0,140,1.7,10,0,0,0,0,0,0,0,0,0,0,0,0
1996,10,7,20,0,,14.8,6.6,57,101730,0,0,361,0,0,0,0,0,0,0,180,2.7,10,0,0,0,0,0,0,0,0,0,0,0,0
1996,10,7,21,0,,14.3,7,61,101770,0,0,359,0,0,0,0,0,0,0,180,2,10,0,0,0,0,0,0,0,0,0,0,0,0
1996,10,7,22,0,,14.3,7.3,61,101780,0,0,359,0,0,0,0,0,0,0,180,1.2,10,0,0,0,0,0,0,0,0,0,0,0,0
1996,10,7,23,0,,15.2,7.7,62,101790,0,0,364,0,0,0,0,0,0,0,20,4.3,10,0,0,0,0,0,0,0,0,0,0,0,0
1996,10,7,24,0,,15.1,8,62,101800,0,0,364,0,0,0,0,0,0,0,200,1.7,10,0,0,0,0,0,0,0,0,0,0,0,0
1996,10,8,1,0,,14.5,7.7,62,101790,0,0,361,0,0,0,0,0,0,0,180,0.5,10,0,0,0,0,0,0,0,0,0,0,0,0
1996,10,8,2,0,,13.9,7.3,63,101780,0,0,357,0,0,0,0,0,0,0,180,2,10,0,0,0,0,0,0,0,0,0,0,0,0
1996,10,8,3,0,,14,7,63,101770,0,0,358,0,0,0,0,0,0,0,180,1.7,10,0,0,0,0,0,0,0,0,0,0,0,0
1996,10,8,4,0,,13.9,7.7,65,101770,0,0,358,0,0,0,0,0,0,0,180,2.2,10,0,0,0,0,0,0,0,0,0,0,0,0
1996,10,8,5,0,,14.1,8.3,68,101760,0,0,360,0,0,0,0,0,0,0,180,1.7,10,0,0,0,0,0,0,0,0,0,0,0,0
1996,10,8,6,0,,14.2,9,70,101760,0,0,361,0,0,0,0,0,0,0,180,2,10,0,0,0,0,0,0,0,0,0,0,0,0
1996,10,8,7,0,,14,9.9,72,101770,0,0,361,4,0,4,541,3,540,0,180,2.5,10,0,0,0,0,0,0,0,0,0,0,0,0
1996,10,8,8,0,,14.5,10.9,73,101780,0,0,365,51,30,45,7668,2939,6005,0,180,2.8,10,0,0,0,0,0,0,0,0,0,0,0,0
1996,10,8,9,0,,16.1,11.8,75,101790,0,0,375,124,39,109,16322,3835,13698,0,200,2.3,10,0,0,0,0,0,0,0,0,0,0,0,0
1996,10,8,10,0,,17,10.5,66,101760,0,0,367,259,95,207,31835,9291,24848,0,270,1.5,9,0,0,0,0,0,0,0,0,0,0,0,0
1996,10,8,11,0,,18.4,9.1,56,101730,0,0,365,398,157,292,45960,15460,34138,0,360,2.3,8,0,0,0,0,0,0,0,0,0,0,0,0
1996,10,8,12,0,,19.3,7.8,47,101700,0,0,362,508,217,346,54972,21281,39628,0,320,2,7,0,0,0,0,0,0,0,0,0,0,0,0
1996,10,8,13,0,,18.8,6.8,45,101660,0,0,358,511,199,357,52568,19352,40491,0,340,3.5,7,0,0,0,0,0,0,0,0,0,0,0,0
1996,10,8,14,0,,18.4,5.8,42,101620,0,0,355,478,196,334,46278,18324,37473,0,320,5.3,7,0,0,0,0,0,0,0,0,0,0,0,0
1996,10,8,15,0,,18.5,4.8,40,101580,0,0,354,410,202,280,35826,16460,30885,0,320,5,7,0,0,0,0,0,0,0,0,0,0,0,0
1996,10,8,16,0,,18.1,3.6,38,101580,0,0,349,335,269,199,21801,10171,20833,0,320,6,7,0,0,0,0,0,0,0,0,0,0,0,0
1996,10,8,17,0,,17.8,2.3,35,101590,0,0,345,232,380,106,0,0,0,0,320,4.5,6,0,0,0,0,0,0,0,0,0,0,0,0
1996,10,8,18,0,,17.5,1.1,33,101590,0,0,341,84,44,40,0,0,0,0,320,4,6,0,0,0,0,0,0,0,0,0,0,0,0
1996,10,8,19,0,,16.9,2.6,38,101650,0,0,338,0,0,0,0,0,0,0,340,5.5,6,0,0,0,0,0,0,0,0,0,0,0,0
1996,10,8,20,0,,16.7,4,42,101710,0,0,338,0,0,0,0,0,0,0,20,3.3,5,0,0,0,0,0,0,0,0,0,0,0,0
1996,10,8,21,0,,16.6,5.5,47,101770,0,0,339,0,0,0,0,0,0,0,20,4.3,5,0,0,0,0,0,0,0,0,0,0,0,0
1996,10,8,22,0,,16.4,5.4,48,101780,0,0,337,0,0,0,0,0,0,0,20,4,5,0,0,0,0,0,0,0,0,0,0,0,0
1996,10,8,23,0,,16.3,5.4,50,101800,0,0,335,0,0,0,0,0,0,0,20,3.5,4,0,0,0,0,0,0,0,0,0,0,0,0
1996,10,8,24,0,,15.4,5.3,51,101810,0,0,330,0,0,0,0,0,0,0,180,1,4,0,0,0,0,0,0,0,0,0,0,0,0
1996,10,9,1,0,,14.6,5.7,55,101810,0,0,326,0,0,0,0,0,0,0,180,2,4,0,0,0,0,0,0,0,0,0,0,0,0
1996,10,9,2,0,,13.8,6.1,59,101810,0,0,322,0,0,0,0,0,0,0,160,1.3,3,0,0,0,0,0,0,0,0,0,0,0,0
1996,10,9,3,0,,13.4,6.5,63,101810,0,0,320,0,0,0,0,0,0,0,160,2.7,3,0,0,0,0,0,0,0,0,0,0,0,0
1996,10,9,4,0,,13.1,6.9,66,101820,0,0,319,0,0,0,0,0,0,0,160,1.3,3,0,0,0,0,0,0,0,0,0,0,0,0
1996,10,9,5,0,,12.9,7.4,68,101830,0,0,319,0,0,0,0,0,0,0,160,2,3,0,0,0,0,0,0,0,0,0,0,0,0
1996,10,9,6,0,,12.8,7.8,71,101840,0,0,319,0,0,0,0,0,0,0,160,2,3,0,0,0,0,0,0,0,0,0,0,0,0
1996,10,9,7,0,,13.1,8.6,67,101860,0,0,318,22,12,10,1897,1107,1453,0,160,2,2,0,0,0,0,0,0,0,0,0,0,0,0
1996,10,9,8,0,,15.4,9.4,62,101890,0,0,325,148,586,41,39556,59400,6165,0,180,1.5,1,0,0,0,0,0,0,0,0,0,0,0,0
1996,10,9,9,0,,18.6,10.2,58,101910,0,0,334,341,711,72,59780,72884,10187,0,200,1.5,0,0,0,0,0,0,0,0,0,0,0,0,0
1996,10,9,10,0,,19.6,10,54,101900,0,0,345,508,736,106,71245,75741,14588,0,270,1.8,1,0,0,0,0,0,0,0,0,0,0,0,0
1996,10,9,11,0,,20.2,9.7,51,101880,0,0,352,605,656,165,72799,65721,22830,0,290,2.3,2,0,0,0,0,0,0,0,0,0,0,0,0
1996,10,9,12,0,,21.1,9.5,47,101870,0,0,360,656,593,213,69686,58274,27936,0,290,4.2,3,0,0,0,0,0,0,0,0,0,0,0,0
1996,10,9,13,0,,21.5,9.8,48,101820,0,0,362,657,546,239,62612,52081,30353,0,290,2.8,3,0,0,0,0,0,0,0,0,0,0,0,0
1996,10,9,14,0,,21.5,10,50,101770,0,0,363,629,564,217,52029,51580,27488,0,320,4.5,3,0,0,0,0,0,0,0,0,0,0,0,0
1996,10,9,15,0,,21,10.3,51,101720,0,0,361,530,528,192,35020,41102,22879,0,320,4.5,3,0,0,0,0,0,0,0,0,0,0,0,0
1996,10,9,16,0,,20.6,9.7,51,101730,0,0,354,414,557,134,16481,17150,14928,0,320,5,2,0,0,0,0,0,0,0,0,0,0,0,0
1996,10,9,17,0,,19.8,9.1,50,101740,0,0,345,261,554,81,0,0,0,0,320,3.8,1,0,0,0,0,0,0,0,0,0,0,0,0
1996,10,9,18,0,,18.9,8.5,50,101750,0,0,334,92,60,31,0,0,0,0,320,3.5,0,0,0,0,0,0,0,0,0,0,0,0,0
1996,10,9,19,0,,18.3,8.1,51,101800,0,0,330,0,0,0,0,0,0,0,340,3.7,0,0,0,0,0,0,0,0,0,0,0,0,0
1996,10,9,20,0,,17.6,7.8,53,101840,0,0,327,0,0,0,0,0,0,0,360,1.2,0,0,0,0,0,0,0,0,0,0,0,0,0
1996,10,9,21,0,,16.7,7.4,54,101890,0,0,322,0,0,0,0,0,0,0,340,1,0,0,0,0,0,0,0,0,0,0,0,0,0
1996,10,9,22,0,,15.7,7.2,56,101890,0,0,318,0,0,0,0,0,0,0,340,1,0,0,0,0,0,0,0,0,0,0,0,0,0
1996,10,9,23,0,,15.1,7,59,101900,0,0,315,0,0,0,0,0,0,0,180,2.2,0,0,0,0,0,0,0,0,0,0,0,0,0
1996,10,9,24,0,,14.2,6.8,61,101900,0,0,310,0,0,0,0,0,0,0,180,1.7,0,0,0,0,0,0,0,0,0,0,0,0,0
1996,10,10,1,0,,13.9,7,63,101900,0,0,309,0,0,0,0,0,0,0,180,0.8,0,0,0,0,0,0,0,0,0,0,0,0,0
1996,10,10,2,0,,13.6,7.2,66,101910,0,0,308,0,0,0,0,0,0,0,180,2.2,0,0,0,0,0,0,0,0,0,0,0,0,0
1996,10,10,3,0,,13.3,7.4,68,101910,0,0,307,0,0,0,0,0,0,0,180,2.3,0,0,0,0,0,0,0,0,0,0,0,0,0
1996,10,10,4,0,,13.1,7.2,68,101900,0,0,310,0,0,0,0,0,0,0,180,2.7,1,0,0,0,0,0,0,0,0,0,0,0,0
1996,10,10,5,0,,12.9,6.9,67,101880,0,0,312,0,0,0,0,0,0,0,180,2.5,1,0,0,0,0,0,0,0,0,0,0,0,0
1996,10,10,6,0,,12.8,6.7,67,101870,0,0,314,0,0,0,0,0,0,0,160,1.7,2,0,0,0,0,0,0,0,0,0,0,0,0
1996,10,10,7,0,,12.8,6.9,61,101900,0,0,317,20,10,11,1861,910,1499,0,160,2.3,3,0,0,0,0,0,0,0,0,0,0,0,0
1996,10,10,8,0,,14.2,7.1,54,101940,0,0,325,138,515,45,35836,51965,6806,0,160,1.7,3,0,0,0,0,0,0,0,0,0,0,0,0
1996,10,10,9,0,,18.2,7.3,48,101970,0,0,346,318,618,85,55056,63466,12112,0,0,0,4,0,0,0,0,0,0,0,0,0,0,0,0
1996,10,10,10,0,,18.8,7.6,48,101970,0,0,352,454,568,146,63123,57195,20572,0,50,2,5,0,0,0,0,0,0,0,0,0,0,0,0
1996,10,10,11,0,,18.8,7.9,47,101970,0,0,355,507,342,278,58671,33947,33007,0,50,2.7,6,0,0,0,0,0,0,0,0,0,0,0,0
1996,10,10,12,0,,19.9,8.2,47,101970,0,0,365,482,193,339,52368,18868,38935,0,20,2.7,7,0,0,0,0,0,0,0,0,0,0,0,0
1996,10,10,13,0,,19.9,8.6,48,101900,0,0,366,488,181,350,50564,17424,39853,0,20,2.7,7,0,0,0,0,0,0,0,0,0,0,0,0
1996,10,10,14,0,,19.9,8.9,49,101840,0,0,366,468,192,328,45422,17568,37147,0,50,3,7,0,0,0,0,0,0,0,0,0,0,0,0
1996,10,10,15,0,,20,9.3,50,101770,0,0,367,390,184,273,35069,16421,30297,0,50,3,7,0,0,0,0,0,0,0,0,0,0,0,0
1996,10,10,16,0,,19.6,8.9,50,101780,0,0,359,326,265,194,21284,8327,20569,0,50,2.3,6,0,0,0,0,0,0,0,0,0,0,0,0
1996,10,10,17,0,,19.2,8.4,50,101800,0,0,353,241,471,90,0,0,0,0,50,3,4,0,0,0,0,0,0,0,0,0,0,0,0
1996,10,10,18,0,,18.6,8,50,101810,0,0,346,82,48,34,0,0,0,0,50,1.3,3,0,0,0,0,0,0,0,0,0,0,0,0
1996,10,10,19,0,,17.8,8.6,55,101870,0,0,343,0,0,0,0,0,0,0,140,1.8,3,0,0,0,0,0,0,0,0,0,0,0,0
1996,10,10,20,0,,16.8,9.3,61,101940,0,0,339,0,0,0,0,0,0,0,160,1.3,3,0,0,0,0,0,0,0,0,0,0,0,0
1996,10,10,21,0,,16.2,9.9,66,102000,0,0,337,0,0,0,0,0,0,0,160,1.8,3,0,0,0,0,0,0,0,0,0,0,0,0
1996,10,10,22,0,,16.2,10.6,70,102010,0,0,334,0,0,0,0,0,0,0,160,1.7,2,0,0,0,0,0,0,0,0,0,0,0,0
1996,10,10,23,0,,16.1,11.3,74,102030,0,0,330,0,0,0,0,0,0,0,160,1.5,1,0,0,0,0,0,0,0,0,0,0,0,0
1996,10,10,24,0,,15.8,12,78,102040,0,0,323,0,0,0,0,0,0,0,160,2.2,0,0,0,0,0,0,0,0,0,0,0,0,0
1996,10,11,1,0,,15.7,11.8,78,102040,0,0,327,0,0,0,0,0,0,0,140,2,1,0,0,0,0,0,0,0,0,0,0,0,0
1996,10,11,2,0,,15.5,11.7,77,102040,0,0,330,0,0,0,0,0,0,0,140,2.2,1,0,0,0,0,0,0,0,0,0,0,0,0
1996,10,11,3,0,,15.4,11.5,77,102040,0,0,332,0,0,0,0,0,0,0,160,2,2,0,0,0,0,0,0,0,0,0,0,0,0
1996,10,11,4,0,,15.3,11.4,77,102020,0,0,331,0,0,0,0,0,0,0,160,1.8,2,0,0,0,0,0,0,0,0,0,0,0,0
1996,10,11,5,0,,15.3,11.4,76,102000,0,0,331,0,0,0,0,0,0,0,140,2.2,2,0,0,0,0,0,0,0,0,0,0,0,0
1996,10,11,6,0,,15.4,11.3,76,101980,0,0,331,0,0,0,0,0,0,0,140,1.8,2,0,0,0,0,0,0,0,0,0,0,0,0
1996,10,11,7,0,,15.7,12.6,77,102000,0,0,337,18,8,11,1819,683,1550,0,140,2,3,0,0,0,0,0,0,0,0,0,0,0,0
1996,10,11,8,0,,17.1,14,79,102020,0,0,347,130,457,49,33715,47082,7578,0,110,1.7,3,0,0,0,0,0,0,0,0,0,0,0,0
1996,10,11,9,0,,18.8,15.3,80,102040,0,0,358,283,465,109,47837,46273,16704,0,90,2,4,0,0,0,0,0,0,0,0,0,0,0,0
1996,10,11,10,0,,20.6,15.3,76,102030,0,0,367,450,564,146,62590,55980,21173,0,70,4,4,0,0,0,0,0,0,0,0,0,0,0,0
1996,10,11,11,0,,20.6,15.3,73,102030,0,0,367,538,486,215,63593,45616,29306,0,50,4.8,4,0,0,0,0,0,0,0,0,0,0,0,0
1996,10,11,12,0,,21.1,15.3,69,102020,0,0,370,595,454,259,64010,42331,34067,0,50,5.2,4,0,0,0,0,0,0,0,0,0,0,0,0
1996,10,11,13,0,,21.4,15.4,68,101980,0,0,372,601,423,280,58117,38409,34686,0,50,6,4,0,0,0,0,0,0,0,0,0,0,0,0
1996,10,11,14,0,,21.5,15.5,68,101950,0,0,372,571,434,258,49277,37383,31845,0,50,6.2,4,0,0,0,0,0,0,0,0,0,0,0,0
1996,10,11,15,0,,21.9,15.6,67,101910,0,0,374,476,392,229,35650,27924,27666,0,50,3.7,4,0,0,0,0,0,0,0,0,0,0,0,0
1996,10,11,16,0,,21.5,15.5,69,101900,0,0,373,370,427,160,18696,8816,17980,0,70,4.7,4,0,0,0,0,0,0,0,0,0,0,0,0
1996,10,11,17,0,,20.9,15.3,70,101900,0,0,371,213,334,107,0,0,0,0,50,3.3,5,0,0,0,0,0,0,0,0,0,0,0,0
1996,10,11,18,0,,20.4,15.2,72,101890,0,0,369,67,36,31,0,0,0,0,90,1.7,5,0,0,0,0,0,0,0,0,0,0,0,0
1996,10,11,19,0,,19.8,15.3,74,101920,0,0,367,0,0,0,0,0,0,0,140,2.2,5,0,0,0,0,0,0,0,0,0,0,0,0
1996,10,11,20,0,,19.7,15.4,77,101960,0,0,368,0,0,0,0,0,0,0,90,1.3,6,0,0,0,0,0,0,0,0,0,0,0,0
1996,10,11,21,0,,19.3,15.5,79,101990,0,0,367,0,0,0,0,0,0,0,90,1.8,6,0,0,0,0,0,0,0,0,0,0,0,0
1996,10,11,22,0,,19.2,15.6,80,101960,0,0,371,0,0,0,0,0,0,0,110,2,7,0,0,0,0,0,0,0,0,0,0,0,0
1996,10,11,23,0,,19.1,15.8,80,101940,0,0,377,0,0,0,0,0,0,0,90,2,8,0,0,0,0,0,0,0,0,0,0,0,0
1996,10,11,24,0,,19.2,15.9,81,101910,0,0,385,0,0,0,0,0,0,0,140,2.3,9,0,0,0,0,0,0,0,0,0,0,0,0
1996,10,12,1,0,,19.2,16.1,83,101920,0,0,389,0,0,0,0,0,0,0,90,1.7,9,0,0,0,0,0,0,0,0,0,0,0,0
1996,10,12,2,0,,19.1,16.2,85,101940,0,0,392,0,0,0,0,0,0,0,140,1.8,10,0,0,0,0,0,0,0,0,0,0,0,0
1996,10,12,3,0,,18.5,16.4,87,101950,0,0,393,0,0,0,0,0,0,0,90,1.3,10,0,0,0,0,0,0,0,0,0,0,0,0
1996,10,12,4,0,,18,16.1,87,101940,0,0,390,0,0,0,0,0,0,0,140,1.3,10,0,0,0,0,0,0,0,0,0,0,0,0
1996,10,12,5,0,,18,15.9,88,101920,0,0,390,0,0,0,0,0,0,0,90,2,10,0,0,0,0,0,0,0,0,0,0,0,0
1996,10,12,6,0,,17.7,15.6,88,101910,0,0,388,0,0,0,0,0,0,0,90,1.7,10,0,0,0,0,0,0,0,0,0,0,0,0
1996,10,12,7,0,,17.4,15.3,87,101990,0,0,386,1,0,1,127,0,127,0,110,2.2,10,0,0,0,0,0,0,0,0,0,0,0,0
1996,10,12,8,0,,17.4,15.1,87,102080,0,0,386,39,17,36,5775,1578,4905,0,140,2,10,0,0,0,0,0,0,0,0,0,0,0,0
1996,10,12,9,0,,17.2,14.8,86,102160,0,0,384,98,22,89,12045,2025,10690,0,160,2.8,10,0,0,0,0,0,0,0,0,0,0,0,0
1996,10,12,10,0,,17.3,14,81,102150,0,0,384,156,25,143,18563,2324,16853,0,70,2.7,10,0,0,0,0,0,0,0,0,0,0,0,0
1996,10,12,11,0,,17.3,13.3,77,102140,0,0,383,188,21,174,21860,1957,20398,0,160,1.8,10,0,0,0,0,0,0,0,0,0,0,0,0
1996,10,12,12,0,,17.7,12.5,72,102130,0,0,384,241,29,219,27346,2745,25417,0,140,3,10,0,0,0,0,0,0,0,0,0,0,0,0
1996,10,12,13,0,,18.3,12,69,102070,0,0,386,262,34,237,29126,3199,27189,0,110,3,10,0,0,0,0,0,0,0,0,0,0,0,0
1996,10,12,14,0,,18.2,11.5,65,102000,0,0,385,253,37,227,27408,3389,25844,0,140,3.7,10,0,0,0,0,0,0,0,0,0,0,0,0
1996,10,12,15,0,,18.3,11,62,101940,0,0,385,220,39,196,21530,2982,20691,0,90,3.7,10,0,0,0,0,0,0,0,0,0,0,0,0
1996,10,12,16,0,,18.7,11.4,63,101940,0,0,374,215,84,174,19220,5670,18785,0,140,3.5,9,0,0,0,0,0,0,0,0,0,0,0,0
1996,10,12,17,0,,18.9,11.9,65,101950,0,0,367,183,237,109,0,0,0,0,90,3,7,0,0,0,0,0,0,0,0,0,0,0,0
1996,10,12,18,0,,18.8,12.3,66,101950,0,0,361,63,32,31,0,0,0,0,90,2,6,0,0,0,0,0,0,0,0,0,0,0,0
1996,10,12,19,0,,18.5,12.4,69,101960,0,0,358,0,0,0,0,0,0,0,140,2.3,6,0,0,0,0,0,0,0,0,0,0,0,0
1996,10,12,20,0,,17.8,12.6,72,101970,0,0,354,0,0,0,0,0,0,0,140,2.3,5,0,0,0,0,0,0,0,0,0,0,0,0
1996,10,12,21,0,,17.2,12.7,75,101980,0,0,350,0,0,0,0,0,0,0,140,1.7,5,0,0,0,0,0,0,0,0,0,0,0,0
1996,10,12,22,0,,17.1,13,77,101960,0,0,351,0,0,0,0,0,0,0,140,1.8,5,0,0,0,0,0,0,0,0,0,0,0,0
1996,10,12,23,0,,16.9,13.2,79,101930,0,0,351,0,0,0,0,0,0,0,140,1.3,6,0,0,0,0,0,0,0,0,0,0,0,0
1996,10,12,24,0,,16.8,13.5,81,101910,0,0,352,0,0,0,0,0,0,0,140,1.7,6,0,0,0,0,0,0,0,0,0,0,0,0
1996,10,13,1,0,,16.9,13.7,81,101880,0,0,352,0,0,0,0,0,0,0,140,2.7,6,0,0,0,0,0,0,0,0,0,0,0,0
1996,10,13,2,0,,17,13.9,82,101840,0,0,352,0,0,0,0,0,0,0,140,2,5,0,0,0,0,0,0,0,0,0,0,0,0
1996,10,13,3,0,,17.2,14.1,82,101810,0,0,352,0,0,0,0,0,0,0,140,1.3,5,0,0,0,0,0,0,0,0,0,0,0,0
1996,10,13,4,0,,17.2,14.1,82,101800,0,0,356,0,0,0,0,0,0,0,140,2,6,0,0,0,0,0,0,0,0,0,0,0,0
1996,10,13,5,0,,17.1,14.1,82,101780,0,0,362,0,0,0,0,0,0,0,140,2,8,0,0,0,0,0,0,0,0,0,0,0,0
1996,10,13,6,0,,17.2,14.1,82,101770,0,0,373,0,0,0,0,0,0,0,140,1.7,9,0,0,0,0,0,0,0,0,0,0,0,0
1996,10,13,7,0,,17.1,13.9,76,101780,0,0,354,12,3,10,1295,219,1210,0,140,2.3,6,0,0,0,0,0,0,0,0,0,0,0,0
1996,10,13,8,0,,18.1,13.8,71,101790,0,0,350,126,458,47,33143,47078,7343,0,160,2,3,0,0,0,0,0,0,0,0,0,0,0,0
1996,10,13,9,0,,20.4,13.6,65,101800,0,0,347,316,649,78,55998,67118,11356,0,90,2.7,0,0,0,0,0,0,0,0,0,0,0,0,0
1996,10,13,10,0,,20.6,13.4,63,101730,0,0,354,465,638,126,64976,65377,17145,0,50,3,1,0,0,0,0,0,0,0,0,0,0,0,0
1996,10,13,11,0,,20.7,13.3,60,101670,0,0,359,561,573,185,67425,56542,25420,0,50,4.3,2,0,0,0,0,0,0,0,0,0,0,0,0
1996,10,13,12,0,,21.7,13.1,58,101600,0,0,367,609,511,236,64753,48413,30947,0,50,4.8,3,0,0,0,0,0,0,0,0,0,0,0,0
1996,10,13,13,0,,21.2,13.8,61,101540,0,0,365,599,439,270,57479,40559,33115,0,50,3.7,3,0,0,0,0,0,0,0,0,0,0,0,0
1996,10,13,14,0,,21,14.4,64,101480,0,0,363,592,511,228,48526,44470,28208,0,70,4.7,2,0,0,0,0,0,0,0,0,0,0,0,0
1996,10,13,15,0,,21.7,15.1,67,101420,0,0,366,508,512,190,33341,36368,23282,0,50,4.7,2,0,0,0,0,0,0,0,0,0,0,0,0
1996,10,13,16,0,,21,15.3,69,101420,0,0,369,368,448,152,17519,7557,16974,0,50,5.7,4,0,0,0,0,0,0,0,0,0,0,0,0
1996,10,13,17,0,,20.7,15.6,72,101420,0,0,372,203,358,93,0,0,0,0,50,3.3,5,0,0,0,0,0,0,0,0,0,0,0,0
1996,10,13,18,0,,20.6,15.8,74,101420,0,0,378,49,16,33,0,0,0,0,90,1.7,7,0,0,0,0,0,0,0,0,0,0,0,0
1996,10,13,19,0,,20.1,16,76,101420,0,0,382,0,0,0,0,0,0,0,90,1.7,8,0,0,0,0,0,0,0,0,0,0,0,0
1996,10,13,20,0,,19.9,16.1,78,101420,0,0,389,0,0,0,0,0,0,0,110,1,9,0,0,0,0,0,0,0,0,0,0,0,0
1996,10,13,21,0,,19.8,16.3,80,101420,0,0,400,0,0,0,0,0,0,0,90,0.3,10,0,0,0,0,0,0,0,0,0,0,0,0
1996,10,13,22,0,,19.9,16.3,80,101400,0,0,393,0,0,0,0,0,0,0,90,1.7,9,0,0,0,0,0,0,0,0,0,0,0,0
1996,10,13,23,0,,19.7,16.3,81,101390,0,0,386,0,0,0,0,0,0,0,140,0.7,9,0,0,0,0,0,0,0,0,0,0,0,0
1996,10,13,24,0,,19.5,16.3,81,101370,0,0,379,0,0,0,0,0,0,0,110,0.8,8,0,0,0,0,0,0,0,0,0,0,0,0
1996,10,14,1,0,,18.8,15.8,82,101330,0,0,368,0,0,0,0,0,0,0,0,0.2,7,0,0,0,0,0,0,0,0,0,0,0,0
1996,10,14,2,0,,18.1,15.3,84,101300,0,0,359,0,0,0,0,0,0,0,160,1.3,5,0,0,0,0,0,0,0,0,0,0,0,0
1996,10,14,3,0,,17.4,14.8,85,101260,0,0,351,0,0,0,0,0,0,0,180,0.8,4,0,0,0,0,0,0,0,0,0,0,0,0
1996,10,14,4,0,,16.8,12.7,77,101220,0,0,347,0,0,0,0,0,0,0,180,1.7,4,0,0,0,0,0,0,0,0,0,0,0,0
1996,10,14,5,0,,16.6,10.7,68,101190,0,0,344,0,0,0,0,0,0,0,180,2.3,5,0,0,0,0,0,0,0,0,0,0,0,0
1996,10,14,6,0,,16.4,8.6,60,101150,0,0,341,0,0,0,0,0,0,0,180,1,5,0,0,0,0,0,0,0,0,0,0,0,0
1996,10,14,7,0,,16.4,8.6,57,101150,0,0,341,14,5,10,1367,399,1213,0,160,2,5,0,0,0,0,0,0,0,0,0,0,0,0
1996,10,14,8,0,,17.5,8.6,54,101150,0,0,345,124,462,46,32878,47298,7127,0,180,1.2,4,0,0,0,0,0,0,0,0,0,0,0,0
1996,10,14,9,0,,18.9,8.6,51,101150,0,0,351,287,523,97,49692,52795,14782,0,230,1.2,4,0,0,0,0,0,0,0,0,0,0,0,0
1996,10,14,10,0,,20.7,10.7,56,101120,0,0,360,454,608,132,63616,61128,19148,0,320,2.2,3,0,0,0,0,0,0,0,0,0,0,0,0
1996,10,14,11,0,,20.6,12.7,62,101100,0,0,358,564,590,179,67763,58415,24622,0,290,3,2,0,0,0,0,0,0,0,0,0,0,0,0
1996,10,14,12,0,,21.1,14.8,67,101070,0,0,358,617,543,223,65189,50831,29926,0,290,3.3,1,0,0,0,0,0,0,0,0,0,0,0,0
1996,10,14,13,0,,20.8,14.7,67,101010,0,0,358,614,486,251,59291,44728,32630,0,320,4.5,1,0,0,0,0,0,0,0,0,0,0,0,0
1996,10,14,14,0,,21,14.6,68,100960,0,0,361,581,492,232,47988,42619,28715,0,290,3.7,2,0,0,0,0,0,0,0,0,0,0,0,0
1996,10,14,15,0,,20.7,14.5,68,100900,0,0,361,487,460,203,33400,32616,24529,0,290,3.7,2,0,0,0,0,0,0,0,0,0,0,0,0
1996,10,14,16,0,,20.8,14.4,69,100890,0,0,361,381,511,136,15825,8323,15262,0,320,3.5,2,0,0,0,0,0,0,0,0,0,0,0,0
1996,10,14,17,0,,20.5,14.4,70,100890,0,0,359,234,510,80,0,0,0,0,320,3.5,2,0,0,0,0,0,0,0,0,0,0,0,0
1996,10,14,18,0,,19.8,14.3,71,100880,0,0,356,75,46,28,0,0,0,0,340,4,2,0,0,0,0,0,0,0,0,0,0,0,0
1996,10,14,19,0,,19.4,13.9,70,100930,0,0,355,0,0,0,0,0,0,0,340,3.3,2,0,0,0,0,0,0,0,0,0,0,0,0
1996,10,14,20,0,,19.1,13.4,70,100970,0,0,354,0,0,0,0,0,0,0,320,4.8,3,0,0,0,0,0,0,0,0,0,0,0,0
1996,10,14,21,0,,18.7,13,69,101020,0,0,352,0,0,0,0,0,0,0,340,3,3,0,0,0,0,0,0,0,0,0,0,0,0
1996,10,14,22,0,,18.7,13.1,70,101040,0,0,353,0,0,0,0,0,0,0,320,3,3,0,0,0,0,0,0,0,0,0,0,0,0
1996,10,14,23,0,,18.5,13.3,71,101050,0,0,352,0,0,0,0,0,0,0,320,3.7,3,0,0,0,0,0,0,0,0,0,0,0,0
1996,10,14,24,0,,18.5,13.4,72,101070,0,0,352,0,0,0,0,0,0,0,320,2.5,3,0,0,0,0,0,0,0,0,0,0,0,0
1996,10,15,1,0,,18,12.6,70,101080,0,0,345,0,0,0,0,0,0,0,290,2.3,2,0,0,0,0,0,0,0,0,0,0,0,0
1996,10,15,2,0,,17.6,11.8,69,101080,0,0,338,0,0,0,0,0,0,0,320,3.2,1,0,0,0,0,0,0,0,0,0,0,0,0
1996,10,15,3,0,,17.1,11,67,101090,0,0,328,0,0,0,0,0,0,0,320,1.8,0,0,0,0,0,0,0,0,0,0,0,0,0
1996,10,15,4,0,,17.1,10.8,66,101110,0,0,334,0,0,0,0,0,0,0,320,3.3,1,0,0,0,0,0,0,0,0,0,0,0,0
1996,10,15,5,0,,17,10.7,66,101130,0,0,338,0,0,0,0,0,0,0,320,4.7,2,0,0,0,0,0,0,0,0,0,0,0,0
1996,10,15,6,0,,17,10.5,65,101150,0,0,341,0,0,0,0,0,0,0,340,3,3,0,0,0,0,0,0,0,0,0,0,0,0
1996,10,15,7,0,,16.9,9.9,62,101190,0,0,340,16,7,9,1533,628,1293,0,340,4.5,3,0,0,0,0,0,0,0,0,0,0,0,0
1996,10,15,8,0,,17,9.4,60,101230,0,0,340,126,506,42,34042,51125,6393,0,340,4.3,3,0,0,0,0,0,0,0,0,0,0,0,0
1996,10,15,9,0,,17.5,8.8,57,101270,0,0,342,295,572,88,51097,58617,12565,0,340,5,3,0,0,0,0,0,0,0,0,0,0,0,0
1996,10,15,10,0,,18.2,9,56,101270,0,0,345,438,565,141,61117,56750,20070,0,360,3.2,3,0,0,0,0,0,0,0,0,0,0,0,0
1996,10,15,11,0,,18.8,9.1,54,101260,0,0,348,548,553,189,65642,54917,25324,0,360,4,3,0,0,0,0,0,0,0,0,0,0,0,0
1996,10,15,12,0,,19.2,9.3,53,101260,0,0,351,620,561,215,65439,54362,27974,0,340,4.8,3,0,0,0,0,0,0,0,0,0,0,0,0
1996,10,15,13,0,,19.2,8.3,49,101250,0,0,346,665,631,198,61522,60601,25680,0,340,6.7,2,0,0,0,0,0,0,0,0,0,0,0,0
1996,10,15,14,0,,19.3,7.2,45,101250,0,0,341,618,606,193,49276,55608,24386,0,360,4.7,1,0,0,0,0,0,0,0,0,0,0,0,0
1996,10,15,15,0,,19.8,6.2,41,101240,0,0,335,542,639,150,31999,49904,18654,0,340,4.3,0,0,0,0,0,0,0,0,0,0,0,0,0
1996,10,15,16,0,,19.6,5.7,42,101290,0,0,334,417,660,104,12266,18662,11086,0,340,5.5,0,0,0,0,0,0,0,0,0,0,0,0,0
1996,10,15,17,0,,19.3,5.1,42,101330,0,0,332,256,661,60,0,0,0,0,360,4.3,0,0,0,0,0,0,0,0,0,0,0,0,0
1996,10,15,18,0,,17.4,4.6,43,101380,0,0,322,75,48,26,0,0,0,0,340,3.8,0,0,0,0,0,0,0,0,0,0,0,0,0
1996,10,15,19,0,,16.5,5,45,101430,0,0,319,0,0,0,0,0,0,0,340,4.3,0,0,0,0,0,0,0,0,0,0,0,0,0
1996,10,15,20,0,,16.3,5.4,48,101490,0,0,318,0,0,0,0,0,0,0,360,4.7,0,0,0,0,0,0,0,0,0,0,0,0,0
1996,10,15,21,0,,16.2,5.8,50,101540,0,0,318,0,0,0,0,0,0,0,360,2.7,0,0,0,0,0,0,0,0,0,0,0,0,0
1996,10,15,22,0,,16.2,6.3,51,101550,0,0,323,0,0,0,0,0,0,0,360,5.3,1,0,0,0,0,0,0,0,0,0,0,0,0
1996,10,15,23,0,,16.2,6.8,53,101570,0,0,327,0,0,0,0,0,0,0,360,4,1,0,0,0,0,0,0,0,0,0,0,0,0
1996,10,15,24,0,,16.4,7.3,54,101580,0,0,331,0,0,0,0,0,0,0,360,2,2,0,0,0,0,0,0,0,0,0,0,0,0
1996,10,16,1,0,,16.3,7.5,55,101600,0,0,333,0,0,0,0,0,0,0,360,5,3,0,0,0,0,0,0,0,0,0,0,0,0
1996,10,16,2,0,,16.2,7.6,57,101610,0,0,335,0,0,0,0,0,0,0,20,6.7,3,0,0,0,0,0,0,0,0,0,0,0,0
1996,10,16,3,0,,15.8,7.8,58,101630,0,0,335,0,0,0,0,0,0,0,20,4.7,4,0,0,0,0,0,0,0,0,0,0,0,0
1996,10,16,4,0,,15.5,7.5,58,101670,0,0,332,0,0,0,0,0,0,0,20,7.5,3,0,0,0,0,0,0,0,0,0,0,0,0
1996,10,16,5,0,,15.3,7.3,58,101710,0,0,329,0,0,0,0,0,0,0,340,4.7,3,0,0,0,0,0,0,0,0,0,0,0,0
1996,10,16,6,0,,15.2,7,58,101750,0,0,326,0,0,0,0,0,0,0,320,5.3,2,0,0,0,0,0,0,0,0,0,0,0,0
1996,10,16,7,0,,15.3,6.6,55,101810,0,0,328,16,7,8,1448,687,1188,0,340,4.5,3,0,0,0,0,0,0,0,0,0,0,0,0
1996,10,16,8,0,,15.6,6.2,53,101870,0,0,331,126,529,40,34609,53142,6062,0,340,4,3,0,0,0,0,0,0,0,0,0,0,0,0
1996,10,16,9,0,,16.2,5.8,50,101930,0,0,335,282,523,95,49018,52944,14423,0,340,3.3,4,0,0,0,0,0,0,0,0,0,0,0,0
1996,10,16,10,0,,17.2,6,49,101950,0,0,338,439,580,136,61471,58561,19359,0,20,2.8,3,0,0,0,0,0,0,0,0,0,0,0,0
1996,10,16,11,0,,17.8,6.2,49,101960,0,0,339,549,568,183,65825,56690,24455,0,20,2.5,3,0,0,0,0,0,0,0,0,0,0,0,0
1996,10,16,12,0,,17.5,6.4,48,101980,0,0,336,616,561,213,65071,55089,27354,0,360,2.3,2,0,0,0,0,0,0,0,0,0,0,0,0
1996,10,16,13,0,,17.6,6.8,49,101940,0,0,334,622,529,232,58918,50908,29043,0,320,1.7,1,0,0,0,0,0,0,0,0,0,0,0,0
1996,10,16,14,0,,17.7,7.1,51,101910,0,0,331,589,537,214,48219,49110,26464,0,20,2.5,1,0,0,0,0,0,0,0,0,0,0,0,0
1996,10,16,15,0,,17.4,7.5,52,101870,0,0,326,493,505,186,31684,38221,21636,0,340,2.3,0,0,0,0,0,0,0,0,0,0,0,0,0
1996,10,16,16,0,,17.1,7.9,55,101870,0,0,329,381,542,127,14043,9686,13473,0,320,2.5,1,0,0,0,0,0,0,0,0,0,0,0,0
1996,10,16,17,0,,17.1,8.2,57,101870,0,0,333,232,541,73,0,0,0,0,270,1.7,1,0,0,0,0,0,0,0,0,0,0,0,0
1996,10,16,18,0,,16.4,8.6,60,101870,0,0,333,70,42,28,0,0,0,0,230,1.7,2,0,0,0,0,0,0,0,0,0,0,0,0
1996,10,16,19,0,,15.8,8.9,64,101880,0,0,330,0,0,0,0,0,0,0,290,2,2,0,0,0,0,0,0,0,0,0,0,0,0
1996,10,16,20,0,,15.6,9.1,67,101890,0,0,330,0,0,0,0,0,0,0,200,0.5,2,0,0,0,0,0,0,0,0,0,0,0,0
1996,10,16,21,0,,14.5,9.4,71,101900,0,0,325,0,0,0,0,0,0,0,200,1.5,2,0,0,0,0,0,0,0,0,0,0,0,0
1996,10,16,22,0,,13.9,9,72,101920,0,0,321,0,0,0,0,0,0,0,180,2,2,0,0,0,0,0,0,0,0,0,0,0,0
1996,10,16,23,0,,13,8.6,74,101930,0,0,315,0,0,0,0,0,0,0,180,1.2,1,0,0,0,0,0,0,0,0,0,0,0,0
1996,10,16,24,0,,12.4,8.2,75,101950,0,0,310,0,0,0,0,0,0,0,180,3,1,0,0,0,0,0,0,0,0,0,0,0,0
1996,10,17,1,0,,12.1,8.1,77,101930,0,0,307,0,0,0,0,0,0,0,180,2.7,1,0,0,0,0,0,0,0,0,0,0,0,0
1996,10,17,2,0,,11.7,8.1,78,101910,0,0,303,0,0,0,0,0,0,0,180,2.2,0,0,0,0,0,0,0,0,0,0,0,0,0
1996,10,17,3,0,,11.4,8,80,101890,0,0,300,0,0,0,0,0,0,0,180,3.5,0,0,0,0,0,0,0,0,0,0,0,0,0
1996,10,17,4,0,,11.2,8.4,83,101880,0,0,304,0,0,0,0,0,0,0,180,3,1,0,0,0,0,0,0,0,0,0,0,0,0
1996,10,17,5,0,,11.3,8.8,85,101880,0,0,308,0,0,0,0,0,0,0,180,2.8,1,0,0,0,0,0,0,0,0,0,0,0,0
1996,10,17,6,0,,11,9.2,88,101870,0,0,310,0,0,0,0,0,0,0,180,2.3,2,0,0,0,0,0,0,0,0,0,0,0,0
1996,10,17,7,0,,11.9,10,84,101890,0,0,313,12,4,8,1185,343,1056,0,180,2.3,2,0,0,0,0,0,0,0,0,0,0,0,0
1996,10,17,8,0,,13.4,10.8,79,101910,0,0,319,122,508,41,33627,51508,6147,0,180,1.7,1,0,0,0,0,0,0,0,0,0,0,0,0
1996,10,17,9,0,,16,11.6,75,101930,0,0,330,302,635,77,53689,65416,11202,0,340,0.7,1,0,0,0,0,0,0,0,0,0,0,0,0
1996,10,17,10,0,,16.5,11.7,74,101910,0,0,334,453,639,121,63299,65306,16610,0,360,2.3,1,0,0,0,0,0,0,0,0,0,0,0,0
1996,10,17,11,0,,16.8,11.9,73,101880,0,0,337,538,545,188,64555,53827,25510,0,360,2.5,2,0,0,0,0,0,0,0,0,0,0,0,0
1996,10,17,12,0,,17,12,72,101860,0,0,340,580,475,241,61962,45263,31178,0,360,3,2,0,0,0,0,0,0,0,0,0,0,0,0
1996,10,17,13,0,,17.2,12.1,72,101770,0,0,342,585,444,260,55767,41506,31601,0,20,2.7,2,0,0,0,0,0,0,0,0,0,0,0,0
1996,10,17,14,0,,17.3,12.3,72,101680,0,0,344,529,334,297,47044,29495,34113,0,360,2.2,3,0,0,0,0,0,0,0,0,0,0,0,0
1996,10,17,15,0,,17.4,12.4,72,101590,0,0,345,452,390,217,32585,27612,25449,0,20,2,3,0,0,0,0,0,0,0,0,0,0,0,0
1996,10,17,16,0,,17.2,12.4,74,101600,0,0,345,348,431,148,16062,4756,15803,0,50,2.8,3,0,0,0,0,0,0,0,0,0,0,0,0
1996,10,17,17,0,,16.7,12.4,77,101620,0,0,342,208,424,86,0,0,0,0,50,2.2,3,0,0,0,0,0,0,0,0,0,0,0,0
1996,10,17,18,0,,16.1,12.4,79,101630,0,0,339,61,29,32,0,0,0,0,50,1,3,0,0,0,0,0,0,0,0,0,0,0,0
1996,10,17,19,0,,15.9,12.8,83,101610,0,0,339,0,0,0,0,0,0,0,140,1.5,3,0,0,0,0,0,0,0,0,0,0,0,0
1996,10,17,20,0,,15.4,13.1,87,101600,0,0,337,0,0,0,0,0,0,0,0,0.2,3,0,0,0,0,0,0,0,0,0,0,0,0
1996,10,17,21,0,,15,13.5,91,101580,0,0,336,0,0,0,0,0,0,0,110,1.5,3,0,0,0,0,0,0,0,0,0,0,0,0
1996,10,17,22,0,,14.6,12.7,88,101570,0,0,334,0,0,0,0,0,0,0,200,1.8,3,0,0,0,0,0,0,0,0,0,0,0,0
1996,10,17,23,0,,14,11.9,85,101560,0,0,331,0,0,0,0,0,0,0,180,1.7,4,0,0,0,0,0,0,0,0,0,0,0,0
1996,10,17,24,0,,14,11.1,82,101550,0,0,331,0,0,0,0,0,0,0,160,3,4,0,0,0,0,0,0,0,0,0,0,0,0
1996,10,18,1,0,,14.5,10.8,78,101520,0,0,333,0,0,0,0,0,0,0,160,3,4,0,0,0,0,0,0,0,0,0,0,0,0
1996,10,18,2,0,,15.1,10.5,74,101500,0,0,335,0,0,0,0,0,0,0,160,1.7,4,0,0,0,0,0,0,0,0,0,0,0,0
1996,10,18,3,0,,15.6,10.2,70,101470,0,0,337,0,0,0,0,0,0,0,160,1.3,4,0,0,0,0,0,0,0,0,0,0,0,0
1996,10,18,4,0,,16.1,10.5,70,101420,0,0,345,0,0,0,0,0,0,0,160,1.8,6,0,0,0,0,0,0,0,0,0,0,0,0
1996,10,18,5,0,,16.6,10.8,71,101380,0,0,358,0,0,0,0,0,0,0,160,1.8,8,0,0,0,0,0,0,0,0,0,0,0,0
1996,10,18,6,0,,16.2,11.1,71,101330,0,0,374,0,0,0,0,0,0,0,140,2,10,0,0,0,0,0,0,0,0,0,0,0,0
1996,10,18,7,0,,15.9,12.4,76,101330,0,0,364,2,0,2,243,0,243,0,160,1.2,9,0,0,0,0,0,0,0,0,0,0,0,0
1996,10,18,8,0,,16.2,13.8,80,101340,0,0,360,62,88,48,11315,8039,7055,0,160,1.8,8,0,0,0,0,0,0,0,0,0,0,0,0
1996,10,18,9,0,,17.7,15.1,85,101340,0,0,363,195,189,128,28575,17483,17289,0,180,2.2,7,0,0,0,0,0,0,0,0,0,0,0,0
1996,10,18,10,0,,19.3,15.1,80,101300,0,0,369,307,193,208,39415,17954,26654,0,290,0.7,7,0,0,0,0,0,0,0,0,0,0,0,0
1996,10,18,11,0,,20.9,15.1,74,101270,0,0,376,463,306,268,53907,28417,33418,0,20,2.3,6,0,0,0,0,0,0,0,0,0,0,0,0
1996,10,18,12,0,,21,15.1,69,101230,0,0,375,499,253,320,53581,23404,37768,0,50,2.5,6,0,0,0,0,0,0,0,0,0,0,0,0
1996,10,18,13,0,,20.9,15.4,68,101170,0,0,370,559,329,320,55948,29557,38873,0,20,2.8,4,0,0,0,0,0,0,0,0,0,0,0,0
1996,10,18,14,0,,19.7,15.7,68,101100,0,0,359,502,289,303,45905,24548,35254,0,270,4.2,3,0,0,0,0,0,0,0,0,0,0,0,0
1996,10,18,15,0,,22.3,16,67,101040,0,0,365,484,502,184,31146,33468,22645,0,200,1.5,1,0,0,0,0,0,0,0,0,0,0,0,0
1996,10,18,16,0,,22.4,15.9,68,101060,0,0,369,377,556,121,13491,8390,13070,0,290,4.3,2,0,0,0,0,0,0,0,0,0,0,0,0
1996,10,18,17,0,,22,15.9,70,101070,0,0,370,243,654,58,0,0,0,0,270,5,2,0,0,0,0,0,0,0,0,0,0,0,0
1996,10,18,18,0,,21.2,15.8,71,101090,0,0,368,62,31,30,0,0,0,0,230,2.3,3,0,0,0,0,0,0,0,0,0,0,0,0
1996,10,18,19,0,,19.7,16.4,79,101170,0,0,362,0,0,0,0,0,0,0,290,3.3,3,0,0,0,0,0,0,0,0,0,0,0,0
1996,10,18,20,0,,19.4,17,87,101250,0,0,363,0,0,0,0,0,0,0,290,4.8,4,0,0,0,0,0,0,0,0,0,0,0,0
1996,10,18,21,0,,18.3,17.6,95,101330,0,0,359,0,0,0,0,0,0,0,290,2,4,0,0,0,0,0,0,0,0,0,0,0,0
1996,10,18,22,0,,17.9,17.2,94,101350,0,0,358,0,0,0,0,0,0,0,320,3.5,5,0,0,0,0,0,0,0,0,0,0,0,0
1996,10,18,23,0,,17.8,16.8,93,101380,0,0,359,0,0,0,0,0,0,0,340,3.7,5,0,0,0,0,0,0,0,0,0,0,0,0
1996,10,18,24,0,,17.7,16.4,92,101400,0,0,360,0,0,0,0,0,0,0,320,1.7,6,0,0,0,0,0,0,0,0,0,0,0,0
1996,10,19,1,0,,17.5,16.1,91,101400,0,0,358,0,0,0,0,0,0,0,320,4.2,6,0,0,0,0,0,0,0,0,0,0,0,0
1996,10,19,2,0,,17.2,15.8,90,101410,0,0,355,0,0,0,0,0,0,0,320,3.7,5,0,0,0,0,0,0,0,0,0,0,0,0
1996,10,19,3,0,,17.2,15.5,89,101410,0,0,354,0,0,0,0,0,0,0,340,2,5,0,0,0,0,0,0,0,0,0,0,0,0
1996,10,19,4,0,,16.8,14.7,86,101450,0,0,349,0,0,0,0,0,0,0,360,2.5,4,0,0,0,0,0,0,0,0,0,0,0,0
1996,10,19,5,0,,16.6,13.8,84,101500,0,0,345,0,0,0,0,0,0,0,320,2.3,4,0,0,0,0,0,0,0,0,0,0,0,0
1996,10,19,6,0,,16.3,13,81,101540,0,0,341,0,0,0,0,0,0,0,320,3.2,3,0,0,0,0,0,0,0,0,0,0,0,0
1996,10,19,7,0,,16,13.1,79,101610,0,0,339,10,2,7,996,193,925,0,320,1.8,3,0,0,0,0,0,0,0,0,0,0,0,0
1996,10,19,8,0,,16.5,13.1,77,101680,0,0,340,109,413,45,29311,42286,7063,0,360,0.7,2,0,0,0,0,0,0,0,0,0,0,0,0
1996,10,19,9,0,,17.7,13.2,75,101750,0,0,344,275,528,91,48192,52870,14273,0,340,2.3,2,0,0,0,0,0,0,0,0,0,0,0,0
1996,10,19,10,0,,18.6,13.2,72,101770,0,0,349,416,534,143,58151,53084,20646,0,360,2.5,2,0,0,0,0,0,0,0,0,0,0,0,0
1996,10,19,11,0,,19.1,13.2,69,101790,0,0,351,529,541,186,63613,53205,25486,0,340,3.5,2,0,0,0,0,0,0,0,0,0,0,0,0
1996,10,19,12,0,,19.8,13.2,66,101810,0,0,355,606,564,208,63574,53301,27803,0,360,4.3,2,0,0,0,0,0,0,0,0,0,0,0,0
1996,10,19,13,0,,20.5,13.6,68,101750,0,0,364,578,445,256,54881,40936,31418,0,20,3.8,4,0,0,0,0,0,0,0,0,0,0,0,0
1996,10,19,14,0,,19.6,13.9,69,101700,0,0,364,482,260,304,44659,22440,35023,0,340,3.2,5,0,0,0,0,0,0,0,0,0,0,0,0
1996,10,19,15,0,,19.6,14.3,71,101640,0,0,371,344,161,248,30989,13529,27612,0,320,4.7,7,0,0,0,0,0,0,0,0,0,0,0,0
1996,10,19,16,0,,18.7,13.3,70,101670,0,0,361,283,235,176,18508,1884,18421,0,340,5.2,6,0,0,0,0,0,0,0,0,0,0,0,0
1996,10,19,17,0,,18.5,12.3,68,101690,0,0,356,189,345,93,0,0,0,0,340,5,5,0,0,0,0,0,0,0,0,0,0,0,0
1996,10,19,18,0,,17.4,11.3,67,101720,0,0,347,57,26,32,0,0,0,0,340,3.7,4,0,0,0,0,0,0,0,0,0,0,0,0
1996,10,19,19,0,,16.9,10.6,66,101790,0,0,342,0,0,0,0,0,0,0,20,5,3,0,0,0,0,0,0,0,0,0,0,0,0
1996,10,19,20,0,,16.4,10,64,101860,0,0,337,0,0,0,0,0,0,0,360,3,3,0,0,0,0,0,0,0,0,0,0,0,0
1996,10,19,21,0,,16.2,9.3,63,101930,0,0,333,0,0,0,0,0,0,0,360,3.7,2,0,0,0,0,0,0,0,0,0,0,0,0
1996,10,19,22,0,,15.9,9.5,66,101950,0,0,333,0,0,0,0,0,0,0,20,3.3,2,0,0,0,0,0,0,0,0,0,0,0,0
1996,10,19,23,0,,15.6,9.8,69,101970,0,0,333,0,0,0,0,0,0,0,20,2.5,3,0,0,0,0,0,0,0,0,0,0,0,0
1996,10,19,24,0,,15,10,72,101990,0,0,331,0,0,0,0,0,0,0,180,1.8,3,0,0,0,0,0,0,0,0,0,0,0,0
1996,10,20,1,0,,14,10.2,77,101990,0,0,324,0,0,0,0,0,0,0,160,2.3,2,0,0,0,0,0,0,0,0,0,0,0,0
1996,10,20,2,0,,12.9,10.4,82,101980,0,0,315,0,0,0,0,0,0,0,160,1.7,1,0,0,0,0,0,0,0,0,0,0,0,0
1996,10,20,3,0,,12.7,10.6,87,101980,0,0,308,0,0,0,0,0,0,0,160,1.3,0,0,0,0,0,0,0,0,0,0,0,0,0
1996,10,20,4,0,,12.4,10.8,85,102000,0,0,316,0,0,0,0,0,0,0,160,2.3,2,0,0,0,0,0,0,0,0,0,0,0,0
1996,10,20,5,0,,13,10.9,84,102020,0,0,324,0,0,0,0,0,0,0,160,2,3,0,0,0,0,0,0,0,0,0,0,0,0
1996,10,20,6,0,,14,11.1,82,102040,0,0,333,0,0,0,0,0,0,0,160,1.7,5,0,0,0,0,0,0,0,0,0,0,0,0
1996,10,20,7,0,,15,12.4,83,102100,0,0,341,7,1,6,838,30,827,0,160,1.2,6,0,0,0,0,0,0,0,0,0,0,0,0
1996,10,20,8,0,,15.7,13.8,84,102170,0,0,349,91,323,43,24024,33097,6733,0,110,2.5,6,0,0,0,0,0,0,0,0,0,0,0,0
1996,10,20,9,0,,17.6,15.1,85,102230,0,0,362,215,274,120,34157,25547,17869,0,70,4.8,7,0,0,0,0,0,0,0,0,0,0,0,0
1996,10,20,10,0,,17.9,15.2,83,102230,0,0,359,344,290,197,46196,27153,27126,0,70,5.2,6,0,0,0,0,0,0,0,0,0,0,0,0
1996,10,20,11,0,,18.5,15.2,82,102240,0,0,358,487,428,218,57996,39989,29515,0,70,4.5,4,0,0,0,0,0,0,0,0,0,0,0,0
1996,10,20,12,0,,18.9,15.3,80,102240,0,0,356,548,418,255,59256,38744,33427,0,70,4.3,3,0,0,0,0,0,0,0,0,0,0,0,0
1996,10,20,13,0,,19.2,14.7,76,102210,0,0,356,586,477,243,56409,43608,31612,0,50,4.8,3,0,0,0,0,0,0,0,0,0,0,0,0
1996,10,20,14,0,,19.5,14.2,72,102180,0,0,355,565,517,213,46537,44852,27478,0,50,5,2,0,0,0,0,0,0,0,0,0,0,0,0
1996,10,20,15,0,,19.8,13.6,68,102150,0,0,355,490,546,168,30604,38719,21107,0,50,4.8,2,0,0,0,0,0,0,0,0,0,0,0,0
1996,10,20,16,0,,19.5,12.5,65,102160,0,0,351,368,553,119,12441,7295,12135,0,50,4.8,2,0,0,0,0,0,0,0,0,0,0,0,0
1996,10,20,17,0,,19.4,11.3,61,102180,0,0,347,225,590,63,0,0,0,0,70,4.2,1,0,0,0,0,0,0,0,0,0,0,0,0
1996,10,20,18,0,,18.6,10.2,58,102190,0,0,341,62,36,26,0,0,0,0,90,2.2,1,0,0,0,0,0,0,0,0,0,0,0,0
1996,10,20,19,0,,17.4,10.3,62,102220,0,0,337,0,0,0,0,0,0,0,110,1.5,1,0,0,0,0,0,0,0,0,0,0,0,0
1996,10,20,20,0,,16.5,10.4,66,102240,0,0,334,0,0,0,0,0,0,0,110,1,2,0,0,0,0,0,0,0,0,0,0,0,0
1996,10,20,21,0,,16,10.5,70,102270,0,0,333,0,0,0,0,0,0,0,110,2.3,2,0,0,0,0,0,0,0,0,0,0,0,0
1996,10,20,22,0,,16.1,10.5,71,102280,0,0,336,0,0,0,0,0,0,0,140,0.8,3,0,0,0,0,0,0,0,0,0,0,0,0
1996,10,20,23,0,,15.7,10.6,72,102300,0,0,336,0,0,0,0,0,0,0,90,1.5,3,0,0,0,0,0,0,0,0,0,0,0,0
1996,10,20,24,0,,15.5,10.6,73,102310,0,0,337,0,0,0,0,0,0,0,110,1.8,4,0,0,0,0,0,0,0,0,0,0,0,0
1996,10,21,1,0,,15.5,10.8,74,102290,0,0,336,0,0,0,0,0,0,0,110,2.2,4,0,0,0,0,0,0,0,0,0,0,0,0
1996,10,21,2,0,,15.5,10.9,74,102280,0,0,336,0,0,0,0,0,0,0,110,2.7,3,0,0,0,0,0,0,0,0,0,0,0,0
1996,10,21,3,0,,15.5,11.1,75,102260,0,0,335,0,0,0,0,0,0,0,110,1.7,3,0,0,0,0,0,0,0,0,0,0,0,0
1996,10,21,4,0,,15.5,11.1,76,102250,0,0,336,0,0,0,0,0,0,0,90,1.7,3,0,0,0,0,0,0,0,0,0,0,0,0
1996,10,21,5,0,,15.2,11.1,77,102240,0,0,335,0,0,0,0,0,0,0,90,2.5,4,0,0,0,0,0,0,0,0,0,0,0,0
1996,10,21,6,0,,14.9,11.1,78,102230,0,0,335,0,0,0,0,0,0,0,90,1.7,4,0,0,0,0,0,0,0,0,0,0,0,0
1996,10,21,7,0,,14.9,11.3,73,102260,0,0,335,7,1,6,790,110,750,0,90,2.2,4,0,0,0,0,0,0,0,0,0,0,0,0
1996,10,21,8,0,,16.4,11.6,69,102300,0,0,342,107,66,41,9211,6152,6019,0,90,3.3,4,0,0,0,0,0,0,0,0,0,0,0,0
1996,10,21,9,0,,18.8,11.8,64,102330,0,0,354,286,612,77,51113,62945,11232,0,90,5.8,4,0,0,0,0,0,0,0,0,0,0,0,0
1996,10,21,10,0,,19.3,11.7,61,102320,0,0,357,437,629,119,61791,63104,17737,0,90,6.7,4,0,0,0,0,0,0,0,0,0,0,0,0
1996,10,21,11,0,,19.8,11.6,59,102310,0,0,361,502,482,200,59567,46293,26798,0,90,5.7,5,0,0,0,0,0,0,0,0,0,0,0,0
1996,10,21,12,0,,20.5,11.5,56,102300,0,0,365,546,422,251,58722,40186,32112,0,90,5.8,5,0,0,0,0,0,0,0,0,0,0,0,0
1996,10,21,13,0,,19.8,11.8,58,102230,0,0,361,560,418,261,53568,39003,31563,0,70,8.5,5,0,0,0,0,0,0,0,0,0,0,0,0
1996,10,21,14,0,,19.7,12,60,102150,0,0,360,538,453,231,44570,39576,27927,0,70,8.3,4,0,0,0,0,0,0,0,0,0,0,0,0
1996,10,21,15,0,,19.7,12.3,62,102080,0,0,359,443,409,203,30640,27906,23915,0,70,5.7,4,0,0,0,0,0,0,0,0,0,0,0,0
1996,10,21,16,0,,19.3,12.3,64,102120,0,0,356,343,468,134,14124,976,14087,0,70,6.2,4,0,0,0,0,0,0,0,0,0,0,0,0
1996,10,21,17,0,,18.5,12.2,67,102160,0,0,351,206,489,73,0,0,0,0,70,5.2,3,0,0,0,0,0,0,0,0,0,0,0,0
1996,10,21,18,0,,18,12.2,69,102200,0,0,348,57,30,28,0,0,0,0,90,3.8,3,0,0,0,0,0,0,0,0,0,0,0,0
1996,10,21,19,0,,17.3,12.5,72,102220,0,0,345,0,0,0,0,0,0,0,90,3.5,3,0,0,0,0,0,0,0,0,0,0,0,0
1996,10,21,20,0,,17.2,12.7,74,102250,0,0,345,0,0,0,0,0,0,0,90,4.3,3,0,0,0,0,0,0,0,0,0,0,0,0
1996,10,21,21,0,,17.2,13,77,102270,0,0,345,0,0,0,0,0,0,0,110,4.3,3,0,0,0,0,0,0,0,0,0,0,0,0
1996,10,21,22,0,,16.9,13,79,102280,0,0,343,0,0,0,0,0,0,0,90,4,3,0,0,0,0,0,0,0,0,0,0,0,0
1996,10,21,23,0,,16.7,13.1,82,102300,0,0,341,0,0,0,0,0,0,0,90,3,2,0,0,0,0,0,0,0,0,0,0,0,0
1996,10,21,24,0,,15.8,13.1,84,102310,0,0,335,0,0,0,0,0,0,0,110,2,2,0,0,0,0,0,0,0,0,0,0,0,0
1996,10,22,1,0,,15.4,13.2,86,102320,0,0,336,0,0,0,0,0,0,0,110,1.7,3,0,0,0,0,0,0,0,0,0,0,0,0
1996,10,22,2,0,,14.9,13.4,89,102320,0,0,336,0,0,0,0,0,0,0,110,2,3,0,0,0,0,0,0,0,0,0,0,0,0
1996,10,22,3,0,,15,13.5,91,102330,0,0,338,0,0,0,0,0,0,0,110,1.8,4,0,0,0,0,0,0,0,0,0,0,0,0
1996,10,22,4,0,,15.1,14,93,102280,0,0,338,0,0,0,0,0,0,0,110,2.5,3,0,0,0,0,0,0,0,0,0,0,0,0
1996,10,22,5,0,,15.7,14.5,94,102240,0,0,339,0,0,0,0,0,0,0,110,2.3,3,0,0,0,0,0,0,0,0,0,0,0,0
1996,10,22,6,0,,15.6,15,96,102190,0,0,337,0,0,0,0,0,0,0,90,2,2,0,0,0,0,0,0,0,0,0,0,0,0
1996,10,22,7,0,,15.1,15.3,94,102200,0,0,340,5,1,5,671,16,666,0,110,1.3,4,0,0,0,0,0,0,0,0,0,0,0,0
1996,10,22,8,0,,15.7,15.6,91,102200,0,0,348,83,39,44,7743,3589,5895,0,90,1.5,5,0,0,0,0,0,0,0,0,0,0,0,0
1996,10,22,9,0,,17.8,15.9,89,102210,0,0,364,191,202,122,29970,18658,18224,0,90,3,7,0,0,0,0,0,0,0,0,0,0,0,0
1996,10,22,10,0,,18.2,15.9,87,102200,0,0,366,307,213,200,39559,19600,25960,0,90,4,7,0,0,0,0,0,0,0,0,0,0,0,0
1996,10,22,11,0,,18.9,16,84,102180,0,0,370,386,192,267,44661,17832,32116,0,70,4.7,7,0,0,0,0,0,0,0,0,0,0,0,0
1996,10,22,12,0,,19.1,16,82,102170,0,0,371,397,141,299,44098,12901,35612,0,70,3.7,7,0,0,0,0,0,0,0,0,0,0,0,0
1996,10,22,13,0,,18.8,15.5,79,102140,0,0,371,420,152,312,44360,13667,36710,0,70,5.7,7,0,0,0,0,0,0,0,0,0,0,0,0
1996,10,22,14,0,,19,15.1,77,102100,0,0,373,337,100,270,34367,9001,30621,0,70,5,8,0,0,0,0,0,0,0,0,0,0,0,0
1996,10,22,15,0,,19.2,14.6,74,102070,0,0,376,307,126,233,28487,10389,26027,0,70,5,8,0,0,0,0,0,0,0,0,0,0,0,0
1996,10,22,16,0,,18.8,15,76,102050,0,0,372,216,117,164,17775,7673,17515,0,70,4.7,8,0,0,0,0,0,0,0,0,0,0,0,0
1996,10,22,17,0,,19,15.4,79,102040,0,0,372,143,187,93,0,0,0,0,70,3.2,7,0,0,0,0,0,0,0,0,0,0,0,0
1996,10,22,18,0,,19.1,15.8,81,102020,0,0,371,39,12,27,0,0,0,0,70,3.8,7,0,0,0,0,0,0,0,0,0,0,0,0
1996,10,22,19,0,,18.6,15.7,83,102060,0,0,365,0,0,0,0,0,0,0,90,3,6,0,0,0,0,0,0,0,0,0,0,0,0
1996,10,22,20,0,,18,15.5,85,102110,0,0,360,0,0,0,0,0,0,0,90,2.3,6,0,0,0,0,0,0,0,0,0,0,0,0
1996,10,22,21,0,,17.6,15.4,87,102150,0,0,356,0,0,0,0,0,0,0,110,2.2,5,0,0,0,0,0,0,0,0,0,0,0,0
1996,10,22,22,0,,17.8,15.9,89,102140,0,0,355,0,0,0,0,0,0,0,90,2.7,4,0,0,0,0,0,0,0,0,0,0,0,0
1996,10,22,23,0,,17.8,16.4,92,102140,0,0,354,0,0,0,0,0,0,0,90,2.3,4,0,0,0,0,0,0,0,0,0,0,0,0
1996,10,22,24,0,,17.9,16.9,94,102130,0,0,353,0,0,0,0,0,0,0,90,3,3,0,0,0,0,0,0,0,0,0,0,0,0
1996,10,23,1,0,,18.2,17.3,94,102120,0,0,357,0,0,0,0,0,0,0,70,2.7,4,0,0,0,0,0,0,0,0,0,0,0,0
1996,10,23,2,0,,18.5,17.7,95,102120,0,0,361,0,0,0,0,0,0,0,90,3.3,4,0,0,0,0,0,0,0,0,0,0,0,0
1996,10,23,3,0,,18.8,18.1,95,102110,0,0,365,0,0,0,0,0,0,0,70,3.8,5,0,0,0,0,0,0,0,0,0,0,0,0
1996,10,23,4,0,,18.9,18.2,95,102090,0,0,368,0,0,0,0,0,0,0,90,4.2,6,0,0,0,0,0,0,0,0,0,0,0,0
1996,10,23,5,0,,18.9,18.2,95,102080,0,0,373,0,0,0,0,0,0,0,90,4.8,7,0,0,0,0,0,0,0,0,0,0,0,0
1996,10,23,6,0,,19,18.3,95,102060,0,0,380,0,0,0,0,0,0,0,70,3.3,8,0,0,0,0,0,0,0,0,0,0,0,0
1996,10,23,7,0,,19.1,18.4,95,102100,0,0,385,0,0,0,0,0,0,0,70,4.7,9,0,0,0,0,0,0,0,0,0,0,0,0
1996,10,23,8,0,,19.1,18.5,95,102150,0,0,392,45,7,38,5000,578,4705,0,70,4.2,9,0,0,0,0,0,0,0,0,0,0,0,0
1996,10,23,9,0,,19.3,18.6,95,102190,0,0,401,96,30,86,11997,2570,10389,0,70,5.3,10,0,0,0,0,0,0,0,0,0,0,0,0
1996,10,23,10,0,,19.3,18.3,93,102130,0,0,386,192,58,164,22900,5134,19360,0,70,4.5,9,0,0,0,0,0,0,0,0,0,0,0,0
1996,10,23,11,0,,19.4,18.1,90,102080,0,0,377,354,152,259,41291,13758,31672,0,50,5.8,7,0,0,0,0,0,0,0,0,0,0,0,0
1996,10,23,12,0,,19.9,17.8,88,102020,0,0,373,441,195,307,48222,17447,36824,0,70,5.3,6,0,0,0,0,0,0,0,0,0,0,0,0
1996,10,23,13,0,,21.5,18.4,85,101970,0,0,382,480,228,318,48948,19775,37966,0,90,5,6,0,0,0,0,0,0,0,0,0,0,0,0
1996,10,23,14,0,,22.3,19,82,101920,0,0,387,454,239,294,42753,19115,34880,0,90,4,6,0,0,0,0,0,0,0,0,0,0,0,0
1996,10,23,15,0,,23.5,19.6,79,101870,0,0,394,395,274,237,31622,16789,27717,0,110,3.3,6,0,0,0,0,0,0,0,0,0,0,0,0
1996,10,23,16,0,,22.4,19.3,82,101890,0,0,387,272,239,167,17840,0,17840,0,110,3.3,6,0,0,0,0,0,0,0,0,0,0,0,0
1996,10,23,17,0,,22,19,86,101920,0,0,383,171,355,77,0,0,0,0,70,3.2,5,0,0,0,0,0,0,0,0,0,0,0,0
1996,10,23,18,0,,20.7,18.7,89,101940,0,0,375,42,17,26,0,0,0,0,70,3,5,0,0,0,0,0,0,0,0,0,0,0,0
1996,10,23,19,0,,20.5,18.6,89,101970,0,0,369,0,0,0,0,0,0,0,70,4,3,0,0,0,0,0,0,0,0,0,0,0,0
1996,10,23,20,0,,20.4,18.6,90,101990,0,0,362,0,0,0,0,0,0,0,70,3.8,2,0,0,0,0,0,0,0,0,0,0,0,0
1996,10,23,21,0,,20.1,18.5,90,102020,0,0,351,0,0,0,0,0,0,0,90,2.5,0,0,0,0,0,0,0,0,0,0,0,0,0
1996,10,23,22,0,,20.1,18.2,88,102010,0,0,350,0,0,0,0,0,0,0,90,2,0,0,0,0,0,0,0,0,0,0,0,0,0
1996,10,23,23,0,,20.3,18,87,102000,0,0,351,0,0,0,0,0,0,0,140,3.5,0,0,0,0,0,0,0,0,0,0,0,0,0
1996,10,23,24,0,,20.3,17.7,85,101990,0,0,351,0,0,0,0,0,0,0,110,3.3,0,0,0,0,0,0,0,0,0,0,0,0,0
1996,10,24,1,0,,20.4,17.6,84,101960,0,0,351,0,0,0,0,0,0,0,110,2.2,0,0,0,0,0,0,0,0,0,0,0,0,0
1996,10,24,2,0,,20.4,17.6,84,101920,0,0,351,0,0,0,0,0,0,0,140,3.8,0,0,0,0,0,0,0,0,0,0,0,0,0
1996,10,24,3,0,,20.5,17.5,83,101890,0,0,352,0,0,0,0,0,0,0,110,3.5,0,0,0,0,0,0,0,0,0,0,0,0,0
1996,10,24,4,0,,20.3,16.3,80,101880,0,0,354,0,0,0,0,0,0,0,90,5.8,1,0,0,0,0,0,0,0,0,0,0,0,0
1996,10,24,5,0,,19.2,15,77,101870,0,0,351,0,0,0,0,0,0,0,180,0.5,1,0,0,0,0,0,0,0,0,0,0,0,0
1996,10,24,6,0,,18.7,13.8,74,101860,0,0,350,0,0,0,0,0,0,0,180,1.8,2,0,0,0,0,0,0,0,0,0,0,0,0
1996,10,24,7,0,,18.1,13.6,70,101900,0,0,349,0,0,0,0,0,0,0,140,1.7,3,0,0,0,0,0,0,0,0,0,0,0,0
1996,10,24,8,0,,18.4,13.5,65,101940,0,0,352,92,48,44,8706,4409,6469,0,180,0.3,3,0,0,0,0,0,0,0,0,0,0,0,0
1996,10,24,9,0,,21.1,13.3,61,101980,0,0,368,256,501,90,45179,49960,14126,0,50,1.8,4,0,0,0,0,0,0,0,0,0,0,0,0
1996,10,24,10,0,,22.1,15.7,69,101920,0,0,378,384,475,150,53687,46733,21653,0,50,3.8,5,0,0,0,0,0,0,0,0,0,0,0,0
1996,10,24,11,0,,22.4,18.1,78,101860,0,0,386,428,276,258,50321,24547,33266,0,50,3,6,0,0,0,0,0,0,0,0,0,0,0,0
1996,10,24,12,0,,22.9,20.5,86,101800,0,0,397,406,157,299,45311,13567,36507,0,50,5.2,7,0,0,0,0,0,0,0,0,0,0,0,0
1996,10,24,13,0,,23.9,20.3,86,101760,0,0,396,489,247,315,49507,20816,38038,0,50,7,6,0,0,0,0,0,0,0,0,0,0,0,0
1996,10,24,14,0,,22.7,20.1,86,101720,0,0,385,497,328,279,43971,25784,33462,0,50,6.8,4,0,0,0,0,0,0,0,0,0,0,0,0
1996,10,24,15,0,,22.3,19.9,86,101680,0,0,379,421,375,206,30809,21331,25934,0,50,4,3,0,0,0,0,0,0,0,0,0,0,0,0
1996,10,24,16,0,,21.9,19.7,86,101690,0,0,379,286,291,159,17054,0,17054,0,50,4,4,0,0,0,0,0,0,0,0,0,0,0,0
1996,10,24,17,0,,21.4,19.4,85,101700,0,0,379,158,289,83,0,0,0,0,50,2.2,5,0,0,0,0,0,0,0,0,0,0,0,0
1996,10,24,18,0,,21.8,19.2,85,101710,0,0,385,40,14,25,0,0,0,0,50,1.3,6,0,0,0,0,0,0,0,0,0,0,0,0
1996,10,24,19,0,,21.1,18.2,82,101740,0,0,380,0,0,0,0,0,0,0,50,0.5,6,0,0,0,0,0,0,0,0,0,0,0,0
1996,10,24,20,0,,20.8,17.3,79,101760,0,0,377,0,0,0,0,0,0,0,180,1.2,6,0,0,0,0,0,0,0,0,0,0,0,0
1996,10,24,21,0,,20.7,16.3,76,101790,0,0,375,0,0,0,0,0,0,0,90,1,6,0,0,0,0,0,0,0,0,0,0,0,0
1996,10,24,22,0,,20,15.1,73,101760,0,0,369,0,0,0,0,0,0,0,180,1,6,0,0,0,0,0,0,0,0,0,0,0,0
1996,10,24,23,0,,19.8,13.9,69,101740,0,0,365,0,0,0,0,0,0,0,200,2.7,5,0,0,0,0,0,0,0,0,0,0,0,0
1996,10,24,24,0,,19.1,12.7,66,101710,0,0,360,0,0,0,0,0,0,0,180,2,5,0,0,0,0,0,0,0,0,0,0,0,0
1996,10,25,1,0,,18.9,12.9,68,101680,0,0,362,0,0,0,0,0,0,0,160,2.2,6,0,0,0,0,0,0,0,0,0,0,0,0
1996,10,25,2,0,,18.7,13.1,69,101650,0,0,365,0,0,0,0,0,0,0,180,1.7,7,0,0,0,0,0,0,0,0,0,0,0,0
1996,10,25,3,0,,18.5,13.3,71,101620,0,0,370,0,0,0,0,0,0,0,110,2.3,8,0,0,0,0,0,0,0,0,0,0,0,0
1996,10,25,4,0,,18.7,14.1,74,101590,0,0,378,0,0,0,0,0,0,0,180,1.7,9,0,0,0,0,0,0,0,0,0,0,0,0
1996,10,25,5,0,,19.2,15,77,101570,0,0,388,0,0,0,0,0,0,0,180,1.5,9,0,0,0,0,0,0,0,0,0,0,0,0
1996,10,25,6,0,,19.3,15.8,80,101540,0,0,397,0,0,0,0,0,0,0,180,1.8,10,0,0,0,0,0,0,0,0,0,0,0,0
1996,10,25,7,0,,19.4,16.1,83,101600,0,0,398,0,0,0,0,0,0,0,180,1,10,0,0,0,0,0,0,0,0,0,0,0,0
1996,10,25,8,0,,19.8,16.4,87,101660,0,0,400,39,5,34,4466,202,4365,0,360,6.2,10,0,0,0,0,0,0,0,0,0,0,0,0
1996,10,25,9,0,,18.4,16.7,90,101720,0,0,393,84,21,77,10400,1885,9236,0,20,4,10,0,0,0,0,0,0,0,0,0,0,0,0
1996,10,25,10,0,,18.1,16.4,89,101720,0,0,391,119,16,111,14243,1416,13278,0,20,2.3,10,0,0,0,0,0,0,0,0,0,0,0,0
1996,10,25,11,0,,17.8,16.2,88,101730,0,0,389,135,11,128,16030,623,15600,0,290,1.8,10,0,0,0,0,0,0,0,0,0,0,0,0
1996,10,25,12,0,,18.1,15.9,87,101730,0,0,391,197,22,182,22578,1961,21314,0,20,3,10,0,0,0,0,0,0,0,0,0,0,0,0
1996,10,25,13,0,,18.4,15.1,83,101700,0,0,391,201,21,187,22237,1453,21442,0,20,2.2,10,0,0,0,0,0,0,0,0,0,0,0,0
1996,10,25,14,0,,18.7,14.4,78,101660,0,0,392,213,30,193,22152,2154,21283,0,340,2.7,10,0,0,0,0,0,0,0,0,0,0,0,0
1996,10,25,15,0,,18.5,13.6,74,101630,0,0,390,186,34,167,17887,2199,17393,0,360,5.3,10,0,0,0,0,0,0,0,0,0,0,0,0
1996,10,25,16,0,,18.1,12.8,72,101650,0,0,386,129,31,116,10544,4449,10445,0,340,2.3,10,0,0,0,0,0,0,0,0,0,0,0,0
1996,10,25,17,0,,17.7,11.9,69,101680,0,0,383,71,29,63,0,0,0,0,360,3.2,10,0,0,0,0,0,0,0,0,0,0,0,0
1996,10,25,18,0,,17.4,11.1,67,101700,0,0,380,18,2,16,0,0,0,0,20,5.3,10,0,0,0,0,0,0,0,0,0,0,0,0
1996,10,25,19,0,,17.1,10.5,65,101750,0,0,378,0,0,0,0,0,0,0,360,3.8,10,0,0,0,0,0,0,0,0,0,0,0,0
1996,10,25,20,0,,17,9.9,64,101810,0,0,377,0,0,0,0,0,0,0,360,3.3,10,0,0,0,0,0,0,0,0,0,0,0,0
1996,10,25,21,0,,16.7,9.3,62,101860,0,0,374,0,0,0,0,0,0,0,360,4.2,10,0,0,0,0,0,0,0,0,0,0,0,0
1996,10,25,22,0,,16.5,9.5,63,101900,0,0,374,0,0,0,0,0,0,0,20,3.5,10,0,0,0,0,0,0,0,0,0,0,0,0
1996,10,25,23,0,,16.4,9.6,64,101930,0,0,373,0,0,0,0,0,0,0,360,3.3,10,0,0,0,0,0,0,0,0,0,0,0,0
1996,10,25,24,0,,16.4,9.8,65,101970,0,0,373,0,0,0,0,0,0,0,360,6,10,0,0,0,0,0,0,0,0,0,0,0,0
1996,10,26,1,0,,16.2,8.9,63,101960,0,0,371,0,0,0,0,0,0,0,20,3.8,10,0,0,0,0,0,0,0,0,0,0,0,0
1996,10,26,2,0,,15.8,7.9,60,101960,0,0,368,0,0,0,0,0,0,0,360,4.7,10,0,0,0,0,0,0,0,0,0,0,0,0
1996,10,26,3,0,,15.3,7,58,101950,0,0,364,0,0,0,0,0,0,0,340,4.8,10,0,0,0,0,0,0,0,0,0,0,0,0
1996,10,26,4,0,,14.9,6.4,58,101970,0,0,361,0,0,0,0,0,0,0,360,5.5,10,0,0,0,0,0,0,0,0,0,0,0,0
1996,10,26,5,0,,13.9,5.7,58,101980,0,0,355,0,0,0,0,0,0,0,360,4.3,10,0,0,0,0,0,0,0,0,0,0,0,0
1996,10,26,6,0,,13.3,5.1,58,102000,0,0,352,0,0,0,0,0,0,0,360,4.3,10,0,0,0,0,0,0,0,0,0,0,0,0
1996,10,26,7,0,,13,4.7,57,102040,0,0,350,0,0,0,0,0,0,0,360,4.5,10,0,0,0,0,0,0,0,0,0,0,0,0
1996,10,26,8,0,,12.8,4.2,56,102090,0,0,348,40,6,35,4443,517,4184,0,340,5.7,10,0,0,0,0,0,0,0,0,0,0,0,0
1996,10,26,9,0,,12.6,3.8,55,102130,0,0,346,112,50,96,15005,5104,11874,0,340,5,10,0,0,0,0,0,0,0,0,0,0,0,0
1996,10,26,10,0,,12.5,4.1,56,102140,0,0,337,220,90,176,27166,9157,20966,0,360,4.2,9,0,0,0,0,0,0,0,0,0,0,0,0
1996,10,26,11,0,,12.8,4.3,58,102160,0,0,331,338,143,251,39011,14373,29148,0,20,5.7,8,0,0,0,0,0,0,0,0,0,0,0,0
1996,10,26,12,0,,12.4,4.6,59,102170,0,0,325,407,165,295,44273,16381,33785,0,320,4,7,0,0,0,0,0,0,0,0,0,0,0,0
1996,10,26,13,0,,13.2,3.9,55,102130,0,0,325,492,264,309,48722,25603,34835,0,20,4.5,6,0,0,0,0,0,0,0,0,0,0,0,0
1996,10,26,14,0,,14,3.2,50,102100,0,0,326,463,274,283,41593,24934,31639,0,360,3.5,6,0,0,0,0,0,0,0,0,0,0,0,0
1996,10,26,15,0,,14.1,2.5,46,102060,0,0,323,434,439,186,27706,31293,20804,0,340,3,5,0,0,0,0,0,0,0,0,0,0,0,0
1996,10,26,16,0,,13.7,2.6,48,102070,0,0,321,317,431,133,12646,0,12646,0,20,3.3,5,0,0,0,0,0,0,0,0,0,0,0,0
1996,10,26,17,0,,12.7,2.6,50,102070,0,0,316,183,440,72,0,0,0,0,360,2.2,4,0,0,0,0,0,0,0,0,0,0,0,0
1996,10,26,18,0,,12.3,2.7,52,102080,0,0,313,49,23,26,0,0,0,0,20,2.3,4,0,0,0,0,0,0,0,0,0,0,0,0
1996,10,26,19,0,,12.1,2.8,53,102090,0,0,312,0,0,0,0,0,0,0,340,2.7,4,0,0,0,0,0,0,0,0,0,0,0,0
1996,10,26,20,0,,12,2.9,55,102090,0,0,312,0,0,0,0,0,0,0,360,4.3,4,0,0,0,0,0,0,0,0,0,0,0,0
1996,10,26,21,0,,11.7,3,56,102100,0,0,311,0,0,0,0,0,0,0,340,2.3,4,0,0,0,0,0,0,0,0,0,0,0,0
1996,10,26,22,0,,11.4,3.2,60,102140,0,0,306,0,0,0,0,0,0,0,270,1.3,3,0,0,0,0,0,0,0,0,0,0,0,0
1996,10,26,23,0,,9.8,3.4,64,102170,0,0,295,0,0,0,0,0,0,0,200,2.8,1,0,0,0,0,0,0,0,0,0,0,0,0
1996,10,26,24,0,,9.2,3.6,68,102210,0,0,286,0,0,0,0,0,0,0,200,3,0,0,0,0,0,0,0,0,0,0,0,0,0
1996,10,27,1,0,,8.9,3.2,68,102190,0,0,284,0,0,0,0,0,0,0,180,2.2,0,0,0,0,0,0,0,0,0,0,0,0,0
1996,10,27,2,0,,8,2.9,67,102170,0,0,280,0,0,0,0,0,0,0,180,2.2,0,0,0,0,0,0,0,0,0,0,0,0,0
1996,10,27,3,0,,8,2.5,67,102150,0,0,280,0,0,0,0,0,0,0,180,1.7,0,0,0,0,0,0,0,0,0,0,0,0,0
1996,10,27,4,0,,7.7,2.4,67,102170,0,0,278,0,0,0,0,0,0,0,180,2,0,0,0,0,0,0,0,0,0,0,0,0,0
1996,10,27,5,0,,7.7,2.2,67,102180,0,0,278,0,0,0,0,0,0,0,180,2,0,0,0,0,0,0,0,0,0,0,0,0,0
1996,10,27,6,0,,7.7,2.1,67,102200,0,0,278,0,0,0,0,0,0,0,160,2.3,0,0,0,0,0,0,0,0,0,0,0,0,0
1996,10,27,7,0,,7.9,3.1,65,102210,0,0,280,0,0,0,0,0,0,0,160,2,0,0,0,0,0,0,0,0,0,0,0,0,0
1996,10,27,8,0,,8.9,4,64,102220,0,0,285,97,63,34,7905,6193,4833,0,140,1.5,0,0,0,0,0,0,0,0,0,0,0,0,0
1996,10,27,9,0,,12.1,5,62,102230,0,0,299,283,688,62,51394,69544,9008,0,200,1.7,0,0,0,0,0,0,0,0,0,0,0,0,0
1996,10,27,10,0,,13.4,5,59,102210,0,0,307,437,705,97,61962,71928,13563,0,360,0.5,0,0,0,0,0,0,0,0,0,0,0,0,0
1996,10,27,11,0,,14.1,5,55,102180,0,0,312,553,701,130,66822,70658,18639,0,20,2.5,1,0,0,0,0,0,0,0,0,0,0,0,0
1996,10,27,12,0,,14.8,5,52,102160,0,0,317,593,615,179,62362,60555,23851,0,20,2.2,1,0,0,0,0,0,0,0,0,0,0,0,0
1996,10,27,13,0,,15.3,5.3,52,102100,0,0,320,605,604,188,55331,58032,24102,0,20,2,1,0,0,0,0,0,0,0,0,0,0,0,0
1996,10,27,14,0,,15.6,5.5,52,102050,0,0,321,561,587,179,43316,52791,22457,0,20,2.5,1,0,0,0,0,0,0,0,0,0,0,0,0
1996,10,27,15,0,,15.8,5.8,52,101990,0,0,322,466,557,155,26945,39325,18425,0,360,2.2,1,0,0,0,0,0,0,0,0,0,0,0,0
1996,10,27,16,0,,15.5,5.9,54,101970,0,0,323,345,563,108,9629,0,9629,0,20,2.2,1,0,0,0,0,0,0,0,0,0,0,0,0
1996,10,27,17,0,,14.6,6,56,101960,0,0,320,188,497,65,0,0,0,0,50,1.7,2,0,0,0,0,0,0,0,0,0,0,0,0
1996,10,27,18,0,,14.1,6.1,58,101940,0,0,319,49,25,24,0,0,0,0,70,1.2,2,0,0,0,0,0,0,0,0,0,0,0,0
1996,10,27,19,0,,13.8,6.6,63,101940,0,0,319,0,0,0,0,0,0,0,180,1.8,2,0,0,0,0,0,0,0,0,0,0,0,0
1996,10,27,20,0,,12.8,7,68,101940,0,0,315,0,0,0,0,0,0,0,160,2.5,2,0,0,0,0,0,0,0,0,0,0,0,0
1996,10,27,21,0,,12.3,7.5,73,101940,0,0,313,0,0,0,0,0,0,0,140,1.7,2,0,0,0,0,0,0,0,0,0,0,0,0
1996,10,27,22,0,,12.9,7.9,75,101930,0,0,319,0,0,0,0,0,0,0,90,0.7,3,0,0,0,0,0,0,0,0,0,0,0,0
1996,10,27,23,0,,13.2,8.4,76,101910,0,0,324,0,0,0,0,0,0,0,90,1.7,4,0,0,0,0,0,0,0,0,0,0,0,0
1996,10,27,24,0,,12.4,8.8,78,101900,0,0,323,0,0,0,0,0,0,0,160,2.3,5,0,0,0,0,0,0,0,0,0,0,0,0
1996,10,28,1,0,,13,9.6,79,101900,0,0,328,0,0,0,0,0,0,0,140,1.5,5,0,0,0,0,0,0,0,0,0,0,0,0
1996,10,28,2,0,,13.6,10.3,80,101900,0,0,332,0,0,0,0,0,0,0,180,2.7,6,0,0,0,0,0,0,0,0,0,0,0,0
1996,10,28,3,0,,14.4,11.1,81,101900,0,0,338,0,0,0,0,0,0,0,200,1.7,6,0,0,0,0,0,0,0,0,0,0,0,0
1996,10,28,4,0,,13.9,11.1,83,101860,0,0,337,0,0,0,0,0,0,0,180,0.8,6,0,0,0,0,0,0,0,0,0,0,0,0
1996,10,28,5,0,,13.8,11.1,85,101830,0,0,338,0,0,0,0,0,0,0,180,1.5,7,0,0,0,0,0,0,0,0,0,0,0,0
1996,10,28,6,0,,13.2,11.1,87,101790,0,0,336,0,0,0,0,0,0,0,160,1.8,7,0,0,0,0,0,0,0,0,0,0,0,0
1996,10,28,7,0,,13.3,11.9,86,101800,0,0,340,0,0,0,0,0,0,0,160,2,7,0,0,0,0,0,0,0,0,0,0,0,0
1996,10,28,8,0,,13.9,12.6,86,101800,0,0,345,48,10,38,5034,904,4589,0,160,1.5,8,0,0,0,0,0,0,0,0,0,0,0,0
1996,10,28,9,0,,16.1,13.4,85,101810,0,0,359,156,137,112,22872,12813,15114,0,160,1,8,0,0,0,0,0,0,0,0,0,0,0,0
1996,10,28,10,0,,17,13.6,81,101760,0,0,363,253,142,185,31665,13506,22633,0,20,0.8,8,0,0,0,0,0,0,0,0,0,0,0,0
1996,10,28,11,0,,18.3,13.7,78,101720,0,0,370,334,145,247,38893,13716,29598,0,20,1.7,8,0,0,0,0,0,0,0,0,0,0,0,0
1996,10,28,12,0,,18.8,13.9,74,101670,0,0,373,361,122,279,40209,11413,32999,0,20,2,8,0,0,0,0,0,0,0,0,0,0,0,0
1996,10,28,13,0,,19.4,13.9,73,101640,0,0,378,363,114,285,38105,10637,32425,0,360,2,8,0,0,0,0,0,0,0,0,0,0,0,0
1996,10,28,14,0,,19.1,14,71,101600,0,0,379,256,53,222,27074,4767,25210,0,20,1.8,9,0,0,0,0,0,0,0,0,0,0,0,0
1996,10,28,15,0,,19.6,14,70,101570,0,0,385,223,60,189,22176,4767,21162,0,360,1,9,0,0,0,0,0,0,0,0,0,0,0,0
1996,10,28,16,0,,18.7,13.8,72,101560,0,0,368,228,166,158,16775,11842,16641,0,340,2,7,0,0,0,0,0,0,0,0,0,0,0,0
1996,10,28,17,0,,18.3,13.7,75,101560,0,0,359,141,252,80,0,0,0,0,320,1.8,6,0,0,0,0,0,0,0,0,0,0,0,0
1996,10,28,18,0,,17.6,13.5,77,101550,0,0,350,41,20,21,0,0,0,0,0,0,4,0,0,0,0,0,0,0,0,0,0,0,0
1996,10,28,19,0,,17.1,11.2,71,101570,0,0,342,0,0,0,0,0,0,0,180,1.2,3,0,0,0,0,0,0,0,0,0,0,0,0
1996,10,28,20,0,,15.9,9,65,101580,0,0,328,0,0,0,0,0,0,0,200,1.8,1,0,0,0,0,0,0,0,0,0,0,0,0
1996,10,28,21,0,,14.8,6.7,59,101600,0,0,313,0,0,0,0,0,0,0,180,1.8,0,0,0,0,0,0,0,0,0,0,0,0,0
1996,10,28,22,0,,14.2,7.6,62,101610,0,0,311,0,0,0,0,0,0,0,180,2.2,0,0,0,0,0,0,0,0,0,0,0,0,0
1996,10,28,23,0,,14.2,8.4,66,101610,0,0,312,0,0,0,0,0,0,0,180,1.8,0,0,0,0,0,0,0,0,0,0,0,0,0
1996,10,28,24,0,,15,9.3,69,101620,0,0,317,0,0,0,0,0,0,0,160,2,0,0,0,0,0,0,0,0,0,0,0,0,0
1996,10,29,1,0,,15.2,9.2,69,101620,0,0,317,0,0,0,0,0,0,0,180,1.7,0,0,0,0,0,0,0,0,0,0,0,0,0
1996,10,29,2,0,,15.3,9.1,68,101620,0,0,318,0,0,0,0,0,0,0,180,1.3,0,0,0,0,0,0,0,0,0,0,0,0,0
1996,10,29,3,0,,14.9,9,68,101620,0,0,316,0,0,0,0,0,0,0,180,1.8,0,0,0,0,0,0,0,0,0,0,0,0,0
1996,10,29,4,0,,14.5,8.5,66,101610,0,0,314,0,0,0,0,0,0,0,160,1.3,0,0,0,0,0,0,0,0,0,0,0,0,0
1996,10,29,5,0,,14.1,8,64,101610,0,0,311,0,0,0,0,0,0,0,140,1.2,0,0,0,0,0,0,0,0,0,0,0,0,0
1996,10,29,6,0,,14.8,7.5,62,101600,0,0,314,0,0,0,0,0,0,0,160,2,0,0,0,0,0,0,0,0,0,0,0,0,0
1996,10,29,7,0,,14.8,7.2,57,101640,0,0,314,0,0,0,0,0,0,0,70,1.5,0,0,0,0,0,0,0,0,0,0,0,0,0
1996,10,29,8,0,,15.5,7,53,101680,0,0,316,98,70,28,8113,6711,4835,0,140,2.5,0,0,0,0,0,0,0,0,0,0,0,0,0
1996,10,29,9,0,,18,6.7,48,101720,0,0,327,274,676,62,50231,68505,9029,0,160,2,0,0,0,0,0,0,0,0,0,0,0,0,0
1996,10,29,10,0,,20.7,9.2,54,101690,0,0,348,435,721,92,62158,73943,13019,0,0,0,1,0,0,0,0,0,0,0,0,0,0,0,0
1996,10,29,11,0,,21.2,11.8,59,101660,0,0,357,549,713,125,66024,72436,17243,0,20,2.2,1,0,0,0,0,0,0,0,0,0,0,0,0
1996,10,29,12,0,,21.2,14.3,65,101630,0,0,363,573,582,186,59550,54266,25499,0,20,2.7,2,0,0,0,0,0,0,0,0,0,0,0,0
1996,10,29,13,0,,21.3,13.9,63,101580,0,0,367,534,429,241,50354,38762,29816,0,20,2.2,3,0,0,0,0,0,0,0,0,0,0,0,0
1996,10,29,14,0,,21.4,13.4,61,101520,0,0,371,454,278,275,40827,23434,31755,0,50,1.5,5,0,0,0,0,0,0,0,0,0,0,0,0
1996,10,29,15,0,,21.3,13,59,101470,0,0,374,358,238,226,28662,15242,25475,0,20,2,6,0,0,0,0,0,0,0,0,0,0,0,0
1996,10,29,16,0,,20.8,13.4,63,101460,0,0,369,278,321,145,14675,0,14675,0,20,1.8,5,0,0,0,0,0,0,0,0,0,0,0,0
1996,10,29,17,0,,20.4,13.8,67,101460,0,0,365,164,369,76,0,0,0,0,20,1.2,4,0,0,0,0,0,0,0,0,0,0,0,0
1996,10,29,18,0,,19.7,14.2,71,101450,0,0,359,43,26,18,0,0,0,0,90,0.7,3,0,0,0,0,0,0,0,0,0,0,0,0
1996,10,29,19,0,,18.4,13.7,73,101490,0,0,352,0,0,0,0,0,0,0,180,0.8,3,0,0,0,0,0,0,0,0,0,0,0,0
1996,10,29,20,0,,17.3,13.2,76,101530,0,0,346,0,0,0,0,0,0,0,160,2.3,3,0,0,0,0,0,0,0,0,0,0,0,0
1996,10,29,21,0,,16.5,12.7,78,101570,0,0,342,0,0,0,0,0,0,0,160,1.7,3,0,0,0,0,0,0,0,0,0,0,0,0
1996,10,29,22,0,,16,12.3,78,101560,0,0,339,0,0,0,0,0,0,0,160,2.2,3,0,0,0,0,0,0,0,0,0,0,0,0
1996,10,29,23,0,,15.8,11.8,78,101550,0,0,337,0,0,0,0,0,0,0,160,1.3,3,0,0,0,0,0,0,0,0,0,0,0,0
1996,10,29,24,0,,15.2,11.4,78,101540,0,0,334,0,0,0,0,0,0,0,160,2.2,3,0,0,0,0,0,0,0,0,0,0,0,0
1996,10,30,1,0,,15.1,10.3,73,101510,0,0,333,0,0,0,0,0,0,0,160,2,3,0,0,0,0,0,0,0,0,0,0,0,0
1996,10,30,2,0,,15.1,9.3,69,101480,0,0,333,0,0,0,0,0,0,0,160,3,4,0,0,0,0,0,0,0,0,0,0,0,0
1996,10,30,3,0,,15,8.2,64,101450,0,0,332,0,0,0,0,0,0,0,160,2,4,0,0,0,0,0,0,0,0,0,0,0,0
1996,10,30,4,0,,15.3,8.7,64,101440,0,0,334,0,0,0,0,0,0,0,160,2.7,4,0,0,0,0,0,0,0,0,0,0,0,0
1996,10,30,5,0,,15.3,9.2,65,101420,0,0,334,0,0,0,0,0,0,0,160,2.5,4,0,0,0,0,0,0,0,0,0,0,0,0
1996,10,30,6,0,,16,9.7,65,101410,0,0,338,0,0,0,0,0,0,0,160,1.7,4,0,0,0,0,0,0,0,0,0,0,0,0
1996,10,30,7,0,,16.1,10.8,67,101440,0,0,344,0,0,0,0,0,0,0,160,2.7,5,0,0,0,0,0,0,0,0,0,0,0,0
1996,10,30,8,0,,17,11.9,68,101480,0,0,354,64,27,37,6204,2523,4981,0,160,1.7,7,0,0,0,0,0,0,0,0,0,0,0,0
1996,10,30,9,0,,18.6,13,70,101510,0,0,371,159,155,111,23547,14592,14829,0,70,1.5,8,0,0,0,0,0,0,0,0,0,0,0,0
1996,10,30,10,0,,20,15.1,75,101470,0,0,378,260,161,184,33672,14860,23859,0,110,2.2,8,0,0,0,0,0,0,0,0,0,0,0,0
1996,10,30,11,0,,21.6,17.3,80,101440,0,0,387,376,214,249,44757,19189,31915,0,20,2.7,7,0,0,0,0,0,0,0,0,0,0,0,0
1996,10,30,12,0,,22,19.4,85,101400,0,0,390,424,202,290,46240,17685,35217,0,50,4.8,7,0,0,0,0,0,0,0,0,0,0,0,0
1996,10,30,13,0,,21.6,19,86,101360,0,0,394,346,104,275,36606,9283,31726,0,50,4,8,0,0,0,0,0,0,0,0,0,0,0,0
1996,10,30,14,0,,20.7,18.7,86,101320,0,0,397,239,46,209,25552,3899,24058,0,50,5.3,9,0,0,0,0,0,0,0,0,0,0,0,0
1996,10,30,15,0,,20.5,18.3,87,101280,0,0,407,135,16,127,13478,694,13336,0,70,2.7,10,0,0,0,0,0,0,0,0,0,0,0,0
1996,10,30,16,0,,20.2,18.3,87,101310,0,0,405,91,13,86,7632,1760,7624,0,70,1.7,10,0,0,0,0,0,0,0,0,0,0,0,0
1996,10,30,17,0,,20.3,18.2,88,101330,0,0,406,56,19,51,0,0,0,0,110,0.7,10,0,0,0,0,0,0,0,0,0,0,0,0
1996,10,30,18,0,,20.3,18.2,88,101360,0,0,406,11,1,11,0,0,0,0,50,1.7,10,0,0,0,0,0,0,0,0,0,0,0,0
1996,10,30,19,0,,20.1,17.2,82,101380,0,0,395,0,0,0,0,0,0,0,160,2.3,9,0,0,0,0,0,0,0,0,0,0,0,0
1996,10,30,20,0,,20.4,16.2,77,101390,0,0,389,0,0,0,0,0,0,0,140,1.7,9,0,0,0,0,0,0,0,0,0,0,0,0
1996,10,30,21,0,,20.6,15.2,71,101410,0,0,384,0,0,0,0,0,0,0,110,1.3,8,0,0,0,0,0,0,0,0,0,0,0,0
1996,10,30,22,0,,20.3,15.6,74,101400,0,0,388,0,0,0,0,0,0,0,70,1.3,9,0,0,0,0,0,0,0,0,0,0,0,0
1996,10,30,23,0,,20.1,16,76,101390,0,0,394,0,0,0,0,0,0,0,90,1,9,0,0,0,0,0,0,0,0,0,0,0,0
1996,10,30,24,0,,20.1,16.4,79,101380,0,0,402,0,0,0,0,0,0,0,50,1.7,10,0,0,0,0,0,0,0,0,0,0,0,0
1996,10,31,1,0,,19.8,16.3,80,101360,0,0,400,0,0,0,0,0,0,0,50,3.3,10,0,0,0,0,0,0,0,0,0,0,0,0
1996,10,31,2,0,,19.6,16.1,80,101350,0,0,399,0,0,0,0,0,0,0,70,2.2,10,0,0,0,0,0,0,0,0,0,0,0,0
1996,10,31,3,0,,19.3,16,81,101330,0,0,397,0,0,0,0,0,0,0,110,2,10,0,0,0,0,0,0,0,0,0,0,0,0
1996,10,31,4,0,,19.5,16.5,83,101330,0,0,399,0,0,0,0,0,0,0,90,2.3,10,0,0,0,0,0,0,0,0,0,0,0,0
1996,10,31,5,0,,19.2,16.9,86,101330,0,0,398,0,0,0,0,0,0,0,70,2.7,10,0,0,0,0,0,0,0,0,0,0,0,0
1996,10,31,6,0,,19.4,17.4,88,101330,0,0,400,0,0,0,0,0,0,0,90,2.3,10,0,0,0,0,0,0,0,0,0,0,0,0
1996,10,31,7,0,,19.5,17.7,89,101350,0,0,400,0,0,0,0,0,0,0,90,2.3,10,0,0,0,0,0,0,0,0,0,0,0,0
1996,10,31,8,0,,19.6,17.9,90,101360,0,0,401,25,2,23,3105,71,3070,0,70,3.2,10,0,0,0,0,0,0,0,0,0,0,0,0
1996,10,31,9,0,,19.7,18.2,91,101380,0,0,402,80,23,73,9946,1976,8774,0,90,3.7,10,0,0,0,0,0,0,0,0,0,0,0,0
1996,10,31,10,0,,19,17.8,91,101340,0,0,398,122,20,113,14621,1751,13472,0,70,4,10,0,0,0,0,0,0,0,0,0,0,0,0
1996,10,31,11,0,,18.6,17.3,91,101300,0,0,395,154,18,143,18028,1589,16971,0,90,4.7,10,0,0,0,0,0,0,0,0,0,0,0,0
1996,10,31,12,0,,18.5,16.9,91,101260,0,0,394,177,18,165,20130,1135,19427,0,70,4,10,0,0,0,0,0,0,0,0,0,0,0,0
1996,10,31,13,0,,18.9,17.2,91,101140,0,0,397,204,25,187,22227,1669,21356,0,90,5.7,10,0,0,0,0,0,0,0,0,0,0,0,0
1996,10,31,14,0,,19,17.4,91,101030,0,0,397,195,27,178,20225,1759,19557,0,70,5.3,10,0,0,0,0,0,0,0,0,0,0,0,0
1996,10,31,15,0,,19.3,17.7,91,100910,0,0,399,174,33,157,16560,1879,16181,0,70,5.7,10,0,0,0,0,0,0,0,0,0,0,0,0
1996,10,31,16,0,,19.1,17.3,91,100940,0,0,398,132,39,117,12388,2388,12385,0,70,8.8,10,0,0,0,0,0,0,0,0,0,0,0,0
1996,10,31,17,0,,18.5,16.9,91,100970,0,0,394,60,25,55,0,0,0,0,90,4.7,10,0,0,0,0,0,0,0,0,0,0,0,0
1996,10,31,18,0,,18.1,16.5,91,101000,0,0,391,10,0,10,0,0,0,0,90,3.7,10,0,0,0,0,0,0,0,0,0,0,0,0
1996,10,31,19,0,,18.1,16.6,91,100990,0,0,391,0,0,0,0,0,0,0,70,2,10,0,0,0,0,0,0,0,0,0,0,0,0
1996,10,31,20,0,,18,16.6,92,100990,0,0,391,0,0,0,0,0,0,0,90,3.3,10,0,0,0,0,0,0,0,0,0,0,0,0
1996,10,31,21,0,,18.1,16.7,92,100980,0,0,392,0,0,0,0,0,0,0,90,2.3,10,0,0,0,0,0,0,0,0,0,0,0,0
1996,10,31,22,0,,18.6,16.6,92,100960,0,0,394,0,0,0,0,0,0,0,290,4,10,0,0,0,0,0,0,0,0,0,0,0,0
1996,10,31,23,0,,18.2,16.4,91,100950,0,0,392,0,0,0,0,0,0,0,70,3.8,10,0,0,0,0,0,0,0,0,0,0,0,0
1996,10,31,24,0,,17.9,16.3,91,100930,0,0,390,0,0,0,0,0,0,0,50,4.2,10,0,0,0,0,0,0,0,0,0,0,0,0
1999,11,1,1,0,,19.5,16.1,86,100420,0,0,398,0,0,0,0,0,0,0,290,6,10,0,0,0,0,0,0,0,0,0,0,0,0
1999,11,1,2,0,,16.2,14.8,85,100550,0,0,379,0,0,0,0,0,0,0,290,5.3,10,0,0,0,0,0,0,0,0,0,0,0,0
1999,11,1,3,0,,16.1,13.6,85,100670,0,0,377,0,0,0,0,0,0,0,320,4.3,10,0,0,0,0,0,0,0,0,0,0,0,0
1999,11,1,4,0,,15.3,12.5,82,100760,0,0,371,0,0,0,0,0,0,0,320,6.3,10,0,0,0,0,0,0,0,0,0,0,0,0
1999,11,1,5,0,,14.9,11.5,79,100850,0,0,368,0,0,0,0,0,0,0,320,5.7,10,0,0,0,0,0,0,0,0,0,0,0,0
1999,11,1,6,0,,14.6,10.4,76,100940,0,0,365,0,0,0,0,0,0,0,320,4.3,10,0,0,0,0,0,0,0,0,0,0,0,0
1999,11,1,7,0,,14.7,9.9,74,101080,0,0,365,0,0,0,0,0,0,0,320,7,10,0,0,0,0,0,0,0,0,0,0,0,0
1999,11,1,8,0,,14.6,9.4,71,101230,0,0,364,34,5,29,3743,414,3545,0,320,8.7,10,0,0,0,0,0,0,0,0,0,0,0,0
1999,11,1,9,0,,14.5,8.9,69,101370,0,0,363,100,45,87,13567,4448,10932,0,320,5.3,10,0,0,0,0,0,0,0,0,0,0,0,0
1999,11,1,10,0,,14.5,7.9,64,101420,0,0,358,158,42,139,18754,3943,16171,0,320,5.3,10,0,0,0,0,0,0,0,0,0,0,0,0
1999,11,1,11,0,,14.4,6.8,60,101480,0,0,352,280,97,224,32775,9638,26376,0,320,8.3,9,0,0,0,0,0,0,0,0,0,0,0,0
1999,11,1,12,0,,14.7,5.8,55,101530,0,0,350,318,94,257,34868,9087,29252,0,320,7.7,9,0,0,0,0,0,0,0,0,0,0,0,0
1999,11,1,13,0,,14.2,4.5,52,101530,0,0,343,337,101,269,35403,9735,30335,0,320,8,9,0,0,0,0,0,0,0,0,0,0,0,0
1999,11,1,14,0,,14,3.2,49,101540,0,0,338,362,152,266,35043,14303,29632,0,320,7.7,8,0,0,0,0,0,0,0,0,0,0,0,0
1999,11,1,15,0,,13.5,1.9,46,101540,0,0,332,308,165,219,26759,13917,23964,0,320,7,8,0,0,0,0,0,0,0,0,0,0,0,0
1999,11,1,16,0,,13.3,2.1,47,101610,0,0,329,231,198,152,14511,0,14511,0,320,8,8,0,0,0,0,0,0,0,0,0,0,0,0
1999,11,1,17,0,,12.9,2.3,48,101680,0,0,326,142,323,69,0,0,0,0,320,8,7,0,0,0,0,0,0,0,0,0,0,0,0
1999,11,1,18,0,,12.9,2.5,49,101750,0,0,324,35,15,20,0,0,0,0,320,6.7,7,0,0,0,0,0,0,0,0,0,0,0,0
1999,11,1,19,0,,12.4,2.2,48,101810,0,0,325,0,0,0,0,0,0,0,320,7.3,8,0,0,0,0,0,0,0,0,0,0,0,0
1999,11,1,20,0,,12.5,2,48,101870,0,0,329,0,0,0,0,0,0,0,340,6.7,8,0,0,0,0,0,0,0,0,0,0,0,0
1999,11,1,21,0,,12.5,1.7,47,101930,0,0,334,0,0,0,0,0,0,0,340,6.3,9,0,0,0,0,0,0,0,0,0,0,0,0
1999,11,1,22,0,,13,1.6,46,101960,0,0,327,0,0,0,0,0,0,0,340,6.3,8,0,0,0,0,0,0,0,0,0,0,0,0
1999,11,1,23,0,,13.4,1.6,44,102000,0,0,323,0,0,0,0,0,0,0,340,5,6,0,0,0,0,0,0,0,0,0,0,0,0
1999,11,1,24,0,,13.8,1.5,43,102030,0,0,321,0,0,0,0,0,0,0,340,6.3,5,0,0,0,0,0,0,0,0,0,0,0,0
1999,11,2,1,0,,13.3,1.9,46,102040,0,0,317,0,0,0,0,0,0,0,340,5.7,4,0,0,0,0,0,0,0,0,0,0,0,0
1999,11,2,2,0,,13,2.3,50,102050,0,0,315,0,0,0,0,0,0,0,320,5,4,0,0,0,0,0,0,0,0,0,0,0,0
1999,11,2,3,0,,12.1,2.7,53,102060,0,0,310,0,0,0,0,0,0,0,340,5.7,3,0,0,0,0,0,0,0,0,0,0,0,0
1999,11,2,4,0,,12.3,3.4,57,102020,0,0,313,0,0,0,0,0,0,0,290,4,4,0,0,0,0,0,0,0,0,0,0,0,0
1999,11,2,5,0,,11.2,4.1,62,101990,0,0,311,0,0,0,0,0,0,0,320,8.7,4,0,0,0,0,0,0,0,0,0,0,0,0
1999,11,2,6,0,,11.7,4.8,66,101950,0,0,315,0,0,0,0,0,0,0,340,5.3,5,0,0,0,0,0,0,0,0,0,0,0,0
1999,11,2,7,0,,12.4,3.5,59,102000,0,0,320,0,0,0,0,0,0,0,360,6,6,0,0,0,0,0,0,0,0,0,0,0,0
1999,11,2,8,0,,12.9,2.2,51,102060,0,0,324,68,30,38,6406,2981,4987,0,320,6.7,7,0,0,0,0,0,0,0,0,0,0,0,0
1999,11,2,9,0,,13,0.9,44,102110,0,0,328,175,235,105,28522,23367,14773,0,320,5.7,8,0,0,0,0,0,0,0,0,0,0,0,0
1999,11,2,10,0,,12.5,1,44,102130,0,0,324,266,187,180,34105,19078,21684,0,320,5,8,0,0,0,0,0,0,0,0,0,0,0,0
1999,11,2,11,0,,13.3,1,44,102140,0,0,326,398,277,238,46480,28268,27829,0,320,8,7,0,0,0,0,0,0,0,0,0,0,0,0
1999,11,2,12,0,,13.2,1.1,44,102160,0,0,324,434,233,283,46542,23321,32223,0,340,6,7,0,0,0,0,0,0,0,0,0,0,0,0
1999,11,2,13,0,,13.6,0.5,41,102140,0,0,322,488,305,285,47684,30084,32140,0,340,6.3,6,0,0,0,0,0,0,0,0,0,0,0,0
1999,11,2,14,0,,13.6,-0.1,39,102130,0,0,318,489,442,212,39418,40427,24275,0,340,5.5,5,0,0,0,0,0,0,0,0,0,0,0,0
1999,11,2,15,0,,14.1,-0.7,36,102110,0,0,317,448,568,143,24518,39380,16747,0,340,5.5,4,0,0,0,0,0,0,0,0,0,0,0,0
1999,11,2,16,0,,13.7,-0.7,37,102130,0,0,317,312,504,111,0,0,0,0,340,5.3,5,0,0,0,0,0,0,0,0,0,0,0,0
1999,11,2,17,0,,13.2,-0.7,39,102150,0,0,317,171,495,59,0,0,0,0,320,5.5,5,0,0,0,0,0,0,0,0,0,0,0,0
1999,11,2,18,0,,12.7,-0.7,40,102170,0,0,316,38,21,17,0,0,0,0,320,5.7,6,0,0,0,0,0,0,0,0,0,0,0,0
1999,11,2,19,0,,12.6,-0.6,40,102210,0,0,311,0,0,0,0,0,0,0,340,4.7,4,0,0,0,0,0,0,0,0,0,0,0,0
1999,11,2,20,0,,12.5,-0.6,41,102250,0,0,305,0,0,0,0,0,0,0,320,4.3,2,0,0,0,0,0,0,0,0,0,0,0,0
1999,11,2,21,0,,12.5,-0.5,41,102290,0,0,295,0,0,0,0,0,0,0,320,2.7,0,0,0,0,0,0,0,0,0,0,0,0,0
1999,11,2,22,0,,12.5,0.1,44,102270,0,0,300,0,0,0,0,0,0,0,270,2.3,1,0,0,0,0,0,0,0,0,0,0,0,0
1999,11,2,23,0,,11.2,0.7,48,102250,0,0,298,0,0,0,0,0,0,0,200,2.5,1,0,0,0,0,0,0,0,0,0,0,0,0
1999,11,2,24,0,,11.1,1.3,51,102230,0,0,301,0,0,0,0,0,0,0,200,2.5,2,0,0,0,0,0,0,0,0,0,0,0,0
1999,11,3,1,0,,11.5,1.2,48,102210,0,0,304,0,0,0,0,0,0,0,200,3.3,3,0,0,0,0,0,0,0,0,0,0,0,0
1999,11,3,2,0,,13.2,1.2,45,102190,0,0,314,0,0,0,0,0,0,0,320,5,3,0,0,0,0,0,0,0,0,0,0,0,0
1999,11,3,3,0,,13.9,1.1,42,102170,0,0,318,0,0,0,0,0,0,0,320,4.3,4,0,0,0,0,0,0,0,0,0,0,0,0
1999,11,3,4,0,,13.8,2.6,48,102180,0,0,320,0,0,0,0,0,0,0,320,3.7,4,0,0,0,0,0,0,0,0,0,0,0,0
1999,11,3,5,0,,13.4,4,54,102190,0,0,321,0,0,0,0,0,0,0,340,5.3,5,0,0,0,0,0,0,0,0,0,0,0,0
1999,11,3,6,0,,12.9,5.5,60,102200,0,0,321,0,0,0,0,0,0,0,360,5.3,5,0,0,0,0,0,0,0,0,0,0,0,0
1999,11,3,7,0,,12.8,5.1,58,102250,0,0,323,0,0,0,0,0,0,0,360,3.7,6,0,0,0,0,0,0,0,0,0,0,0,0
1999,11,3,8,0,,13,4.7,57,102290,0,0,328,57,24,33,5462,2313,4370,0,360,4.3,7,0,0,0,0,0,0,0,0,0,0,0,0
1999,11,3,9,0,,13.3,4.3,55,102340,0,0,334,158,177,105,23901,17697,13559,0,340,3.7,8,0,0,0,0,0,0,0,0,0,0,0,0
1999,11,3,10,0,,13.7,3.7,51,102320,0,0,330,292,259,174,38224,26128,21319,0,340,4,7,0,0,0,0,0,0,0,0,0,0,0,0
1999,11,3,11,0,,14.8,3.1,46,102290,0,0,330,427,385,205,51150,38155,26131,0,290,3.7,6,0,0,0,0,0,0,0,0,0,0,0,0
1999,11,3,12,0,,15.3,2.5,42,102270,0,0,329,518,479,209,55147,47175,26372,0,320,3.7,5,0,0,0,0,0,0,0,0,0,0,0,0
1999,11,3,13,0,,15.3,2.4,41,102230,0,0,328,529,466,220,50018,44804,27043,0,290,4.3,5,0,0,0,0,0,0,0,0,0,0,0,0
1999,11,3,14,0,,15.5,2.2,41,102190,0,0,328,515,530,185,40236,47371,22665,0,340,5.3,4,0,0,0,0,0,0,0,0,0,0,0,0
1999,11,3,15,0,,15.5,2.1,40,102150,0,0,327,429,515,155,24144,34212,17510,0,320,4.3,4,0,0,0,0,0,0,0,0,0,0,0,0
1999,11,3,16,0,,15,2.4,43,102170,0,0,327,299,460,117,0,0,0,0,320,5.7,5,0,0,0,0,0,0,0,0,0,0,0,0
1999,11,3,17,0,,14,2.7,46,102180,0,0,326,145,321,74,0,0,0,0,320,5.7,6,0,0,0,0,0,0,0,0,0,0,0,0
1999,11,3,18,0,,13.5,3,49,102200,0,0,328,30,11,19,0,0,0,0,320,5.7,7,0,0,0,0,0,0,0,0,0,0,0,0
1999,11,3,19,0,,13.4,3,49,102240,0,0,324,0,0,0,0,0,0,0,320,5.3,6,0,0,0,0,0,0,0,0,0,0,0,0
1999,11,3,20,0,,13.2,3,50,102290,0,0,320,0,0,0,0,0,0,0,290,4.3,5,0,0,0,0,0,0,0,0,0,0,0,0
1999,11,3,21,0,,13.1,3,50,102330,0,0,317,0,0,0,0,0,0,0,340,3.7,4,0,0,0,0,0,0,0,0,0,0,0,0
1999,11,3,22,0,,13,3.2,51,102340,0,0,317,0,0,0,0,0,0,0,340,4,4,0,0,0,0,0,0,0,0,0,0,0,0
1999,11,3,23,0,,12.9,3.4,53,102360,0,0,317,0,0,0,0,0,0,0,340,4,4,0,0,0,0,0,0,0,0,0,0,0,0
1999,11,3,24,0,,12.6,3.6,54,102370,0,0,315,0,0,0,0,0,0,0,340,3.7,4,0,0,0,0,0,0,0,0,0,0,0,0
1999,11,4,1,0,,12.3,2.9,53,102390,0,0,313,0,0,0,0,0,0,0,360,3.3,4,0,0,0,0,0,0,0,0,0,0,0,0
1999,11,4,2,0,,12,2.2,51,102420,0,0,311,0,0,0,0,0,0,0,360,3.8,4,0,0,0,0,0,0,0,0,0,0,0,0
1999,11,4,3,0,,11.7,1.5,50,102440,0,0,309,0,0,0,0,0,0,0,360,3,4,0,0,0,0,0,0,0,0,0,0,0,0
1999,11,4,4,0,,11.5,1.6,50,102440,0,0,308,0,0,0,0,0,0,0,360,4,4,0,0,0,0,0,0,0,0,0,0,0,0
1999,11,4,5,0,,11.6,1.6,50,102430,0,0,309,0,0,0,0,0,0,0,360,3.5,4,0,0,0,0,0,0,0,0,0,0,0,0
1999,11,4,6,0,,11.8,1.7,50,102430,0,0,310,0,0,0,0,0,0,0,20,2.7,4,0,0,0,0,0,0,0,0,0,0,0,0
1999,11,4,7,0,,11.7,2,50,102500,0,0,306,0,0,0,0,0,0,0,20,4.5,3,0,0,0,0,0,0,0,0,0,0,0,0
1999,11,4,8,0,,12,2.4,50,102560,0,0,303,83,59,24,6788,5666,4135,0,20,3.5,1,0,0,0,0,0,0,0,0,0,0,0,0
1999,11,4,9,0,,12.9,2.7,50,102630,0,0,300,249,639,62,46276,64150,9042,0,20,3.3,0,0,0,0,0,0,0,0,0,0,0,0,0
1999,11,4,10,0,,13.7,2.8,48,102610,0,0,304,395,651,100,56445,65960,14037,0,20,1.5,0,0,0,0,0,0,0,0,0,0,0,0,0
1999,11,4,11,0,,14,2.8,46,102580,0,0,305,494,612,144,60100,61298,20155,0,20,1.5,0,0,0,0,0,0,0,0,0,0,0,0,0
1999,11,4,12,0,,15.2,2.9,44,102560,0,0,310,570,640,160,60082,63232,21765,0,20,2.2,0,0,0,0,0,0,0,0,0,0,0,0,0
1999,11,4,13,0,,14.8,3.1,44,102510,0,0,309,565,580,184,51715,55687,23372,0,360,1.2,0,0,0,0,0,0,0,0,0,0,0,0,0
1999,11,4,14,0,,15.4,3.4,45,102450,0,0,312,543,622,157,40291,55424,19933,0,340,2,0,0,0,0,0,0,0,0,0,0,0,0,0
1999,11,4,15,0,,15.5,3.6,45,102400,0,0,313,450,600,133,23615,40207,15952,0,320,2,0,0,0,0,0,0,0,0,0,0,0,0,0
1999,11,4,16,0,,15.5,4.1,48,102390,0,0,317,328,602,92,0,0,0,0,360,2,1,0,0,0,0,0,0,0,0,0,0,0,0
1999,11,4,17,0,,14.8,4.5,50,102380,0,0,318,175,569,51,0,0,0,0,320,2.2,1,0,0,0,0,0,0,0,0,0,0,0,0
1999,11,4,18,0,,14.3,5,53,102370,0,0,319,42,24,18,0,0,0,0,360,4,2,0,0,0,0,0,0,0,0,0,0,0,0
1999,11,4,19,0,,13.9,4.2,51,102390,0,0,314,0,0,0,0,0,0,0,320,1.7,1,0,0,0,0,0,0,0,0,0,0,0,0
1999,11,4,20,0,,14,3.3,48,102400,0,0,310,0,0,0,0,0,0,0,360,2.3,1,0,0,0,0,0,0,0,0,0,0,0,0
1999,11,4,21,0,,13.7,2.5,46,102420,0,0,303,0,0,0,0,0,0,0,360,2.3,0,0,0,0,0,0,0,0,0,0,0,0,0
1999,11,4,22,0,,13.4,2.7,50,102420,0,0,302,0,0,0,0,0,0,0,340,2.5,0,0,0,0,0,0,0,0,0,0,0,0,0
1999,11,4,23,0,,12.2,3,53,102430,0,0,298,0,0,0,0,0,0,0,160,1.2,0,0,0,0,0,0,0,0,0,0,0,0,0
1999,11,4,24,0,,11.5,3.2,57,102430,0,0,295,0,0,0,0,0,0,0,180,1.5,0,0,0,0,0,0,0,0,0,0,0,0,0
1999,11,5,1,0,,11.3,2.3,57,102420,0,0,300,0,0,0,0,0,0,0,160,2,1,0,0,0,0,0,0,0,0,0,0,0,0
1999,11,5,2,0,,11.2,1.5,58,102410,0,0,303,0,0,0,0,0,0,0,160,2.3,3,0,0,0,0,0,0,0,0,0,0,0,0
1999,11,5,3,0,,11.2,0.6,58,102400,0,0,306,0,0,0,0,0,0,0,160,1.3,4,0,0,0,0,0,0,0,0,0,0,0,0
1999,11,5,4,0,,11.1,1.7,59,102390,0,0,306,0,0,0,0,0,0,0,160,1,4,0,0,0,0,0,0,0,0,0,0,0,0
1999,11,5,5,0,,11,2.7,60,102390,0,0,307,0,0,0,0,0,0,0,340,1.7,4,0,0,0,0,0,0,0,0,0,0,0,0
1999,11,5,6,0,,11.1,3.8,61,102380,0,0,309,0,0,0,0,0,0,0,160,1.7,4,0,0,0,0,0,0,0,0,0,0,0,0
1999,11,5,7,0,,11.1,4.4,60,102380,0,0,310,0,0,0,0,0,0,0,160,2,4,0,0,0,0,0,0,0,0,0,0,0,0
1999,11,5,8,0,,11.3,5,59,102390,0,0,311,66,33,33,5825,3240,4320,0,160,1.7,4,0,0,0,0,0,0,0,0,0,0,0,0
1999,11,5,9,0,,13.7,5.6,58,102390,0,0,323,223,504,77,41349,50673,12138,0,0,0,4,0,0,0,0,0,0,0,0,0,0,0,0
1999,11,5,10,0,,15.2,5.5,54,102350,0,0,332,357,517,125,51195,51833,18077,0,20,3.3,5,0,0,0,0,0,0,0,0,0,0,0,0
1999,11,5,11,0,,15.6,5.4,51,102300,0,0,337,425,399,198,50996,39219,25596,0,20,2.7,6,0,0,0,0,0,0,0,0,0,0,0,0
1999,11,5,12,0,,16.7,5.3,47,102260,0,0,346,431,245,275,46163,24074,31669,0,20,3,7,0,0,0,0,0,0,0,0,0,0,0,0
1999,11,5,13,0,,16.1,5.8,49,102210,0,0,345,417,202,285,42225,19241,32504,0,20,3.3,7,0,0,0,0,0,0,0,0,0,0,0,0
1999,11,5,14,0,,16.1,6.3,51,102160,0,0,348,334,132,253,32669,12196,28233,0,20,3.3,8,0,0,0,0,0,0,0,0,0,0,0,0
1999,11,5,15,0,,16.3,6.8,53,102110,0,0,351,276,133,206,24703,10797,22681,0,20,3.5,8,0,0,0,0,0,0,0,0,0,0,0,0
1999,11,5,16,0,,16.2,6.6,54,102110,0,0,351,199,144,143,0,0,0,0,20,2,8,0,0,0,0,0,0,0,0,0,0,0,0
1999,11,5,17,0,,15.8,6.4,55,102110,0,0,348,101,136,72,0,0,0,0,50,0.7,8,0,0,0,0,0,0,0,0,0,0,0,0
1999,11,5,18,0,,15.3,6.2,56,102110,0,0,346,22,5,17,0,0,0,0,90,1.2,8,0,0,0,0,0,0,0,0,0,0,0,0
1999,11,5,19,0,,15.1,7.1,61,102120,0,0,340,0,0,0,0,0,0,0,160,1.3,7,0,0,0,0,0,0,0,0,0,0,0,0
1999,11,5,20,0,,14.2,7.9,66,102120,0,0,333,0,0,0,0,0,0,0,160,2,6,0,0,0,0,0,0,0,0,0,0,0,0
1999,11,5,21,0,,13.8,8.8,71,102130,0,0,330,0,0,0,0,0,0,0,160,2.7,5,0,0,0,0,0,0,0,0,0,0,0,0
1999,11,5,22,0,,13.3,8.4,72,102140,0,0,330,0,0,0,0,0,0,0,180,1,6,0,0,0,0,0,0,0,0,0,0,0,0
1999,11,5,23,0,,13.3,7.9,74,102140,0,0,333,0,0,0,0,0,0,0,160,2,7,0,0,0,0,0,0,0,0,0,0,0,0
1999,11,5,24,0,,13.2,7.5,75,102150,0,0,337,0,0,0,0,0,0,0,200,2,8,0,0,0,0,0,0,0,0,0,0,0,0
1999,11,6,1,0,,12.5,7.5,74,102130,0,0,334,0,0,0,0,0,0,0,160,2.3,8,0,0,0,0,0,0,0,0,0,0,0,0
1999,11,6,2,0,,12.5,7.5,74,102120,0,0,334,0,0,0,0,0,0,0,180,2.2,8,0,0,0,0,0,0,0,0,0,0,0,0
1999,11,6,3,0,,12.3,7.5,73,102100,0,0,333,0,0,0,0,0,0,0,160,2,8,0,0,0,0,0,0,0,0,0,0,0,0
1999,11,6,4,0,,12.2,7.1,70,102090,0,0,337,0,0,0,0,0,0,0,140,2.3,9,0,0,0,0,0,0,0,0,0,0,0,0
1999,11,6,5,0,,12.5,6.8,68,102070,0,0,343,0,0,0,0,0,0,0,160,2.5,9,0,0,0,0,0,0,0,0,0,0,0,0
1999,11,6,6,0,,12.9,6.4,65,102060,0,0,351,0,0,0,0,0,0,0,160,1.3,10,0,0,0,0,0,0,0,0,0,0,0,0
1999,11,6,7,0,,13.1,6.2,62,102080,0,0,345,0,0,0,0,0,0,0,160,1.8,9,0,0,0,0,0,0,0,0,0,0,0,0
1999,11,6,8,0,,13.4,6.1,58,102100,0,0,341,35,7,29,3745,626,3457,0,160,1.7,9,0,0,0,0,0,0,0,0,0,0,0,0
1999,11,6,9,0,,14.7,5.9,55,102120,0,0,342,150,171,101,22774,16851,13126,0,140,1,8,0,0,0,0,0,0,0,0,0,0,0,0
1999,11,6,10,0,,16.9,6.4,53,102090,0,0,350,294,289,165,40101,28281,22144,0,20,2.3,7,0,0,0,0,0,0,0,0,0,0,0,0
1999,11,6,11,0,,17.1,7,52,102060,0,0,348,386,277,229,45197,27419,27547,0,50,3.2,7,0,0,0,0,0,0,0,0,0,0,0,0
1999,11,6,12,0,,17.9,7.5,50,102030,0,0,350,471,333,260,50193,32476,30767,0,50,3.7,6,0,0,0,0,0,0,0,0,0,0,0,0
1999,11,6,13,0,,18,8.6,54,101980,0,0,355,405,188,282,41267,17646,32417,0,50,3.3,7,0,0,0,0,0,0,0,0,0,0,0,0
1999,11,6,14,0,,18,9.8,58,101920,0,0,359,365,174,259,34852,14880,29491,0,20,2.7,7,0,0,0,0,0,0,0,0,0,0,0,0
1999,11,6,15,0,,18.2,10.9,62,101870,0,0,366,274,133,205,24532,10521,22594,0,50,3.2,8,0,0,0,0,0,0,0,0,0,0,0,0
1999,11,6,16,0,,17.9,10.9,63,101870,0,0,367,193,134,141,0,0,0,0,50,3.3,8,0,0,0,0,0,0,0,0,0,0,0,0
1999,11,6,17,0,,17.7,11,65,101870,0,0,368,82,77,66,0,0,0,0,50,2,9,0,0,0,0,0,0,0,0,0,0,0,0
1999,11,6,18,0,,17.3,11,66,101870,0,0,369,15,2,13,0,0,0,0,90,1.7,9,0,0,0,0,0,0,0,0,0,0,0,0
1999,11,6,19,0,,17,10.9,68,101890,0,0,368,0,0,0,0,0,0,0,110,1.2,9,0,0,0,0,0,0,0,0,0,0,0,0
1999,11,6,20,0,,16.5,10.8,69,101910,0,0,365,0,0,0,0,0,0,0,180,1.5,9,0,0,0,0,0,0,0,0,0,0,0,0
1999,11,6,21,0,,15.9,10.7,71,101930,0,0,362,0,0,0,0,0,0,0,160,2,9,0,0,0,0,0,0,0,0,0,0,0,0
1999,11,6,22,0,,15.8,10.6,73,101920,0,0,347,0,0,0,0,0,0,0,160,1,7,0,0,0,0,0,0,0,0,0,0,0,0
1999,11,6,23,0,,15,10.4,75,101920,0,0,335,0,0,0,0,0,0,0,160,1.7,4,0,0,0,0,0,0,0,0,0,0,0,0
1999,11,6,24,0,,14.3,10.3,77,101910,0,0,325,0,0,0,0,0,0,0,160,1.3,2,0,0,0,0,0,0,0,0,0,0,0,0
1999,11,7,1,0,,13.8,9.8,76,101890,0,0,323,0,0,0,0,0,0,0,160,3,2,0,0,0,0,0,0,0,0,0,0,0,0
1999,11,7,2,0,,13.4,9.4,75,101880,0,0,320,0,0,0,0,0,0,0,160,2,2,0,0,0,0,0,0,0,0,0,0,0,0
1999,11,7,3,0,,13.5,8.9,74,101860,0,0,320,0,0,0,0,0,0,0,140,1.7,2,0,0,0,0,0,0,0,0,0,0,0,0
1999,11,7,4,0,,13.6,9.4,77,101820,0,0,318,0,0,0,0,0,0,0,160,1.7,1,0,0,0,0,0,0,0,0,0,0,0,0
1999,11,7,5,0,,13.4,10,81,101770,0,0,315,0,0,0,0,0,0,0,140,1.8,1,0,0,0,0,0,0,0,0,0,0,0,0
1999,11,7,6,0,,13.3,10.5,84,101730,0,0,311,0,0,0,0,0,0,0,140,1.7,0,0,0,0,0,0,0,0,0,0,0,0,0
1999,11,7,7,0,,13.6,11.6,83,101740,0,0,326,0,0,0,0,0,0,0,140,1.8,3,0,0,0,0,0,0,0,0,0,0,0,0
1999,11,7,8,0,,13.9,12.6,83,101750,0,0,336,55,27,28,4992,2460,3867,0,140,1.5,5,0,0,0,0,0,0,0,0,0,0,0,0
1999,11,7,9,0,,16.9,13.7,82,101760,0,0,363,140,147,99,21194,13594,13464,0,110,1,8,0,0,0,0,0,0,0,0,0,0,0,0
1999,11,7,10,0,,17.7,13.9,79,101700,0,0,359,310,350,155,42668,32900,21909,0,110,3.7,6,0,0,0,0,0,0,0,0,0,0,0,0
1999,11,7,11,0,,19.3,14.2,77,101650,0,0,361,444,484,173,53113,45364,24091,0,70,3,5,0,0,0,0,0,0,0,0,0,0,0,0
1999,11,7,12,0,,19.2,14.4,74,101590,0,0,357,515,511,193,54450,47327,26320,0,20,3,3,0,0,0,0,0,0,0,0,0,0,0,0
1999,11,7,13,0,,19.1,14.4,74,101500,0,0,360,491,398,234,46692,35396,29068,0,50,4.5,4,0,0,0,0,0,0,0,0,0,0,0,0
1999,11,7,14,0,,19.1,14.4,74,101400,0,0,364,381,201,259,35845,16414,29986,0,50,4,6,0,0,0,0,0,0,0,0,0,0,0,0
1999,11,7,15,0,,19.2,14.4,74,101310,0,0,370,292,163,207,25268,12576,22991,0,20,2.7,7,0,0,0,0,0,0,0,0,0,0,0,0
1999,11,7,16,0,,18.9,14.8,78,101290,0,0,372,181,115,137,0,0,0,0,360,2.8,8,0,0,0,0,0,0,0,0,0,0,0,0
1999,11,7,17,0,,18.7,15.3,81,101280,0,0,376,92,114,69,0,0,0,0,70,2,8,0,0,0,0,0,0,0,0,0,0,0,0
1999,11,7,18,0,,18.2,15.7,85,101260,0,0,380,12,1,11,0,0,0,0,50,1,9,0,0,0,0,0,0,0,0,0,0,0,0
1999,11,7,19,0,,18.1,15.5,85,101290,0,0,383,0,0,0,0,0,0,0,110,0.8,9,0,0,0,0,0,0,0,0,0,0,0,0
1999,11,7,20,0,,17.8,15.3,85,101330,0,0,384,0,0,0,0,0,0,0,20,0.5,10,0,0,0,0,0,0,0,0,0,0,0,0
1999,11,7,21,0,,17.7,15.1,85,101360,0,0,387,0,0,0,0,0,0,0,250,2,10,0,0,0,0,0,0,0,0,0,0,0,0
1999,11,7,22,0,,17.5,14.4,82,101350,0,0,385,0,0,0,0,0,0,0,250,0.7,10,0,0,0,0,0,0,0,0,0,0,0,0
1999,11,7,23,0,,17.5,13.8,80,101350,0,0,384,0,0,0,0,0,0,0,270,1.8,10,0,0,0,0,0,0,0,0,0,0,0,0
1999,11,7,24,0,,17.3,13.1,77,101340,0,0,383,0,0,0,0,0,0,0,250,3.7,10,0,0,0,0,0,0,0,0,0,0,0,0
1999,11,8,1,0,,15.6,13.1,80,101290,0,0,370,0,0,0,0,0,0,0,250,2.7,10,0,0,0,0,0,0,0,0,0,0,0,0
1999,11,8,2,0,,15.6,13.2,82,101250,0,0,367,0,0,0,0,0,0,0,250,1.7,9,0,0,0,0,0,0,0,0,0,0,0,0
1999,11,8,3,0,,15.7,13.2,85,101200,0,0,364,0,0,0,0,0,0,0,250,2,9,0,0,0,0,0,0,0,0,0,0,0,0
1999,11,8,4,0,,15.9,13.5,87,101180,0,0,369,0,0,0,0,0,0,0,250,2.7,9,0,0,0,0,0,0,0,0,0,0,0,0
1999,11,8,5,0,,15.7,13.7,88,101150,0,0,371,0,0,0,0,0,0,0,250,2,10,0,0,0,0,0,0,0,0,0,0,0,0
1999,11,8,6,0,,15.7,14,90,101130,0,0,376,0,0,0,0,0,0,0,320,2.7,10,0,0,0,0,0,0,0,0,0,0,0,0
1999,11,8,7,0,,15.8,14,89,101170,0,0,369,0,0,0,0,0,0,0,320,4.3,9,0,0,0,0,0,0,0,0,0,0,0,0
1999,11,8,8,0,,15.7,13.9,89,101200,0,0,362,28,4,24,3202,147,3136,0,290,2.3,9,0,0,0,0,0,0,0,0,0,0,0,0
1999,11,8,9,0,,15.9,13.9,88,101240,0,0,358,130,123,96,19504,11305,13119,0,290,3.2,8,0,0,0,0,0,0,0,0,0,0,0,0
1999,11,8,10,0,,16,13.1,83,101270,0,0,352,247,178,169,32225,16742,21726,0,360,4,7,0,0,0,0,0,0,0,0,0,0,0,0
1999,11,8,11,0,,16.7,12.2,78,101310,0,0,350,362,239,229,42750,22645,28350,0,360,3.3,6,0,0,0,0,0,0,0,0,0,0,0,0
1999,11,8,12,0,,16.2,11.4,73,101340,0,0,344,429,259,267,46671,24433,32241,0,360,3.3,5,0,0,0,0,0,0,0,0,0,0,0,0
1999,11,8,13,0,,16.3,11.3,72,101300,0,0,345,440,254,277,43683,23344,32142,0,340,3,5,0,0,0,0,0,0,0,0,0,0,0,0
1999,11,8,14,0,,16.6,11.2,70,101270,0,0,347,386,215,257,35738,18002,29371,0,320,3,6,0,0,0,0,0,0,0,0,0,0,0,0
1999,11,8,15,0,,16.8,11.1,69,101230,0,0,349,327,236,206,25463,14062,22958,0,320,2,6,0,0,0,0,0,0,0,0,0,0,0,0
1999,11,8,16,0,,17,10.6,68,101260,0,0,348,271,392,122,0,0,0,0,320,3.3,5,0,0,0,0,0,0,0,0,0,0,0,0
1999,11,8,17,0,,16.1,10,67,101300,0,0,341,137,338,67,0,0,0,0,340,3.7,5,0,0,0,0,0,0,0,0,0,0,0,0
1999,11,8,18,0,,15.7,9.5,66,101330,0,0,337,32,18,14,0,0,0,0,320,3.7,4,0,0,0,0,0,0,0,0,0,0,0,0
1999,11,8,19,0,,15.4,9.8,68,101360,0,0,337,0,0,0,0,0,0,0,340,3.7,5,0,0,0,0,0,0,0,0,0,0,0,0
1999,11,8,20,0,,15.2,10.1,71,101380,0,0,339,0,0,0,0,0,0,0,340,2.7,5,0,0,0,0,0,0,0,0,0,0,0,0
1999,11,8,21,0,,15.1,10.4,73,101410,0,0,340,0,0,0,0,0,0,0,340,2,6,0,0,0,0,0,0,0,0,0,0,0,0
1999,11,8,22,0,,15.1,10.9,76,101440,0,0,345,0,0,0,0,0,0,0,360,3.7,7,0,0,0,0,0,0,0,0,0,0,0,0
1999,11,8,23,0,,15.8,11.5,79,101460,0,0,355,0,0,0,0,0,0,0,360,3.7,8,0,0,0,0,0,0,0,0,0,0,0,0
1999,11,8,24,0,,15,12,82,101490,0,0,359,0,0,0,0,0,0,0,360,3,9,0,0,0,0,0,0,0,0,0,0,0,0
1999,11,9,1,0,,14.9,11.8,82,101490,0,0,353,0,0,0,0,0,0,0,340,2.2,8,0,0,0,0,0,0,0,0,0,0,0,0
1999,11,9,2,0,,14.7,11.6,82,101500,0,0,348,0,0,0,0,0,0,0,340,1.3,8,0,0,0,0,0,0,0,0,0,0,0,0
1999,11,9,3,0,,14.5,11.4,82,101500,0,0,343,0,0,0,0,0,0,0,0,0,7,0,0,0,0,0,0,0,0,0,0,0,0
1999,11,9,4,0,,14.1,11.1,81,101510,0,0,346,0,0,0,0,0,0,0,200,1.3,8,0,0,0,0,0,0,0,0,0,0,0,0
1999,11,9,5,0,,13.9,10.9,81,101520,0,0,352,0,0,0,0,0,0,0,200,1,9,0,0,0,0,0,0,0,0,0,0,0,0
1999,11,9,6,0,,14,10.6,80,101530,0,0,362,0,0,0,0,0,0,0,200,1,10,0,0,0,0,0,0,0,0,0,0,0,0
1999,11,9,7,0,,14.1,10.8,79,101600,0,0,359,0,0,0,0,0,0,0,200,1.7,10,0,0,0,0,0,0,0,0,0,0,0,0
1999,11,9,8,0,,14.4,11.1,78,101680,0,0,358,30,5,25,3302,432,3107,0,200,2,9,0,0,0,0,0,0,0,0,0,0,0,0
1999,11,9,9,0,,15.2,11.3,77,101750,0,0,359,107,74,87,14988,7067,11025,0,110,1.5,9,0,0,0,0,0,0,0,0,0,0,0,0
1999,11,9,10,0,,15.7,11,72,101730,0,0,347,254,200,167,33173,19166,21230,0,110,2.2,7,0,0,0,0,0,0,0,0,0,0,0,0
1999,11,9,11,0,,16.3,10.7,68,101720,0,0,342,425,442,181,51076,42278,24354,0,90,3.3,4,0,0,0,0,0,0,0,0,0,0,0,0
1999,11,9,12,0,,17.3,10.4,63,101700,0,0,339,527,568,174,55145,54015,23442,0,50,3.7,2,0,0,0,0,0,0,0,0,0,0,0,0
1999,11,9,13,0,,17.2,9.5,60,101690,0,0,343,526,520,194,48807,48200,25146,0,50,6.7,4,0,0,0,0,0,0,0,0,0,0,0,0
1999,11,9,14,0,,16.7,8.7,58,101680,0,0,344,459,420,207,37000,35668,24500,0,70,7,5,0,0,0,0,0,0,0,0,0,0,0,0
1999,11,9,15,0,,16.9,7.8,55,101670,0,0,350,305,195,205,24702,11935,22611,0,50,3.5,7,0,0,0,0,0,0,0,0,0,0,0,0
1999,11,9,16,0,,17.1,7.4,55,101700,0,0,354,201,165,139,0,0,0,0,70,3.7,8,0,0,0,0,0,0,0,0,0,0,0,0
1999,11,9,17,0,,16.6,7.1,54,101720,0,0,355,101,162,68,0,0,0,0,70,2.5,8,0,0,0,0,0,0,0,0,0,0,0,0
1999,11,9,18,0,,16.1,6.7,54,101750,0,0,358,15,2,13,0,0,0,0,90,1.8,9,0,0,0,0,0,0,0,0,0,0,0,0
1999,11,9,19,0,,15.7,8.8,56,101780,0,0,353,0,0,0,0,0,0,0,110,1.3,8,0,0,0,0,0,0,0,0,0,0,0,0
1999,11,9,20,0,,15.5,10.8,58,101810,0,0,350,0,0,0,0,0,0,0,110,2,8,0,0,0,0,0,0,0,0,0,0,0,0
1999,11,9,21,0,,15.5,12.9,60,101840,0,0,350,0,0,0,0,0,0,0,180,1.8,7,0,0,0,0,0,0,0,0,0,0,0,0
1999,11,9,22,0,,15.4,11.1,60,101860,0,0,342,0,0,0,0,0,0,0,180,1.7,6,0,0,0,0,0,0,0,0,0,0,0,0
1999,11,9,23,0,,14.8,9.2,61,101880,0,0,333,0,0,0,0,0,0,0,160,2.2,4,0,0,0,0,0,0,0,0,0,0,0,0
1999,11,9,24,0,,14.9,7.4,61,101900,0,0,328,0,0,0,0,0,0,0,160,2,3,0,0,0,0,0,0,0,0,0,0,0,0
1999,11,10,1,0,,14.7,7.4,62,101900,0,0,326,0,0,0,0,0,0,0,160,1.7,3,0,0,0,0,0,0,0,0,0,0,0,0
1999,11,10,2,0,,14.4,7.3,62,101910,0,0,323,0,0,0,0,0,0,0,160,1.7,2,0,0,0,0,0,0,0,0,0,0,0,0
1999,11,10,3,0,,14.3,7.3,63,101910,0,0,322,0,0,0,0,0,0,0,160,1.8,2,0,0,0,0,0,0,0,0,0,0,0,0
1999,11,10,4,0,,13.8,7.4,65,101910,0,0,320,0,0,0,0,0,0,0,160,1.5,2,0,0,0,0,0,0,0,0,0,0,0,0
1999,11,10,5,0,,13.5,7.4,67,101900,0,0,318,0,0,0,0,0,0,0,160,1.7,2,0,0,0,0,0,0,0,0,0,0,0,0
1999,11,10,6,0,,13.3,7.5,69,101900,0,0,318,0,0,0,0,0,0,0,160,2,2,0,0,0,0,0,0,0,0,0,0,0,0
1999,11,10,7,0,,13.4,7.3,64,101910,0,0,318,0,0,0,0,0,0,0,180,1.3,2,0,0,0,0,0,0,0,0,0,0,0,0
1999,11,10,8,0,,14,7.2,59,101920,0,0,320,66,41,26,5511,3810,3813,0,140,2,2,0,0,0,0,0,0,0,0,0,0,0,0
1999,11,10,9,0,,16.3,7,54,101930,0,0,331,232,646,56,44588,65145,8298,0,140,2.7,2,0,0,0,0,0,0,0,0,0,0,0,0
1999,11,10,10,0,,17.6,7.1,52,101900,0,0,337,395,732,80,57362,74179,11421,0,110,3.7,2,0,0,0,0,0,0,0,0,0,0,0,0
1999,11,10,11,0,,18.2,7.3,51,101870,0,0,340,502,709,114,60810,71540,15863,0,50,3.3,2,0,0,0,0,0,0,0,0,0,0,0,0
1999,11,10,12,0,,18.2,7.4,49,101840,0,0,340,554,657,147,58230,64488,20613,0,70,5.3,2,0,0,0,0,0,0,0,0,0,0,0,0
1999,11,10,13,0,,18.3,7.9,51,101790,0,0,341,542,575,176,49251,53764,23042,0,50,4.7,2,0,0,0,0,0,0,0,0,0,0,0,0
1999,11,10,14,0,,18.3,8.5,53,101750,0,0,342,502,564,166,37882,48114,21171,0,50,4.8,2,0,0,0,0,0,0,0,0,0,0,0,0
1999,11,10,15,0,,18.2,9,55,101700,0,0,342,427,587,129,21943,35877,15758,0,70,5.3,2,0,0,0,0,0,0,0,0,0,0,0,0
1999,11,10,16,0,,18,8.9,56,101690,0,0,338,305,575,91,0,0,0,0,20,4.3,1,0,0,0,0,0,0,0,0,0,0,0,0
1999,11,10,17,0,,17.9,8.7,57,101670,0,0,334,157,540,49,0,0,0,0,110,2.7,1,0,0,0,0,0,0,0,0,0,0,0,0
1999,11,10,18,0,,16.9,8.6,58,101660,0,0,325,34,16,18,0,0,0,0,140,2.7,0,0,0,0,0,0,0,0,0,0,0,0,0
1999,11,10,19,0,,15.9,8.1,59,101690,0,0,324,0,0,0,0,0,0,0,200,2,1,0,0,0,0,0,0,0,0,0,0,0,0
1999,11,10,20,0,,15.1,7.5,60,101720,0,0,323,0,0,0,0,0,0,0,200,2.3,1,0,0,0,0,0,0,0,0,0,0,0,0
1999,11,10,21,0,,14.5,7,61,101750,0,0,322,0,0,0,0,0,0,0,180,2.3,2,0,0,0,0,0,0,0,0,0,0,0,0
1999,11,10,22,0,,14.4,6.9,61,101740,0,0,322,0,0,0,0,0,0,0,180,2.2,2,0,0,0,0,0,0,0,0,0,0,0,0
1999,11,10,23,0,,14.3,6.8,61,101740,0,0,321,0,0,0,0,0,0,0,180,2,2,0,0,0,0,0,0,0,0,0,0,0,0
1999,11,10,24,0,,14.1,6.7,61,101730,0,0,320,0,0,0,0,0,0,0,180,3,2,0,0,0,0,0,0,0,0,0,0,0,0
1999,11,11,1,0,,13.9,6.7,60,101700,0,0,319,0,0,0,0,0,0,0,200,3.3,2,0,0,0,0,0,0,0,0,0,0,0,0
1999,11,11,2,0,,14,6.7,60,101660,0,0,320,0,0,0,0,0,0,0,200,2.7,2,0,0,0,0,0,0,0,0,0,0,0,0
1999,11,11,3,0,,14.6,6.7,59,101630,0,0,322,0,0,0,0,0,0,0,180,2.3,2,0,0,0,0,0,0,0,0,0,0,0,0
1999,11,11,4,0,,14.6,6.4,59,101590,0,0,324,0,0,0,0,0,0,0,180,2.3,3,0,0,0,0,0,0,0,0,0,0,0,0
1999,11,11,5,0,,14.6,6.2,59,101540,0,0,326,0,0,0,0,0,0,0,180,2.7,3,0,0,0,0,0,0,0,0,0,0,0,0
1999,11,11,6,0,,13.8,5.9,59,101500,0,0,324,0,0,0,0,0,0,0,200,2.7,4,0,0,0,0,0,0,0,0,0,0,0,0
1999,11,11,7,0,,13.6,6.1,57,101490,0,0,327,0,0,0,0,0,0,0,180,1.3,6,0,0,0,0,0,0,0,0,0,0,0,0
1999,11,11,8,0,,13.7,6.3,54,101480,0,0,334,44,16,28,4058,1397,3441,0,200,1.3,7,0,0,0,0,0,0,0,0,0,0,0,0
1999,11,11,9,0,,16.4,6.5,52,101470,0,0,359,126,125,92,18912,12284,12115,0,180,1.2,9,0,0,0,0,0,0,0,0,0,0,0,0
1999,11,11,10,0,,17.8,7.1,51,101390,0,0,367,228,155,162,29640,15269,20241,0,90,3,9,0,0,0,0,0,0,0,0,0,0,0,0
1999,11,11,11,0,,18.4,7.6,50,101300,0,0,371,286,129,216,33379,12654,25475,0,160,1.3,9,0,0,0,0,0,0,0,0,0,0,0,0
1999,11,11,12,0,,19.1,8.2,49,101220,0,0,375,302,99,240,32932,9474,27439,0,140,2.8,9,0,0,0,0,0,0,0,0,0,0,0,0
1999,11,11,13,0,,19.4,8.3,49,101130,0,0,380,307,95,247,32281,8991,27928,0,110,3.3,9,0,0,0,0,0,0,0,0,0,0,0,0
1999,11,11,14,0,,20.2,8.5,48,101030,0,0,388,221,48,193,23264,4262,21797,0,70,1,10,0,0,0,0,0,0,0,0,0,0,0,0
1999,11,11,15,0,,19.8,8.6,48,100940,0,0,390,185,49,160,18342,3777,17701,0,50,1.5,10,0,0,0,0,0,0,0,0,0,0,0,0
1999,11,11,16,0,,18.6,10.4,60,100910,0,0,386,112,34,100,0,0,0,0,20,3.3,10,0,0,0,0,0,0,0,0,0,0,0,0
1999,11,11,17,0,,17.8,12.2,73,100870,0,0,384,45,17,41,0,0,0,0,160,1,10,0,0,0,0,0,0,0,0,0,0,0,0
1999,11,11,18,0,,16.5,14,85,100840,0,0,380,3,0,3,0,0,0,0,200,2.3,10,0,0,0,0,0,0,0,0,0,0,0,0
1999,11,11,19,0,,16.3,14,86,100790,0,0,379,0,0,0,0,0,0,0,200,1.3,10,0,0,0,0,0,0,0,0,0,0,0,0
1999,11,11,20,0,,16.3,14.1,86,100740,0,0,379,0,0,0,0,0,0,0,160,1,10,0,0,0,0,0,0,0,0,0,0,0,0
1999,11,11,21,0,,16.3,14.1,87,100690,0,0,379,0,0,0,0,0,0,0,180,1.3,10,0,0,0,0,0,0,0,0,0,0,0,0
1999,11,11,22,0,,16.2,14.3,88,100750,0,0,378,0,0,0,0,0,0,0,250,1.7,10,0,0,0,0,0,0,0,0,0,0,0,0
1999,11,11,23,0,,16.8,14.4,89,100820,0,0,382,0,0,0,0,0,0,0,250,3,10,0,0,0,0,0,0,0,0,0,0,0,0
1999,11,11,24,0,,16.2,14.6,90,100880,0,0,379,0,0,0,0,0,0,0,250,4.3,10,0,0,0,0,0,0,0,0,0,0,0,0
1999,11,12,1,0,,15.7,14.1,88,100890,0,0,376,0,0,0,0,0,0,0,290,2.5,10,0,0,0,0,0,0,0,0,0,0,0,0
1999,11,12,2,0,,15.8,13.7,85,100900,0,0,376,0,0,0,0,0,0,0,270,2,10,0,0,0,0,0,0,0,0,0,0,0,0
1999,11,12,3,0,,16,13.2,83,100910,0,0,376,0,0,0,0,0,0,0,340,7,10,0,0,0,0,0,0,0,0,0,0,0,0
1999,11,12,4,0,,15.6,12.3,80,100940,0,0,373,0,0,0,0,0,0,0,340,6,10,0,0,0,0,0,0,0,0,0,0,0,0
1999,11,12,5,0,,15.6,11.3,76,100970,0,0,371,0,0,0,0,0,0,0,340,7,10,0,0,0,0,0,0,0,0,0,0,0,0
1999,11,12,6,0,,15.3,10.4,73,101000,0,0,369,0,0,0,0,0,0,0,320,5.3,10,0,0,0,0,0,0,0,0,0,0,0,0
1999,11,12,7,0,,15.1,10.2,72,101080,0,0,367,0,0,0,0,0,0,0,340,3.2,10,0,0,0,0,0,0,0,0,0,0,0,0
1999,11,12,8,0,,15.2,10,70,101160,0,0,368,21,2,19,2513,73,2481,0,320,4.3,10,0,0,0,0,0,0,0,0,0,0,0,0
1999,11,12,9,0,,15.4,9.8,69,101240,0,0,368,82,39,71,11182,3738,9128,0,340,3.5,10,0,0,0,0,0,0,0,0,0,0,0,0
1999,11,12,10,0,,15.7,9.6,67,101270,0,0,357,187,90,149,23480,8762,18120,0,320,5.3,9,0,0,0,0,0,0,0,0,0,0,0,0
1999,11,12,11,0,,15.7,9.4,64,101310,0,0,348,325,192,222,37811,18646,26234,0,340,4.7,7,0,0,0,0,0,0,0,0,0,0,0,0
1999,11,12,12,0,,16.3,9.2,62,101340,0,0,345,418,263,258,45281,25161,30781,0,340,5.3,6,0,0,0,0,0,0,0,0,0,0,0,0
1999,11,12,13,0,,16.2,8.6,59,101340,0,0,340,470,345,253,45351,32110,29908,0,340,6,5,0,0,0,0,0,0,0,0,0,0,0,0
1999,11,12,14,0,,16.5,8,57,101340,0,0,337,498,569,162,37198,48483,20648,0,340,5.7,3,0,0,0,0,0,0,0,0,0,0,0,0
1999,11,12,15,0,,16.7,7.4,54,101340,0,0,333,419,579,129,21387,35070,15528,0,340,4.2,2,0,0,0,0,0,0,0,0,0,0,0,0
1999,11,12,16,0,,16,7.1,55,101380,0,0,331,304,594,86,0,0,0,0,360,4.7,2,0,0,0,0,0,0,0,0,0,0,0,0
1999,11,12,17,0,,15.6,6.8,56,101430,0,0,329,149,505,50,0,0,0,0,340,5,3,0,0,0,0,0,0,0,0,0,0,0,0
1999,11,12,18,0,,15.1,6.5,57,101470,0,0,328,31,13,18,0,0,0,0,340,3.5,3,0,0,0,0,0,0,0,0,0,0,0,0
1999,11,12,19,0,,15,6.8,60,101540,0,0,324,0,0,0,0,0,0,0,340,5,2,0,0,0,0,0,0,0,0,0,0,0,0
1999,11,12,20,0,,14.7,7.2,62,101600,0,0,319,0,0,0,0,0,0,0,360,3.3,1,0,0,0,0,0,0,0,0,0,0,0,0
1999,11,12,21,0,,14.1,7.5,65,101670,0,0,311,0,0,0,0,0,0,0,360,2.5,0,0,0,0,0,0,0,0,0,0,0,0,0
1999,11,12,22,0,,14.1,7.8,66,101700,0,0,319,0,0,0,0,0,0,0,360,3.7,1,0,0,0,0,0,0,0,0,0,0,0,0
1999,11,12,23,0,,14.3,8.2,67,101740,0,0,325,0,0,0,0,0,0,0,50,3.3,3,0,0,0,0,0,0,0,0,0,0,0,0
1999,11,12,24,0,,14.3,8.5,68,101770,0,0,329,0,0,0,0,0,0,0,50,3.5,4,0,0,0,0,0,0,0,0,0,0,0,0
1999,11,13,1,0,,13.9,8.5,71,101820,0,0,325,0,0,0,0,0,0,0,50,4,3,0,0,0,0,0,0,0,0,0,0,0,0
1999,11,13,2,0,,13.5,8.6,75,101880,0,0,320,0,0,0,0,0,0,0,20,3.7,2,0,0,0,0,0,0,0,0,0,0,0,0
1999,11,13,3,0,,12.3,8.6,78,101930,0,0,310,0,0,0,0,0,0,0,180,1.5,1,0,0,0,0,0,0,0,0,0,0,0,0
1999,11,13,4,0,,11.7,8.7,79,101950,0,0,313,0,0,0,0,0,0,0,200,1.7,2,0,0,0,0,0,0,0,0,0,0,0,0
1999,11,13,5,0,,11.6,8.9,80,101980,0,0,317,0,0,0,0,0,0,0,200,1.5,4,0,0,0,0,0,0,0,0,0,0,0,0
1999,11,13,6,0,,11.3,9,81,102000,0,0,319,0,0,0,0,0,0,0,200,1.7,5,0,0,0,0,0,0,0,0,0,0,0,0
1999,11,13,7,0,,11.3,8.8,77,102030,0,0,314,0,0,0,0,0,0,0,200,2,3,0,0,0,0,0,0,0,0,0,0,0,0
1999,11,13,8,0,,11,8.6,73,102050,0,0,308,58,30,28,4944,2813,3722,0,200,1.8,2,0,0,0,0,0,0,0,0,0,0,0,0
1999,11,13,9,0,,13.9,8.4,69,102080,0,0,311,213,584,60,41523,59422,9093,0,230,1.7,0,0,0,0,0,0,0,0,0,0,0,0,0
1999,11,13,10,0,,15.5,7.9,63,102060,0,0,317,368,664,89,53848,67538,12780,0,90,0.7,0,0,0,0,0,0,0,0,0,0,0,0,0
1999,11,13,11,0,,16,7.5,58,102050,0,0,319,497,727,106,60338,73480,14978,0,50,3,0,0,0,0,0,0,0,0,0,0,0,0,0
1999,11,13,12,0,,16.9,7,52,102030,0,0,323,531,620,154,56024,60614,21300,0,70,2.3,0,0,0,0,0,0,0,0,0,0,0,0,0
1999,11,13,13,0,,17,5.8,48,102000,0,0,322,550,630,157,49005,59313,20666,0,70,3.3,0,0,0,0,0,0,0,0,0,0,0,0,0
1999,11,13,14,0,,17.1,4.6,43,101960,0,0,321,515,632,144,36960,54651,18461,0,70,3,0,0,0,0,0,0,0,0,0,0,0,0,0
1999,11,13,15,0,,17.3,3.4,39,101930,0,0,320,438,656,111,20195,40649,13506,0,70,3.5,0,0,0,0,0,0,0,0,0,0,0,0,0
1999,11,13,16,0,,17.1,3.1,40,101940,0,0,319,313,651,77,0,0,0,0,70,3.7,0,0,0,0,0,0,0,0,0,0,0,0,0
1999,11,13,17,0,,16.6,2.8,41,101940,0,0,317,156,582,43,0,0,0,0,90,2,0,0,0,0,0,0,0,0,0,0,0,0,0
1999,11,13,18,0,,15.3,2.5,42,101950,0,0,310,33,17,15,0,0,0,0,90,2.5,0,0,0,0,0,0,0,0,0,0,0,0,0
1999,11,13,19,0,,13.9,2.9,45,101970,0,0,305,0,0,0,0,0,0,0,90,1.7,0,0,0,0,0,0,0,0,0,0,0,0,0
1999,11,13,20,0,,13.4,3.4,49,101980,0,0,303,0,0,0,0,0,0,0,90,2,0,0,0,0,0,0,0,0,0,0,0,0,0
1999,11,13,21,0,,13.5,3.8,52,102000,0,0,304,0,0,0,0,0,0,0,110,2.7,0,0,0,0,0,0,0,0,0,0,0,0,0
1999,11,13,22,0,,13.5,6,61,101980,0,0,307,0,0,0,0,0,0,0,110,3,0,0,0,0,0,0,0,0,0,0,0,0,0
1999,11,13,23,0,,13.8,8.2,69,101970,0,0,310,0,0,0,0,0,0,0,110,2.7,0,0,0,0,0,0,0,0,0,0,0,0,0
1999,11,13,24,0,,14.1,10.4,78,101950,0,0,314,0,0,0,0,0,0,0,110,2.2,0,0,0,0,0,0,0,0,0,0,0,0,0
1999,11,14,1,0,,14.1,10.7,80,101920,0,0,319,0,0,0,0,0,0,0,110,2,1,0,0,0,0,0,0,0,0,0,0,0,0
1999,11,14,2,0,,14.2,11.1,81,101890,0,0,323,0,0,0,0,0,0,0,110,2,1,0,0,0,0,0,0,0,0,0,0,0,0
1999,11,14,3,0,,14.3,11.4,83,101860,0,0,327,0,0,0,0,0,0,0,110,2,2,0,0,0,0,0,0,0,0,0,0,0,0
1999,11,14,4,0,,14.5,11.4,82,101840,0,0,328,0,0,0,0,0,0,0,110,2,2,0,0,0,0,0,0,0,0,0,0,0,0
1999,11,14,5,0,,14.3,11.3,81,101810,0,0,327,0,0,0,0,0,0,0,90,1.3,2,0,0,0,0,0,0,0,0,0,0,0,0
1999,11,14,6,0,,14.7,11.3,80,101790,0,0,328,0,0,0,0,0,0,0,110,1.8,2,0,0,0,0,0,0,0,0,0,0,0,0
1999,11,14,7,0,,14.9,11.7,78,101780,0,0,328,0,0,0,0,0,0,0,90,2,2,0,0,0,0,0,0,0,0,0,0,0,0
1999,11,14,8,0,,15.3,12,75,101780,0,0,329,60,36,24,5099,3234,3705,0,70,2.3,1,0,0,0,0,0,0,0,0,0,0,0,0
1999,11,14,9,0,,17.2,12.4,73,101770,0,0,337,213,602,57,42149,61544,8788,0,70,3.3,1,0,0,0,0,0,0,0,0,0,0,0,0
1999,11,14,10,0,,18.5,13.5,76,101710,0,0,344,357,632,94,52499,64440,13552,0,90,4.3,1,0,0,0,0,0,0,0,0,0,0,0,0
1999,11,14,11,0,,18.6,14.6,80,101660,0,0,346,457,606,134,56105,59395,19650,0,70,5.7,1,0,0,0,0,0,0,0,0,0,0,0,0
1999,11,14,12,0,,18.7,15.7,83,101600,0,0,347,507,559,170,52853,51033,23788,0,70,6,1,0,0,0,0,0,0,0,0,0,0,0,0
1999,11,14,13,0,,18.6,15.7,84,101570,0,0,356,484,444,209,44758,38489,26487,0,70,7,3,0,0,0,0,0,0,0,0,0,0,0,0
1999,11,14,14,0,,18.5,15.6,84,101530,0,0,362,379,232,244,34655,18264,28523,0,70,7,6,0,0,0,0,0,0,0,0,0,0,0,0
1999,11,14,15,0,,18.2,15.6,85,101500,0,0,372,231,98,182,21476,7170,20313,0,90,4,8,0,0,0,0,0,0,0,0,0,0,0,0
1999,11,14,16,0,,17.9,15.5,86,101490,0,0,363,193,168,132,0,0,0,0,70,4,7,0,0,0,0,0,0,0,0,0,0,0,0
1999,11,14,17,0,,17.8,15.4,86,101480,0,0,357,116,317,56,0,0,0,0,70,2,5,0,0,0,0,0,0,0,0,0,0,0,0
1999,11,14,18,0,,17.5,15.3,87,101470,0,0,352,25,11,14,0,0,0,0,110,2.3,4,0,0,0,0,0,0,0,0,0,0,0,0
1999,11,14,19,0,,17.3,15.3,88,101470,0,0,357,0,0,0,0,0,0,0,90,2.7,6,0,0,0,0,0,0,0,0,0,0,0,0
1999,11,14,20,0,,17.4,15.4,88,101470,0,0,368,0,0,0,0,0,0,0,90,2.3,8,0,0,0,0,0,0,0,0,0,0,0,0
1999,11,14,21,0,,17.3,15.4,89,101470,0,0,386,0,0,0,0,0,0,0,90,1.7,10,0,0,0,0,0,0,0,0,0,0,0,0
1999,11,14,22,0,,17.3,15.4,89,101450,0,0,386,0,0,0,0,0,0,0,110,1.3,10,0,0,0,0,0,0,0,0,0,0,0,0
1999,11,14,23,0,,17.2,15.4,90,101440,0,0,385,0,0,0,0,0,0,0,110,1,10,0,0,0,0,0,0,0,0,0,0,0,0
1999,11,14,24,0,,17,15.4,90,101420,0,0,384,0,0,0,0,0,0,0,110,1.3,10,0,0,0,0,0,0,0,0,0,0,0,0
1999,11,15,1,0,,17,15,90,101400,0,0,384,0,0,0,0,0,0,0,90,1.7,10,0,0,0,0,0,0,0,0,0,0,0,0
1999,11,15,2,0,,16.9,14.7,89,101380,0,0,383,0,0,0,0,0,0,0,90,2.3,10,0,0,0,0,0,0,0,0,0,0,0,0
1999,11,15,3,0,,16.1,14.3,89,101360,0,0,378,0,0,0,0,0,0,0,20,5.3,10,0,0,0,0,0,0,0,0,0,0,0,0
1999,11,15,4,0,,15.4,13.2,86,101410,0,0,373,0,0,0,0,0,0,0,20,7,10,0,0,0,0,0,0,0,0,0,0,0,0
1999,11,15,5,0,,14.9,12,82,101460,0,0,369,0,0,0,0,0,0,0,20,9.7,10,0,0,0,0,0,0,0,0,0,0,0,0
1999,11,15,6,0,,14.3,10.9,79,101510,0,0,364,0,0,0,0,0,0,0,20,7.7,10,0,0,0,0,0,0,0,0,0,0,0,0
1999,11,15,7,0,,14.1,10,75,101590,0,0,362,0,0,0,0,0,0,0,20,7.3,10,0,0,0,0,0,0,0,0,0,0,0,0
1999,11,15,8,0,,13.9,9,72,101670,0,0,360,21,2,19,2512,85,2476,0,20,7.7,10,0,0,0,0,0,0,0,0,0,0,0,0
1999,11,15,9,0,,14,8.1,68,101750,0,0,359,79,39,69,10843,3857,8767,0,50,4.5,10,0,0,0,0,0,0,0,0,0,0,0,0
1999,11,15,10,0,,14,8,68,101740,0,0,359,140,43,122,16665,4056,14228,0,20,5.2,10,0,0,0,0,0,0,0,0,0,0,0,0
1999,11,15,11,0,,13.9,7.9,69,101730,0,0,358,179,38,159,20623,3631,18407,0,20,4.7,10,0,0,0,0,0,0,0,0,0,0,0,0
1999,11,15,12,0,,13.7,7.8,69,101720,0,0,357,213,41,188,23818,3891,21615,0,20,6,10,0,0,0,0,0,0,0,0,0,0,0,0
1999,11,15,13,0,,13.7,7.1,66,101690,0,0,346,279,79,230,29569,7463,26048,0,360,5.3,9,0,0,0,0,0,0,0,0,0,0,0,0
1999,11,15,14,0,,13.6,6.3,64,101650,0,0,338,298,117,230,29268,10689,25708,0,340,4.7,8,0,0,0,0,0,0,0,0,0,0,0,0
1999,11,15,15,0,,12.9,5.6,61,101620,0,0,328,289,190,195,23131,11200,21341,0,340,4.7,7,0,0,0,0,0,0,0,0,0,0,0,0
1999,11,15,16,0,,12.7,5.2,61,101660,0,0,325,204,205,131,0,0,0,0,360,3.8,7,0,0,0,0,0,0,0,0,0,0,0,0
1999,11,15,17,0,,12.1,4.9,61,101710,0,0,321,116,334,54,0,0,0,0,360,4,6,0,0,0,0,0,0,0,0,0,0,0,0
1999,11,15,18,0,,11.7,4.5,61,101750,0,0,318,23,8,14,0,0,0,0,360,5,6,0,0,0,0,0,0,0,0,0,0,0,0
1999,11,15,19,0,,11.5,4.8,63,101790,0,0,319,0,0,0,0,0,0,0,20,5.3,7,0,0,0,0,0,0,0,0,0,0,0,0
1999,11,15,20,0,,11.4,5,64,101830,0,0,322,0,0,0,0,0,0,0,20,4.3,7,0,0,0,0,0,0,0,0,0,0,0,0
1999,11,15,21,0,,11.3,5.3,66,101870,0,0,326,0,0,0,0,0,0,0,360,3.3,8,0,0,0,0,0,0,0,0,0,0,0,0
1999,11,15,22,0,,11.4,5,65,101890,0,0,326,0,0,0,0,0,0,0,340,5.7,8,0,0,0,0,0,0,0,0,0,0,0,0
1999,11,15,23,0,,11.3,4.6,65,101920,0,0,325,0,0,0,0,0,0,0,360,3.7,8,0,0,0,0,0,0,0,0,0,0,0,0
1999,11,15,24,0,,11.2,4.3,64,101940,0,0,324,0,0,0,0,0,0,0,20,5,8,0,0,0,0,0,0,0,0,0,0,0,0
1999,11,16,1,0,,10.9,4,62,101950,0,0,322,0,0,0,0,0,0,0,360,5.5,8,0,0,0,0,0,0,0,0,0,0,0,0
1999,11,16,2,0,,10.9,3.7,61,101970,0,0,322,0,0,0,0,0,0,0,20,6.5,8,0,0,0,0,0,0,0,0,0,0,0,0
1999,11,16,3,0,,10.9,3.4,59,101980,0,0,321,0,0,0,0,0,0,0,20,6.8,8,0,0,0,0,0,0,0,0,0,0,0,0
1999,11,16,4,0,,10.8,3,58,102010,0,0,320,0,0,0,0,0,0,0,20,5.3,8,0,0,0,0,0,0,0,0,0,0,0,0
1999,11,16,5,0,,10.8,2.5,57,102030,0,0,320,0,0,0,0,0,0,0,20,6.3,8,0,0,0,0,0,0,0,0,0,0,0,0
1999,11,16,6,0,,10.7,2.1,56,102060,0,0,319,0,0,0,0,0,0,0,20,5,8,0,0,0,0,0,0,0,0,0,0,0,0
1999,11,16,7,0,,10.6,1.7,54,102110,0,0,316,0,0,0,0,0,0,0,20,5.3,8,0,0,0,0,0,0,0,0,0,0,0,0
1999,11,16,8,0,,10.5,1.3,53,102150,0,0,314,46,23,23,4067,2221,3126,0,20,7,7,0,0,0,0,0,0,0,0,0,0,0,0
1999,11,16,9,0,,10.7,0.9,51,102200,0,0,313,157,316,78,28999,31593,12103,0,20,6,7,0,0,0,0,0,0,0,0,0,0,0,0
1999,11,16,10,0,,10.8,0.4,49,102240,0,0,311,261,273,150,36060,27124,19860,0,20,6.2,7,0,0,0,0,0,0,0,0,0,0,0,0
1999,11,16,11,0,,10.9,-0.2,47,102270,0,0,310,383,375,186,46339,37273,23718,0,20,6.3,6,0,0,0,0,0,0,0,0,0,0,0,0
1999,11,16,12,0,,10.9,-0.7,45,102310,0,0,308,434,326,240,46109,32807,27636,0,360,5.7,6,0,0,0,0,0,0,0,0,0,0,0,0
1999,11,16,13,0,,11,-0.2,46,102260,0,0,311,402,229,262,39890,22099,29529,0,360,5,7,0,0,0,0,0,0,0,0,0,0,0,0
1999,11,16,14,0,,11,0.4,48,102200,0,0,315,377,237,240,33613,20726,26763,0,360,6,7,0,0,0,0,0,0,0,0,0,0,0,0
1999,11,16,15,0,,11.2,0.9,49,102150,0,0,320,268,156,192,22859,12423,20902,0,340,4.7,8,0,0,0,0,0,0,0,0,0,0,0,0
1999,11,16,16,0,,11.1,0.4,48,102180,0,0,317,199,193,130,0,0,0,0,20,5,8,0,0,0,0,0,0,0,0,0,0,0,0
1999,11,16,17,0,,10.8,0,47,102210,0,0,314,112,304,55,0,0,0,0,20,5.8,7,0,0,0,0,0,0,0,0,0,0,0,0
1999,11,16,18,0,,10.6,-0.5,46,102240,0,0,311,21,7,14,0,0,0,0,360,5.3,7,0,0,0,0,0,0,0,0,0,0,0,0
1999,11,16,19,0,,10.8,0.2,48,102330,0,0,311,0,0,0,0,0,0,0,360,4.7,7,0,0,0,0,0,0,0,0,0,0,0,0
1999,11,16,20,0,,10.9,1,51,102410,0,0,311,0,0,0,0,0,0,0,20,4.3,6,0,0,0,0,0,0,0,0,0,0,0,0
1999,11,16,21,0,,11,1.7,53,102500,0,0,311,0,0,0,0,0,0,0,20,3.7,6,0,0,0,0,0,0,0,0,0,0,0,0
1999,11,16,22,0,,10.7,1.3,53,102510,0,0,309,0,0,0,0,0,0,0,360,4,6,0,0,0,0,0,0,0,0,0,0,0,0
1999,11,16,23,0,,10.6,1,52,102510,0,0,309,0,0,0,0,0,0,0,20,3,6,0,0,0,0,0,0,0,0,0,0,0,0
1999,11,16,24,0,,10.2,0.6,52,102520,0,0,306,0,0,0,0,0,0,0,20,3,6,0,0,0,0,0,0,0,0,0,0,0,0
1999,11,17,1,0,,10.2,0.8,52,102510,0,0,307,0,0,0,0,0,0,0,20,2.7,6,0,0,0,0,0,0,0,0,0,0,0,0
1999,11,17,2,0,,10.3,1.1,53,102490,0,0,307,0,0,0,0,0,0,0,340,2,6,0,0,0,0,0,0,0,0,0,0,0,0
1999,11,17,3,0,,10.3,1.3,53,102480,0,0,308,0,0,0,0,0,0,0,360,3,6,0,0,0,0,0,0,0,0,0,0,0,0
1999,11,17,4,0,,10.2,1.3,53,102480,0,0,307,0,0,0,0,0,0,0,360,3,6,0,0,0,0,0,0,0,0,0,0,0,0
1999,11,17,5,0,,9.9,1.3,54,102480,0,0,306,0,0,0,0,0,0,0,360,2.7,6,0,0,0,0,0,0,0,0,0,0,0,0
1999,11,17,6,0,,10.1,1.3,54,102480,0,0,307,0,0,0,0,0,0,0,20,2.3,6,0,0,0,0,0,0,0,0,0,0,0,0
1999,11,17,7,0,,10.1,1.4,54,102510,0,0,309,0,0,0,0,0,0,0,20,2,7,0,0,0,0,0,0,0,0,0,0,0,0
1999,11,17,8,0,,9.5,1.4,53,102540,0,0,309,39,14,25,3562,1281,3024,0,180,1.3,7,0,0,0,0,0,0,0,0,0,0,0,0
1999,11,17,9,0,,10.8,1.5,53,102570,0,0,319,124,157,85,19404,15664,11083,0,230,1.5,8,0,0,0,0,0,0,0,0,0,0,0,0
1999,11,17,10,0,,11,1.4,52,102550,0,0,321,219,163,153,28496,16501,18699,0,360,2,8,0,0,0,0,0,0,0,0,0,0,0,0
1999,11,17,11,0,,11.1,1.2,51,102540,0,0,324,243,93,194,28404,9438,22708,0,20,1.7,9,0,0,0,0,0,0,0,0,0,0,0,0
1999,11,17,12,0,,11.5,1.1,50,102520,0,0,328,279,91,225,30504,8804,25574,0,360,2,9,0,0,0,0,0,0,0,0,0,0,0,0
1999,11,17,13,0,,11.2,0.9,49,102480,0,0,327,268,74,223,28472,7091,25168,0,290,2.3,9,0,0,0,0,0,0,0,0,0,0,0,0
1999,11,17,14,0,,11.3,0.8,49,102440,0,0,327,255,79,210,25736,7213,23370,0,320,2.7,9,0,0,0,0,0,0,0,0,0,0,0,0
1999,11,17,15,0,,11.7,0.6,48,102400,0,0,329,227,100,179,20775,7858,19554,0,320,4,9,0,0,0,0,0,0,0,0,0,0,0,0
1999,11,17,16,0,,11.7,1.1,49,102390,0,0,320,198,196,129,0,0,0,0,340,4.7,8,0,0,0,0,0,0,0,0,0,0,0,0
1999,11,17,17,0,,11.8,1.6,51,102380,0,0,316,121,336,60,0,0,0,0,360,4,6,0,0,0,0,0,0,0,0,0,0,0,0
1999,11,17,18,0,,11.5,2.1,52,102370,0,0,311,25,13,12,0,0,0,0,360,4.7,5,0,0,0,0,0,0,0,0,0,0,0,0
1999,11,17,19,0,,11.2,2.8,57,102370,0,0,309,0,0,0,0,0,0,0,360,5,4,0,0,0,0,0,0,0,0,0,0,0,0
1999,11,17,20,0,,10.4,3.6,61,102380,0,0,305,0,0,0,0,0,0,0,340,4.3,4,0,0,0,0,0,0,0,0,0,0,0,0
1999,11,17,21,0,,10.3,4.3,66,102380,0,0,304,0,0,0,0,0,0,0,320,1.7,3,0,0,0,0,0,0,0,0,0,0,0,0
1999,11,17,22,0,,11.1,4.4,66,102350,0,0,310,0,0,0,0,0,0,0,270,0.7,4,0,0,0,0,0,0,0,0,0,0,0,0
1999,11,17,23,0,,11,4.5,65,102320,0,0,313,0,0,0,0,0,0,0,270,1.3,6,0,0,0,0,0,0,0,0,0,0,0,0
1999,11,17,24,0,,11,4.6,65,102290,0,0,318,0,0,0,0,0,0,0,320,3.7,7,0,0,0,0,0,0,0,0,0,0,0,0
1999,11,18,1,0,,11.2,3.7,61,102270,0,0,318,0,0,0,0,0,0,0,340,3.5,7,0,0,0,0,0,0,0,0,0,0,0,0
1999,11,18,2,0,,11.2,2.8,56,102260,0,0,317,0,0,0,0,0,0,0,320,2,7,0,0,0,0,0,0,0,0,0,0,0,0
1999,11,18,3,0,,11.5,1.9,52,102240,0,0,317,0,0,0,0,0,0,0,340,4.7,7,0,0,0,0,0,0,0,0,0,0,0,0
1999,11,18,4,0,,11.6,2.8,55,102210,0,0,322,0,0,0,0,0,0,0,320,4,8,0,0,0,0,0,0,0,0,0,0,0,0
1999,11,18,5,0,,11.9,3.6,58,102190,0,0,328,0,0,0,0,0,0,0,360,6.7,8,0,0,0,0,0,0,0,0,0,0,0,0
1999,11,18,6,0,,11.7,4.5,61,102160,0,0,333,0,0,0,0,0,0,0,360,4.7,9,0,0,0,0,0,0,0,0,0,0,0,0
1999,11,18,7,0,,11.8,5,64,102210,0,0,332,0,0,0,0,0,0,0,340,4.5,9,0,0,0,0,0,0,0,0,0,0,0,0
1999,11,18,8,0,,10.8,5.4,68,102250,0,0,326,29,6,23,3036,573,2798,0,250,3,8,0,0,0,0,0,0,0,0,0,0,0,0
1999,11,18,9,0,,10.9,5.9,71,102300,0,0,325,109,113,82,16644,11017,10831,0,340,0.7,8,0,0,0,0,0,0,0,0,0,0,0,0
1999,11,18,10,0,,12.1,5.5,67,102290,0,0,329,216,161,151,28215,15961,18793,0,50,5.2,8,0,0,0,0,0,0,0,0,0,0,0,0
1999,11,18,11,0,,12.5,5,62,102280,0,0,331,293,163,208,34183,16222,24446,0,20,3.7,8,0,0,0,0,0,0,0,0,0,0,0,0
1999,11,18,12,0,,12.9,4.6,58,102270,0,0,332,333,152,244,36421,14894,28126,0,360,4.7,8,0,0,0,0,0,0,0,0,0,0,0,0
1999,11,18,13,0,,13.2,4.3,56,102220,0,0,330,392,220,258,39024,20809,29383,0,340,5.2,7,0,0,0,0,0,0,0,0,0,0,0,0
1999,11,18,14,0,,13.4,4.1,54,102160,0,0,327,360,213,238,32619,18286,26664,0,360,4.7,7,0,0,0,0,0,0,0,0,0,0,0,0
1999,11,18,15,0,,13.7,3.8,52,102110,0,0,326,339,337,176,22282,19763,19249,0,320,3.5,6,0,0,0,0,0,0,0,0,0,0,0,0
1999,11,18,16,0,,13.2,3.2,51,102110,0,0,320,255,422,108,0,0,0,0,340,3.7,5,0,0,0,0,0,0,0,0,0,0,0,0
1999,11,18,17,0,,13,2.7,51,102120,0,0,316,133,460,50,0,0,0,0,320,3,4,0,0,0,0,0,0,0,0,0,0,0,0
1999,11,18,18,0,,12.2,2.1,50,102120,0,0,309,26,15,11,0,0,0,0,360,2,3,0,0,0,0,0,0,0,0,0,0,0,0
1999,11,18,19,0,,11.1,2.1,53,102160,0,0,309,0,0,0,0,0,0,0,200,2.5,5,0,0,0,0,0,0,0,0,0,0,0,0
1999,11,18,20,0,,10.5,2.1,55,102190,0,0,310,0,0,0,0,0,0,0,200,1.7,6,0,0,0,0,0,0,0,0,0,0,0,0
1999,11,18,21,0,,10.4,2.1,58,102230,0,0,318,0,0,0,0,0,0,0,200,2,8,0,0,0,0,0,0,0,0,0,0,0,0
1999,11,18,22,0,,10.2,2.5,62,102230,0,0,308,0,0,0,0,0,0,0,230,2.3,6,0,0,0,0,0,0,0,0,0,0,0,0
1999,11,18,23,0,,9.4,3,65,102240,0,0,299,0,0,0,0,0,0,0,200,1.3,3,0,0,0,0,0,0,0,0,0,0,0,0
1999,11,18,24,0,,8.7,3.4,69,102240,0,0,289,0,0,0,0,0,0,0,200,2.7,1,0,0,0,0,0,0,0,0,0,0,0,0
1999,11,19,1,0,,8.2,3.3,71,102200,0,0,285,0,0,0,0,0,0,0,180,2.5,1,0,0,0,0,0,0,0,0,0,0,0,0
1999,11,19,2,0,,7.9,3.3,72,102160,0,0,282,0,0,0,0,0,0,0,200,2,0,0,0,0,0,0,0,0,0,0,0,0,0
1999,11,19,3,0,,7.7,3.2,74,102120,0,0,279,0,0,0,0,0,0,0,180,2.3,0,0,0,0,0,0,0,0,0,0,0,0,0
1999,11,19,4,0,,7.4,3.4,76,102110,0,0,279,0,0,0,0,0,0,0,180,2.2,0,0,0,0,0,0,0,0,0,0,0,0,0
1999,11,19,5,0,,7.2,3.7,77,102110,0,0,278,0,0,0,0,0,0,0,200,2.5,0,0,0,0,0,0,0,0,0,0,0,0,0
1999,11,19,6,0,,7.4,3.9,79,102100,0,0,279,0,0,0,0,0,0,0,180,2.7,0,0,0,0,0,0,0,0,0,0,0,0,0
1999,11,19,7,0,,7.3,4.7,79,102110,0,0,285,0,0,0,0,0,0,0,180,2.3,1,0,0,0,0,0,0,0,0,0,0,0,0
1999,11,19,8,0,,7.5,5.6,80,102120,0,0,291,51,26,25,4311,2478,3287,0,200,2,2,0,0,0,0,0,0,0,0,0,0,0,0
1999,11,19,9,0,,9.7,6.4,80,102130,0,0,304,182,482,65,35272,48611,9789,0,180,1.7,3,0,0,0,0,0,0,0,0,0,0,0,0
1999,11,19,10,0,,12.3,6.5,75,102090,0,0,318,322,549,103,47576,54756,15439,0,200,1.3,4,0,0,0,0,0,0,0,0,0,0,0,0
1999,11,19,11,0,,13.2,6.6,69,102040,0,0,324,409,495,153,49529,48218,20739,0,50,2.2,5,0,0,0,0,0,0,0,0,0,0,0,0
1999,11,19,12,0,,13.3,6.7,64,102000,0,0,328,422,318,235,45043,30894,27927,0,50,3,6,0,0,0,0,0,0,0,0,0,0,0,0
1999,11,19,13,0,,13.5,6.5,63,101950,0,0,332,361,176,255,36766,16507,29162,0,50,2.5,7,0,0,0,0,0,0,0,0,0,0,0,0
1999,11,19,14,0,,13.3,6.3,63,101910,0,0,336,291,118,224,28469,10661,25022,0,50,2.5,8,0,0,0,0,0,0,0,0,0,0,0,0
1999,11,19,15,0,,13.3,6.1,62,101860,0,0,343,204,76,167,19245,5783,18369,0,50,2.7,9,0,0,0,0,0,0,0,0,0,0,0,0
1999,11,19,16,0,,13.3,6.3,64,101890,0,0,341,142,78,115,0,0,0,0,70,1.7,9,0,0,0,0,0,0,0,0,0,0,0,0
1999,11,19,17,0,,13,6.5,66,101920,0,0,337,81,124,58,0,0,0,0,70,1.5,8,0,0,0,0,0,0,0,0,0,0,0,0
1999,11,19,18,0,,12.7,6.7,68,101950,0,0,334,12,2,11,0,0,0,0,70,0.5,8,0,0,0,0,0,0,0,0,0,0,0,0
1999,11,19,19,0,,12.1,6.8,71,101940,0,0,328,0,0,0,0,0,0,0,200,1.5,7,0,0,0,0,0,0,0,0,0,0,0,0
1999,11,19,20,0,,11.1,6.9,73,101920,0,0,320,0,0,0,0,0,0,0,200,1.5,7,0,0,0,0,0,0,0,0,0,0,0,0
1999,11,19,21,0,,11,7,76,101910,0,0,318,0,0,0,0,0,0,0,200,1.5,6,0,0,0,0,0,0,0,0,0,0,0,0
1999,11,19,22,0,,10.6,6.1,73,101910,0,0,315,0,0,0,0,0,0,0,200,2,6,0,0,0,0,0,0,0,0,0,0,0,0
1999,11,19,23,0,,10.5,5.2,69,101910,0,0,313,0,0,0,0,0,0,0,200,2,6,0,0,0,0,0,0,0,0,0,0,0,0
1999,11,19,24,0,,10.1,4.3,66,101910,0,0,310,0,0,0,0,0,0,0,200,2.8,6,0,0,0,0,0,0,0,0,0,0,0,0
1999,11,20,1,0,,10.1,3.8,63,101890,0,0,310,0,0,0,0,0,0,0,200,3.3,6,0,0,0,0,0,0,0,0,0,0,0,0
1999,11,20,2,0,,10.1,3.2,61,101860,0,0,309,0,0,0,0,0,0,0,180,3,6,0,0,0,0,0,0,0,0,0,0,0,0
1999,11,20,3,0,,10.7,2.7,58,101840,0,0,311,0,0,0,0,0,0,0,180,1,6,0,0,0,0,0,0,0,0,0,0,0,0
1999,11,20,4,0,,10.7,5.2,67,101840,0,0,319,0,0,0,0,0,0,0,180,2.3,7,0,0,0,0,0,0,0,0,0,0,0,0
1999,11,20,5,0,,10.8,7.8,75,101830,0,0,331,0,0,0,0,0,0,0,200,2,9,0,0,0,0,0,0,0,0,0,0,0,0
1999,11,20,6,0,,12.9,10.3,84,101830,0,0,357,0,0,0,0,0,0,0,360,3.5,10,0,0,0,0,0,0,0,0,0,0,0,0
1999,11,20,7,0,,13.6,9.2,77,101890,0,0,355,0,0,0,0,0,0,0,250,2,10,0,0,0,0,0,0,0,0,0,0,0,0
1999,11,20,8,0,,13.5,8.1,70,101960,0,0,350,27,6,22,2853,494,2650,0,290,3,9,0,0,0,0,0,0,0,0,0,0,0,0
1999,11,20,9,0,,13.7,7,63,102020,0,0,346,101,98,78,15325,9485,10385,0,320,2.5,9,0,0,0,0,0,0,0,0,0,0,0,0
1999,11,20,10,0,,14,6.3,59,102020,0,0,338,201,139,146,26284,13656,18315,0,320,2,8,0,0,0,0,0,0,0,0,0,0,0,0
1999,11,20,11,0,,14.3,5.7,56,102020,0,0,332,351,298,198,41473,29426,23996,0,340,3.3,6,0,0,0,0,0,0,0,0,0,0,0,0
1999,11,20,12,0,,14.8,5,52,102020,0,0,330,437,399,205,47127,38455,25932,0,320,3.2,5,0,0,0,0,0,0,0,0,0,0,0,0
1999,11,20,13,0,,15.3,4,48,101980,0,0,329,499,542,173,45455,50846,22161,0,320,4.3,4,0,0,0,0,0,0,0,0,0,0,0,0
1999,11,20,14,0,,15.4,3.1,45,101930,0,0,327,465,538,161,34679,45860,19949,0,290,4.7,4,0,0,0,0,0,0,0,0,0,0,0,0
1999,11,20,15,0,,15.3,2.1,41,101890,0,0,323,399,581,122,19271,33969,14186,0,320,3,3,0,0,0,0,0,0,0,0,0,0,0,0
1999,11,20,16,0,,15,2.5,44,101910,0,0,323,282,571,84,0,0,0,0,340,4,3,0,0,0,0,0,0,0,0,0,0,0,0
1999,11,20,17,0,,14.5,3,46,101930,0,0,321,137,524,44,0,0,0,0,340,4,3,0,0,0,0,0,0,0,0,0,0,0,0
1999,11,20,18,0,,14,3.4,49,101950,0,0,319,25,14,11,0,0,0,0,340,3.3,3,0,0,0,0,0,0,0,0,0,0,0,0
1999,11,20,19,0,,13.7,3.8,52,102010,0,0,318,0,0,0,0,0,0,0,320,1.3,3,0,0,0,0,0,0,0,0,0,0,0,0
1999,11,20,20,0,,12.8,4.2,56,102070,0,0,315,0,0,0,0,0,0,0,250,1,3,0,0,0,0,0,0,0,0,0,0,0,0
1999,11,20,21,0,,12.4,4.6,59,102130,0,0,313,0,0,0,0,0,0,0,250,2.7,3,0,0,0,0,0,0,0,0,0,0,0,0
1999,11,20,22,0,,12.2,4.9,61,102150,0,0,316,0,0,0,0,0,0,0,230,1,4,0,0,0,0,0,0,0,0,0,0,0,0
1999,11,20,23,0,,11.9,5.2,64,102170,0,0,318,0,0,0,0,0,0,0,230,2,6,0,0,0,0,0,0,0,0,0,0,0,0
1999,11,20,24,0,,11.6,5.5,66,102190,0,0,322,0,0,0,0,0,0,0,200,2,7,0,0,0,0,0,0,0,0,0,0,0,0
1999,11,21,1,0,,11.3,5.3,67,102150,0,0,316,0,0,0,0,0,0,0,200,1.7,6,0,0,0,0,0,0,0,0,0,0,0,0
1999,11,21,2,0,,10.5,5,68,102110,0,0,309,0,0,0,0,0,0,0,200,2,4,0,0,0,0,0,0,0,0,0,0,0,0
1999,11,21,3,0,,10,4.8,69,102070,0,0,303,0,0,0,0,0,0,0,200,2.3,3,0,0,0,0,0,0,0,0,0,0,0,0
1999,11,21,4,0,,9.6,4.7,70,102080,0,0,298,0,0,0,0,0,0,0,180,2,2,0,0,0,0,0,0,0,0,0,0,0,0
1999,11,21,5,0,,9.2,4.7,72,102090,0,0,293,0,0,0,0,0,0,0,200,3,1,0,0,0,0,0,0,0,0,0,0,0,0
1999,11,21,6,0,,9.2,4.6,73,102100,0,0,287,0,0,0,0,0,0,0,160,2,0,0,0,0,0,0,0,0,0,0,0,0,0
1999,11,21,7,0,,8.5,4.8,71,102150,0,0,284,0,0,0,0,0,0,0,200,1.8,0,0,0,0,0,0,0,0,0,0,0,0,0
1999,11,21,8,0,,8.9,4.9,68,102190,0,0,286,49,27,23,4080,2528,3053,0,180,2,0,0,0,0,0,0,0,0,0,0,0,0,0
1999,11,21,9,0,,11.1,5.1,66,102240,0,0,295,187,560,56,37734,56515,8492,0,200,1.7,0,0,0,0,0,0,0,0,0,0,0,0,0
1999,11,21,10,0,,14.1,5.4,62,102250,0,0,308,351,701,76,52383,71134,11101,0,0,0,0,0,0,0,0,0,0,0,0,0,0,0,0
1999,11,21,11,0,,14.6,5.6,59,102250,0,0,311,463,706,104,56652,71011,14692,0,20,0.8,0,0,0,0,0,0,0,0,0,0,0,0,0
1999,11,21,12,0,,15,5.9,55,102260,0,0,313,526,690,127,55257,67664,18151,0,20,3,0,0,0,0,0,0,0,0,0,0,0,0,0
1999,11,21,13,0,,15.4,5.8,54,102210,0,0,315,517,608,154,46118,56759,20254,0,50,3,0,0,0,0,0,0,0,0,0,0,0,0,0
1999,11,21,14,0,,15.7,5.6,52,102150,0,0,316,477,586,148,34570,49385,18811,0,50,2.7,0,0,0,0,0,0,0,0,0,0,0,0,0
1999,11,21,15,0,,15.5,5.5,51,102100,0,0,315,397,582,121,19181,33140,14277,0,50,2.5,0,0,0,0,0,0,0,0,0,0,0,0,0
1999,11,21,16,0,,15.1,5.4,53,102120,0,0,313,276,550,87,0,0,0,0,20,1.7,0,0,0,0,0,0,0,0,0,0,0,0,0
1999,11,21,17,0,,14.5,5.4,55,102130,0,0,310,133,493,46,0,0,0,0,20,1,0,0,0,0,0,0,0,0,0,0,0,0,0
1999,11,21,18,0,,13.7,5.3,57,102150,0,0,307,24,14,10,0,0,0,0,50,1,0,0,0,0,0,0,0,0,0,0,0,0,0
1999,11,21,19,0,,12.4,5.5,61,102180,0,0,301,0,0,0,0,0,0,0,200,2.3,0,0,0,0,0,0,0,0,0,0,0,0,0
1999,11,21,20,0,,11.4,5.6,66,102210,0,0,297,0,0,0,0,0,0,0,200,2.7,0,0,0,0,0,0,0,0,0,0,0,0,0
1999,11,21,21,0,,10.9,5.8,70,102240,0,0,295,0,0,0,0,0,0,0,180,2.8,0,0,0,0,0,0,0,0,0,0,0,0,0
1999,11,21,22,0,,10.4,4.9,69,102240,0,0,292,0,0,0,0,0,0,0,200,2,0,0,0,0,0,0,0,0,0,0,0,0,0
1999,11,21,23,0,,9.8,4.1,67,102240,0,0,289,0,0,0,0,0,0,0,180,2.3,0,0,0,0,0,0,0,0,0,0,0,0,0
1999,11,21,24,0,,9.4,3.2,66,102240,0,0,286,0,0,0,0,0,0,0,180,3.7,0,0,0,0,0,0,0,0,0,0,0,0,0
1999,11,22,1,0,,9.3,2.7,65,102200,0,0,285,0,0,0,0,0,0,0,200,3.3,0,0,0,0,0,0,0,0,0,0,0,0,0
1999,11,22,2,0,,9,2.2,63,102160,0,0,283,0,0,0,0,0,0,0,200,4,0,0,0,0,0,0,0,0,0,0,0,0,0
1999,11,22,3,0,,8.7,1.7,62,102120,0,0,282,0,0,0,0,0,0,0,180,3.3,0,0,0,0,0,0,0,0,0,0,0,0,0
1999,11,22,4,0,,8.4,1.8,63,102110,0,0,281,0,0,0,0,0,0,0,200,2.3,0,0,0,0,0,0,0,0,0,0,0,0,0
1999,11,22,5,0,,8.6,1.8,63,102110,0,0,281,0,0,0,0,0,0,0,200,3,0,0,0,0,0,0,0,0,0,0,0,0,0
1999,11,22,6,0,,8.5,1.9,64,102100,0,0,281,0,0,0,0,0,0,0,200,2.8,0,0,0,0,0,0,0,0,0,0,0,0,0
1999,11,22,7,0,,8.9,2.3,60,102100,0,0,294,0,0,0,0,0,0,0,200,2.7,2,0,0,0,0,0,0,0,0,0,0,0,0
1999,11,22,8,0,,9.4,2.6,57,102110,0,0,302,45,21,24,4045,1975,3249,0,180,3.3,5,0,0,0,0,0,0,0,0,0,0,0,0
1999,11,22,9,0,,12.3,3,53,102110,0,0,322,151,312,79,28118,30949,12207,0,160,2.7,7,0,0,0,0,0,0,0,0,0,0,0,0
1999,11,22,10,0,,14.5,6,59,102090,0,0,338,265,353,128,37611,34326,17800,0,90,1.7,7,0,0,0,0,0,0,0,0,0,0,0,0
1999,11,22,11,0,,16.7,8.9,65,102080,0,0,354,328,251,201,38888,24240,24636,0,70,2.8,8,0,0,0,0,0,0,0,0,0,0,0,0
1999,11,22,12,0,,17.1,11.9,71,102060,0,0,362,351,192,241,38182,17929,28398,0,50,4.7,8,0,0,0,0,0,0,0,0,0,0,0,0
1999,11,22,13,0,,18.2,11.8,70,101960,0,0,372,291,100,231,30445,9234,26259,0,70,2.7,9,0,0,0,0,0,0,0,0,0,0,0,0
1999,11,22,14,0,,17.8,11.6,68,101870,0,0,376,242,74,200,24641,6431,22601,0,250,2.2,9,0,0,0,0,0,0,0,0,0,0,0,0
1999,11,22,15,0,,17.6,11.5,67,101770,0,0,382,152,35,136,15457,2534,15086,0,180,2,10,0,0,0,0,0,0,0,0,0,0,0,0
1999,11,22,16,0,,17.6,9.5,61,101780,0,0,379,101,32,90,0,0,0,0,180,0.5,10,0,0,0,0,0,0,0,0,0,0,0,0
1999,11,22,17,0,,16.2,7.5,55,101780,0,0,369,47,29,42,0,0,0,0,180,2.7,10,0,0,0,0,0,0,0,0,0,0,0,0
1999,11,22,18,0,,16.1,5.5,49,101790,0,0,366,5,0,5,0,0,0,0,230,2,10,0,0,0,0,0,0,0,0,0,0,0,0
1999,11,22,19,0,,15.6,6.5,54,101810,0,0,358,0,0,0,0,0,0,0,180,2.5,9,0,0,0,0,0,0,0,0,0,0,0,0
1999,11,22,20,0,,15.7,7.6,60,101820,0,0,354,0,0,0,0,0,0,0,270,1.2,9,0,0,0,0,0,0,0,0,0,0,0,0
1999,11,22,21,0,,14.9,8.6,65,101840,0,0,347,0,0,0,0,0,0,0,270,1.8,8,0,0,0,0,0,0,0,0,0,0,0,0
1999,11,22,22,0,,15.6,8.2,65,101860,0,0,350,0,0,0,0,0,0,0,230,2.8,8,0,0,0,0,0,0,0,0,0,0,0,0
1999,11,22,23,0,,15,7.9,66,101870,0,0,346,0,0,0,0,0,0,0,180,1.3,8,0,0,0,0,0,0,0,0,0,0,0,0
1999,11,22,24,0,,14,7.5,66,101890,0,0,341,0,0,0,0,0,0,0,200,2,8,0,0,0,0,0,0,0,0,0,0,0,0
1999,11,23,1,0,,13.5,8.1,69,101860,0,0,334,0,0,0,0,0,0,0,200,1,7,0,0,0,0,0,0,0,0,0,0,0,0
1999,11,23,2,0,,13.1,8.7,71,101830,0,0,329,0,0,0,0,0,0,0,200,2.3,6,0,0,0,0,0,0,0,0,0,0,0,0
1999,11,23,3,0,,13.8,9.3,74,101800,0,0,330,0,0,0,0,0,0,0,160,3,5,0,0,0,0,0,0,0,0,0,0,0,0
1999,11,23,4,0,,13.8,9.5,76,101820,0,0,326,0,0,0,0,0,0,0,140,2.7,3,0,0,0,0,0,0,0,0,0,0,0,0
1999,11,23,5,0,,13.8,9.6,77,101840,0,0,321,0,0,0,0,0,0,0,140,2.7,2,0,0,0,0,0,0,0,0,0,0,0,0
1999,11,23,6,0,,13.3,9.8,79,101860,0,0,310,0,0,0,0,0,0,0,110,2.3,0,0,0,0,0,0,0,0,0,0,0,0,0
1999,11,23,7,0,,13.6,10.2,76,101890,0,0,312,0,0,0,0,0,0,0,140,3,0,0,0,0,0,0,0,0,0,0,0,0,0
1999,11,23,8,0,,13.7,10.5,74,101910,0,0,313,47,25,22,3906,2288,2991,0,140,2.3,0,0,0,0,0,0,0,0,0,0,0,0,0
1999,11,23,9,0,,16,10.9,71,101940,0,0,323,189,610,49,38890,61528,7459,0,140,2.5,0,0,0,0,0,0,0,0,0,0,0,0,0
1999,11,23,10,0,,17.6,10.1,66,101930,0,0,334,342,691,76,51585,70363,11193,0,110,2.7,1,0,0,0,0,0,0,0,0,0,0,0,0
1999,11,23,11,0,,17.9,9.3,61,101910,0,0,338,457,705,102,56175,71043,14611,0,70,4,1,0,0,0,0,0,0,0,0,0,0,0,0
1999,11,23,12,0,,17.6,8.5,56,101900,0,0,338,499,624,142,52874,60529,20000,0,70,4.7,2,0,0,0,0,0,0,0,0,0,0,0,0
1999,11,23,13,0,,17.9,9.4,58,101850,0,0,340,486,529,173,44506,48354,22693,0,70,3.7,2,0,0,0,0,0,0,0,0,0,0,0,0
1999,11,23,14,0,,18.2,10.2,61,101810,0,0,340,478,604,142,34167,49492,18564,0,70,5,1,0,0,0,0,0,0,0,0,0,0,0,0
1999,11,23,15,0,,18.2,11.1,63,101760,0,0,340,394,585,118,19030,31367,14486,0,70,4.3,1,0,0,0,0,0,0,0,0,0,0,0,0
1999,11,23,16,0,,17.9,11.4,67,101750,0,0,339,275,566,83,0,0,0,0,50,4.3,1,0,0,0,0,0,0,0,0,0,0,0,0
1999,11,23,17,0,,17.2,11.7,71,101740,0,0,336,129,480,46,0,0,0,0,70,3,1,0,0,0,0,0,0,0,0,0,0,0,0
1999,11,23,18,0,,16.5,12,75,101730,0,0,333,22,10,11,0,0,0,0,90,1.7,1,0,0,0,0,0,0,0,0,0,0,0,0
1999,11,23,19,0,,16,11.8,76,101750,0,0,328,0,0,0,0,0,0,0,180,1.7,1,0,0,0,0,0,0,0,0,0,0,0,0
1999,11,23,20,0,,15.5,11.5,77,101770,0,0,324,0,0,0,0,0,0,0,160,2,0,0,0,0,0,0,0,0,0,0,0,0,0
1999,11,23,21,0,,15.1,11.3,78,101790,0,0,320,0,0,0,0,0,0,0,160,2,0,0,0,0,0,0,0,0,0,0,0,0,0
1999,11,23,22,0,,14.7,10.9,79,101770,0,0,317,0,0,0,0,0,0,0,180,1.7,0,0,0,0,0,0,0,0,0,0,0,0,0
1999,11,23,23,0,,14.1,10.4,80,101740,0,0,314,0,0,0,0,0,0,0,180,1.3,0,0,0,0,0,0,0,0,0,0,0,0,0
1999,11,23,24,0,,13.2,10,81,101720,0,0,310,0,0,0,0,0,0,0,160,2.3,0,0,0,0,0,0,0,0,0,0,0,0,0
1999,11,24,1,0,,13,7.4,71,101670,0,0,306,0,0,0,0,0,0,0,180,2.3,0,0,0,0,0,0,0,0,0,0,0,0,0
1999,11,24,2,0,,12.3,4.9,62,101630,0,0,300,0,0,0,0,0,0,0,180,3.3,0,0,0,0,0,0,0,0,0,0,0,0,0
1999,11,24,3,0,,11.8,2.3,52,101580,0,0,295,0,0,0,0,0,0,0,160,3,0,0,0,0,0,0,0,0,0,0,0,0,0
1999,11,24,4,0,,11,1.7,51,101530,0,0,291,0,0,0,0,0,0,0,180,3,0,0,0,0,0,0,0,0,0,0,0,0,0
1999,11,24,5,0,,10.6,1,51,101490,0,0,289,0,0,0,0,0,0,0,180,3.2,0,0,0,0,0,0,0,0,0,0,0,0,0
1999,11,24,6,0,,10.5,0.4,50,101440,0,0,288,0,0,0,0,0,0,0,160,3,0,0,0,0,0,0,0,0,0,0,0,0,0
1999,11,24,7,0,,10.5,1.5,50,101460,0,0,293,0,0,0,0,0,0,0,180,2.8,1,0,0,0,0,0,0,0,0,0,0,0,0
1999,11,24,8,0,,10.8,2.5,50,101490,0,0,298,49,30,19,3967,2786,2862,0,180,2.5,1,0,0,0,0,0,0,0,0,0,0,0,0
1999,11,24,9,0,,13.6,3.6,50,101510,0,0,314,189,629,47,38873,62607,7093,0,180,2,2,0,0,0,0,0,0,0,0,0,0,0,0
1999,11,24,10,0,,17.5,5.7,52,101450,0,0,332,365,805,58,54831,81151,8495,0,230,0.5,1,0,0,0,0,0,0,0,0,0,0,0,0
1999,11,24,11,0,,17.9,7.7,55,101400,0,0,333,479,793,83,58884,80440,12048,0,50,2.3,1,0,0,0,0,0,0,0,0,0,0,0,0
1999,11,24,12,0,,18.3,9.8,57,101340,0,0,332,515,684,126,54201,66558,18218,0,50,1.8,0,0,0,0,0,0,0,0,0,0,0,0,0
1999,11,24,13,0,,18.7,10.5,59,101270,0,0,335,489,546,168,44478,49559,22228,0,50,1.7,0,0,0,0,0,0,0,0,0,0,0,0,0
1999,11,24,14,0,,18.9,11.1,61,101210,0,0,337,455,538,157,33994,43562,20338,0,360,1.7,0,0,0,0,0,0,0,0,0,0,0,0,0
1999,11,24,15,0,,19,11.8,63,101140,0,0,338,378,534,128,19533,28027,15512,0,50,1.5,0,0,0,0,0,0,0,0,0,0,0,0,0
1999,11,24,16,0,,18.8,12,66,101090,0,0,337,268,533,87,0,0,0,0,50,1.8,0,0,0,0,0,0,0,0,0,0,0,0,0
1999,11,24,17,0,,18.5,12.3,70,101030,0,0,336,128,478,46,0,0,0,0,50,2,0,0,0,0,0,0,0,0,0,0,0,0,0
1999,11,24,18,0,,17.5,12.5,73,100980,0,0,332,22,11,11,0,0,0,0,200,1.5,0,0,0,0,0,0,0,0,0,0,0,0,0
1999,11,24,19,0,,16.9,12,73,100970,0,0,338,0,0,0,0,0,0,0,70,0.5,2,0,0,0,0,0,0,0,0,0,0,0,0
1999,11,24,20,0,,16.5,11.6,73,100970,0,0,341,0,0,0,0,0,0,0,180,1.7,3,0,0,0,0,0,0,0,0,0,0,0,0
1999,11,24,21,0,,15.9,11.1,73,100960,0,0,342,0,0,0,0,0,0,0,230,0.3,5,0,0,0,0,0,0,0,0,0,0,0,0
1999,11,24,22,0,,18.7,12.6,78,100980,0,0,363,0,0,0,0,0,0,0,250,6.7,7,0,0,0,0,0,0,0,0,0,0,0,0
1999,11,24,23,0,,18.5,14,83,100990,0,0,374,0,0,0,0,0,0,0,270,6.7,8,0,0,0,0,0,0,0,0,0,0,0,0
1999,11,24,24,0,,17.6,15.5,88,101010,0,0,387,0,0,0,0,0,0,0,340,7,10,0,0,0,0,0,0,0,0,0,0,0,0
1999,11,25,1,0,,17.1,14.8,89,101050,0,0,384,0,0,0,0,0,0,0,290,5,10,0,0,0,0,0,0,0,0,0,0,0,0
1999,11,25,2,0,,16.9,14.1,89,101100,0,0,382,0,0,0,0,0,0,0,320,4.7,10,0,0,0,0,0,0,0,0,0,0,0,0
1999,11,25,3,0,,15.1,13.4,90,101140,0,0,372,0,0,0,0,0,0,0,340,6.7,10,0,0,0,0,0,0,0,0,0,0,0,0
1999,11,25,4,0,,14.1,11.6,85,101200,0,0,364,0,0,0,0,0,0,0,340,6.3,10,0,0,0,0,0,0,0,0,0,0,0,0
1999,11,25,5,0,,13.4,9.9,79,101270,0,0,358,0,0,0,0,0,0,0,340,7,10,0,0,0,0,0,0,0,0,0,0,0,0
1999,11,25,6,0,,12.5,8.1,74,101330,0,0,352,0,0,0,0,0,0,0,340,6.3,10,0,0,0,0,0,0,0,0,0,0,0,0
1999,11,25,7,0,,12.4,7.1,71,101380,0,0,350,0,0,0,0,0,0,0,340,6.5,10,0,0,0,0,0,0,0,0,0,0,0,0
1999,11,25,8,0,,11.6,6,67,101420,0,0,344,13,1,12,1636,30,1624,0,360,5,10,0,0,0,0,0,0,0,0,0,0,0,0
1999,11,25,9,0,,11.6,5,64,101470,0,0,343,68,39,59,9457,3867,7507,0,340,5,10,0,0,0,0,0,0,0,0,0,0,0,0
1999,11,25,10,0,,11.6,4.4,62,101480,0,0,336,164,90,130,20844,8979,15744,0,340,4.7,9,0,0,0,0,0,0,0,0,0,0,0,0
1999,11,25,11,0,,11.5,3.8,59,101500,0,0,329,231,97,183,27172,9651,21579,0,340,6,9,0,0,0,0,0,0,0,0,0,0,0,0
1999,11,25,12,0,,11.6,3.2,57,101510,0,0,324,308,139,229,33833,13679,26471,0,340,5,8,0,0,0,0,0,0,0,0,0,0,0,0
1999,11,25,13,0,,11.5,3,56,101480,0,0,326,318,136,239,32946,12919,27172,0,340,4.3,8,0,0,0,0,0,0,0,0,0,0,0,0
1999,11,25,14,0,,11.3,2.7,56,101450,0,0,327,245,80,201,24651,7245,22392,0,340,4.7,9,0,0,0,0,0,0,0,0,0,0,0,0
1999,11,25,15,0,,11.1,2.5,55,101420,0,0,328,204,83,165,18899,6361,17994,0,340,4.3,9,0,0,0,0,0,0,0,0,0,0,0,0
1999,11,25,16,0,,11,2.4,56,101500,0,0,325,150,102,116,0,0,0,0,340,4.8,9,0,0,0,0,0,0,0,0,0,0,0,0
1999,11,25,17,0,,10.6,2.2,56,101590,0,0,321,88,188,56,0,0,0,0,360,6.5,8,0,0,0,0,0,0,0,0,0,0,0,0
1999,11,25,18,0,,10.2,2.1,57,101670,0,0,317,12,2,10,0,0,0,0,340,5.7,8,0,0,0,0,0,0,0,0,0,0,0,0
1999,11,25,19,0,,9.8,1.6,56,101720,0,0,314,0,0,0,0,0,0,0,360,5.3,8,0,0,0,0,0,0,0,0,0,0,0,0
1999,11,25,20,0,,9.5,1.1,56,101780,0,0,312,0,0,0,0,0,0,0,360,5,8,0,0,0,0,0,0,0,0,0,0,0,0
1999,11,25,21,0,,9.1,0.6,55,101830,0,0,310,0,0,0,0,0,0,0,340,4,8,0,0,0,0,0,0,0,0,0,0,0,0
1999,11,25,22,0,,9,0.6,55,101870,0,0,312,0,0,0,0,0,0,0,360,5.3,8,0,0,0,0,0,0,0,0,0,0,0,0
1999,11,25,23,0,,9,0.6,56,101900,0,0,314,0,0,0,0,0,0,0,360,5,9,0,0,0,0,0,0,0,0,0,0,0,0
1999,11,25,24,0,,8.8,0.6,56,101940,0,0,315,0,0,0,0,0,0,0,360,4,9,0,0,0,0,0,0,0,0,0,0,0,0
1999,11,26,1,0,,8.3,0.6,56,101940,0,0,316,0,0,0,0,0,0,0,20,6.7,9,0,0,0,0,0,0,0,0,0,0,0,0
1999,11,26,2,0,,8.2,0.6,57,101930,0,0,318,0,0,0,0,0,0,0,20,5.3,10,0,0,0,0,0,0,0,0,0,0,0,0
1999,11,26,3,0,,8.4,0.6,57,101930,0,0,322,0,0,0,0,0,0,0,20,6,10,0,0,0,0,0,0,0,0,0,0,0,0
1999,11,26,4,0,,8.3,0.2,56,101950,0,0,322,0,0,0,0,0,0,0,360,6,10,0,0,0,0,0,0,0,0,0,0,0,0
1999,11,26,5,0,,8.3,-0.1,56,101970,0,0,321,0,0,0,0,0,0,0,360,6.3,10,0,0,0,0,0,0,0,0,0,0,0,0
1999,11,26,6,0,,8.2,-0.5,55,101990,0,0,320,0,0,0,0,0,0,0,360,4.7,10,0,0,0,0,0,0,0,0,0,0,0,0
1999,11,26,7,0,,8,-1.2,53,102070,0,0,315,0,0,0,0,0,0,0,360,5.7,10,0,0,0,0,0,0,0,0,0,0,0,0
1999,11,26,8,0,,7.7,-2,52,102160,0,0,310,23,4,18,2374,379,2226,0,340,4.7,9,0,0,0,0,0,0,0,0,0,0,0,0
1999,11,26,9,0,,7.6,-2.7,50,102240,0,0,306,100,123,73,15679,12358,9483,0,360,6.3,9,0,0,0,0,0,0,0,0,0,0,0,0
1999,11,26,10,0,,7.5,-2.2,52,102260,0,0,306,180,120,135,23017,12240,16101,0,20,6.3,9,0,0,0,0,0,0,0,0,0,0,0,0
1999,11,26,11,0,,7.3,-1.7,53,102290,0,0,306,240,110,186,28147,11196,21688,0,20,8,9,0,0,0,0,0,0,0,0,0,0,0,0
1999,11,26,12,0,,7.4,-1.2,55,102310,0,0,307,274,102,217,29858,9914,24545,0,20,8,9,0,0,0,0,0,0,0,0,0,0,0,0
1999,11,26,13,0,,7.2,-1.3,55,102300,0,0,309,274,91,221,28767,8775,24863,0,20,6.7,9,0,0,0,0,0,0,0,0,0,0,0,0
1999,11,26,14,0,,7,-1.3,55,102280,0,0,311,219,60,186,22445,5407,20768,0,20,8.3,10,0,0,0,0,0,0,0,0,0,0,0,0
1999,11,26,15,0,,6.8,-1.4,55,102270,0,0,313,173,54,148,16793,4097,16216,0,20,7,10,0,0,0,0,0,0,0,0,0,0,0,0
1999,11,26,16,0,,6.8,-2.1,53,102280,0,0,309,123,59,103,0,0,0,0,20,6.7,10,0,0,0,0,0,0,0,0,0,0,0,0
1999,11,26,17,0,,6.6,-2.9,52,102300,0,0,304,75,123,55,0,0,0,0,20,7.3,9,0,0,0,0,0,0,0,0,0,0,0,0
1999,11,26,18,0,,6.4,-3.6,50,102310,0,0,300,10,1,9,0,0,0,0,360,4.5,9,0,0,0,0,0,0,0,0,0,0,0,0
1999,11,26,19,0,,6.5,-3.4,50,102330,0,0,301,0,0,0,0,0,0,0,20,4.5,9,0,0,0,0,0,0,0,0,0,0,0,0
1999,11,26,20,0,,6.7,-3.2,49,102360,0,0,302,0,0,0,0,0,0,0,360,5.7,9,0,0,0,0,0,0,0,0,0,0,0,0
1999,11,26,21,0,,7,-3,49,102380,0,0,303,0,0,0,0,0,0,0,360,4.7,9,0,0,0,0,0,0,0,0,0,0,0,0
1999,11,26,22,0,,6.9,-2.3,51,102360,0,0,304,0,0,0,0,0,0,0,360,5.7,9,0,0,0,0,0,0,0,0,0,0,0,0
1999,11,26,23,0,,7.3,-1.6,54,102330,0,0,306,0,0,0,0,0,0,0,50,5.3,9,0,0,0,0,0,0,0,0,0,0,0,0
1999,11,26,24,0,,7.2,-0.9,56,102310,0,0,307,0,0,0,0,0,0,0,340,2.7,9,0,0,0,0,0,0,0,0,0,0,0,0
1999,11,27,1,0,,7.4,-0.2,57,102300,0,0,306,0,0,0,0,0,0,0,20,1.7,9,0,0,0,0,0,0,0,0,0,0,0,0
1999,11,27,2,0,,7.9,0.4,59,102300,0,0,307,0,0,0,0,0,0,0,20,2,8,0,0,0,0,0,0,0,0,0,0,0,0
1999,11,27,3,0,,8.1,1.1,60,102290,0,0,306,0,0,0,0,0,0,0,360,3.3,8,0,0,0,0,0,0,0,0,0,0,0,0
1999,11,27,4,0,,8.2,0.7,58,102260,0,0,306,0,0,0,0,0,0,0,320,2.5,8,0,0,0,0,0,0,0,0,0,0,0,0
1999,11,27,5,0,,8,0.2,57,102230,0,0,305,0,0,0,0,0,0,0,20,3,8,0,0,0,0,0,0,0,0,0,0,0,0
1999,11,27,6,0,,8,-0.2,55,102200,0,0,304,0,0,0,0,0,0,0,20,3.7,8,0,0,0,0,0,0,0,0,0,0,0,0
1999,11,27,7,0,,8.1,-0.9,53,102210,0,0,306,0,0,0,0,0,0,0,20,3.3,8,0,0,0,0,0,0,0,0,0,0,0,0
1999,11,27,8,0,,8,-1.5,50,102230,0,0,307,21,4,18,2280,351,2144,0,340,3.7,9,0,0,0,0,0,0,0,0,0,0,0,0
1999,11,27,9,0,,8.3,-2.2,48,102240,0,0,310,94,110,71,14714,10975,9245,0,270,2,9,0,0,0,0,0,0,0,0,0,0,0,0
1999,11,27,10,0,,8.7,-1.6,50,102250,0,0,315,175,114,133,22358,11565,15855,0,340,4,9,0,0,0,0,0,0,0,0,0,0,0,0
1999,11,27,11,0,,8.9,-1.1,52,102250,0,0,320,190,58,161,21756,5656,18508,0,320,4.3,10,0,0,0,0,0,0,0,0,0,0,0,0
1999,11,27,12,0,,8.4,-0.5,54,102260,0,0,321,196,41,173,21839,3927,19743,0,320,3,10,0,0,0,0,0,0,0,0,0,0,0,0
1999,11,27,13,0,,8,-0.1,55,102190,0,0,320,184,30,166,20121,2880,18845,0,290,2.7,10,0,0,0,0,0,0,0,0,0,0,0,0
1999,11,27,14,0,,8.3,0.2,57,102130,0,0,322,178,34,160,18879,3069,17932,0,270,2,10,0,0,0,0,0,0,0,0,0,0,0,0
1999,11,27,15,0,,8.3,0.6,58,102060,0,0,322,154,40,136,15367,2968,14952,0,320,3.2,10,0,0,0,0,0,0,0,0,0,0,0,0
1999,11,27,16,0,,8.3,1.3,63,102080,0,0,323,116,51,99,0,0,0,0,320,4,10,0,0,0,0,0,0,0,0,0,0,0,0
1999,11,27,17,0,,7.7,2,69,102110,0,0,321,49,36,43,0,0,0,0,320,4.3,10,0,0,0,0,0,0,0,0,0,0,0,0
1999,11,27,18,0,,7,2.7,74,102130,0,0,319,4,0,4,0,0,0,0,340,4.7,10,0,0,0,0,0,0,0,0,0,0,0,0
1999,11,27,19,0,,7,3.1,76,102180,0,0,319,0,0,0,0,0,0,0,340,4,10,0,0,0,0,0,0,0,0,0,0,0,0
1999,11,27,20,0,,6.5,3.4,79,102220,0,0,318,0,0,0,0,0,0,0,320,4.7,10,0,0,0,0,0,0,0,0,0,0,0,0
1999,11,27,21,0,,6.8,3.8,81,102270,0,0,319,0,0,0,0,0,0,0,320,4.5,10,0,0,0,0,0,0,0,0,0,0,0,0
1999,11,27,22,0,,7.8,2.9,74,102250,0,0,323,0,0,0,0,0,0,0,320,3,10,0,0,0,0,0,0,0,0,0,0,0,0
1999,11,27,23,0,,8.2,2,66,102230,0,0,323,0,0,0,0,0,0,0,340,6.7,10,0,0,0,0,0,0,0,0,0,0,0,0
1999,11,27,24,0,,8.5,1.1,59,102210,0,0,323,0,0,0,0,0,0,0,340,7,10,0,0,0,0,0,0,0,0,0,0,0,0
1999,11,28,1,0,,8.4,0.7,57,102210,0,0,316,0,0,0,0,0,0,0,340,5.5,9,0,0,0,0,0,0,0,0,0,0,0,0
1999,11,28,2,0,,8.5,0.4,56,102200,0,0,311,0,0,0,0,0,0,0,360,5.3,9,0,0,0,0,0,0,0,0,0,0,0,0
1999,11,28,3,0,,8.9,0,54,102200,0,0,309,0,0,0,0,0,0,0,340,4.5,8,0,0,0,0,0,0,0,0,0,0,0,0
1999,11,28,4,0,,9,-0.4,52,102190,0,0,313,0,0,0,0,0,0,0,360,5,9,0,0,0,0,0,0,0,0,0,0,0,0
1999,11,28,5,0,,9.1,-0.8,50,102180,0,0,318,0,0,0,0,0,0,0,360,6.3,9,0,0,0,0,0,0,0,0,0,0,0,0
1999,11,28,6,0,,9.3,-1.2,48,102170,0,0,325,0,0,0,0,0,0,0,360,7.3,10,0,0,0,0,0,0,0,0,0,0,0,0
1999,11,28,7,0,,9.3,-1.9,46,102220,0,0,321,0,0,0,0,0,0,0,360,7,10,0,0,0,0,0,0,0,0,0,0,0,0
1999,11,28,8,0,,9.1,-2.6,44,102280,0,0,316,23,5,18,2377,459,2201,0,360,6,9,0,0,0,0,0,0,0,0,0,0,0,0
1999,11,28,9,0,,9.1,-3.3,42,102330,0,0,313,99,133,71,15883,13372,9258,0,340,6.3,9,0,0,0,0,0,0,0,0,0,0,0,0
1999,11,28,10,0,,9.1,-0.9,54,102350,0,0,315,176,119,132,22595,12106,15821,0,340,7,9,0,0,0,0,0,0,0,0,0,0,0,0
1999,11,28,11,0,,8.8,1.4,65,102360,0,0,316,217,86,175,25544,8677,20582,0,360,4.7,9,0,0,0,0,0,0,0,0,0,0,0,0
1999,11,28,12,0,,7.5,3.8,77,102380,0,0,314,229,64,193,25300,6108,22053,0,20,5.3,9,0,0,0,0,0,0,0,0,0,0,0,0
1999,11,28,13,0,,7.6,2.7,72,102350,0,0,313,240,65,203,25615,6160,22896,0,20,5.5,9,0,0,0,0,0,0,0,0,0,0,0,0
1999,11,28,14,0,,7.4,1.7,67,102330,0,0,310,224,66,189,22885,5908,21068,0,20,6,9,0,0,0,0,0,0,0,0,0,0,0,0
1999,11,28,15,0,,7.5,0.6,62,102300,0,0,310,208,93,166,19043,7081,18059,0,20,5.3,9,0,0,0,0,0,0,0,0,0,0,0,0
1999,11,28,16,0,,7.5,0.6,62,102330,0,0,310,149,105,114,0,0,0,0,20,5.5,9,0,0,0,0,0,0,0,0,0,0,0,0
1999,11,28,17,0,,7.5,0.6,63,102370,0,0,310,73,117,54,0,0,0,0,20,6,9,0,0,0,0,0,0,0,0,0,0,0,0
1999,11,28,18,0,,7.4,0.6,63,102400,0,0,309,9,1,8,0,0,0,0,20,7.3,9,0,0,0,0,0,0,0,0,0,0,0,0
1999,11,28,19,0,,7.3,0.6,63,102460,0,0,306,0,0,0,0,0,0,0,20,5.7,9,0,0,0,0,0,0,0,0,0,0,0,0
1999,11,28,20,0,,7,0.6,64,102510,0,0,303,0,0,0,0,0,0,0,50,5,8,0,0,0,0,0,0,0,0,0,0,0,0
1999,11,28,21,0,,6.8,0.6,64,102570,0,0,300,0,0,0,0,0,0,0,20,4.3,8,0,0,0,0,0,0,0,0,0,0,0,0
1999,11,28,22,0,,6.8,0.5,65,102570,0,0,302,0,0,0,0,0,0,0,50,4.7,8,0,0,0,0,0,0,0,0,0,0,0,0
1999,11,28,23,0,,6.7,0.5,65,102570,0,0,303,0,0,0,0,0,0,0,50,2.5,9,0,0,0,0,0,0,0,0,0,0,0,0
1999,11,28,24,0,,6.5,0.4,66,102570,0,0,305,0,0,0,0,0,0,0,360,2.3,9,0,0,0,0,0,0,0,0,0,0,0,0
1999,11,29,1,0,,6.4,-0.4,60,102550,0,0,304,0,0,0,0,0,0,0,0,0,9,0,0,0,0,0,0,0,0,0,0,0,0
1999,11,29,2,0,,7.2,-1.1,55,102540,0,0,306,0,0,0,0,0,0,0,340,2.7,9,0,0,0,0,0,0,0,0,0,0,0,0
1999,11,29,3,0,,8.2,-1.9,49,102520,0,0,310,0,0,0,0,0,0,0,340,3.7,9,0,0,0,0,0,0,0,0,0,0,0,0
1999,11,29,4,0,,8.5,-2.6,46,102510,0,0,310,0,0,0,0,0,0,0,340,5.7,9,0,0,0,0,0,0,0,0,0,0,0,0
1999,11,29,5,0,,8.5,-3.4,43,102510,0,0,310,0,0,0,0,0,0,0,360,4.3,9,0,0,0,0,0,0,0,0,0,0,0,0
1999,11,29,6,0,,8.9,-4.1,40,102500,0,0,311,0,0,0,0,0,0,0,340,5,9,0,0,0,0,0,0,0,0,0,0,0,0
1999,11,29,7,0,,8.9,-3.3,42,102500,0,0,312,0,0,0,0,0,0,0,340,4.3,9,0,0,0,0,0,0,0,0,0,0,0,0
1999,11,29,8,0,,9.2,-2.5,45,102500,0,0,314,23,6,18,2365,495,2177,0,340,5.7,9,0,0,0,0,0,0,0,0,0,0,0,0
1999,11,29,9,0,,9.3,-1.7,47,102500,0,0,315,96,128,70,15443,12811,9132,0,360,4,9,0,0,0,0,0,0,0,0,0,0,0,0
1999,11,29,10,0,,9.5,-0.2,53,102500,0,0,318,166,103,128,21181,10422,15377,0,360,3,9,0,0,0,0,0,0,0,0,0,0,0,0
1999,11,29,11,0,,9.2,1.2,60,102510,0,0,318,217,88,174,25557,8849,20517,0,340,3.7,9,0,0,0,0,0,0,0,0,0,0,0,0
1999,11,29,12,0,,8.7,2.7,66,102510,0,0,317,244,77,201,26816,7446,22873,0,340,6,9,0,0,0,0,0,0,0,0,0,0,0,0
1999,11,29,13,0,,8.9,1.1,58,102480,0,0,316,260,82,213,27387,7810,23952,0,340,6.3,9,0,0,0,0,0,0,0,0,0,0,0,0
1999,11,29,14,0,,9.8,-0.6,51,102450,0,0,319,265,106,208,26033,9615,23089,0,340,5.3,9,0,0,0,0,0,0,0,0,0,0,0,0
1999,11,29,15,0,,9.9,-2.2,43,102420,0,0,317,237,135,175,20431,10416,18993,0,340,5.7,9,0,0,0,0,0,0,0,0,0,0,0,0
1999,11,29,16,0,,9.7,-2.4,43,102420,0,0,316,165,141,118,0,0,0,0,340,6.3,9,0,0,0,0,0,0,0,0,0,0,0,0
1999,11,29,17,0,,9.6,-2.5,42,102420,0,0,316,73,118,53,0,0,0,0,340,5.3,9,0,0,0,0,0,0,0,0,0,0,0,0
1999,11,29,18,0,,9.6,-2.7,42,102420,0,0,315,10,1,8,0,0,0,0,340,5,9,0,0,0,0,0,0,0,0,0,0,0,0
1999,11,29,19,0,,9.7,-2.7,42,102460,0,0,316,0,0,0,0,0,0,0,340,4.7,9,0,0,0,0,0,0,0,0,0,0,0,0
1999,11,29,20,0,,9.6,-2.7,43,102490,0,0,315,0,0,0,0,0,0,0,320,4.3,9,0,0,0,0,0,0,0,0,0,0,0,0
1999,11,29,21,0,,9.5,-2.7,43,102530,0,0,315,0,0,0,0,0,0,0,320,4,9,0,0,0,0,0,0,0,0,0,0,0,0
1999,11,29,22,0,,9.4,-2.2,44,102530,0,0,315,0,0,0,0,0,0,0,340,3.3,9,0,0,0,0,0,0,0,0,0,0,0,0
1999,11,29,23,0,,9.9,-1.7,44,102520,0,0,318,0,0,0,0,0,0,0,340,3.3,9,0,0,0,0,0,0,0,0,0,0,0,0
1999,11,29,24,0,,10,-1.2,45,102520,0,0,319,0,0,0,0,0,0,0,340,4.7,9,0,0,0,0,0,0,0,0,0,0,0,0
1999,11,30,1,0,,10,-1.1,45,102530,0,0,316,0,0,0,0,0,0,0,340,5.7,9,0,0,0,0,0,0,0,0,0,0,0,0
1999,11,30,2,0,,10.1,-1,46,102540,0,0,315,0,0,0,0,0,0,0,340,4.8,8,0,0,0,0,0,0,0,0,0,0,0,0
1999,11,30,3,0,,10,-0.9,46,102550,0,0,312,0,0,0,0,0,0,0,340,3.7,8,0,0,0,0,0,0,0,0,0,0,0,0
1999,11,30,4,0,,10,-1,46,102550,0,0,311,0,0,0,0,0,0,0,360,6,8,0,0,0,0,0,0,0,0,0,0,0,0
1999,11,30,5,0,,9.9,-1.1,45,102560,0,0,308,0,0,0,0,0,0,0,360,5.2,7,0,0,0,0,0,0,0,0,0,0,0,0
1999,11,30,6,0,,9.9,-1.2,45,102560,0,0,307,0,0,0,0,0,0,0,340,5,7,0,0,0,0,0,0,0,0,0,0,0,0
1999,11,30,7,0,,9.7,-1.7,44,102650,0,0,303,0,0,0,0,0,0,0,360,3.2,6,0,0,0,0,0,0,0,0,0,0,0,0
1999,11,30,8,0,,9.3,-2.2,44,102740,0,0,299,33,16,17,2836,1563,2246,0,360,3.5,6,0,0,0,0,0,0,0,0,0,0,0,0
1999,11,30,9,0,,9.8,-2.7,43,102830,0,0,299,152,456,57,30984,45506,8697,0,20,3.7,5,0,0,0,0,0,0,0,0,0,0,0,0
1999,11,30,10,0,,10.3,-2.9,40,102810,0,0,298,295,565,90,44961,56655,13556,0,20,3,4,0,0,0,0,0,0,0,0,0,0,0,0
1999,11,30,11,0,,10.8,-3.1,38,102790,0,0,298,411,612,116,51320,61105,16659,0,360,3.2,3,0,0,0,0,0,0,0,0,0,0,0,0
1999,11,30,12,0,,11.9,-3.3,35,102770,0,0,299,493,666,125,52155,65447,17622,0,340,3,2,0,0,0,0,0,0,0,0,0,0,0,0
1999,11,30,13,0,,12.2,-3.2,35,102760,0,0,300,506,643,137,45177,60565,18635,0,360,1.3,2,0,0,0,0,0,0,0,0,0,0,0,0
1999,11,30,14,0,,12.5,-3.1,35,102740,0,0,300,489,689,116,33593,58606,15712,0,340,1.5,1,0,0,0,0,0,0,0,0,0,0,0,0
1999,11,30,15,0,,12.1,-3,35,102730,0,0,297,399,649,102,17033,37030,11949,0,290,2,1,0,0,0,0,0,0,0,0,0,0,0,0
1999,11,30,16,0,,12.1,-2.5,38,102750,0,0,299,278,624,72,0,0,0,0,360,1.7,1,0,0,0,0,0,0,0,0,0,0,0,0
1999,11,30,17,0,,11.6,-1.9,40,102760,0,0,298,131,564,38,0,0,0,0,360,3.3,2,0,0,0,0,0,0,0,0,0,0,0,0
1999,11,30,18,0,,10.7,-1.4,43,102780,0,0,296,21,12,9,0,0,0,0,360,1.8,2,0,0,0,0,0,0,0,0,0,0,0,0
1999,11,30,19,0,,9.4,-1.1,47,102810,0,0,289,0,0,0,0,0,0,0,200,2.7,1,0,0,0,0,0,0,0,0,0,0,0,0
1999,11,30,20,0,,8.8,-0.8,51,102830,0,0,283,0,0,0,0,0,0,0,200,2.3,1,0,0,0,0,0,0,0,0,0,0,0,0
1999,11,30,21,0,,7.9,-0.5,55,102860,0,0,276,0,0,0,0,0,0,0,200,2.8,0,0,0,0,0,0,0,0,0,0,0,0,0
1999,11,30,22,0,,7.9,-0.1,57,102850,0,0,282,0,0,0,0,0,0,0,200,2,1,0,0,0,0,0,0,0,0,0,0,0,0
1999,11,30,23,0,,7.7,0.2,60,102840,0,0,285,0,0,0,0,0,0,0,200,1.8,2,0,0,0,0,0,0,0,0,0,0,0,0
1999,11,30,24,0,,7.4,0.6,62,102830,0,0,287,0,0,0,0,0,0,0,200,2.7,3,0,0,0,0,0,0,0,0,0,0,0,0
2003,12,1,1,0,,10.8,8.1,81,101840,0,0,323,0,0,0,0,0,0,0,200,1.7,7,0,0,0,0,0,0,0,0,0,0,0,0
2003,12,1,2,0,,10.7,8,81,101810,0,0,320,0,0,0,0,0,0,0,200,2.4,7,0,0,0,0,0,0,0,0,0,0,0,0
2003,12,1,3,0,,10.4,7.9,83,101790,0,0,316,0,0,0,0,0,0,0,180,1.3,6,0,0,0,0,0,0,0,0,0,0,0,0
2003,12,1,4,0,,10.8,8,83,101790,0,0,315,0,0,0,0,0,0,0,180,2.5,5,0,0,0,0,0,0,0,0,0,0,0,0
2003,12,1,5,0,,10.7,8.1,82,101780,0,0,313,0,0,0,0,0,0,0,180,1.3,4,0,0,0,0,0,0,0,0,0,0,0,0
2003,12,1,6,0,,11.3,8.2,80,101780,0,0,313,0,0,0,0,0,0,0,180,1.5,3,0,0,0,0,0,0,0,0,0,0,0,0
2003,12,1,7,0,,12.6,7.4,72,101810,0,0,317,0,0,0,0,0,0,0,50,2.6,3,0,0,0,0,0,0,0,0,0,0,0,0
2003,12,1,8,0,,12.4,6.6,70,101850,0,0,316,38,19,19,3188,1776,2522,0,90,2.2,3,0,0,0,0,0,0,0,0,0,0,0,0
2003,12,1,9,0,,14.5,5.8,55,101880,0,0,324,171,635,42,37114,63118,6378,0,50,4.3,3,0,0,0,0,0,0,0,0,0,0,0,0
2003,12,1,10,0,,15.7,5.6,51,101880,0,0,329,308,639,78,46998,64404,11462,0,50,3.9,3,0,0,0,0,0,0,0,0,0,0,0,0
2003,12,1,11,0,,16.2,5.5,49,101890,0,0,332,420,657,106,52634,65235,15775,0,50,3.2,3,0,0,0,0,0,0,0,0,0,0,0,0
2003,12,1,12,0,,15.7,5.3,49,101890,0,0,329,458,557,151,48373,53546,20219,0,50,4.2,3,0,0,0,0,0,0,0,0,0,0,0,0
2003,12,1,13,0,,15.7,5.4,52,101850,0,0,331,442,447,187,41668,41230,23660,0,50,3.7,4,0,0,0,0,0,0,0,0,0,0,0,0
2003,12,1,14,0,,16.3,5.5,50,101810,0,0,336,421,468,169,31686,38660,19932,0,20,3.4,4,0,0,0,0,0,0,0,0,0,0,0,0
2003,12,1,15,0,,14.5,5.6,54,101770,0,0,329,316,337,163,20245,16716,17961,0,20,3.2,5,0,0,0,0,0,0,0,0,0,0,0,0
2003,12,1,16,0,,15.2,5.8,55,101810,0,0,332,229,372,107,0,0,0,0,20,1.9,5,0,0,0,0,0,0,0,0,0,0,0,0
2003,12,1,17,0,,13.3,6.1,58,101840,0,0,322,107,327,54,0,0,0,0,360,2.2,4,0,0,0,0,0,0,0,0,0,0,0,0
2003,12,1,18,0,,12.9,6.3,63,101880,0,0,320,17,6,11,0,0,0,0,340,1.4,4,0,0,0,0,0,0,0,0,0,0,0,0
2003,12,1,19,0,,12.5,6.8,64,101900,0,0,319,0,0,0,0,0,0,0,320,1.9,4,0,0,0,0,0,0,0,0,0,0,0,0
2003,12,1,20,0,,12.5,7.3,69,101920,0,0,319,0,0,0,0,0,0,0,340,3,4,0,0,0,0,0,0,0,0,0,0,0,0
2003,12,1,21,0,,12,7.8,74,101940,0,0,318,0,0,0,0,0,0,0,340,2.6,4,0,0,0,0,0,0,0,0,0,0,0,0
2003,12,1,22,0,,11.6,7.5,74,101950,0,0,316,0,0,0,0,0,0,0,340,2.6,4,0,0,0,0,0,0,0,0,0,0,0,0
2003,12,1,23,0,,11.2,7.1,75,101950,0,0,313,0,0,0,0,0,0,0,340,1.6,4,0,0,0,0,0,0,0,0,0,0,0,0
2003,12,1,24,0,,10.6,6.8,76,101960,0,0,310,0,0,0,0,0,0,0,230,1.1,4,0,0,0,0,0,0,0,0,0,0,0,0
2003,12,2,1,0,,10.2,6.8,77,101950,0,0,309,0,0,0,0,0,0,0,180,1,4,0,0,0,0,0,0,0,0,0,0,0,0
2003,12,2,2,0,,11,6.7,75,101950,0,0,312,0,0,0,0,0,0,0,340,2.1,4,0,0,0,0,0,0,0,0,0,0,0,0
2003,12,2,3,0,,10.5,6.7,76,101940,0,0,310,0,0,0,0,0,0,0,290,1.9,4,0,0,0,0,0,0,0,0,0,0,0,0
2003,12,2,4,0,,10.9,6.5,74,101960,0,0,311,0,0,0,0,0,0,0,340,2.9,4,0,0,0,0,0,0,0,0,0,0,0,0
2003,12,2,5,0,,10.7,6.3,74,101980,0,0,310,0,0,0,0,0,0,0,340,2.9,4,0,0,0,0,0,0,0,0,0,0,0,0
2003,12,2,6,0,,10.5,6.1,73,102000,0,0,309,0,0,0,0,0,0,0,360,3,4,0,0,0,0,0,0,0,0,0,0,0,0
2003,12,2,7,0,,10.1,5.7,61,102040,0,0,306,0,0,0,0,0,0,0,360,3.7,4,0,0,0,0,0,0,0,0,0,0,0,0
2003,12,2,8,0,,10.2,5.3,63,102080,0,0,305,35,16,19,3149,1468,2603,0,360,4.3,3,0,0,0,0,0,0,0,0,0,0,0,0
2003,12,2,9,0,,11,4.9,65,102120,0,0,307,156,528,50,33363,52976,7706,0,20,4,3,0,0,0,0,0,0,0,0,0,0,0,0
2003,12,2,10,0,,11.6,5.3,66,102080,0,0,313,278,507,97,42301,50341,14645,0,360,4.1,4,0,0,0,0,0,0,0,0,0,0,0,0
2003,12,2,11,0,,11.3,5.6,68,102030,0,0,314,339,360,167,41766,34893,22124,0,360,3,5,0,0,0,0,0,0,0,0,0,0,0,0
2003,12,2,12,0,,12.1,6,65,101990,0,0,321,365,259,223,39600,25049,26472,0,360,2.5,6,0,0,0,0,0,0,0,0,0,0,0,0
2003,12,2,13,0,,12.4,5.8,62,101940,0,0,320,404,312,227,39194,28968,26579,0,340,2.5,5,0,0,0,0,0,0,0,0,0,0,0,0
2003,12,2,14,0,,13,5.6,56,101890,0,0,320,410,437,176,31553,35983,20645,0,340,2.2,4,0,0,0,0,0,0,0,0,0,0,0,0
2003,12,2,15,0,,13,5.4,59,101840,0,0,317,358,503,130,18617,27011,14941,0,340,2.6,3,0,0,0,0,0,0,0,0,0,0,0,0
2003,12,2,16,0,,12.5,5.3,60,101870,0,0,317,245,462,94,0,0,0,0,340,2.4,4,0,0,0,0,0,0,0,0,0,0,0,0
2003,12,2,17,0,,12,5.1,63,101910,0,0,317,108,338,53,0,0,0,0,360,2.6,5,0,0,0,0,0,0,0,0,0,0,0,0
2003,12,2,18,0,,11.8,5,62,101940,0,0,319,15,4,11,0,0,0,0,360,3.3,6,0,0,0,0,0,0,0,0,0,0,0,0
2003,12,2,19,0,,11.6,5.1,66,101950,0,0,316,0,0,0,0,0,0,0,20,4.3,5,0,0,0,0,0,0,0,0,0,0,0,0
2003,12,2,20,0,,11.4,5.1,65,101970,0,0,313,0,0,0,0,0,0,0,20,4.1,5,0,0,0,0,0,0,0,0,0,0,0,0
2003,12,2,21,0,,11.3,5.2,65,101980,0,0,312,0,0,0,0,0,0,0,20,3.7,4,0,0,0,0,0,0,0,0,0,0,0,0
2003,12,2,22,0,,11.1,5,68,101990,0,0,310,0,0,0,0,0,0,0,360,3.6,4,0,0,0,0,0,0,0,0,0,0,0,0
2003,12,2,23,0,,10.9,4.9,67,102000,0,0,309,0,0,0,0,0,0,0,360,3.3,4,0,0,0,0,0,0,0,0,0,0,0,0
2003,12,2,24,0,,10.5,4.7,66,102010,0,0,307,0,0,0,0,0,0,0,360,1.2,4,0,0,0,0,0,0,0,0,0,0,0,0
2003,12,3,1,0,,8.7,4.5,74,101980,0,0,296,0,0,0,0,0,0,0,200,1.7,3,0,0,0,0,0,0,0,0,0,0,0,0
2003,12,3,2,0,,8.1,4.2,75,101960,0,0,289,0,0,0,0,0,0,0,180,2.3,1,0,0,0,0,0,0,0,0,0,0,0,0
2003,12,3,3,0,,7.9,4,75,101930,0,0,281,0,0,0,0,0,0,0,200,1.8,0,0,0,0,0,0,0,0,0,0,0,0,0
2003,12,3,4,0,,7.7,3.7,76,101940,0,0,280,0,0,0,0,0,0,0,180,1.8,0,0,0,0,0,0,0,0,0,0,0,0,0
2003,12,3,5,0,,7.9,3.3,74,101950,0,0,280,0,0,0,0,0,0,0,180,3,0,0,0,0,0,0,0,0,0,0,0,0,0
2003,12,3,6,0,,7.4,3,72,101960,0,0,278,0,0,0,0,0,0,0,180,2.9,0,0,0,0,0,0,0,0,0,0,0,0,0
2003,12,3,7,0,,7.1,3.1,69,101990,0,0,277,0,0,0,0,0,0,0,180,1.8,0,0,0,0,0,0,0,0,0,0,0,0,0
2003,12,3,8,0,,7.1,3.2,72,102030,0,0,277,34,15,19,3058,1433,2529,0,180,1.9,0,0,0,0,0,0,0,0,0,0,0,0,0
2003,12,3,9,0,,9.7,3.3,63,102060,0,0,288,160,582,45,34528,57558,6800,0,180,2,0,0,0,0,0,0,0,0,0,0,0,0,0
2003,12,3,10,0,,13.3,3,55,102070,0,0,302,328,758,59,50245,75776,8791,0,200,0.9,0,0,0,0,0,0,0,0,0,0,0,0,0
2003,12,3,11,0,,13.6,2.6,52,102080,0,0,303,450,784,79,55885,79039,11548,0,360,3.2,0,0,0,0,0,0,0,0,0,0,0,0,0
2003,12,3,12,0,,13.8,2.3,45,102090,0,0,304,499,707,113,52723,69504,16408,0,340,1.8,0,0,0,0,0,0,0,0,0,0,0,0,0
2003,12,3,13,0,,14.2,0.9,38,102080,0,0,304,501,647,134,44840,60716,18473,0,360,2.5,0,0,0,0,0,0,0,0,0,0,0,0,0
2003,12,3,14,0,,14.3,-0.4,38,102060,0,0,303,473,656,122,32525,55629,15707,0,340,2.5,0,0,0,0,0,0,0,0,0,0,0,0,0
2003,12,3,15,0,,14.4,-1.8,32,102050,0,0,302,403,681,94,16536,38508,11313,0,360,3.4,0,0,0,0,0,0,0,0,0,0,0,0,0
2003,12,3,16,0,,13.8,-1,31,102110,0,0,300,277,633,70,0,0,0,0,360,3.2,0,0,0,0,0,0,0,0,0,0,0,0,0
2003,12,3,17,0,,12,-0.1,45,102160,0,0,293,127,534,40,0,0,0,0,20,3.2,0,0,0,0,0,0,0,0,0,0,0,0,0
2003,12,3,18,0,,11.3,0.7,47,102220,0,0,291,19,9,10,0,0,0,0,360,2.7,0,0,0,0,0,0,0,0,0,0,0,0,0
2003,12,3,19,0,,11,0.8,45,102260,0,0,290,0,0,0,0,0,0,0,20,2.4,0,0,0,0,0,0,0,0,0,0,0,0,0
2003,12,3,20,0,,9.8,0.8,51,102300,0,0,285,0,0,0,0,0,0,0,20,2.5,0,0,0,0,0,0,0,0,0,0,0,0,0
2003,12,3,21,0,,9.2,0.9,55,102340,0,0,283,0,0,0,0,0,0,0,320,1.3,0,0,0,0,0,0,0,0,0,0,0,0,0
2003,12,3,22,0,,8.3,1,58,102340,0,0,279,0,0,0,0,0,0,0,180,2.2,0,0,0,0,0,0,0,0,0,0,0,0,0
2003,12,3,23,0,,7.5,1,60,102350,0,0,276,0,0,0,0,0,0,0,180,2.3,0,0,0,0,0,0,0,0,0,0,0,0,0
2003,12,3,24,0,,7.6,1.1,62,102350,0,0,277,0,0,0,0,0,0,0,160,2.6,0,0,0,0,0,0,0,0,0,0,0,0,0
2003,12,4,1,0,,7.6,1.3,63,102360,0,0,277,0,0,0,0,0,0,0,160,1.6,0,0,0,0,0,0,0,0,0,0,0,0,0
2003,12,4,2,0,,6.9,1.6,67,102380,0,0,274,0,0,0,0,0,0,0,160,2.4,0,0,0,0,0,0,0,0,0,0,0,0,0
2003,12,4,3,0,,6.6,1.8,70,102390,0,0,274,0,0,0,0,0,0,0,160,1.9,0,0,0,0,0,0,0,0,0,0,0,0,0
2003,12,4,4,0,,6.3,1.6,71,102410,0,0,272,0,0,0,0,0,0,0,180,1.5,0,0,0,0,0,0,0,0,0,0,0,0,0
2003,12,4,5,0,,6,1.5,71,102430,0,0,271,0,0,0,0,0,0,0,180,2,0,0,0,0,0,0,0,0,0,0,0,0,0
2003,12,4,6,0,,5.7,1.3,72,102450,0,0,270,0,0,0,0,0,0,0,180,2.1,0,0,0,0,0,0,0,0,0,0,0,0,0
2003,12,4,7,0,,5.8,1.9,74,102510,0,0,271,0,0,0,0,0,0,0,160,2.9,0,0,0,0,0,0,0,0,0,0,0,0,0
2003,12,4,8,0,,6.1,2.5,74,102560,0,0,272,34,16,18,2967,1481,2423,0,160,2.3,0,0,0,0,0,0,0,0,0,0,0,0,0
2003,12,4,9,0,,9.3,3.1,64,102620,0,0,286,165,647,39,36647,63997,5976,0,140,1.4,0,0,0,0,0,0,0,0,0,0,0,0,0
2003,12,4,10,0,,12.2,2.8,53,102580,0,0,297,329,775,56,50577,77436,8387,0,70,1.6,0,0,0,0,0,0,0,0,0,0,0,0,0
2003,12,4,11,0,,12.6,2.5,47,102540,0,0,299,451,795,76,55552,79459,11128,0,70,2.8,0,0,0,0,0,0,0,0,0,0,0,0,0
2003,12,4,12,0,,13,2.2,47,102500,0,0,300,488,679,119,51791,66581,17103,0,50,2.7,0,0,0,0,0,0,0,0,0,0,0,0,0
2003,12,4,13,0,,13.4,2.4,40,102450,0,0,302,483,597,146,43274,55869,19072,0,50,2.7,0,0,0,0,0,0,0,0,0,0,0,0,0
2003,12,4,14,0,,13.9,2.5,39,102390,0,0,304,461,621,130,32362,52082,16652,0,50,2.7,0,0,0,0,0,0,0,0,0,0,0,0,0
2003,12,4,15,0,,13.9,2.7,46,102340,0,0,305,392,642,102,16946,35419,12154,0,70,3,0,0,0,0,0,0,0,0,0,0,0,0,0
2003,12,4,16,0,,13,3.3,49,102310,0,0,301,263,567,79,0,0,0,0,50,3.2,0,0,0,0,0,0,0,0,0,0,0,0,0
2003,12,4,17,0,,11.9,4,49,102280,0,0,297,121,480,43,0,0,0,0,110,3,0,0,0,0,0,0,0,0,0,0,0,0,0
2003,12,4,18,0,,11.1,4.6,63,102250,0,0,295,19,8,10,0,0,0,0,180,1.8,0,0,0,0,0,0,0,0,0,0,0,0,0
2003,12,4,19,0,,11.4,4.6,62,102270,0,0,296,0,0,0,0,0,0,0,160,2.2,0,0,0,0,0,0,0,0,0,0,0,0,0
2003,12,4,20,0,,10.9,4.7,62,102300,0,0,294,0,0,0,0,0,0,0,110,1.1,0,0,0,0,0,0,0,0,0,0,0,0,0
2003,12,4,21,0,,11.5,4.7,62,102320,0,0,297,0,0,0,0,0,0,0,110,2.7,0,0,0,0,0,0,0,0,0,0,0,0,0
2003,12,4,22,0,,11.4,4.7,61,102290,0,0,296,0,0,0,0,0,0,0,160,2.1,0,0,0,0,0,0,0,0,0,0,0,0,0
2003,12,4,23,0,,11.5,4.7,62,102250,0,0,297,0,0,0,0,0,0,0,140,2.7,0,0,0,0,0,0,0,0,0,0,0,0,0
2003,12,4,24,0,,11.7,4.7,61,102220,0,0,297,0,0,0,0,0,0,0,140,2.3,0,0,0,0,0,0,0,0,0,0,0,0,0
2003,12,5,1,0,,11.6,5.2,63,102190,0,0,307,0,0,0,0,0,0,0,160,2.2,2,0,0,0,0,0,0,0,0,0,0,0,0
2003,12,5,2,0,,12.2,5.6,64,102160,0,0,316,0,0,0,0,0,0,0,140,2.2,4,0,0,0,0,0,0,0,0,0,0,0,0
2003,12,5,3,0,,12.4,6.1,64,102130,0,0,323,0,0,0,0,0,0,0,140,2.1,6,0,0,0,0,0,0,0,0,0,0,0,0
2003,12,5,4,0,,11.7,6.7,70,102140,0,0,323,0,0,0,0,0,0,0,110,2.5,7,0,0,0,0,0,0,0,0,0,0,0,0
2003,12,5,5,0,,11.2,7.2,71,102150,0,0,324,0,0,0,0,0,0,0,140,1.7,7,0,0,0,0,0,0,0,0,0,0,0,0
2003,12,5,6,0,,11.6,7.8,76,102160,0,0,330,0,0,0,0,0,0,0,90,2.4,8,0,0,0,0,0,0,0,0,0,0,0,0
2003,12,5,7,0,,12,8.6,82,102140,0,0,328,0,0,0,0,0,0,0,110,2.7,7,0,0,0,0,0,0,0,0,0,0,0,0
2003,12,5,8,0,,12.2,9.4,84,102130,0,0,326,25,9,16,2235,762,1958,0,90,2.6,6,0,0,0,0,0,0,0,0,0,0,0,0
2003,12,5,9,0,,14.1,10.2,76,102110,0,0,333,132,373,60,27282,36466,9894,0,110,2.8,5,0,0,0,0,0,0,0,0,0,0,0,0
2003,12,5,10,0,,16.4,10,64,102050,0,0,344,271,504,95,41513,49642,14573,0,90,3.2,5,0,0,0,0,0,0,0,0,0,0,0,0
2003,12,5,11,0,,17.7,9.7,55,102000,0,0,351,361,470,141,44528,44664,19637,0,110,4.6,6,0,0,0,0,0,0,0,0,0,0,0,0
2003,12,5,12,0,,19,9.5,53,101940,0,0,358,422,464,171,45414,43536,22793,0,110,4.4,6,0,0,0,0,0,0,0,0,0,0,0,0
2003,12,5,13,0,,20,9.9,50,101860,0,0,364,424,412,193,39581,37059,23563,0,110,4.5,6,0,0,0,0,0,0,0,0,0,0,0,0
2003,12,5,14,0,,20.8,10.2,49,101770,0,0,368,390,381,187,31438,30025,22399,0,110,3.8,6,0,0,0,0,0,0,0,0,0,0,0,0
2003,12,5,15,0,,20.9,10.6,51,101690,0,0,369,317,351,158,20255,16033,18089,0,90,2.2,6,0,0,0,0,0,0,0,0,0,0,0,0
2003,12,5,16,0,,20.4,10.6,55,101670,0,0,369,198,264,113,0,0,0,0,90,3.3,7,0,0,0,0,0,0,0,0,0,0,0,0
2003,12,5,17,0,,18.7,10.6,59,101650,0,0,364,84,193,53,0,0,0,0,140,2.1,7,0,0,0,0,0,0,0,0,0,0,0,0
2003,12,5,18,0,,17.7,10.6,62,101630,0,0,363,8,1,7,0,0,0,0,180,2.2,8,0,0,0,0,0,0,0,0,0,0,0,0
2003,12,5,19,0,,17.3,10.6,63,101630,0,0,366,0,0,0,0,0,0,0,180,1.5,9,0,0,0,0,0,0,0,0,0,0,0,0
2003,12,5,20,0,,16.7,10.7,64,101620,0,0,369,0,0,0,0,0,0,0,160,2,9,0,0,0,0,0,0,0,0,0,0,0,0
2003,12,5,21,0,,16.6,10.7,67,101620,0,0,376,0,0,0,0,0,0,0,290,2.2,10,0,0,0,0,0,0,0,0,0,0,0,0
2003,12,5,22,0,,16.6,11.6,85,101600,0,0,377,0,0,0,0,0,0,0,360,2.5,10,0,0,0,0,0,0,0,0,0,0,0,0
2003,12,5,23,0,,15.8,12.5,85,101570,0,0,374,0,0,0,0,0,0,0,200,1.2,10,0,0,0,0,0,0,0,0,0,0,0,0
2003,12,5,24,0,,15.7,13.4,85,101550,0,0,375,0,0,0,0,0,0,0,200,1.3,10,0,0,0,0,0,0,0,0,0,0,0,0
2003,12,6,1,0,,15.4,13.4,90,101520,0,0,373,0,0,0,0,0,0,0,270,2.5,10,0,0,0,0,0,0,0,0,0,0,0,0
2003,12,6,2,0,,15.4,13.5,88,101480,0,0,373,0,0,0,0,0,0,0,250,1.8,10,0,0,0,0,0,0,0,0,0,0,0,0
2003,12,6,3,0,,15.1,13.5,89,101450,0,0,372,0,0,0,0,0,0,0,270,2.8,10,0,0,0,0,0,0,0,0,0,0,0,0
2003,12,6,4,0,,14.5,12.8,89,101450,0,0,368,0,0,0,0,0,0,0,290,4.2,10,0,0,0,0,0,0,0,0,0,0,0,0
2003,12,6,5,0,,14.4,12.1,85,101450,0,0,366,0,0,0,0,0,0,0,270,4,10,0,0,0,0,0,0,0,0,0,0,0,0
2003,12,6,6,0,,14.2,11.4,82,101450,0,0,364,0,0,0,0,0,0,0,290,4,10,0,0,0,0,0,0,0,0,0,0,0,0
2003,12,6,7,0,,13.4,10.8,86,101520,0,0,360,0,0,0,0,0,0,0,320,4.3,10,0,0,0,0,0,0,0,0,0,0,0,0
2003,12,6,8,0,,12.9,10.3,84,101590,0,0,356,6,0,6,803,3,802,0,340,5.6,10,0,0,0,0,0,0,0,0,0,0,0,0
2003,12,6,9,0,,12.6,9.7,81,101660,0,0,354,49,26,44,6993,2455,5828,0,340,6.1,10,0,0,0,0,0,0,0,0,0,0,0,0
2003,12,6,10,0,,12,9.3,84,101700,0,0,351,98,28,88,11823,2577,10429,0,340,4.9,10,0,0,0,0,0,0,0,0,0,0,0,0
2003,12,6,11,0,,12,8.9,78,101750,0,0,350,138,28,125,15990,2614,14538,0,340,4.6,10,0,0,0,0,0,0,0,0,0,0,0,0
2003,12,6,12,0,,12.5,8.5,75,101790,0,0,352,176,35,157,19835,3227,18163,0,340,5.5,10,0,0,0,0,0,0,0,0,0,0,0,0
2003,12,6,13,0,,12.4,8.1,67,101810,0,0,344,236,68,198,25183,6314,22460,0,340,5.1,9,0,0,0,0,0,0,0,0,0,0,0,0
2003,12,6,14,0,,12.1,7.6,67,101840,0,0,337,231,78,190,23388,6839,21333,0,340,5.7,9,0,0,0,0,0,0,0,0,0,0,0,0
2003,12,6,15,0,,12,7.2,71,101860,0,0,331,231,135,171,20043,10046,18688,0,340,6.1,8,0,0,0,0,0,0,0,0,0,0,0,0
2003,12,6,16,0,,12.3,6.4,69,101940,0,0,332,173,175,117,0,0,0,0,340,7.5,8,0,0,0,0,0,0,0,0,0,0,0,0
2003,12,6,17,0,,11.7,5.7,69,102010,0,0,328,79,164,53,0,0,0,0,340,7.1,8,0,0,0,0,0,0,0,0,0,0,0,0
2003,12,6,18,0,,11,4.9,65,102090,0,0,324,10,1,9,0,0,0,0,340,5.9,8,0,0,0,0,0,0,0,0,0,0,0,0
2003,12,6,19,0,,10.7,5,62,102140,0,0,319,0,0,0,0,0,0,0,340,6.4,7,0,0,0,0,0,0,0,0,0,0,0,0
2003,12,6,20,0,,10.9,5.2,62,102190,0,0,317,0,0,0,0,0,0,0,340,6.3,7,0,0,0,0,0,0,0,0,0,0,0,0
2003,12,6,21,0,,10.3,5.3,70,102240,0,0,312,0,0,0,0,0,0,0,340,7.1,6,0,0,0,0,0,0,0,0,0,0,0,0
2003,12,6,22,0,,9.1,4.1,71,102330,0,0,306,0,0,0,0,0,0,0,360,6.5,6,0,0,0,0,0,0,0,0,0,0,0,0
2003,12,6,23,0,,8.6,2.9,63,102420,0,0,302,0,0,0,0,0,0,0,340,5.9,6,0,0,0,0,0,0,0,0,0,0,0,0
2003,12,6,24,0,,7.6,1.7,65,102510,0,0,296,0,0,0,0,0,0,0,360,6.9,6,0,0,0,0,0,0,0,0,0,0,0,0
2003,12,7,1,0,,6.6,0.5,58,102560,0,0,290,0,0,0,0,0,0,0,340,6.5,6,0,0,0,0,0,0,0,0,0,0,0,0
2003,12,7,2,0,,6.2,-0.8,60,102610,0,0,286,0,0,0,0,0,0,0,340,5.7,5,0,0,0,0,0,0,0,0,0,0,0,0
2003,12,7,3,0,,5.6,-2,57,102660,0,0,282,0,0,0,0,0,0,0,340,5.8,5,0,0,0,0,0,0,0,0,0,0,0,0
2003,12,7,4,0,,5.5,-1.8,62,102670,0,0,282,0,0,0,0,0,0,0,340,6.1,5,0,0,0,0,0,0,0,0,0,0,0,0
2003,12,7,5,0,,5.3,-1.5,58,102690,0,0,281,0,0,0,0,0,0,0,340,5.4,5,0,0,0,0,0,0,0,0,0,0,0,0
2003,12,7,6,0,,4.9,-1.3,63,102700,0,0,280,0,0,0,0,0,0,0,360,4.3,5,0,0,0,0,0,0,0,0,0,0,0,0
2003,12,7,7,0,,4.7,-2.1,67,102790,0,0,279,0,0,0,0,0,0,0,360,4.6,6,0,0,0,0,0,0,0,0,0,0,0,0
2003,12,7,8,0,,4.7,-3,63,102880,0,0,280,25,10,15,2355,921,2024,0,360,4.5,6,0,0,0,0,0,0,0,0,0,0,0,0
2003,12,7,9,0,,4.7,-3.8,53,102970,0,0,282,112,294,57,22964,29133,9206,0,340,6,7,0,0,0,0,0,0,0,0,0,0,0,0
2003,12,7,10,0,,5.2,-2.6,68,102970,0,0,286,214,273,120,30882,26976,16349,0,360,4.6,7,0,0,0,0,0,0,0,0,0,0,0,0
2003,12,7,11,0,,4.4,-1.5,67,102960,0,0,286,246,145,178,28991,14654,20872,0,340,4.9,8,0,0,0,0,0,0,0,0,0,0,0,0
2003,12,7,12,0,,4.6,-0.3,69,102960,0,0,290,277,124,211,30634,12283,24282,0,360,4.5,8,0,0,0,0,0,0,0,0,0,0,0,0
2003,12,7,13,0,,4.7,-0.5,64,102940,0,0,290,283,114,219,29292,10912,24594,0,360,4.5,8,0,0,0,0,0,0,0,0,0,0,0,0
2003,12,7,14,0,,4.6,-0.7,62,102910,0,0,289,276,128,208,26574,11642,23079,0,340,4.9,8,0,0,0,0,0,0,0,0,0,0,0,0
2003,12,7,15,0,,4.4,-0.9,67,102890,0,0,288,232,137,170,19952,10483,18537,0,340,4.5,8,0,0,0,0,0,0,0,0,0,0,0,0
2003,12,7,16,0,,4.9,-0.9,66,102900,0,0,290,169,162,116,0,0,0,0,340,4.3,8,0,0,0,0,0,0,0,0,0,0,0,0
2003,12,7,17,0,,4.9,-0.8,66,102900,0,0,290,80,169,53,0,0,0,0,360,4.4,8,0,0,0,0,0,0,0,0,0,0,0,0
2003,12,7,18,0,,4.7,-0.8,66,102910,0,0,290,10,1,9,0,0,0,0,340,3.6,8,0,0,0,0,0,0,0,0,0,0,0,0
2003,12,7,19,0,,4.8,-0.6,62,102910,0,0,290,0,0,0,0,0,0,0,340,2.9,8,0,0,0,0,0,0,0,0,0,0,0,0
2003,12,7,20,0,,5,-0.5,66,102910,0,0,291,0,0,0,0,0,0,0,360,3.1,8,0,0,0,0,0,0,0,0,0,0,0,0
2003,12,7,21,0,,5.1,-0.3,67,102910,0,0,292,0,0,0,0,0,0,0,360,2.3,8,0,0,0,0,0,0,0,0,0,0,0,0
2003,12,7,22,0,,5.3,-0.4,64,102900,0,0,293,0,0,0,0,0,0,0,340,2.3,8,0,0,0,0,0,0,0,0,0,0,0,0
2003,12,7,23,0,,5.1,-0.5,66,102900,0,0,292,0,0,0,0,0,0,0,200,2.8,8,0,0,0,0,0,0,0,0,0,0,0,0
2003,12,7,24,0,,5.4,-0.6,64,102890,0,0,293,0,0,0,0,0,0,0,200,1.5,8,0,0,0,0,0,0,0,0,0,0,0,0
2003,12,8,1,0,,6.4,-0.9,61,102870,0,0,297,0,0,0,0,0,0,0,320,3.2,8,0,0,0,0,0,0,0,0,0,0,0,0
2003,12,8,2,0,,6.5,-1.1,56,102860,0,0,297,0,0,0,0,0,0,0,320,3.9,8,0,0,0,0,0,0,0,0,0,0,0,0
2003,12,8,3,0,,6.7,-1.4,55,102840,0,0,297,0,0,0,0,0,0,0,290,4.6,8,0,0,0,0,0,0,0,0,0,0,0,0
2003,12,8,4,0,,6.7,-1.4,53,102850,0,0,297,0,0,0,0,0,0,0,320,3.7,8,0,0,0,0,0,0,0,0,0,0,0,0
2003,12,8,5,0,,6.9,-1.4,54,102860,0,0,298,0,0,0,0,0,0,0,320,5.4,8,0,0,0,0,0,0,0,0,0,0,0,0
2003,12,8,6,0,,7,-1.4,54,102870,0,0,299,0,0,0,0,0,0,0,320,5.3,8,0,0,0,0,0,0,0,0,0,0,0,0
2003,12,8,7,0,,7.1,-1.1,54,102920,0,0,299,0,0,0,0,0,0,0,320,5.5,8,0,0,0,0,0,0,0,0,0,0,0,0
2003,12,8,8,0,,7.1,-0.7,55,102980,0,0,300,18,4,14,1826,345,1703,0,320,3,8,0,0,0,0,0,0,0,0,0,0,0,0
2003,12,8,9,0,,7.6,-0.4,56,103030,0,0,302,96,188,61,17745,18173,9202,0,320,4.2,8,0,0,0,0,0,0,0,0,0,0,0,0
2003,12,8,10,0,,8.1,-0.3,52,103020,0,0,303,188,187,124,25533,18771,15455,0,320,3.7,8,0,0,0,0,0,0,0,0,0,0,0,0
2003,12,8,11,0,,8.2,-0.3,49,103000,0,0,302,294,252,177,35273,25412,21232,0,320,4.3,7,0,0,0,0,0,0,0,0,0,0,0,0
2003,12,8,12,0,,8.3,-0.2,54,102990,0,0,301,328,205,218,35584,20274,25121,0,320,3.2,7,0,0,0,0,0,0,0,0,0,0,0,0
2003,12,8,13,0,,9,-0.1,54,102940,0,0,303,347,208,231,34681,19765,26183,0,290,3.4,7,0,0,0,0,0,0,0,0,0,0,0,0
2003,12,8,14,0,,9.5,-0.1,52,102890,0,0,304,370,315,204,30900,26840,22849,0,320,3.8,6,0,0,0,0,0,0,0,0,0,0,0,0
2003,12,8,15,0,,9.1,0,52,102840,0,0,301,308,330,160,19606,17089,17298,0,320,4.1,6,0,0,0,0,0,0,0,0,0,0,0,0
2003,12,8,16,0,,8.8,0.1,54,102870,0,0,299,215,354,101,0,0,0,0,290,3.6,6,0,0,0,0,0,0,0,0,0,0,0,0
2003,12,8,17,0,,8.5,0.3,54,102900,0,0,297,107,340,52,0,0,0,0,320,3.6,5,0,0,0,0,0,0,0,0,0,0,0,0
2003,12,8,18,0,,8.7,0.4,55,102930,0,0,297,18,7,11,0,0,0,0,320,3.4,5,0,0,0,0,0,0,0,0,0,0,0,0
2003,12,8,19,0,,8.9,0.5,56,102930,0,0,296,0,0,0,0,0,0,0,320,4.1,4,0,0,0,0,0,0,0,0,0,0,0,0
2003,12,8,20,0,,8.9,0.5,54,102940,0,0,295,0,0,0,0,0,0,0,320,4,4,0,0,0,0,0,0,0,0,0,0,0,0
2003,12,8,21,0,,8.4,0.6,57,102940,0,0,291,0,0,0,0,0,0,0,340,4,3,0,0,0,0,0,0,0,0,0,0,0,0
2003,12,8,22,0,,8,0.5,57,102950,0,0,291,0,0,0,0,0,0,0,340,4.8,3,0,0,0,0,0,0,0,0,0,0,0,0
2003,12,8,23,0,,7.8,0.5,57,102970,0,0,290,0,0,0,0,0,0,0,340,3.1,4,0,0,0,0,0,0,0,0,0,0,0,0
2003,12,8,24,0,,7.4,0.4,60,102980,0,0,289,0,0,0,0,0,0,0,360,2.8,4,0,0,0,0,0,0,0,0,0,0,0,0
2003,12,9,1,0,,7.4,0,59,102960,0,0,290,0,0,0,0,0,0,0,360,2.7,4,0,0,0,0,0,0,0,0,0,0,0,0
2003,12,9,2,0,,7.7,-0.5,59,102950,0,0,291,0,0,0,0,0,0,0,20,3.7,5,0,0,0,0,0,0,0,0,0,0,0,0
2003,12,9,3,0,,7.6,-0.9,54,102930,0,0,291,0,0,0,0,0,0,0,360,2.5,5,0,0,0,0,0,0,0,0,0,0,0,0
2003,12,9,4,0,,8,-0.1,56,102920,0,0,296,0,0,0,0,0,0,0,360,2.5,6,0,0,0,0,0,0,0,0,0,0,0,0
2003,12,9,5,0,,7.8,0.7,63,102920,0,0,300,0,0,0,0,0,0,0,20,3.4,7,0,0,0,0,0,0,0,0,0,0,0,0
2003,12,9,6,0,,7.4,1.5,65,102910,0,0,304,0,0,0,0,0,0,0,20,4.6,8,0,0,0,0,0,0,0,0,0,0,0,0
2003,12,9,7,0,,7.1,1.2,65,102970,0,0,306,0,0,0,0,0,0,0,20,3.7,9,0,0,0,0,0,0,0,0,0,0,0,0
2003,12,9,8,0,,6.8,1,64,103030,0,0,309,11,1,10,1319,32,1308,0,20,3.7,9,0,0,0,0,0,0,0,0,0,0,0,0
2003,12,9,9,0,,6.8,0.7,64,103090,0,0,315,52,34,46,7408,3324,5852,0,360,3.3,10,0,0,0,0,0,0,0,0,0,0,0,0
2003,12,9,10,0,,6.9,0.6,61,103080,0,0,316,99,31,89,11975,2951,10396,0,360,3.1,10,0,0,0,0,0,0,0,0,0,0,0,0
2003,12,9,11,0,,6.8,0.5,61,103060,0,0,315,152,39,134,17497,3700,15458,0,360,3.4,10,0,0,0,0,0,0,0,0,0,0,0,0
2003,12,9,12,0,,7.1,0.4,61,103050,0,0,316,177,36,158,19831,3486,18035,0,20,2.8,10,0,0,0,0,0,0,0,0,0,0,0,0
2003,12,9,13,0,,6.7,-0.1,63,103040,0,0,314,184,35,165,20108,3330,18678,0,360,3.3,10,0,0,0,0,0,0,0,0,0,0,0,0
2003,12,9,14,0,,6.6,-0.5,62,103020,0,0,313,178,38,158,18696,3411,17673,0,360,2.9,10,0,0,0,0,0,0,0,0,0,0,0,0
2003,12,9,15,0,,6.6,-1,57,103010,0,0,312,146,38,129,14564,2797,14186,0,20,3.1,10,0,0,0,0,0,0,0,0,0,0,0,0
2003,12,9,16,0,,6.9,-0.7,56,103020,0,0,303,133,83,106,0,0,0,0,360,2.3,9,0,0,0,0,0,0,0,0,0,0,0,0
2003,12,9,17,0,,6.8,-0.5,59,103030,0,0,296,90,243,51,0,0,0,0,360,2.9,7,0,0,0,0,0,0,0,0,0,0,0,0
2003,12,9,18,0,,6.3,-0.2,62,103040,0,0,289,14,4,11,0,0,0,0,20,2.5,6,0,0,0,0,0,0,0,0,0,0,0,0
2003,12,9,19,0,,6,-0.8,61,103060,0,0,283,0,0,0,0,0,0,0,360,3,4,0,0,0,0,0,0,0,0,0,0,0,0
2003,12,9,20,0,,5.7,-1.5,57,103090,0,0,277,0,0,0,0,0,0,0,360,2.3,3,0,0,0,0,0,0,0,0,0,0,0,0
2003,12,9,21,0,,5.7,-2.1,56,103110,0,0,271,0,0,0,0,0,0,0,340,3,1,0,0,0,0,0,0,0,0,0,0,0,0
2003,12,9,22,0,,5.5,-2,52,103090,0,0,269,0,0,0,0,0,0,0,340,2.3,1,0,0,0,0,0,0,0,0,0,0,0,0
2003,12,9,23,0,,5.3,-2,51,103080,0,0,267,0,0,0,0,0,0,0,340,2.1,0,0,0,0,0,0,0,0,0,0,0,0,0
2003,12,9,24,0,,5.2,-1.9,59,103060,0,0,264,0,0,0,0,0,0,0,340,1.5,0,0,0,0,0,0,0,0,0,0,0,0,0
2003,12,10,1,0,,4,-2.2,64,103040,0,0,260,0,0,0,0,0,0,0,250,2.5,0,0,0,0,0,0,0,0,0,0,0,0,0
2003,12,10,2,0,,4.3,-2.4,61,103020,0,0,260,0,0,0,0,0,0,0,340,1.6,0,0,0,0,0,0,0,0,0,0,0,0,0
2003,12,10,3,0,,3.7,-2.7,62,103000,0,0,258,0,0,0,0,0,0,0,320,1.4,0,0,0,0,0,0,0,0,0,0,0,0,0
2003,12,10,4,0,,3.3,-2,65,102990,0,0,265,0,0,0,0,0,0,0,230,0.9,2,0,0,0,0,0,0,0,0,0,0,0,0
2003,12,10,5,0,,5,-1.2,65,102990,0,0,277,0,0,0,0,0,0,0,360,2,3,0,0,0,0,0,0,0,0,0,0,0,0
2003,12,10,6,0,,5.3,-0.5,65,102980,0,0,282,0,0,0,0,0,0,0,20,2.5,5,0,0,0,0,0,0,0,0,0,0,0,0
2003,12,10,7,0,,4.7,-0.3,69,102990,0,0,278,0,0,0,0,0,0,0,360,1.1,4,0,0,0,0,0,0,0,0,0,0,0,0
2003,12,10,8,0,,5.2,-0.2,65,102990,0,0,279,25,12,13,2166,1115,1773,0,360,1.3,4,0,0,0,0,0,0,0,0,0,0,0,0
2003,12,10,9,0,,6.7,0,61,103000,0,0,284,137,504,46,30574,50219,7170,0,320,2.2,3,0,0,0,0,0,0,0,0,0,0,0,0
2003,12,10,10,0,,8.1,0.2,58,102930,0,0,290,284,623,74,44261,62432,10955,0,320,1.7,3,0,0,0,0,0,0,0,0,0,0,0,0
2003,12,10,11,0,,9,0.3,53,102860,0,0,294,392,624,107,49789,62107,15635,0,340,2.3,3,0,0,0,0,0,0,0,0,0,0,0,0
2003,12,10,12,0,,9.6,0.5,52,102790,0,0,296,441,560,144,47715,54294,19793,0,340,1.1,3,0,0,0,0,0,0,0,0,0,0,0,0
2003,12,10,13,0,,9.2,0.7,51,102710,0,0,299,405,348,212,38676,33038,24505,0,360,1.7,5,0,0,0,0,0,0,0,0,0,0,0,0
2003,12,10,14,0,,8.7,1,55,102630,0,0,301,345,254,211,30093,21532,23638,0,340,1.3,6,0,0,0,0,0,0,0,0,0,0,0,0
2003,12,10,15,0,,9.3,1.2,56,102550,0,0,312,229,133,169,19781,10138,18407,0,360,1.3,8,0,0,0,0,0,0,0,0,0,0,0,0
2003,12,10,16,0,,8.7,1.2,58,102530,0,0,309,155,127,114,0,0,0,0,20,1.4,8,0,0,0,0,0,0,0,0,0,0,0,0
2003,12,10,17,0,,8.4,1.1,58,102520,0,0,307,74,132,52,0,0,0,0,110,1.6,8,0,0,0,0,0,0,0,0,0,0,0,0
2003,12,10,18,0,,8.1,1.1,60,102500,0,0,306,9,1,8,0,0,0,0,160,1.7,8,0,0,0,0,0,0,0,0,0,0,0,0
2003,12,10,19,0,,8.2,1.3,58,102460,0,0,303,0,0,0,0,0,0,0,160,1.5,7,0,0,0,0,0,0,0,0,0,0,0,0
2003,12,10,20,0,,8,1.6,60,102420,0,0,300,0,0,0,0,0,0,0,160,1.2,7,0,0,0,0,0,0,0,0,0,0,0,0
2003,12,10,21,0,,8.2,1.8,63,102380,0,0,299,0,0,0,0,0,0,0,180,1.9,6,0,0,0,0,0,0,0,0,0,0,0,0
2003,12,10,22,0,,8.4,2.3,64,102330,0,0,301,0,0,0,0,0,0,0,180,1.4,6,0,0,0,0,0,0,0,0,0,0,0,0
2003,12,10,23,0,,8.1,2.8,68,102280,0,0,300,0,0,0,0,0,0,0,180,2.7,6,0,0,0,0,0,0,0,0,0,0,0,0
2003,12,10,24,0,,8.4,3.3,69,102230,0,0,302,0,0,0,0,0,0,0,180,1.6,6,0,0,0,0,0,0,0,0,0,0,0,0
2003,12,11,1,0,,8,4.2,81,102210,0,0,306,0,0,0,0,0,0,0,360,2.3,7,0,0,0,0,0,0,0,0,0,0,0,0
2003,12,11,2,0,,7.3,5.1,89,102200,0,0,312,0,0,0,0,0,0,0,360,1,9,0,0,0,0,0,0,0,0,0,0,0,0
2003,12,11,3,0,,7.4,6,89,102180,0,0,325,0,0,0,0,0,0,0,360,1.6,10,0,0,0,0,0,0,0,0,0,0,0,0
2003,12,11,4,0,,7.4,5.4,90,102170,0,0,324,0,0,0,0,0,0,0,250,1,10,0,0,0,0,0,0,0,0,0,0,0,0
2003,12,11,5,0,,7.3,4.8,88,102160,0,0,323,0,0,0,0,0,0,0,360,3.3,10,0,0,0,0,0,0,0,0,0,0,0,0
2003,12,11,6,0,,6.8,4.2,82,102150,0,0,320,0,0,0,0,0,0,0,360,4.2,10,0,0,0,0,0,0,0,0,0,0,0,0
2003,12,11,7,0,,6.7,3.6,74,102190,0,0,319,0,0,0,0,0,0,0,360,4.2,10,0,0,0,0,0,0,0,0,0,0,0,0
2003,12,11,8,0,,6.6,3.1,74,102230,0,0,317,5,0,5,710,3,709,0,360,3.9,10,0,0,0,0,0,0,0,0,0,0,0,0
2003,12,11,9,0,,6.9,2.5,72,102270,0,0,318,48,29,43,6870,2885,5531,0,360,3.5,10,0,0,0,0,0,0,0,0,0,0,0,0
2003,12,11,10,0,,7.1,2.3,70,102240,0,0,312,136,79,110,17556,7857,13376,0,20,2.8,9,0,0,0,0,0,0,0,0,0,0,0,0
2003,12,11,11,0,,7.7,2.1,65,102210,0,0,310,203,89,162,24055,8892,19175,0,360,3.8,9,0,0,0,0,0,0,0,0,0,0,0,0
2003,12,11,12,0,,8.3,1.9,63,102180,0,0,308,285,141,210,31447,13830,24345,0,360,3,8,0,0,0,0,0,0,0,0,0,0,0,0
2003,12,11,13,0,,8.7,2.1,57,102110,0,0,308,303,144,223,31317,13601,25487,0,340,3.2,8,0,0,0,0,0,0,0,0,0,0,0,0
2003,12,11,14,0,,7.9,2.4,65,102040,0,0,303,304,174,212,28208,14655,23814,0,340,4.1,7,0,0,0,0,0,0,0,0,0,0,0,0
2003,12,11,15,0,,8.5,2.6,65,101970,0,0,305,261,198,173,20193,10779,18728,0,360,3.6,7,0,0,0,0,0,0,0,0,0,0,0,0
2003,12,11,16,0,,8.6,2.4,61,101980,0,0,304,186,222,115,0,0,0,0,340,4.4,7,0,0,0,0,0,0,0,0,0,0,0,0
2003,12,11,17,0,,8.6,2.3,59,102000,0,0,302,104,305,55,0,0,0,0,340,5.4,6,0,0,0,0,0,0,0,0,0,0,0,0
2003,12,11,18,0,,8.7,2.1,62,102010,0,0,302,17,6,11,0,0,0,0,360,5.5,6,0,0,0,0,0,0,0,0,0,0,0,0
2003,12,11,19,0,,8.8,2.2,66,102030,0,0,302,0,0,0,0,0,0,0,360,4.6,6,0,0,0,0,0,0,0,0,0,0,0,0
2003,12,11,20,0,,8.8,2.3,64,102050,0,0,302,0,0,0,0,0,0,0,340,5.2,6,0,0,0,0,0,0,0,0,0,0,0,0
2003,12,11,21,0,,8.8,2.4,63,102070,0,0,302,0,0,0,0,0,0,0,340,6.5,6,0,0,0,0,0,0,0,0,0,0,0,0
2003,12,11,22,0,,8.8,2.3,62,102050,0,0,300,0,0,0,0,0,0,0,340,6.2,5,0,0,0,0,0,0,0,0,0,0,0,0
2003,12,11,23,0,,8.8,2.1,59,102040,0,0,299,0,0,0,0,0,0,0,340,6.6,5,0,0,0,0,0,0,0,0,0,0,0,0
2003,12,11,24,0,,8.6,2,62,102020,0,0,296,0,0,0,0,0,0,0,340,7.4,4,0,0,0,0,0,0,0,0,0,0,0,0
2003,12,12,1,0,,8.8,2.3,53,102000,0,0,297,0,0,0,0,0,0,0,340,7.3,4,0,0,0,0,0,0,0,0,0,0,0,0
2003,12,12,2,0,,8.7,2.6,52,101990,0,0,297,0,0,0,0,0,0,0,340,7.7,4,0,0,0,0,0,0,0,0,0,0,0,0
2003,12,12,3,0,,7.8,2.9,70,101970,0,0,294,0,0,0,0,0,0,0,340,7.2,4,0,0,0,0,0,0,0,0,0,0,0,0
2003,12,12,4,0,,8.2,1.9,67,101970,0,0,295,0,0,0,0,0,0,0,340,7.7,4,0,0,0,0,0,0,0,0,0,0,0,0
2003,12,12,5,0,,8.2,1,57,101960,0,0,295,0,0,0,0,0,0,0,340,7.1,5,0,0,0,0,0,0,0,0,0,0,0,0
2003,12,12,6,0,,8.2,0,55,101960,0,0,295,0,0,0,0,0,0,0,340,7.7,5,0,0,0,0,0,0,0,0,0,0,0,0
2003,12,12,7,0,,7.8,-0.3,61,102020,0,0,297,0,0,0,0,0,0,0,340,7.8,7,0,0,0,0,0,0,0,0,0,0,0,0
2003,12,12,8,0,,7.6,-0.5,54,102070,0,0,304,16,3,12,1616,299,1512,0,340,6.8,8,0,0,0,0,0,0,0,0,0,0,0,0
2003,12,12,9,0,,7.7,-0.8,54,102130,0,0,318,60,56,50,8916,5604,6325,0,320,7.2,10,0,0,0,0,0,0,0,0,0,0,0,0
2003,12,12,10,0,,7.3,-0.5,67,102110,0,0,316,119,55,101,15185,5500,12267,0,340,6.5,10,0,0,0,0,0,0,0,0,0,0,0,0
2003,12,12,11,0,,7.6,-0.1,54,102100,0,0,318,165,51,142,19001,4880,16329,0,320,5.6,10,0,0,0,0,0,0,0,0,0,0,0,0
2003,12,12,12,0,,8.2,0.2,56,102080,0,0,321,199,52,172,22169,5012,19598,0,320,5.4,10,0,0,0,0,0,0,0,0,0,0,0,0
2003,12,12,13,0,,8.2,0.8,59,102050,0,0,322,217,57,186,23323,5409,21006,0,340,6.9,10,0,0,0,0,0,0,0,0,0,0,0,0
2003,12,12,14,0,,7.7,1.3,71,102020,0,0,320,189,46,165,19734,4127,18496,0,340,6.9,10,0,0,0,0,0,0,0,0,0,0,0,0
2003,12,12,15,0,,7.8,1.9,65,101990,0,0,321,160,49,138,15622,3622,15128,0,340,7.7,10,0,0,0,0,0,0,0,0,0,0,0,0
2003,12,12,16,0,,7.5,0.9,60,102040,0,0,307,150,116,112,0,0,0,0,340,8.1,9,0,0,0,0,0,0,0,0,0,0,0,0
2003,12,12,17,0,,6.7,-0.1,64,102090,0,0,296,96,290,48,0,0,0,0,340,8.7,7,0,0,0,0,0,0,0,0,0,0,0,0
2003,12,12,18,0,,6.8,-1.1,56,102140,0,0,290,17,6,11,0,0,0,0,340,7.3,6,0,0,0,0,0,0,0,0,0,0,0,0
2003,12,12,19,0,,6.5,-1.4,62,102170,0,0,289,0,0,0,0,0,0,0,340,6.3,6,0,0,0,0,0,0,0,0,0,0,0,0
2003,12,12,20,0,,6.3,-1.8,55,102210,0,0,287,0,0,0,0,0,0,0,340,7.1,6,0,0,0,0,0,0,0,0,0,0,0,0
2003,12,12,21,0,,6.3,-2.1,54,102240,0,0,287,0,0,0,0,0,0,0,340,7.1,6,0,0,0,0,0,0,0,0,0,0,0,0
2003,12,12,22,0,,6.2,-2.4,54,102240,0,0,286,0,0,0,0,0,0,0,340,6.4,6,0,0,0,0,0,0,0,0,0,0,0,0
2003,12,12,23,0,,6,-2.6,54,102250,0,0,285,0,0,0,0,0,0,0,340,4.9,6,0,0,0,0,0,0,0,0,0,0,0,0
2003,12,12,24,0,,6,-2.9,52,102250,0,0,285,0,0,0,0,0,0,0,340,5.4,6,0,0,0,0,0,0,0,0,0,0,0,0
2003,12,13,1,0,,6.3,-2,58,102260,0,0,289,0,0,0,0,0,0,0,340,5.2,7,0,0,0,0,0,0,0,0,0,0,0,0
2003,12,13,2,0,,6.2,-1.1,58,102260,0,0,292,0,0,0,0,0,0,0,340,5.2,7,0,0,0,0,0,0,0,0,0,0,0,0
2003,12,13,3,0,,6.5,-0.2,61,102270,0,0,298,0,0,0,0,0,0,0,340,4.6,8,0,0,0,0,0,0,0,0,0,0,0,0
2003,12,13,4,0,,6.4,-0.5,58,102270,0,0,297,0,0,0,0,0,0,0,340,5.6,8,0,0,0,0,0,0,0,0,0,0,0,0
2003,12,13,5,0,,6.6,-0.8,61,102260,0,0,298,0,0,0,0,0,0,0,340,4.9,8,0,0,0,0,0,0,0,0,0,0,0,0
2003,12,13,6,0,,6.5,-1.1,57,102260,0,0,297,0,0,0,0,0,0,0,320,4,8,0,0,0,0,0,0,0,0,0,0,0,0
2003,12,13,7,0,,6.8,-1,55,102290,0,0,298,0,0,0,0,0,0,0,340,5.2,8,0,0,0,0,0,0,0,0,0,0,0,0
2003,12,13,8,0,,6.9,-0.8,58,102310,0,0,299,14,3,12,1510,237,1428,0,340,4.4,8,0,0,0,0,0,0,0,0,0,0,0,0
2003,12,13,9,0,,7,-0.7,57,102340,0,0,299,88,182,57,16741,17551,8656,0,340,4,8,0,0,0,0,0,0,0,0,0,0,0,0
2003,12,13,10,0,,7.2,-0.6,52,102330,0,0,300,177,173,119,24104,17390,14903,0,340,3.9,8,0,0,0,0,0,0,0,0,0,0,0,0
2003,12,13,11,0,,7.5,-0.5,56,102320,0,0,302,250,168,175,29675,16846,20465,0,340,3.9,8,0,0,0,0,0,0,0,0,0,0,0,0
2003,12,13,12,0,,7.5,-0.4,56,102310,0,0,302,290,151,211,31931,14962,24265,0,340,4.6,8,0,0,0,0,0,0,0,0,0,0,0,0
2003,12,13,13,0,,7.5,-0.1,55,102270,0,0,302,297,138,221,30757,13114,25140,0,340,3.7,8,0,0,0,0,0,0,0,0,0,0,0,0
2003,12,13,14,0,,7.6,0.2,53,102240,0,0,303,285,146,208,27112,13209,23145,0,320,4.9,8,0,0,0,0,0,0,0,0,0,0,0,0
2003,12,13,15,0,,7.7,0.5,59,102200,0,0,304,235,146,170,20049,11152,18521,0,340,4.1,8,0,0,0,0,0,0,0,0,0,0,0,0
2003,12,13,16,0,,7.7,0.1,55,102230,0,0,303,170,169,116,0,0,0,0,320,4.8,8,0,0,0,0,0,0,0,0,0,0,0,0
2003,12,13,17,0,,7.6,-0.4,59,102260,0,0,302,81,173,53,0,0,0,0,340,4.1,8,0,0,0,0,0,0,0,0,0,0,0,0
2003,12,13,18,0,,7.7,-0.8,54,102290,0,0,302,11,2,10,0,0,0,0,340,3.5,8,0,0,0,0,0,0,0,0,0,0,0,0
2003,12,13,19,0,,7.6,-0.9,60,102300,0,0,302,0,0,0,0,0,0,0,340,3.6,8,0,0,0,0,0,0,0,0,0,0,0,0
2003,12,13,20,0,,7.8,-1.1,59,102310,0,0,303,0,0,0,0,0,0,0,340,3.9,8,0,0,0,0,0,0,0,0,0,0,0,0
2003,12,13,21,0,,7.8,-1.2,52,102320,0,0,302,0,0,0,0,0,0,0,340,3.7,8,0,0,0,0,0,0,0,0,0,0,0,0
2003,12,13,22,0,,7.7,-0.9,53,102320,0,0,302,0,0,0,0,0,0,0,340,4.5,8,0,0,0,0,0,0,0,0,0,0,0,0
2003,12,13,23,0,,7.6,-0.7,53,102310,0,0,302,0,0,0,0,0,0,0,340,2.8,8,0,0,0,0,0,0,0,0,0,0,0,0
2003,12,13,24,0,,7.6,-0.4,56,102310,0,0,302,0,0,0,0,0,0,0,360,3.5,8,0,0,0,0,0,0,0,0,0,0,0,0
2003,12,14,1,0,,7.5,-0.2,54,102300,0,0,306,0,0,0,0,0,0,0,360,3.5,9,0,0,0,0,0,0,0,0,0,0,0,0
2003,12,14,2,0,,7.6,0,60,102280,0,0,312,0,0,0,0,0,0,0,340,4.4,9,0,0,0,0,0,0,0,0,0,0,0,0
2003,12,14,3,0,,7.4,0.2,59,102270,0,0,317,0,0,0,0,0,0,0,320,3.5,10,0,0,0,0,0,0,0,0,0,0,0,0
2003,12,14,4,0,,7.5,-0.2,50,102260,0,0,317,0,0,0,0,0,0,0,320,3.1,10,0,0,0,0,0,0,0,0,0,0,0,0
2003,12,14,5,0,,7.6,-0.5,53,102250,0,0,317,0,0,0,0,0,0,0,340,3.4,10,0,0,0,0,0,0,0,0,0,0,0,0
2003,12,14,6,0,,7.6,-0.9,54,102240,0,0,317,0,0,0,0,0,0,0,340,4.2,10,0,0,0,0,0,0,0,0,0,0,0,0
2003,12,14,7,0,,7.5,-0.2,53,102260,0,0,314,0,0,0,0,0,0,0,320,4.1,10,0,0,0,0,0,0,0,0,0,0,0,0
2003,12,14,8,0,,7.1,0.4,59,102290,0,0,310,9,1,8,1108,23,1100,0,340,2.6,9,0,0,0,0,0,0,0,0,0,0,0,0
2003,12,14,9,0,,7.2,1.1,64,102310,0,0,309,65,77,52,10460,7492,7021,0,340,3.3,9,0,0,0,0,0,0,0,0,0,0,0,0
2003,12,14,10,0,,7.5,1.1,60,102300,0,0,310,148,105,113,19276,10534,13715,0,340,5.7,9,0,0,0,0,0,0,0,0,0,0,0,0
2003,12,14,11,0,,6.4,1.2,72,102300,0,0,305,187,74,154,22307,7447,18242,0,360,3.5,9,0,0,0,0,0,0,0,0,0,0,0,0
2003,12,14,12,0,,6.8,1.2,66,102290,0,0,307,221,71,184,24405,6787,20930,0,320,4.9,9,0,0,0,0,0,0,0,0,0,0,0,0
2003,12,14,13,0,,7.5,1,58,102240,0,0,310,251,86,203,26411,8158,22917,0,340,5.1,9,0,0,0,0,0,0,0,0,0,0,0,0
2003,12,14,14,0,,7.7,0.9,59,102180,0,0,311,248,100,196,24576,8974,21878,0,340,5.4,9,0,0,0,0,0,0,0,0,0,0,0,0
2003,12,14,15,0,,7.7,0.7,60,102130,0,0,311,213,110,164,19012,8331,17864,0,340,5.5,9,0,0,0,0,0,0,0,0,0,0,0,0
2003,12,14,16,0,,7.7,0.7,64,102140,0,0,311,145,106,111,0,0,0,0,340,5.8,9,0,0,0,0,0,0,0,0,0,0,0,0
2003,12,14,17,0,,7.9,0.6,62,102150,0,0,311,68,102,52,0,0,0,0,340,5,9,0,0,0,0,0,0,0,0,0,0,0,0
2003,12,14,18,0,,7.8,0.6,59,102160,0,0,311,9,1,8,0,0,0,0,340,5.1,9,0,0,0,0,0,0,0,0,0,0,0,0
2003,12,14,19,0,,7.8,0.4,60,102180,0,0,311,0,0,0,0,0,0,0,340,4.4,9,0,0,0,0,0,0,0,0,0,0,0,0
2003,12,14,20,0,,7.9,0.2,59,102210,0,0,311,0,0,0,0,0,0,0,340,5.1,9,0,0,0,0,0,0,0,0,0,0,0,0
2003,12,14,21,0,,7.5,0,58,102230,0,0,309,0,0,0,0,0,0,0,320,4.5,9,0,0,0,0,0,0,0,0,0,0,0,0
2003,12,14,22,0,,7.5,0.2,57,102200,0,0,309,0,0,0,0,0,0,0,340,4.3,9,0,0,0,0,0,0,0,0,0,0,0,0
2003,12,14,23,0,,7.8,0.4,58,102180,0,0,311,0,0,0,0,0,0,0,320,4.3,9,0,0,0,0,0,0,0,0,0,0,0,0
2003,12,14,24,0,,7.6,0.6,60,102150,0,0,310,0,0,0,0,0,0,0,320,4.7,9,0,0,0,0,0,0,0,0,0,0,0,0
2003,12,15,1,0,,7.4,1,56,102130,0,0,307,0,0,0,0,0,0,0,320,4.8,9,0,0,0,0,0,0,0,0,0,0,0,0
2003,12,15,2,0,,7.8,1.4,57,102120,0,0,307,0,0,0,0,0,0,0,320,5.1,8,0,0,0,0,0,0,0,0,0,0,0,0
2003,12,15,3,0,,8.1,1.8,63,102100,0,0,307,0,0,0,0,0,0,0,320,4.8,8,0,0,0,0,0,0,0,0,0,0,0,0
2003,12,15,4,0,,8,1.4,60,102080,0,0,306,0,0,0,0,0,0,0,320,5.4,8,0,0,0,0,0,0,0,0,0,0,0,0
2003,12,15,5,0,,8,0.9,57,102060,0,0,306,0,0,0,0,0,0,0,320,5.6,8,0,0,0,0,0,0,0,0,0,0,0,0
2003,12,15,6,0,,8,0.5,58,102040,0,0,305,0,0,0,0,0,0,0,320,5.1,8,0,0,0,0,0,0,0,0,0,0,0,0
2003,12,15,7,0,,8.4,0.8,59,102050,0,0,304,0,0,0,0,0,0,0,340,5.8,7,0,0,0,0,0,0,0,0,0,0,0,0
2003,12,15,8,0,,8.7,1,54,102070,0,0,303,18,6,12,1674,541,1488,0,320,6.8,7,0,0,0,0,0,0,0,0,0,0,0,0
2003,12,15,9,0,,8.6,1.3,59,102080,0,0,300,112,343,54,24339,33726,8907,0,340,7,6,0,0,0,0,0,0,0,0,0,0,0,0
2003,12,15,10,0,,7.8,0.9,56,102100,0,0,296,216,345,104,32352,33795,14551,0,340,6.6,6,0,0,0,0,0,0,0,0,0,0,0,0
2003,12,15,11,0,,7.6,0.5,58,102130,0,0,295,301,305,164,36551,30640,19847,0,340,6.5,6,0,0,0,0,0,0,0,0,0,0,0,0
2003,12,15,12,0,,7.8,0.1,57,102150,0,0,296,355,283,207,38550,28019,24214,0,340,5.6,6,0,0,0,0,0,0,0,0,0,0,0,0
2003,12,15,13,0,,7.6,0.2,53,102120,0,0,296,384,303,217,37408,28861,25043,0,340,6.7,6,0,0,0,0,0,0,0,0,0,0,0,0
2003,12,15,14,0,,7.4,0.3,59,102100,0,0,296,319,206,212,28963,17499,23693,0,340,6.5,7,0,0,0,0,0,0,0,0,0,0,0,0
2003,12,15,15,0,,7.4,0.4,60,102070,0,0,298,264,206,172,20228,11569,18625,0,340,5.2,7,0,0,0,0,0,0,0,0,0,0,0,0
2003,12,15,16,0,,7.3,0.3,56,102100,0,0,297,191,238,114,0,0,0,0,340,5.8,7,0,0,0,0,0,0,0,0,0,0,0,0
2003,12,15,17,0,,7,0.1,57,102120,0,0,296,96,289,49,0,0,0,0,340,6,7,0,0,0,0,0,0,0,0,0,0,0,0
2003,12,15,18,0,,7,0,60,102150,0,0,296,15,4,11,0,0,0,0,340,4.9,7,0,0,0,0,0,0,0,0,0,0,0,0
2003,12,15,19,0,,6.9,-0.2,62,102190,0,0,294,0,0,0,0,0,0,0,340,4.7,7,0,0,0,0,0,0,0,0,0,0,0,0
2003,12,15,20,0,,6.4,-0.5,59,102220,0,0,290,0,0,0,0,0,0,0,340,5,6,0,0,0,0,0,0,0,0,0,0,0,0
2003,12,15,21,0,,6,-0.7,61,102260,0,0,287,0,0,0,0,0,0,0,340,3.4,6,0,0,0,0,0,0,0,0,0,0,0,0
2003,12,15,22,0,,5.9,-0.3,60,102250,0,0,286,0,0,0,0,0,0,0,340,4.1,6,0,0,0,0,0,0,0,0,0,0,0,0
2003,12,15,23,0,,5.9,0,64,102230,0,0,286,0,0,0,0,0,0,0,360,1.7,5,0,0,0,0,0,0,0,0,0,0,0,0
2003,12,15,24,0,,5.8,0.4,67,102220,0,0,285,0,0,0,0,0,0,0,360,2.5,5,0,0,0,0,0,0,0,0,0,0,0,0
2003,12,16,1,0,,5.8,0.6,65,102230,0,0,285,0,0,0,0,0,0,0,320,2.5,5,0,0,0,0,0,0,0,0,0,0,0,0
2003,12,16,2,0,,6.1,0.8,66,102240,0,0,287,0,0,0,0,0,0,0,340,3,5,0,0,0,0,0,0,0,0,0,0,0,0
2003,12,16,3,0,,6.4,1,67,102250,0,0,288,0,0,0,0,0,0,0,340,3,5,0,0,0,0,0,0,0,0,0,0,0,0
2003,12,16,4,0,,6.5,1,66,102220,0,0,289,0,0,0,0,0,0,0,340,2.5,5,0,0,0,0,0,0,0,0,0,0,0,0
2003,12,16,5,0,,6.3,0.9,66,102200,0,0,288,0,0,0,0,0,0,0,320,1.5,5,0,0,0,0,0,0,0,0,0,0,0,0
2003,12,16,6,0,,6.1,0.9,68,102170,0,0,287,0,0,0,0,0,0,0,340,1.8,5,0,0,0,0,0,0,0,0,0,0,0,0
2003,12,16,7,0,,6.3,1.1,69,102180,0,0,287,0,0,0,0,0,0,0,340,2.3,5,0,0,0,0,0,0,0,0,0,0,0,0
2003,12,16,8,0,,6.4,1.2,67,102180,0,0,287,21,10,11,1833,934,1515,0,340,2.4,4,0,0,0,0,0,0,0,0,0,0,0,0
2003,12,16,9,0,,7.1,1.4,66,102190,0,0,289,119,429,48,26861,42632,7415,0,340,1.6,4,0,0,0,0,0,0,0,0,0,0,0,0
2003,12,16,10,0,,7.7,1.5,62,102150,0,0,291,243,460,93,38060,45666,14054,0,340,1.4,4,0,0,0,0,0,0,0,0,0,0,0,0
2003,12,16,11,0,,9.5,1.7,56,102110,0,0,298,370,577,113,47489,57134,16376,0,340,2.5,3,0,0,0,0,0,0,0,0,0,0,0,0
2003,12,16,12,0,,10.4,1.8,54,102070,0,0,301,439,579,136,47764,56221,19008,0,340,1.6,3,0,0,0,0,0,0,0,0,0,0,0,0
2003,12,16,13,0,,9.5,1.8,55,102010,0,0,301,404,384,193,38323,36426,22709,0,290,2.7,5,0,0,0,0,0,0,0,0,0,0,0,0
2003,12,16,14,0,,9.1,1.7,58,101960,0,0,304,343,256,209,30003,21743,23441,0,320,4,6,0,0,0,0,0,0,0,0,0,0,0,0
2003,12,16,15,0,,8.3,1.7,62,101900,0,0,308,206,101,161,18694,7628,17630,0,320,2.9,8,0,0,0,0,0,0,0,0,0,0,0,0
2003,12,16,16,0,,8,1.7,62,101880,0,0,306,151,117,113,0,0,0,0,290,3,8,0,0,0,0,0,0,0,0,0,0,0,0
2003,12,16,17,0,,7.9,1.7,65,101860,0,0,306,73,119,53,0,0,0,0,320,2.2,8,0,0,0,0,0,0,0,0,0,0,0,0
2003,12,16,18,0,,8,1.7,63,101840,0,0,306,10,1,9,0,0,0,0,250,2.6,8,0,0,0,0,0,0,0,0,0,0,0,0
2003,12,16,19,0,,8,2,64,101830,0,0,307,0,0,0,0,0,0,0,250,2.1,8,0,0,0,0,0,0,0,0,0,0,0,0
2003,12,16,20,0,,8.1,2.2,65,101830,0,0,307,0,0,0,0,0,0,0,250,1.8,8,0,0,0,0,0,0,0,0,0,0,0,0
2003,12,16,21,0,,8.2,2.5,66,101820,0,0,308,0,0,0,0,0,0,0,230,2.3,8,0,0,0,0,0,0,0,0,0,0,0,0
2003,12,16,22,0,,8.1,2.6,65,101770,0,0,308,0,0,0,0,0,0,0,200,2.3,8,0,0,0,0,0,0,0,0,0,0,0,0
2003,12,16,23,0,,8.3,2.6,63,101720,0,0,309,0,0,0,0,0,0,0,230,3.1,8,0,0,0,0,0,0,0,0,0,0,0,0
2003,12,16,24,0,,8.6,2.7,65,101670,0,0,310,0,0,0,0,0,0,0,230,2.3,8,0,0,0,0,0,0,0,0,0,0,0,0
2003,12,17,1,0,,9.2,3.3,65,101630,0,0,318,0,0,0,0,0,0,0,230,2.9,9,0,0,0,0,0,0,0,0,0,0,0,0
2003,12,17,2,0,,9,4,75,101590,0,0,323,0,0,0,0,0,0,0,250,2.8,9,0,0,0,0,0,0,0,0,0,0,0,0
2003,12,17,3,0,,10,4.6,68,101550,0,0,335,0,0,0,0,0,0,0,320,5.5,10,0,0,0,0,0,0,0,0,0,0,0,0
2003,12,17,4,0,,9.8,3.4,63,101530,0,0,332,0,0,0,0,0,0,0,320,6.6,10,0,0,0,0,0,0,0,0,0,0,0,0
2003,12,17,5,0,,9.7,2.3,56,101510,0,0,330,0,0,0,0,0,0,0,290,5.9,10,0,0,0,0,0,0,0,0,0,0,0,0
2003,12,17,6,0,,10,1.1,53,101490,0,0,331,0,0,0,0,0,0,0,290,5.5,10,0,0,0,0,0,0,0,0,0,0,0,0
2003,12,17,7,0,,9.1,2.1,78,101570,0,0,327,0,0,0,0,0,0,0,340,6.7,10,0,0,0,0,0,0,0,0,0,0,0,0
2003,12,17,8,0,,9.2,3.1,75,101640,0,0,329,7,0,6,855,9,852,0,340,8.3,10,0,0,0,0,0,0,0,0,0,0,0,0
2003,12,17,9,0,,8.8,4.1,71,101720,0,0,329,49,39,43,7222,3771,5506,0,340,7.5,10,0,0,0,0,0,0,0,0,0,0,0,0
2003,12,17,10,0,,8.2,2.9,62,101740,0,0,324,110,48,95,14177,4826,11644,0,320,6.6,10,0,0,0,0,0,0,0,0,0,0,0,0
2003,12,17,11,0,,8.2,1.7,59,101770,0,0,323,155,46,135,17960,4365,15585,0,340,6.5,10,0,0,0,0,0,0,0,0,0,0,0,0
2003,12,17,12,0,,8.2,0.5,57,101790,0,0,321,187,45,163,20859,4339,18640,0,340,6.4,10,0,0,0,0,0,0,0,0,0,0,0,0
2003,12,17,13,0,,8.1,0.9,56,101790,0,0,321,199,46,174,21543,4328,19686,0,320,5.9,10,0,0,0,0,0,0,0,0,0,0,0,0
2003,12,17,14,0,,7.4,1.3,68,101780,0,0,319,184,44,162,19312,3897,18133,0,340,7.6,10,0,0,0,0,0,0,0,0,0,0,0,0
2003,12,17,15,0,,7.6,1.7,65,101780,0,0,320,155,45,135,15270,3333,14801,0,340,6.9,10,0,0,0,0,0,0,0,0,0,0,0,0
2003,12,17,16,0,,7.3,1.2,66,101840,0,0,312,137,89,108,0,0,0,0,340,6.2,9,0,0,0,0,0,0,0,0,0,0,0,0
2003,12,17,17,0,,7,0.8,63,101900,0,0,305,68,99,52,0,0,0,0,340,5.6,9,0,0,0,0,0,0,0,0,0,0,0,0
2003,12,17,18,0,,6.6,0.3,63,101960,0,0,299,12,2,10,0,0,0,0,340,6,8,0,0,0,0,0,0,0,0,0,0,0,0
2003,12,17,19,0,,6.3,0,64,102010,0,0,297,0,0,0,0,0,0,0,340,6.1,8,0,0,0,0,0,0,0,0,0,0,0,0
2003,12,17,20,0,,6.2,-0.4,65,102060,0,0,296,0,0,0,0,0,0,0,360,4.9,8,0,0,0,0,0,0,0,0,0,0,0,0
2003,12,17,21,0,,6.2,-0.7,60,102110,0,0,296,0,0,0,0,0,0,0,340,5.4,8,0,0,0,0,0,0,0,0,0,0,0,0
2003,12,17,22,0,,6,-0.7,62,102110,0,0,295,0,0,0,0,0,0,0,340,5.1,8,0,0,0,0,0,0,0,0,0,0,0,0
2003,12,17,23,0,,5.9,-0.6,65,102100,0,0,295,0,0,0,0,0,0,0,360,3.6,8,0,0,0,0,0,0,0,0,0,0,0,0
2003,12,17,24,0,,5.6,-0.6,63,102100,0,0,294,0,0,0,0,0,0,0,360,3.8,8,0,0,0,0,0,0,0,0,0,0,0,0
2003,12,18,1,0,,5.7,-0.6,63,102110,0,0,294,0,0,0,0,0,0,0,340,3.7,8,0,0,0,0,0,0,0,0,0,0,0,0
2003,12,18,2,0,,5.8,-0.6,63,102120,0,0,294,0,0,0,0,0,0,0,340,3.9,8,0,0,0,0,0,0,0,0,0,0,0,0
2003,12,18,3,0,,5.6,-0.6,63,102130,0,0,294,0,0,0,0,0,0,0,360,2.9,8,0,0,0,0,0,0,0,0,0,0,0,0
2003,12,18,4,0,,5.6,-0.3,65,102120,0,0,294,0,0,0,0,0,0,0,340,3.5,8,0,0,0,0,0,0,0,0,0,0,0,0
2003,12,18,5,0,,5.8,-0.1,64,102100,0,0,295,0,0,0,0,0,0,0,340,3.3,8,0,0,0,0,0,0,0,0,0,0,0,0
2003,12,18,6,0,,6,0.2,65,102090,0,0,296,0,0,0,0,0,0,0,340,3.4,8,0,0,0,0,0,0,0,0,0,0,0,0
2003,12,18,7,0,,6.1,0.1,63,102110,0,0,298,0,0,0,0,0,0,0,340,4.2,8,0,0,0,0,0,0,0,0,0,0,0,0
2003,12,18,8,0,,6.1,-0.1,66,102120,0,0,300,8,1,7,1002,20,995,0,360,3.3,9,0,0,0,0,0,0,0,0,0,0,0,0
2003,12,18,9,0,,6.3,-0.2,62,102140,0,0,303,64,85,50,10582,8341,6799,0,340,3.5,9,0,0,0,0,0,0,0,0,0,0,0,0
2003,12,18,10,0,,6.4,-0.1,62,102110,0,0,304,137,91,108,17900,9180,13090,0,340,3.1,9,0,0,0,0,0,0,0,0,0,0,0,0
2003,12,18,11,0,,6.5,0,64,102080,0,0,305,193,84,155,22981,8463,18380,0,340,3.3,9,0,0,0,0,0,0,0,0,0,0,0,0
2003,12,18,12,0,,6.6,0.1,62,102050,0,0,305,236,88,190,25963,8430,21651,0,340,4.4,9,0,0,0,0,0,0,0,0,0,0,0,0
2003,12,18,13,0,,6.6,0.4,63,101990,0,0,305,244,82,200,25845,7748,22518,0,340,5.4,9,0,0,0,0,0,0,0,0,0,0,0,0
2003,12,18,14,0,,6.7,0.7,63,101940,0,0,306,232,83,189,23367,7517,21087,0,340,5.4,9,0,0,0,0,0,0,0,0,0,0,0,0
2003,12,18,15,0,,6.8,1,65,101880,0,0,307,196,87,157,18122,6591,17189,0,340,6,9,0,0,0,0,0,0,0,0,0,0,0,0
2003,12,18,16,0,,7,1,64,101900,0,0,308,145,103,111,0,0,0,0,340,5.4,9,0,0,0,0,0,0,0,0,0,0,0,0
2003,12,18,17,0,,6.7,1,64,101910,0,0,307,66,88,51,0,0,0,0,340,5.2,9,0,0,0,0,0,0,0,0,0,0,0,0
2003,12,18,18,0,,6.8,1,65,101930,0,0,307,9,1,8,0,0,0,0,340,5.4,9,0,0,0,0,0,0,0,0,0,0,0,0
2003,12,18,19,0,,6.8,0.6,64,101920,0,0,307,0,0,0,0,0,0,0,340,5.3,9,0,0,0,0,0,0,0,0,0,0,0,0
2003,12,18,20,0,,6.7,0.3,56,101900,0,0,306,0,0,0,0,0,0,0,340,5.9,9,0,0,0,0,0,0,0,0,0,0,0,0
2003,12,18,21,0,,6.9,-0.1,60,101890,0,0,306,0,0,0,0,0,0,0,340,5.9,9,0,0,0,0,0,0,0,0,0,0,0,0
2003,12,18,22,0,,6.6,-1,65,101900,0,0,304,0,0,0,0,0,0,0,360,6.1,9,0,0,0,0,0,0,0,0,0,0,0,0
2003,12,18,23,0,,5.7,-2,68,101920,0,0,299,0,0,0,0,0,0,0,340,7.3,9,0,0,0,0,0,0,0,0,0,0,0,0
2003,12,18,24,0,,6,-2.9,52,101930,0,0,299,0,0,0,0,0,0,0,340,6.9,9,0,0,0,0,0,0,0,0,0,0,0,0
2003,12,19,1,0,,4.5,-1.2,72,101930,0,0,295,0,0,0,0,0,0,0,340,6.9,9,0,0,0,0,0,0,0,0,0,0,0,0
2003,12,19,2,0,,4.5,0.4,84,101940,0,0,297,0,0,0,0,0,0,0,360,7.5,9,0,0,0,0,0,0,0,0,0,0,0,0
2003,12,19,3,0,,4.8,2.1,81,101940,0,0,300,0,0,0,0,0,0,0,360,6.6,9,0,0,0,0,0,0,0,0,0,0,0,0
2003,12,19,4,0,,4,1.6,85,101990,0,0,294,0,0,0,0,0,0,0,360,6.7,9,0,0,0,0,0,0,0,0,0,0,0,0
2003,12,19,5,0,,4.4,1,73,102030,0,0,292,0,0,0,0,0,0,0,360,6.5,8,0,0,0,0,0,0,0,0,0,0,0,0
2003,12,19,6,0,,3.2,0.5,81,102080,0,0,285,0,0,0,0,0,0,0,360,7.4,8,0,0,0,0,0,0,0,0,0,0,0,0
2003,12,19,7,0,,2.3,-0.9,78,102160,0,0,280,0,0,0,0,0,0,0,340,8.3,8,0,0,0,0,0,0,0,0,0,0,0,0
2003,12,19,8,0,,3.6,-2.3,53,102250,0,0,283,11,2,9,1219,166,1163,0,340,8.9,8,0,0,0,0,0,0,0,0,0,0,0,0
2003,12,19,9,0,,3.5,-3.7,58,102330,0,0,282,86,211,52,17212,20446,7959,0,340,7.7,8,0,0,0,0,0,0,0,0,0,0,0,0
2003,12,19,10,0,,4.1,-2.5,59,102280,0,0,284,181,209,114,25302,21100,14263,0,340,6.9,8,0,0,0,0,0,0,0,0,0,0,0,0
2003,12,19,11,0,,4.5,-1.3,51,102240,0,0,285,285,268,166,34669,27008,19994,0,340,7.5,7,0,0,0,0,0,0,0,0,0,0,0,0
2003,12,19,12,0,,3.7,-0.1,75,102190,0,0,282,319,208,210,34779,20562,24260,0,340,7,7,0,0,0,0,0,0,0,0,0,0,0,0
2003,12,19,13,0,,3.9,0.2,77,102170,0,0,284,336,203,225,33868,19289,25574,0,340,8.2,7,0,0,0,0,0,0,0,0,0,0,0,0
2003,12,19,14,0,,4.1,0.4,79,102160,0,0,287,264,119,202,25740,10768,22465,0,340,7.8,8,0,0,0,0,0,0,0,0,0,0,0,0
2003,12,19,15,0,,3,0.7,83,102140,0,0,285,221,122,167,19541,9340,18207,0,340,9.9,8,0,0,0,0,0,0,0,0,0,0,0,0
2003,12,19,16,0,,4.1,0.5,65,102150,0,0,291,168,158,117,0,0,0,0,340,9,8,0,0,0,0,0,0,0,0,0,0,0,0
2003,12,19,17,0,,4.4,0.4,65,102170,0,0,294,72,112,54,0,0,0,0,340,8.6,9,0,0,0,0,0,0,0,0,0,0,0,0
2003,12,19,18,0,,3.6,0.2,77,102180,0,0,293,10,1,9,0,0,0,0,340,9.5,9,0,0,0,0,0,0,0,0,0,0,0,0
2003,12,19,19,0,,2.2,0.4,85,102230,0,0,287,0,0,0,0,0,0,0,360,14.6,9,0,0,0,0,0,0,0,0,0,0,0,0
2003,12,19,20,0,,2.4,0.6,81,102290,0,0,288,0,0,0,0,0,0,0,340,8.2,9,0,0,0,0,0,0,0,0,0,0,0,0
2003,12,19,21,0,,2.5,0.8,87,102340,0,0,289,0,0,0,0,0,0,0,340,14.2,9,0,0,0,0,0,0,0,0,0,0,0,0
2003,12,19,22,0,,2.2,0.8,82,102360,0,0,288,0,0,0,0,0,0,0,360,13,9,0,0,0,0,0,0,0,0,0,0,0,0
2003,12,19,23,0,,2.4,0.9,87,102370,0,0,289,0,0,0,0,0,0,0,360,11.2,9,0,0,0,0,0,0,0,0,0,0,0,0
2003,12,19,24,0,,2.3,0.9,89,102390,0,0,288,0,0,0,0,0,0,0,360,9.3,9,0,0,0,0,0,0,0,0,0,0,0,0
2003,12,20,1,0,,3.1,-0.4,74,102410,0,0,288,0,0,0,0,0,0,0,360,11.5,9,0,0,0,0,0,0,0,0,0,0,0,0
2003,12,20,2,0,,3.1,-1.7,69,102440,0,0,284,0,0,0,0,0,0,0,360,11.7,8,0,0,0,0,0,0,0,0,0,0,0,0
2003,12,20,3,0,,3.1,-3,63,102460,0,0,281,0,0,0,0,0,0,0,360,9.8,8,0,0,0,0,0,0,0,0,0,0,0,0
2003,12,20,4,0,,3.6,-2.5,63,102490,0,0,285,0,0,0,0,0,0,0,360,7.8,8,0,0,0,0,0,0,0,0,0,0,0,0
2003,12,20,5,0,,3.3,-2,70,102510,0,0,286,0,0,0,0,0,0,0,360,7.1,9,0,0,0,0,0,0,0,0,0,0,0,0
2003,12,20,6,0,,3,-1.5,71,102540,0,0,288,0,0,0,0,0,0,0,340,8.4,9,0,0,0,0,0,0,0,0,0,0,0,0
2003,12,20,7,0,,3.9,-1.5,60,102600,0,0,289,0,0,0,0,0,0,0,340,9.2,9,0,0,0,0,0,0,0,0,0,0,0,0
2003,12,20,8,0,,3.3,-1.6,68,102670,0,0,285,12,2,10,1236,183,1175,0,340,9.1,8,0,0,0,0,0,0,0,0,0,0,0,0
2003,12,20,9,0,,3.7,-1.6,67,102730,0,0,285,91,265,49,19944,26111,8155,0,340,11.5,8,0,0,0,0,0,0,0,0,0,0,0,0
2003,12,20,10,0,,3.8,-1.9,76,102710,0,0,283,181,211,114,25320,21268,14205,0,340,10.5,8,0,0,0,0,0,0,0,0,0,0,0,0
2003,12,20,11,0,,4.5,-2.1,63,102700,0,0,284,294,298,162,35868,30182,19473,0,340,8.6,7,0,0,0,0,0,0,0,0,0,0,0,0
2003,12,20,12,0,,5.2,-2.4,57,102680,0,0,285,358,303,201,38977,30299,23469,0,340,10.5,7,0,0,0,0,0,0,0,0,0,0,0,0
2003,12,20,13,0,,5.1,-2,69,102670,0,0,285,369,273,220,36265,26173,24994,0,360,8.9,7,0,0,0,0,0,0,0,0,0,0,0,0
2003,12,20,14,0,,4.9,-1.7,65,102650,0,0,285,347,268,207,30237,23092,23189,0,340,9.1,7,0,0,0,0,0,0,0,0,0,0,0,0
2003,12,20,15,0,,4.9,-1.3,63,102640,0,0,285,274,228,172,20501,13240,18594,0,360,6.4,7,0,0,0,0,0,0,0,0,0,0,0,0
2003,12,20,16,0,,5.1,-1.3,59,102690,0,0,286,204,286,111,0,0,0,0,340,8.2,7,0,0,0,0,0,0,0,0,0,0,0,0
2003,12,20,17,0,,4.7,-1.4,64,102730,0,0,284,98,279,51,0,0,0,0,340,7.3,7,0,0,0,0,0,0,0,0,0,0,0,0
2003,12,20,18,0,,4.6,-1.4,64,102780,0,0,284,16,4,12,0,0,0,0,360,6.7,7,0,0,0,0,0,0,0,0,0,0,0,0
2003,12,20,19,0,,4.6,-2.1,61,102810,0,0,283,0,0,0,0,0,0,0,360,7,7,0,0,0,0,0,0,0,0,0,0,0,0
2003,12,20,20,0,,4.5,-2.8,59,102850,0,0,282,0,0,0,0,0,0,0,360,7.1,7,0,0,0,0,0,0,0,0,0,0,0,0
2003,12,20,21,0,,4.3,-3.5,56,102880,0,0,281,0,0,0,0,0,0,0,340,6.2,7,0,0,0,0,0,0,0,0,0,0,0,0
2003,12,20,22,0,,4.5,-3.4,61,102890,0,0,280,0,0,0,0,0,0,0,360,5.7,7,0,0,0,0,0,0,0,0,0,0,0,0
2003,12,20,23,0,,4.3,-3.3,59,102900,0,0,278,0,0,0,0,0,0,0,360,4.8,6,0,0,0,0,0,0,0,0,0,0,0,0
2003,12,20,24,0,,4.1,-3.2,58,102910,0,0,277,0,0,0,0,0,0,0,360,4.9,6,0,0,0,0,0,0,0,0,0,0,0,0
2003,12,21,1,0,,3.9,-3.3,58,102920,0,0,276,0,0,0,0,0,0,0,360,3.8,6,0,0,0,0,0,0,0,0,0,0,0,0
2003,12,21,2,0,,3.9,-3.3,59,102920,0,0,276,0,0,0,0,0,0,0,340,3.5,6,0,0,0,0,0,0,0,0,0,0,0,0
2003,12,21,3,0,,3.9,-3.4,58,102930,0,0,276,0,0,0,0,0,0,0,340,2.8,6,0,0,0,0,0,0,0,0,0,0,0,0
2003,12,21,4,0,,4.1,-3.1,61,102920,0,0,277,0,0,0,0,0,0,0,340,2.8,6,0,0,0,0,0,0,0,0,0,0,0,0
2003,12,21,5,0,,4.1,-2.8,61,102920,0,0,277,0,0,0,0,0,0,0,360,3.5,6,0,0,0,0,0,0,0,0,0,0,0,0
2003,12,21,6,0,,4.3,-2.5,60,102910,0,0,278,0,0,0,0,0,0,0,320,3.2,6,0,0,0,0,0,0,0,0,0,0,0,0
2003,12,21,7,0,,4.6,-2.3,61,102930,0,0,282,0,0,0,0,0,0,0,360,3.7,7,0,0,0,0,0,0,0,0,0,0,0,0
2003,12,21,8,0,,5.1,-2,60,102960,0,0,287,13,3,10,1331,288,1234,0,340,4,7,0,0,0,0,0,0,0,0,0,0,0,0
2003,12,21,9,0,,5.6,-1.8,58,102980,0,0,292,80,184,51,15901,17712,7919,0,340,3.5,8,0,0,0,0,0,0,0,0,0,0,0,0
2003,12,21,10,0,,6.2,-1.2,59,102940,0,0,292,194,265,109,28732,26048,15131,0,360,2.5,7,0,0,0,0,0,0,0,0,0,0,0,0
2003,12,21,11,0,,7,-0.7,57,102910,0,0,293,283,267,165,34542,26927,19917,0,320,3.8,7,0,0,0,0,0,0,0,0,0,0,0,0
2003,12,21,12,0,,6.9,-0.1,60,102870,0,0,292,352,287,203,38404,28462,23826,0,340,3.7,6,0,0,0,0,0,0,0,0,0,0,0,0
2003,12,21,13,0,,7,0.1,61,102800,0,0,293,374,284,219,36868,27122,25167,0,340,3.6,6,0,0,0,0,0,0,0,0,0,0,0,0
2003,12,21,14,0,,7.9,0.3,60,102730,0,0,298,325,218,211,29382,18664,23665,0,340,4.8,7,0,0,0,0,0,0,0,0,0,0,0,0
2003,12,21,15,0,,7.2,0.5,61,102660,0,0,297,272,222,173,20589,12867,18718,0,320,4.4,7,0,0,0,0,0,0,0,0,0,0,0,0
2003,12,21,16,0,,7.1,0.5,62,102650,0,0,295,193,235,116,0,0,0,0,340,4.4,7,0,0,0,0,0,0,0,0,0,0,0,0
2003,12,21,17,0,,7.1,0.4,61,102630,0,0,294,104,325,48,0,0,0,0,320,3.7,6,0,0,0,0,0,0,0,0,0,0,0,0
2003,12,21,18,0,,6.9,0.4,62,102620,0,0,292,18,6,12,0,0,0,0,320,3,6,0,0,0,0,0,0,0,0,0,0,0,0
2003,12,21,19,0,,7,0.4,62,102610,0,0,293,0,0,0,0,0,0,0,270,3.9,6,0,0,0,0,0,0,0,0,0,0,0,0
2003,12,21,20,0,,7.1,0.4,60,102610,0,0,293,0,0,0,0,0,0,0,270,3.8,6,0,0,0,0,0,0,0,0,0,0,0,0
2003,12,21,21,0,,6.4,0.4,64,102600,0,0,290,0,0,0,0,0,0,0,200,3.1,6,0,0,0,0,0,0,0,0,0,0,0,0
2003,12,21,22,0,,6.2,0.8,65,102570,0,0,291,0,0,0,0,0,0,0,200,4.4,6,0,0,0,0,0,0,0,0,0,0,0,0
2003,12,21,23,0,,6.7,1.1,65,102530,0,0,294,0,0,0,0,0,0,0,200,4.3,7,0,0,0,0,0,0,0,0,0,0,0,0
2003,12,21,24,0,,6.9,1.5,67,102500,0,0,297,0,0,0,0,0,0,0,230,3.1,7,0,0,0,0,0,0,0,0,0,0,0,0
2003,12,22,1,0,,7.6,1.9,66,102460,0,0,299,0,0,0,0,0,0,0,230,3.9,7,0,0,0,0,0,0,0,0,0,0,0,0
2003,12,22,2,0,,7.7,2.4,67,102410,0,0,299,0,0,0,0,0,0,0,230,3.8,6,0,0,0,0,0,0,0,0,0,0,0,0
2003,12,22,3,0,,7.9,2.8,69,102370,0,0,299,0,0,0,0,0,0,0,230,3.4,6,0,0,0,0,0,0,0,0,0,0,0,0
2003,12,22,4,0,,9.1,3.1,66,102350,0,0,304,0,0,0,0,0,0,0,320,6.4,6,0,0,0,0,0,0,0,0,0,0,0,0
2003,12,22,5,0,,9.1,3.3,66,102320,0,0,305,0,0,0,0,0,0,0,320,6,6,0,0,0,0,0,0,0,0,0,0,0,0
2003,12,22,6,0,,9.1,3.6,67,102300,0,0,305,0,0,0,0,0,0,0,320,5.1,6,0,0,0,0,0,0,0,0,0,0,0,0
2003,12,22,7,0,,9.1,3.6,68,102320,0,0,305,0,0,0,0,0,0,0,320,6.7,6,0,0,0,0,0,0,0,0,0,0,0,0
2003,12,22,8,0,,9.3,3.5,67,102340,0,0,306,14,4,10,1376,379,1250,0,340,5.6,6,0,0,0,0,0,0,0,0,0,0,0,0
2003,12,22,9,0,,9.5,3.5,65,102360,0,0,307,99,294,53,21746,28763,8808,0,320,5.3,6,0,0,0,0,0,0,0,0,0,0,0,0
2003,12,22,10,0,,10.1,3.6,62,102340,0,0,309,211,325,109,31720,31521,15274,0,320,4.8,6,0,0,0,0,0,0,0,0,0,0,0,0
2003,12,22,11,0,,10.7,3.8,61,102310,0,0,312,299,321,157,37765,31201,20818,0,290,4.3,6,0,0,0,0,0,0,0,0,0,0,0,0
2003,12,22,12,0,,11.6,3.9,58,102290,0,0,316,371,345,192,40323,33732,23029,0,320,4.6,6,0,0,0,0,0,0,0,0,0,0,0,0
2003,12,22,13,0,,12.2,3.8,55,102210,0,0,316,424,457,174,40483,42445,22134,0,320,5,5,0,0,0,0,0,0,0,0,0,0,0,0
2003,12,22,14,0,,12.6,3.8,53,102130,0,0,316,432,556,142,32328,46683,17971,0,320,5.1,4,0,0,0,0,0,0,0,0,0,0,0,0
2003,12,22,15,0,,12.5,3.7,54,102050,0,0,313,373,581,112,18300,33518,13377,0,320,4.5,3,0,0,0,0,0,0,0,0,0,0,0,0
2003,12,22,16,0,,11.3,3.8,58,102050,0,0,310,239,427,99,0,0,0,0,320,4.1,4,0,0,0,0,0,0,0,0,0,0,0,0
2003,12,22,17,0,,10.6,3.9,60,102050,0,0,309,110,303,58,0,0,0,0,290,4,5,0,0,0,0,0,0,0,0,0,0,0,0
2003,12,22,18,0,,10.2,4,64,102050,0,0,310,17,4,12,0,0,0,0,290,3.7,6,0,0,0,0,0,0,0,0,0,0,0,0
2003,12,22,19,0,,9.7,3.8,66,102050,0,0,308,0,0,0,0,0,0,0,250,2.8,6,0,0,0,0,0,0,0,0,0,0,0,0
2003,12,22,20,0,,9.4,3.5,65,102040,0,0,306,0,0,0,0,0,0,0,230,2.5,6,0,0,0,0,0,0,0,0,0,0,0,0
2003,12,22,21,0,,9.3,3.3,65,102040,0,0,306,0,0,0,0,0,0,0,250,2.9,6,0,0,0,0,0,0,0,0,0,0,0,0
2003,12,22,22,0,,9.7,3.5,66,102020,0,0,308,0,0,0,0,0,0,0,250,2.9,6,0,0,0,0,0,0,0,0,0,0,0,0
2003,12,22,23,0,,9.4,3.7,67,101990,0,0,307,0,0,0,0,0,0,0,230,3,6,0,0,0,0,0,0,0,0,0,0,0,0
2003,12,22,24,0,,9.7,3.9,66,101970,0,0,308,0,0,0,0,0,0,0,270,3.5,6,0,0,0,0,0,0,0,0,0,0,0,0
2003,12,23,1,0,,9.9,3.9,63,101950,0,0,309,0,0,0,0,0,0,0,250,2.6,6,0,0,0,0,0,0,0,0,0,0,0,0
2003,12,23,2,0,,9.5,4,65,101920,0,0,307,0,0,0,0,0,0,0,230,3,6,0,0,0,0,0,0,0,0,0,0,0,0
2003,12,23,3,0,,9.5,4,67,101900,0,0,307,0,0,0,0,0,0,0,230,3.4,6,0,0,0,0,0,0,0,0,0,0,0,0
2003,12,23,4,0,,9.4,3.9,66,101890,0,0,307,0,0,0,0,0,0,0,230,3.3,6,0,0,0,0,0,0,0,0,0,0,0,0
2003,12,23,5,0,,9.4,3.7,66,101870,0,0,307,0,0,0,0,0,0,0,230,2.2,6,0,0,0,0,0,0,0,0,0,0,0,0
2003,12,23,6,0,,9.1,3.6,67,101860,0,0,305,0,0,0,0,0,0,0,230,1.6,6,0,0,0,0,0,0,0,0,0,0,0,0
2003,12,23,7,0,,9.2,4,67,101860,0,0,303,0,0,0,0,0,0,0,230,2.1,5,0,0,0,0,0,0,0,0,0,0,0,0
2003,12,23,8,0,,8.8,4.5,70,101850,0,0,300,15,5,10,1366,420,1227,0,230,2.2,4,0,0,0,0,0,0,0,0,0,0,0,0
2003,12,23,9,0,,10.1,4.9,69,101850,0,0,304,112,449,43,26830,44651,6776,0,230,1.8,3,0,0,0,0,0,0,0,0,0,0,0,0
2003,12,23,10,0,,12.4,5.3,65,101810,0,0,314,254,564,77,41242,56002,12039,0,270,2.2,3,0,0,0,0,0,0,0,0,0,0,0,0
2003,12,23,11,0,,13.2,5.8,61,101770,0,0,318,380,643,98,49360,63717,14740,0,320,3.1,3,0,0,0,0,0,0,0,0,0,0,0,0
2003,12,23,12,0,,13.3,6.2,61,101730,0,0,319,441,603,129,48408,58459,18403,0,290,3.5,3,0,0,0,0,0,0,0,0,0,0,0,0
2003,12,23,13,0,,13.5,6.2,59,101670,0,0,317,459,572,146,42221,52776,19354,0,320,3.9,2,0,0,0,0,0,0,0,0,0,0,0,0
2003,12,23,14,0,,13.8,6.3,61,101600,0,0,314,437,572,138,32500,47658,17780,0,320,4.2,1,0,0,0,0,0,0,0,0,0,0,0,0
2003,12,23,15,0,,13.6,6.3,60,101540,0,0,307,364,545,120,18869,31013,14265,0,320,3.6,0,0,0,0,0,0,0,0,0,0,0,0,0
2003,12,23,16,0,,13.1,5.9,60,101550,0,0,309,266,564,80,0,0,0,0,290,3.2,1,0,0,0,0,0,0,0,0,0,0,0,0
2003,12,23,17,0,,12.5,5.5,61,101560,0,0,309,132,514,43,0,0,0,0,290,3,1,0,0,0,0,0,0,0,0,0,0,0,0
2003,12,23,18,0,,11.9,5.1,62,101570,0,0,309,24,13,11,0,0,0,0,250,2.6,2,0,0,0,0,0,0,0,0,0,0,0,0
2003,12,23,19,0,,11.2,4.5,62,101570,0,0,305,0,0,0,0,0,0,0,230,2.6,2,0,0,0,0,0,0,0,0,0,0,0,0
2003,12,23,20,0,,10.9,3.8,60,101580,0,0,303,0,0,0,0,0,0,0,230,2.5,2,0,0,0,0,0,0,0,0,0,0,0,0
2003,12,23,21,0,,10.9,3.2,58,101580,0,0,302,0,0,0,0,0,0,0,230,2.8,2,0,0,0,0,0,0,0,0,0,0,0,0
2003,12,23,22,0,,10.8,3.7,58,101580,0,0,302,0,0,0,0,0,0,0,230,3,2,0,0,0,0,0,0,0,0,0,0,0,0
2003,12,23,23,0,,11.1,4.2,58,101570,0,0,304,0,0,0,0,0,0,0,250,3.3,2,0,0,0,0,0,0,0,0,0,0,0,0
2003,12,23,24,0,,11,4.7,64,101570,0,0,304,0,0,0,0,0,0,0,250,3.7,2,0,0,0,0,0,0,0,0,0,0,0,0
2003,12,24,1,0,,10.7,4.4,61,101580,0,0,300,0,0,0,0,0,0,0,250,3.2,1,0,0,0,0,0,0,0,0,0,0,0,0
2003,12,24,2,0,,10.8,4.1,62,101580,0,0,297,0,0,0,0,0,0,0,250,3.5,1,0,0,0,0,0,0,0,0,0,0,0,0
2003,12,24,3,0,,10.5,3.8,62,101590,0,0,291,0,0,0,0,0,0,0,250,3.2,0,0,0,0,0,0,0,0,0,0,0,0,0
2003,12,24,4,0,,10.3,4.2,62,101620,0,0,291,0,0,0,0,0,0,0,250,2.7,0,0,0,0,0,0,0,0,0,0,0,0,0
2003,12,24,5,0,,10.5,4.5,63,101660,0,0,292,0,0,0,0,0,0,0,250,3.4,0,0,0,0,0,0,0,0,0,0,0,0,0
2003,12,24,6,0,,9.8,4.9,70,101690,0,0,290,0,0,0,0,0,0,0,270,2.6,0,0,0,0,0,0,0,0,0,0,0,0,0
2003,12,24,7,0,,10.3,5,68,101740,0,0,292,0,0,0,0,0,0,0,270,2.6,0,0,0,0,0,0,0,0,0,0,0,0,0
2003,12,24,8,0,,9.2,5,72,101780,0,0,288,16,7,9,1528,613,1325,0,230,2.7,0,0,0,0,0,0,0,0,0,0,0,0,0
2003,12,24,9,0,,10.1,5.1,70,101830,0,0,291,115,483,40,28010,48140,6417,0,230,2.6,0,0,0,0,0,0,0,0,0,0,0,0,0
2003,12,24,10,0,,12.1,4.7,63,101790,0,0,299,263,614,70,42534,61627,10409,0,250,2.7,0,0,0,0,0,0,0,0,0,0,0,0,0
2003,12,24,11,0,,13.4,4.4,55,101760,0,0,304,391,691,89,50472,69163,12875,0,290,2.8,0,0,0,0,0,0,0,0,0,0,0,0,0
2003,12,24,12,0,,14.6,4,48,101720,0,0,309,473,711,105,51333,69798,15460,0,290,2.7,0,0,0,0,0,0,0,0,0,0,0,0,0
2003,12,24,13,0,,14.5,3.7,49,101680,0,0,308,485,661,124,44506,62146,17512,0,320,3,0,0,0,0,0,0,0,0,0,0,0,0,0
2003,12,24,14,0,,14.9,3.3,45,101650,0,0,310,464,661,118,33594,56260,16139,0,290,3.1,0,0,0,0,0,0,0,0,0,0,0,0,0
2003,12,24,15,0,,14.9,3,44,101610,0,0,309,391,646,100,17942,38105,12223,0,340,3.5,0,0,0,0,0,0,0,0,0,0,0,0,0
2003,12,24,16,0,,14.7,3,42,101630,0,0,308,273,596,76,0,0,0,0,290,2,0,0,0,0,0,0,0,0,0,0,0,0,0
2003,12,24,17,0,,13.1,2.9,51,101660,0,0,301,132,504,44,0,0,0,0,290,1.6,0,0,0,0,0,0,0,0,0,0,0,0,0
2003,12,24,18,0,,11.6,2.9,54,101680,0,0,295,24,13,11,0,0,0,0,230,1.7,0,0,0,0,0,0,0,0,0,0,0,0,0
2003,12,24,19,0,,9.8,0.9,55,101690,0,0,285,0,0,0,0,0,0,0,180,2.3,0,0,0,0,0,0,0,0,0,0,0,0,0
2003,12,24,20,0,,9.4,-1.2,46,101690,0,0,282,0,0,0,0,0,0,0,180,1.8,0,0,0,0,0,0,0,0,0,0,0,0,0
2003,12,24,21,0,,8.7,-3.2,42,101700,0,0,277,0,0,0,0,0,0,0,180,1.7,0,0,0,0,0,0,0,0,0,0,0,0,0
2003,12,24,22,0,,8.5,-2.3,44,101700,0,0,277,0,0,0,0,0,0,0,200,2.2,0,0,0,0,0,0,0,0,0,0,0,0,0
2003,12,24,23,0,,8.2,-1.5,47,101690,0,0,277,0,0,0,0,0,0,0,180,2.6,0,0,0,0,0,0,0,0,0,0,0,0,0
2003,12,24,24,0,,8.4,-0.6,52,101690,0,0,278,0,0,0,0,0,0,0,180,2.3,0,0,0,0,0,0,0,0,0,0,0,0,0
2003,12,25,1,0,,8.3,0.4,56,101640,0,0,279,0,0,0,0,0,0,0,180,2.4,0,0,0,0,0,0,0,0,0,0,0,0,0
2003,12,25,2,0,,7.8,1.4,57,101600,0,0,278,0,0,0,0,0,0,0,180,2.5,0,0,0,0,0,0,0,0,0,0,0,0,0
2003,12,25,3,0,,10.5,2.4,56,101550,0,0,290,0,0,0,0,0,0,0,230,3.5,0,0,0,0,0,0,0,0,0,0,0,0,0
2003,12,25,4,0,,10.9,3.7,65,101510,0,0,293,0,0,0,0,0,0,0,230,3.7,0,0,0,0,0,0,0,0,0,0,0,0,0
2003,12,25,5,0,,11.1,4.9,69,101470,0,0,295,0,0,0,0,0,0,0,230,3.9,0,0,0,0,0,0,0,0,0,0,0,0,0
2003,12,25,6,0,,11.2,6.2,70,101430,0,0,297,0,0,0,0,0,0,0,230,3.7,0,0,0,0,0,0,0,0,0,0,0,0,0
2003,12,25,7,0,,11.4,6.2,67,101440,0,0,310,0,0,0,0,0,0,0,230,3.2,3,0,0,0,0,0,0,0,0,0,0,0,0
2003,12,25,8,0,,11.3,6.2,65,101460,0,0,316,13,4,9,1260,314,1157,0,230,3.1,5,0,0,0,0,0,0,0,0,0,0,0,0
2003,12,25,9,0,,12.3,6.2,65,101470,0,0,331,74,163,50,14696,15263,7857,0,290,2.9,8,0,0,0,0,0,0,0,0,0,0,0,0
2003,12,25,10,0,,12.8,6.5,67,101470,0,0,339,141,107,107,18630,10458,13179,0,320,5.3,9,0,0,0,0,0,0,0,0,0,0,0,0
2003,12,25,11,0,,12.2,6.8,73,101460,0,0,342,194,90,155,23343,8788,18563,0,320,4.6,9,0,0,0,0,0,0,0,0,0,0,0,0
2003,12,25,12,0,,11.3,7.1,74,101460,0,0,344,163,32,147,18473,3004,16926,0,320,6.3,10,0,0,0,0,0,0,0,0,0,0,0,0
2003,12,25,13,0,,11.7,6.2,66,101450,0,0,339,223,64,188,23961,5928,21379,0,340,4.8,9,0,0,0,0,0,0,0,0,0,0,0,0
2003,12,25,14,0,,11.1,5.2,67,101440,0,0,329,217,68,182,22280,6076,20385,0,340,5.2,9,0,0,0,0,0,0,0,0,0,0,0,0
2003,12,25,15,0,,10.8,4.3,63,101430,0,0,322,226,126,170,20061,9693,18589,0,340,4.7,8,0,0,0,0,0,0,0,0,0,0,0,0
2003,12,25,16,0,,9.5,3.4,65,101490,0,0,319,130,71,107,0,0,0,0,340,5.6,9,0,0,0,0,0,0,0,0,0,0,0,0
2003,12,25,17,0,,8.6,2.5,65,101540,0,0,319,62,63,51,0,0,0,0,340,5.1,9,0,0,0,0,0,0,0,0,0,0,0,0
2003,12,25,18,0,,7.9,1.6,63,101600,0,0,321,5,0,5,0,0,0,0,340,4.8,10,0,0,0,0,0,0,0,0,0,0,0,0
2003,12,25,19,0,,7.3,0.5,61,101660,0,0,311,0,0,0,0,0,0,0,340,5.9,9,0,0,0,0,0,0,0,0,0,0,0,0
2003,12,25,20,0,,6.2,-0.7,56,101720,0,0,300,0,0,0,0,0,0,0,340,6.6,9,0,0,0,0,0,0,0,0,0,0,0,0
2003,12,25,21,0,,5.8,-1.8,57,101780,0,0,293,0,0,0,0,0,0,0,340,5.7,8,0,0,0,0,0,0,0,0,0,0,0,0
2003,12,25,22,0,,5.7,-1.7,60,101790,0,0,293,0,0,0,0,0,0,0,340,6.9,8,0,0,0,0,0,0,0,0,0,0,0,0
2003,12,25,23,0,,5.2,-1.7,57,101800,0,0,291,0,0,0,0,0,0,0,340,7,8,0,0,0,0,0,0,0,0,0,0,0,0
2003,12,25,24,0,,5.3,-1.6,60,101810,0,0,291,0,0,0,0,0,0,0,340,6,8,0,0,0,0,0,0,0,0,0,0,0,0
2003,12,26,1,0,,5.2,-1.7,65,101810,0,0,295,0,0,0,0,0,0,0,340,5.5,9,0,0,0,0,0,0,0,0,0,0,0,0
2003,12,26,2,0,,5.4,-1.8,59,101810,0,0,300,0,0,0,0,0,0,0,340,5.5,9,0,0,0,0,0,0,0,0,0,0,0,0
2003,12,26,3,0,,5.4,-1.9,58,101810,0,0,306,0,0,0,0,0,0,0,340,6.2,10,0,0,0,0,0,0,0,0,0,0,0,0
2003,12,26,4,0,,5.4,-1.4,65,101780,0,0,307,0,0,0,0,0,0,0,340,7.5,10,0,0,0,0,0,0,0,0,0,0,0,0
2003,12,26,5,0,,5.5,-0.9,62,101750,0,0,308,0,0,0,0,0,0,0,340,6.2,10,0,0,0,0,0,0,0,0,0,0,0,0
2003,12,26,6,0,,5.4,-0.4,65,101720,0,0,308,0,0,0,0,0,0,0,340,6.2,10,0,0,0,0,0,0,0,0,0,0,0,0
2003,12,26,7,0,,5.3,-0.4,66,101760,0,0,304,0,0,0,0,0,0,0,340,6.8,10,0,0,0,0,0,0,0,0,0,0,0,0
2003,12,26,8,0,,4.9,-0.5,66,101800,0,0,300,6,0,5,735,9,732,0,340,7,9,0,0,0,0,0,0,0,0,0,0,0,0
2003,12,26,9,0,,4.8,-0.5,67,101840,0,0,297,61,93,47,10467,9087,6398,0,340,6.8,9,0,0,0,0,0,0,0,0,0,0,0,0
2003,12,26,10,0,,5,-1,60,101830,0,0,297,136,97,105,17893,9813,12778,0,340,6.4,9,0,0,0,0,0,0,0,0,0,0,0,0
2003,12,26,11,0,,5,-1.6,59,101810,0,0,296,204,104,159,24406,10495,18691,0,340,7.4,9,0,0,0,0,0,0,0,0,0,0,0,0
2003,12,26,12,0,,4.7,-2.1,60,101800,0,0,294,241,95,192,27121,9502,22221,0,340,7.6,9,0,0,0,0,0,0,0,0,0,0,0,0
2003,12,26,13,0,,3.8,-1.9,70,101790,0,0,291,242,80,198,25692,7624,22361,0,340,7.5,9,0,0,0,0,0,0,0,0,0,0,0,0
2003,12,26,14,0,,4.3,-1.8,57,101780,0,0,293,241,90,193,24134,8229,21555,0,340,7.9,9,0,0,0,0,0,0,0,0,0,0,0,0
2003,12,26,15,0,,4.6,-1.6,63,101770,0,0,295,209,100,164,19126,7798,17927,0,340,7.3,9,0,0,0,0,0,0,0,0,0,0,0,0
2003,12,26,16,0,,4.5,-0.8,67,101830,0,0,295,155,115,117,0,0,0,0,340,8,9,0,0,0,0,0,0,0,0,0,0,0,0
2003,12,26,17,0,,4.2,0,65,101900,0,0,295,73,97,56,0,0,0,0,340,7.2,9,0,0,0,0,0,0,0,0,0,0,0,0
2003,12,26,18,0,,3.3,0.8,82,101960,0,0,292,10,1,9,0,0,0,0,360,6.5,9,0,0,0,0,0,0,0,0,0,0,0,0
2003,12,26,19,0,,3,0.3,78,102020,0,0,288,0,0,0,0,0,0,0,340,6.2,9,0,0,0,0,0,0,0,0,0,0,0,0
2003,12,26,20,0,,3.1,-0.3,78,102070,0,0,286,0,0,0,0,0,0,0,360,6.7,8,0,0,0,0,0,0,0,0,0,0,0,0
2003,12,26,21,0,,3.7,-0.8,71,102130,0,0,286,0,0,0,0,0,0,0,360,7.1,8,0,0,0,0,0,0,0,0,0,0,0,0
2003,12,26,22,0,,3.9,-1.1,70,102160,0,0,286,0,0,0,0,0,0,0,360,6.1,8,0,0,0,0,0,0,0,0,0,0,0,0
2003,12,26,23,0,,3.4,-1.4,81,102190,0,0,284,0,0,0,0,0,0,0,360,5.6,8,0,0,0,0,0,0,0,0,0,0,0,0
2003,12,26,24,0,,4,-1.7,65,102220,0,0,286,0,0,0,0,0,0,0,340,7.2,8,0,0,0,0,0,0,0,0,0,0,0,0
2003,12,27,1,0,,3.7,-1.7,70,102270,0,0,285,0,0,0,0,0,0,0,340,7.6,8,0,0,0,0,0,0,0,0,0,0,0,0
2003,12,27,2,0,,3.4,-1.8,75,102310,0,0,283,0,0,0,0,0,0,0,360,6.8,8,0,0,0,0,0,0,0,0,0,0,0,0
2003,12,27,3,0,,4.1,-1.8,64,102360,0,0,286,0,0,0,0,0,0,0,360,6.6,8,0,0,0,0,0,0,0,0,0,0,0,0
2003,12,27,4,0,,4.2,-2,62,102400,0,0,286,0,0,0,0,0,0,0,340,6.7,8,0,0,0,0,0,0,0,0,0,0,0,0
2003,12,27,5,0,,3.8,-2.1,59,102440,0,0,284,0,0,0,0,0,0,0,360,5.8,8,0,0,0,0,0,0,0,0,0,0,0,0
2003,12,27,6,0,,3.8,-2.3,63,102480,0,0,284,0,0,0,0,0,0,0,360,5,8,0,0,0,0,0,0,0,0,0,0,0,0
2003,12,27,7,0,,3.9,-2.2,58,102550,0,0,285,0,0,0,0,0,0,0,340,5.6,8,0,0,0,0,0,0,0,0,0,0,0,0
2003,12,27,8,0,,3.9,-2.1,59,102620,0,0,285,8,1,7,964,29,954,0,360,5.5,8,0,0,0,0,0,0,0,0,0,0,0,0
2003,12,27,9,0,,4.4,-2,62,102690,0,0,287,75,172,49,14998,16599,7571,0,360,4,8,0,0,0,0,0,0,0,0,0,0,0,0
2003,12,27,10,0,,4.8,-2.3,59,102690,0,0,284,196,295,104,29600,29033,14460,0,360,5,7,0,0,0,0,0,0,0,0,0,0,0,0
2003,12,27,11,0,,5.9,-2.7,55,102680,0,0,285,311,372,149,39536,36762,19498,0,360,3.2,6,0,0,0,0,0,0,0,0,0,0,0,0
2003,12,27,12,0,,5.9,-3,52,102680,0,0,282,392,432,169,43349,42312,21487,0,340,3.3,5,0,0,0,0,0,0,0,0,0,0,0,0
2003,12,27,13,0,,6.6,-2.8,52,102680,0,0,284,419,439,179,40453,41593,22226,0,340,3.4,5,0,0,0,0,0,0,0,0,0,0,0,0
2003,12,27,14,0,,6.8,-2.7,54,102690,0,0,284,414,485,159,32608,41802,19437,0,340,3.7,4,0,0,0,0,0,0,0,0,0,0,0,0
2003,12,27,15,0,,6.7,-2.5,51,102690,0,0,284,359,510,128,19500,31163,14652,0,340,4.4,4,0,0,0,0,0,0,0,0,0,0,0,0
2003,12,27,16,0,,6.5,-2.5,51,102740,0,0,283,255,480,94,0,0,0,0,340,3,4,0,0,0,0,0,0,0,0,0,0,0,0
2003,12,27,17,0,,5.5,-2.5,57,102790,0,0,279,127,417,52,0,0,0,0,340,3.2,4,0,0,0,0,0,0,0,0,0,0,0,0
2003,12,27,18,0,,5.1,-2.5,57,102840,0,0,277,25,12,13,0,0,0,0,340,2.8,4,0,0,0,0,0,0,0,0,0,0,0,0
2003,12,27,19,0,,4.9,-2.1,60,102860,0,0,278,0,0,0,0,0,0,0,360,1.5,5,0,0,0,0,0,0,0,0,0,0,0,0
2003,12,27,20,0,,5,-1.8,61,102890,0,0,280,0,0,0,0,0,0,0,340,2.7,5,0,0,0,0,0,0,0,0,0,0,0,0
2003,12,27,21,0,,4.8,-1.4,63,102910,0,0,282,0,0,0,0,0,0,0,340,2.4,6,0,0,0,0,0,0,0,0,0,0,0,0
2003,12,27,22,0,,4.6,-1.4,61,102900,0,0,279,0,0,0,0,0,0,0,340,2.3,5,0,0,0,0,0,0,0,0,0,0,0,0
2003,12,27,23,0,,4.4,-1.3,64,102900,0,0,277,0,0,0,0,0,0,0,340,1,5,0,0,0,0,0,0,0,0,0,0,0,0
2003,12,27,24,0,,4.7,-1.3,64,102890,0,0,277,0,0,0,0,0,0,0,340,1.5,4,0,0,0,0,0,0,0,0,0,0,0,0
2003,12,28,1,0,,3.4,-1.6,69,102900,0,0,271,0,0,0,0,0,0,0,180,0.8,4,0,0,0,0,0,0,0,0,0,0,0,0
2003,12,28,2,0,,2.8,-1.9,70,102900,0,0,269,0,0,0,0,0,0,0,180,1.6,4,0,0,0,0,0,0,0,0,0,0,0,0
2003,12,28,3,0,,2.5,-2.2,70,102910,0,0,267,0,0,0,0,0,0,0,200,1.7,4,0,0,0,0,0,0,0,0,0,0,0,0
2003,12,28,4,0,,2.7,-2.2,69,102920,0,0,269,0,0,0,0,0,0,0,180,2.2,5,0,0,0,0,0,0,0,0,0,0,0,0
2003,12,28,5,0,,2.7,-2.1,68,102920,0,0,271,0,0,0,0,0,0,0,180,2.3,5,0,0,0,0,0,0,0,0,0,0,0,0
2003,12,28,6,0,,3,-2.1,68,102930,0,0,274,0,0,0,0,0,0,0,200,2.3,6,0,0,0,0,0,0,0,0,0,0,0,0
2003,12,28,7,0,,2.9,-1.8,69,102950,0,0,271,0,0,0,0,0,0,0,180,1.7,5,0,0,0,0,0,0,0,0,0,0,0,0
2003,12,28,8,0,,2.4,-1.4,71,102960,0,0,268,13,4,9,1196,321,1091,0,180,2,4,0,0,0,0,0,0,0,0,0,0,0,0
2003,12,28,9,0,,4.4,-1.1,66,102980,0,0,274,112,74,39,8594,7230,5360,0,180,2.2,3,0,0,0,0,0,0,0,0,0,0,0,0
2003,12,28,10,0,,7.9,-0.5,57,102910,0,0,286,277,705,57,45059,69979,8549,0,230,2,2,0,0,0,0,0,0,0,0,0,0,0,0
2003,12,28,11,0,,8.7,0.2,54,102840,0,0,288,397,720,83,51407,72103,12055,0,0,0.1,2,0,0,0,0,0,0,0,0,0,0,0,0
2003,12,28,12,0,,9.4,0.8,54,102770,0,0,289,472,711,105,51661,70121,15352,0,20,1.9,1,0,0,0,0,0,0,0,0,0,0,0,0
2003,12,28,13,0,,10.3,1.3,52,102750,0,0,295,480,639,130,44563,60258,18066,0,340,1.8,1,0,0,0,0,0,0,0,0,0,0,0,0
2003,12,28,14,0,,10.2,1.7,55,102740,0,0,296,440,571,139,33160,48918,17660,0,320,2.5,2,0,0,0,0,0,0,0,0,0,0,0,0
2003,12,28,15,0,,10.3,2.2,56,102720,0,0,298,376,573,116,19262,34792,13780,0,320,2.5,2,0,0,0,0,0,0,0,0,0,0,0,0
2003,12,28,16,0,,10,2,56,102720,0,0,294,271,559,83,0,0,0,0,320,2.6,1,0,0,0,0,0,0,0,0,0,0,0,0
2003,12,28,17,0,,9.1,1.8,61,102730,0,0,287,135,485,48,0,0,0,0,270,1.8,1,0,0,0,0,0,0,0,0,0,0,0,0
2003,12,28,18,0,,7.9,1.6,63,102730,0,0,278,27,15,12,0,0,0,0,250,2.3,0,0,0,0,0,0,0,0,0,0,0,0,0
2003,12,28,19,0,,6.8,1.7,68,102720,0,0,278,0,0,0,0,0,0,0,230,3.3,1,0,0,0,0,0,0,0,0,0,0,0,0
2003,12,28,20,0,,6.9,1.8,69,102700,0,0,281,0,0,0,0,0,0,0,230,2.1,1,0,0,0,0,0,0,0,0,0,0,0,0
2003,12,28,21,0,,6.9,1.9,69,102690,0,0,284,0,0,0,0,0,0,0,200,2.5,2,0,0,0,0,0,0,0,0,0,0,0,0
2003,12,28,22,0,,6,1,67,102610,0,0,281,0,0,0,0,0,0,0,180,3,3,0,0,0,0,0,0,0,0,0,0,0,0
2003,12,28,23,0,,6.6,0,61,102540,0,0,284,0,0,0,0,0,0,0,200,3.1,3,0,0,0,0,0,0,0,0,0,0,0,0
2003,12,28,24,0,,5.8,-0.9,61,102460,0,0,282,0,0,0,0,0,0,0,200,4,4,0,0,0,0,0,0,0,0,0,0,0,0
2003,12,29,1,0,,4.8,-0.1,68,102440,0,0,279,0,0,0,0,0,0,0,200,0.9,4,0,0,0,0,0,0,0,0,0,0,0,0
2003,12,29,2,0,,5.5,0.6,68,102430,0,0,283,0,0,0,0,0,0,0,200,3.3,5,0,0,0,0,0,0,0,0,0,0,0,0
2003,12,29,3,0,,7.1,1.4,66,102410,0,0,291,0,0,0,0,0,0,0,200,2.6,5,0,0,0,0,0,0,0,0,0,0,0,0
2003,12,29,4,0,,7.9,2.4,69,102370,0,0,300,0,0,0,0,0,0,0,200,2.3,6,0,0,0,0,0,0,0,0,0,0,0,0
2003,12,29,5,0,,10.3,3.4,64,102320,0,0,317,0,0,0,0,0,0,0,230,4,8,0,0,0,0,0,0,0,0,0,0,0,0
2003,12,29,6,0,,10.7,4.4,64,102280,0,0,329,0,0,0,0,0,0,0,230,3.9,9,0,0,0,0,0,0,0,0,0,0,0,0
2003,12,29,7,0,,11.2,4.9,66,102300,0,0,335,0,0,0,0,0,0,0,230,3.7,9,0,0,0,0,0,0,0,0,0,0,0,0
2003,12,29,8,0,,11.4,5.5,67,102310,0,0,339,2,0,2,284,0,284,0,230,3.5,10,0,0,0,0,0,0,0,0,0,0,0,0
2003,12,29,9,0,,12.1,6,65,102330,0,0,347,48,7,41,5148,662,4852,0,250,3.6,10,0,0,0,0,0,0,0,0,0,0,0,0
2003,12,29,10,0,,12.6,6.2,62,102310,0,0,350,108,52,92,14085,5117,11414,0,250,3.7,10,0,0,0,0,0,0,0,0,0,0,0,0
2003,12,29,11,0,,12.7,6.4,67,102280,0,0,350,154,47,133,17844,4440,15417,0,270,4,10,0,0,0,0,0,0,0,0,0,0,0,0
2003,12,29,12,0,,12.7,6.6,65,102260,0,0,351,183,44,160,20593,4159,18435,0,270,5,10,0,0,0,0,0,0,0,0,0,0,0,0
2003,12,29,13,0,,13.7,6.2,60,102240,0,0,348,256,93,205,27098,8666,23274,0,290,4.5,9,0,0,0,0,0,0,0,0,0,0,0,0
2003,12,29,14,0,,11.9,5.7,62,102230,0,0,333,217,66,182,22344,5928,20455,0,320,5.3,9,0,0,0,0,0,0,0,0,0,0,0,0
2003,12,29,15,0,,11.6,5.3,64,102210,0,0,327,229,125,172,20407,9682,18861,0,320,4.4,8,0,0,0,0,0,0,0,0,0,0,0,0
2003,12,29,16,0,,11.1,5,61,102260,0,0,319,180,171,123,0,0,0,0,320,3.4,7,0,0,0,0,0,0,0,0,0,0,0,0
2003,12,29,17,0,,10.8,4.6,62,102320,0,0,314,109,294,55,0,0,0,0,320,3.5,6,0,0,0,0,0,0,0,0,0,0,0,0
2003,12,29,18,0,,10.5,4.3,64,102370,0,0,309,26,12,14,0,0,0,0,340,5,5,0,0,0,0,0,0,0,0,0,0,0,0
2003,12,29,19,0,,9.9,3.8,60,102400,0,0,305,0,0,0,0,0,0,0,320,3.3,5,0,0,0,0,0,0,0,0,0,0,0,0
2003,12,29,20,0,,9.6,3.2,62,102430,0,0,303,0,0,0,0,0,0,0,340,3.5,4,0,0,0,0,0,0,0,0,0,0,0,0
2003,12,29,21,0,,8.9,2.7,64,102460,0,0,298,0,0,0,0,0,0,0,340,3,4,0,0,0,0,0,0,0,0,0,0,0,0
2003,12,29,22,0,,8.5,2.4,53,102450,0,0,296,0,0,0,0,0,0,0,340,2.8,4,0,0,0,0,0,0,0,0,0,0,0,0
2003,12,29,23,0,,8.2,2,59,102450,0,0,294,0,0,0,0,0,0,0,340,3.4,4,0,0,0,0,0,0,0,0,0,0,0,0
2003,12,29,24,0,,7.8,1.7,64,102440,0,0,292,0,0,0,0,0,0,0,340,3.1,4,0,0,0,0,0,0,0,0,0,0,0,0
2003,12,30,1,0,,7.2,1.9,66,102450,0,0,293,0,0,0,0,0,0,0,360,1.4,5,0,0,0,0,0,0,0,0,0,0,0,0
2003,12,30,2,0,,7.3,2,68,102460,0,0,298,0,0,0,0,0,0,0,340,2.9,7,0,0,0,0,0,0,0,0,0,0,0,0
2003,12,30,3,0,,7.4,2.2,68,102470,0,0,304,0,0,0,0,0,0,0,360,2.6,8,0,0,0,0,0,0,0,0,0,0,0,0
2003,12,30,4,0,,7.2,1.9,67,102450,0,0,307,0,0,0,0,0,0,0,360,1.8,9,0,0,0,0,0,0,0,0,0,0,0,0
2003,12,30,5,0,,6.9,1.6,66,102440,0,0,311,0,0,0,0,0,0,0,340,2.1,9,0,0,0,0,0,0,0,0,0,0,0,0
2003,12,30,6,0,,6.9,1.3,66,102420,0,0,316,0,0,0,0,0,0,0,320,1.8,10,0,0,0,0,0,0,0,0,0,0,0,0
2003,12,30,7,0,,6.8,1.5,66,102430,0,0,316,0,0,0,0,0,0,0,320,1.9,10,0,0,0,0,0,0,0,0,0,0,0,0
2003,12,30,8,0,,7,1.8,68,102440,0,0,317,1,0,1,170,0,170,0,340,1.9,10,0,0,0,0,0,0,0,0,0,0,0,0
2003,12,30,9,0,,7.5,2,67,102450,0,0,320,42,5,37,4840,256,4725,0,360,1.4,10,0,0,0,0,0,0,0,0,0,0,0,0
2003,12,30,10,0,,7.5,1.8,68,102410,0,0,320,100,42,87,12963,4237,10748,0,340,2.1,10,0,0,0,0,0,0,0,0,0,0,0,0
2003,12,30,11,0,,8.2,1.7,66,102360,0,0,323,149,44,130,17354,4182,15064,0,290,2.1,10,0,0,0,0,0,0,0,0,0,0,0,0
2003,12,30,12,0,,8.6,1.5,60,102320,0,0,324,171,36,152,19223,3458,17424,0,320,2.4,10,0,0,0,0,0,0,0,0,0,0,0,0
2003,12,30,13,0,,8.8,1.7,61,102240,0,0,326,192,42,169,20998,3926,19258,0,290,2.7,10,0,0,0,0,0,0,0,0,0,0,0,0
2003,12,30,14,0,,8.5,1.9,61,102170,0,0,324,171,34,153,18247,3060,17265,0,320,3.3,10,0,0,0,0,0,0,0,0,0,0,0,0
2003,12,30,15,0,,8.5,2.1,63,102090,0,0,325,143,33,127,14525,2512,14119,0,320,2.2,10,0,0,0,0,0,0,0,0,0,0,0,0
2003,12,30,16,0,,8.6,2.3,65,102080,0,0,325,102,34,91,0,0,0,0,340,2.6,10,0,0,0,0,0,0,0,0,0,0,0,0
2003,12,30,17,0,,7.8,2.5,69,102080,0,0,322,47,24,42,0,0,0,0,320,1.7,10,0,0,0,0,0,0,0,0,0,0,0,0
2003,12,30,18,0,,7.8,2.7,69,102070,0,0,322,6,0,6,0,0,0,0,290,1.9,10,0,0,0,0,0,0,0,0,0,0,0,0
2003,12,30,19,0,,7.7,2.9,70,102080,0,0,311,0,0,0,0,0,0,0,270,2,9,0,0,0,0,0,0,0,0,0,0,0,0
2003,12,30,20,0,,7.5,3,71,102080,0,0,303,0,0,0,0,0,0,0,320,1.5,7,0,0,0,0,0,0,0,0,0,0,0,0
2003,12,30,21,0,,7.7,3.2,72,102090,0,0,299,0,0,0,0,0,0,0,290,2.7,6,0,0,0,0,0,0,0,0,0,0,0,0
2003,12,30,22,0,,7.5,3.1,71,102050,0,0,300,0,0,0,0,0,0,0,290,1,7,0,0,0,0,0,0,0,0,0,0,0,0
2003,12,30,23,0,,7.2,2.9,73,102020,0,0,301,0,0,0,0,0,0,0,200,1.9,7,0,0,0,0,0,0,0,0,0,0,0,0
2003,12,30,24,0,,7.6,2.8,70,101980,0,0,306,0,0,0,0,0,0,0,290,2.1,8,0,0,0,0,0,0,0,0,0,0,0,0
2003,12,31,1,0,,7.7,3.2,66,101960,0,0,311,0,0,0,0,0,0,0,320,3.5,9,0,0,0,0,0,0,0,0,0,0,0,0
2003,12,31,2,0,,7.6,3.5,69,101930,0,0,316,0,0,0,0,0,0,0,340,3.5,9,0,0,0,0,0,0,0,0,0,0,0,0
2003,12,31,3,0,,7.4,3.9,77,101910,0,0,322,0,0,0,0,0,0,0,340,3.1,10,0,0,0,0,0,0,0,0,0,0,0,0
2003,12,31,4,0,,6.9,3.9,82,101910,0,0,320,0,0,0,0,0,0,0,360,4,10,0,0,0,0,0,0,0,0,0,0,0,0
2003,12,31,5,0,,6.8,3.9,82,101900,0,0,319,0,0,0,0,0,0,0,340,4.2,10,0,0,0,0,0,0,0,0,0,0,0,0
2003,12,31,6,0,,6.7,3.9,81,101900,0,0,319,0,0,0,0,0,0,0,340,3.5,10,0,0,0,0,0,0,0,0,0,0,0,0
2003,12,31,7,0,,7,3.5,76,101940,0,0,320,0,0,0,0,0,0,0,340,3.5,10,0,0,0,0,0,0,0,0,0,0,0,0
2003,12,31,8,0,,7.2,3.2,75,101980,0,0,320,1,0,1,111,0,111,0,340,4.2,10,0,0,0,0,0,0,0,0,0,0,0,0
2003,12,31,9,0,,7.4,2.8,71,102020,0,0,321,42,5,37,4838,255,4724,0,340,3.6,10,0,0,0,0,0,0,0,0,0,0,0,0
2003,12,31,10,0,,8,3.5,68,101980,0,0,318,123,76,100,16142,7501,12217,0,340,3.5,9,0,0,0,0,0,0,0,0,0,0,0,0
2003,12,31,11,0,,8.4,4.2,69,101930,0,0,316,182,76,149,21970,7556,17825,0,320,2.6,9,0,0,0,0,0,0,0,0,0,0,0,0
2003,12,31,12,0,,9.8,4.9,70,101890,0,0,318,284,151,206,31743,14721,24061,0,290,2.7,8,0,0,0,0,0,0,0,0,0,0,0,0
2003,12,31,13,0,,8.9,4.5,66,101850,0,0,314,282,120,216,29418,11303,24390,0,320,3.3,8,0,0,0,0,0,0,0,0,0,0,0,0
2003,12,31,14,0,,8.7,4.2,69,101820,0,0,313,268,118,206,26445,10717,22987,0,320,3.6,8,0,0,0,0,0,0,0,0,0,0,0,0
2003,12,31,15,0,,9.1,3.8,68,101780,0,0,314,217,105,168,19858,8200,18513,0,320,3.5,8,0,0,0,0,0,0,0,0,0,0,0,0
2003,12,31,16,0,,8.9,3.9,68,101820,0,0,311,168,135,122,0,0,0,0,320,4.1,8,0,0,0,0,0,0,0,0,0,0,0,0
2003,12,31,17,0,,9,3.9,66,101850,0,0,310,103,228,60,0,0,0,0,290,4.5,7,0,0,0,0,0,0,0,0,0,0,0,0
2003,12,31,18,0,,9.1,4,69,101890,0,0,309,21,6,15,0,0,0,0,340,3.9,7,0,0,0,0,0,0,0,0,0,0,0,0
2003,12,31,19,0,,9.1,2.9,62,101940,0,0,309,0,0,0,0,0,0,0,340,4.6,7,0,0,0,0,0,0,0,0,0,0,0,0
2003,12,31,20,0,,9,1.8,61,101980,0,0,309,0,0,0,0,0,0,0,290,4.6,8,0,0,0,0,0,0,0,0,0,0,0,0
2003,12,31,21,0,,8.7,0.7,56,102030,0,0,308,0,0,0,0,0,0,0,290,3.4,8,0,0,0,0,0,0,0,0,0,0,0,0
2003,12,31,22,0,,8.9,0.4,57,102030,0,0,309,0,0,0,0,0,0,0,320,4.3,8,0,0,0,0,0,0,0,0,0,0,0,0
2003,12,31,23,0,,9,0.2,59,102020,0,0,309,0,0,0,0,0,0,0,320,4.3,8,0,0,0,0,0,0,0,0,0,0,0,0
2003,12,31,24,0,,9,-0.1,52,102020,0,0,309,0,0,0,0,0,0,0,320,5.5,8,0,0,0,0,0,0,0,0,0,0,0,0
