LOCATION,KWANGJU,<not available>,<not available>,<not available>,<not available>,35,-126.55,-9,72
DESIGN CONDITIONS,0
TYPICAL/EXTREME PERIODS,0
GROUND TEMPERATURES,0
HOLIDAYS/DAYLIGHT SAVINGS,No,0,0,0
COMMENTS 1, NA
COMMENTS 2, NA
DATA PERIODS,1,1,Data,Sunday,1/1,12/31
2013,1,1,1,0,,-4,-4.6,95,101290,0,0,242,0,0,0,0,0,0,0,340,0.7,4,0,0,0,0,0,0,0,0,0,0,0,0
2013,1,1,2,0,,-4.2,-4.8,95,101280,0,0,244,0,0,0,0,0,0,0,0,0.2,6,0,0,0,0,0,0,0,0,0,0,0,0
2013,1,1,3,0,,-4.4,-5,95,101240,0,0,247,0,0,0,0,0,0,0,70,1.1,7,0,0,0,0,0,0,0,0,0,0,0,0
2013,1,1,4,0,,-4.9,-5.5,95,101150,0,0,241,0,0,0,0,0,0,0,90,0.6,6,0,0,0,0,0,0,0,0,0,0,0,0
2013,1,1,5,0,,-4.9,-5.5,95,101070,0,0,236,0,0,0,0,0,0,0,0,0,3,0,0,0,0,0,0,0,0,0,0,0,0
2013,1,1,6,0,,-4.3,-5.1,94,101040,0,0,263,0,0,0,0,0,0,0,0,0,10,0,0,0,0,0,0,0,0,0,0,0,0
2013,1,1,7,0,,-4.1,-4.9,94,101040,0,0,264,0,0,0,0,0,0,0,0,0,10,0,0,0,0,0,0,0,0,0,0,0,0
2013,1,1,8,0,,-3.7,-4.5,94,101030,0,0,247,4,0,4,559,8,557,0,0,0,6,0,0,0,0,0,0,0,0,0,0,0,0
2013,1,1,9,0,,-3.3,-4.2,93,101090,0,0,268,29,2,27,3538,107,3492,0,290,0.7,10,0,0,0,0,0,0,0,0,0,0,0,0
2013,1,1,10,0,,-2,-2.9,93,101160,0,0,275,76,23,69,9242,2201,8135,0,290,1.1,10,0,0,0,0,0,0,0,0,0,0,0,0
2013,1,1,11,0,,-0.5,-1.4,93,101180,0,0,283,133,37,118,15472,3493,13625,0,230,2.2,10,0,0,0,0,0,0,0,0,0,0,0,0
2013,1,1,12,0,,1.4,0.3,93,101120,0,0,264,399,517,142,44045,50053,18856,0,180,2.1,3,0,0,0,0,0,0,0,0,0,0,0,0
2013,1,1,13,0,,3.6,1.6,87,101070,0,0,276,417,482,161,39951,45000,20680,0,200,2.7,4,0,0,0,0,0,0,0,0,0,0,0,0
2013,1,1,14,0,,3.8,0.4,79,101080,0,0,280,358,328,191,30536,27944,21905,0,250,3.1,6,0,0,0,0,0,0,0,0,0,0,0,0
2013,1,1,15,0,,4.8,-1.6,63,101070,0,0,277,355,539,118,18764,32664,13759,0,270,2.7,4,0,0,0,0,0,0,0,0,0,0,0,0
2013,1,1,16,0,,4.4,-3.6,56,101130,0,0,273,249,494,89,0,0,0,0,250,2.7,4,0,0,0,0,0,0,0,0,0,0,0,0
2013,1,1,17,0,,3.5,-3.5,60,101170,0,0,272,111,312,58,0,0,0,0,270,1.2,5,0,0,0,0,0,0,0,0,0,0,0,0
2013,1,1,18,0,,2,-2.9,70,101240,0,0,269,16,4,13,0,0,0,0,0,0.4,6,0,0,0,0,0,0,0,0,0,0,0,0
2013,1,1,19,0,,1.5,-3.1,71,101260,0,0,269,0,0,0,0,0,0,0,200,1.3,7,0,0,0,0,0,0,0,0,0,0,0,0
2013,1,1,20,0,,0.4,-2.9,78,101240,0,0,267,0,0,0,0,0,0,0,160,2.4,7,0,0,0,0,0,0,0,0,0,0,0,0
2013,1,1,21,0,,1.1,-2.6,76,101270,0,0,273,0,0,0,0,0,0,0,230,1.3,8,0,0,0,0,0,0,0,0,0,0,0,0
2013,1,1,22,0,,1,-2.9,75,101280,0,0,259,0,0,0,0,0,0,0,200,1,3,0,0,0,0,0,0,0,0,0,0,0,0
2013,1,1,23,0,,1,-2.2,79,101290,0,0,265,0,0,0,0,0,0,0,290,0.8,6,0,0,0,0,0,0,0,0,0,0,0,0
2013,1,1,24,0,,0.4,-1.9,84,101300,0,0,271,0,0,0,0,0,0,0,160,1.3,8,0,0,0,0,0,0,0,0,0,0,0,0
2013,1,2,1,0,,0.2,-2,85,101340,0,0,276,0,0,0,0,0,0,0,360,0.6,9,0,0,0,0,0,0,0,0,0,0,0,0
2013,1,2,2,0,,0.1,-0.9,93,101370,0,0,278,0,0,0,0,0,0,0,230,1.7,9,0,0,0,0,0,0,0,0,0,0,0,0
2013,1,2,3,0,,0.4,-0.6,93,101480,0,0,279,0,0,0,0,0,0,0,180,0.8,9,0,0,0,0,0,0,0,0,0,0,0,0
2013,1,2,4,0,,0.9,-2.5,78,101560,0,0,278,0,0,0,0,0,0,0,290,2.3,9,0,0,0,0,0,0,0,0,0,0,0,0
2013,1,2,5,0,,-1.7,-5,78,101680,0,0,260,0,0,0,0,0,0,0,20,4,8,0,0,0,0,0,0,0,0,0,0,0,0
2013,1,2,6,0,,-2.4,-6,76,101770,0,0,256,0,0,0,0,0,0,0,20,2.7,8,0,0,0,0,0,0,0,0,0,0,0,0
2013,1,2,7,0,,-3.2,-6.8,76,101830,0,0,248,0,0,0,0,0,0,0,50,3.5,7,0,0,0,0,0,0,0,0,0,0,0,0
2013,1,2,8,0,,-3.8,-7.4,76,101880,0,0,243,4,0,4,533,9,530,0,50,2.3,6,0,0,0,0,0,0,0,0,0,0,0,0
2013,1,2,9,0,,-3.5,-8,71,101950,0,0,243,75,36,40,6576,3556,5053,0,50,2.5,6,0,0,0,0,0,0,0,0,0,0,0,0
2013,1,2,10,0,,-2.1,-8.2,63,102070,0,0,232,243,609,65,40287,60683,9705,0,70,3.3,0,0,0,0,0,0,0,0,0,0,0,0,0
2013,1,2,11,0,,-2.1,-8.6,61,102100,0,0,242,334,535,111,44149,53084,16008,0,50,1.7,3,0,0,0,0,0,0,0,0,0,0,0,0
2013,1,2,12,0,,-1,-8.4,57,102070,0,0,244,425,608,122,47295,59602,17196,0,360,1.9,2,0,0,0,0,0,0,0,0,0,0,0,0
2013,1,2,13,0,,-1.2,-8.8,56,102030,0,0,245,428,517,154,40648,49414,19385,0,320,1.5,3,0,0,0,0,0,0,0,0,0,0,0,0
2013,1,2,14,0,,-0.7,-9.1,53,102040,0,0,249,404,492,152,31815,42739,18516,0,290,1.7,4,0,0,0,0,0,0,0,0,0,0,0,0
2013,1,2,15,0,,-0.4,-9,52,102060,0,0,248,357,543,117,18841,33885,13567,0,20,2.5,3,0,0,0,0,0,0,0,0,0,0,0,0
2013,1,2,16,0,,-1.4,-10,52,102100,0,0,243,255,515,86,0,0,0,0,320,2.1,3,0,0,0,0,0,0,0,0,0,0,0,0
2013,1,2,17,0,,-3,-11.7,51,102240,0,0,233,138,557,41,0,0,0,0,20,6.1,2,0,0,0,0,0,0,0,0,0,0,0,0
2013,1,2,18,0,,-4.6,-12.5,54,102300,0,0,219,28,14,14,0,0,0,0,20,7.9,0,0,0,0,0,0,0,0,0,0,0,0,0
2013,1,2,19,0,,-5.6,-12.5,58,102420,0,0,223,0,0,0,0,0,0,0,50,5.8,2,0,0,0,0,0,0,0,0,0,0,0,0
2013,1,2,20,0,,-6.1,-13,58,102500,0,0,225,0,0,0,0,0,0,0,20,3.3,4,0,0,0,0,0,0,0,0,0,0,0,0
2013,1,2,21,0,,-6.2,-13.5,56,102560,0,0,228,0,0,0,0,0,0,0,50,2.1,6,0,0,0,0,0,0,0,0,0,0,0,0
2013,1,2,22,0,,-6.9,-14,57,102580,0,0,225,0,0,0,0,0,0,0,20,3.5,6,0,0,0,0,0,0,0,0,0,0,0,0
2013,1,2,23,0,,-7.6,-14.4,58,102590,0,0,222,0,0,0,0,0,0,0,50,3.2,6,0,0,0,0,0,0,0,0,0,0,0,0
2013,1,2,24,0,,-7.9,-14.3,60,102620,0,0,221,0,0,0,0,0,0,0,50,1.4,6,0,0,0,0,0,0,0,0,0,0,0,0
2013,1,3,1,0,,-7.5,-13.7,61,102660,0,0,219,0,0,0,0,0,0,0,20,2.1,4,0,0,0,0,0,0,0,0,0,0,0,0
2013,1,3,2,0,,-8,-13.8,63,102690,0,0,213,0,0,0,0,0,0,0,50,2.6,2,0,0,0,0,0,0,0,0,0,0,0,0
2013,1,3,3,0,,-8.6,-13.8,66,102730,0,0,205,0,0,0,0,0,0,0,50,2.3,0,0,0,0,0,0,0,0,0,0,0,0,0
2013,1,3,4,0,,-8.6,-13.4,68,102740,0,0,219,0,0,0,0,0,0,0,50,3,6,0,0,0,0,0,0,0,0,0,0,0,0
2013,1,3,5,0,,-8.9,-13.3,70,102710,0,0,213,0,0,0,0,0,0,0,50,3.2,3,0,0,0,0,0,0,0,0,0,0,0,0
2013,1,3,6,0,,-9.1,-13.4,71,102750,0,0,212,0,0,0,0,0,0,0,50,3.8,3,0,0,0,0,0,0,0,0,0,0,0,0
2013,1,3,7,0,,-9.2,-13.4,71,102800,0,0,214,0,0,0,0,0,0,0,50,3.9,4,0,0,0,0,0,0,0,0,0,0,0,0
2013,1,3,8,0,,-9.4,-14,69,102890,0,0,211,8,2,6,811,166,760,0,50,3.9,3,0,0,0,0,0,0,0,0,0,0,0,0
2013,1,3,9,0,,-8.4,-13.8,65,102890,0,0,214,101,68,33,7462,6743,4569,0,50,4.7,3,0,0,0,0,0,0,0,0,0,0,0,0
2013,1,3,10,0,,-6.2,-14.4,52,102940,0,0,219,261,713,53,43230,69918,7919,0,50,4.4,2,0,0,0,0,0,0,0,0,0,0,0,0
2013,1,3,11,0,,-4.6,-14.4,46,102900,0,0,222,396,788,67,51120,77568,9887,0,50,3.8,1,0,0,0,0,0,0,0,0,0,0,0,0
2013,1,3,12,0,,-4,-13.6,47,102810,0,0,221,476,786,84,51542,77516,12254,0,20,5.1,0,0,0,0,0,0,0,0,0,0,0,0,0
2013,1,3,13,0,,-3.4,-14.2,43,102770,0,0,223,494,738,102,45297,70805,14676,0,20,4.6,0,0,0,0,0,0,0,0,0,0,0,0,0
2013,1,3,14,0,,-3.2,-14.3,42,102700,0,0,228,452,656,116,33450,56793,15643,0,340,3,1,0,0,0,0,0,0,0,0,0,0,0,0
2013,1,3,15,0,,-3.8,-14.2,44,102700,0,0,229,372,595,108,18644,37965,12639,0,360,2.4,2,0,0,0,0,0,0,0,0,0,0,0,0
2013,1,3,16,0,,-4.5,-14.1,47,102660,0,0,230,248,469,93,0,0,0,0,360,2.6,4,0,0,0,0,0,0,0,0,0,0,0,0
2013,1,3,17,0,,-5.5,-14,51,102690,0,0,228,114,307,60,0,0,0,0,340,0.8,5,0,0,0,0,0,0,0,0,0,0,0,0
2013,1,3,18,0,,-6.2,-13.5,56,102740,0,0,226,22,8,14,0,0,0,0,0,0.1,5,0,0,0,0,0,0,0,0,0,0,0,0
2013,1,3,19,0,,-6.7,-12.7,62,102770,0,0,223,0,0,0,0,0,0,0,20,0.6,4,0,0,0,0,0,0,0,0,0,0,0,0
2013,1,3,20,0,,-6.9,-13.1,61,102750,0,0,221,0,0,0,0,0,0,0,50,0.5,4,0,0,0,0,0,0,0,0,0,0,0,0
2013,1,3,21,0,,-7.3,-12.9,64,102710,0,0,219,0,0,0,0,0,0,0,50,1.7,3,0,0,0,0,0,0,0,0,0,0,0,0
2013,1,3,22,0,,-7.2,-12.6,65,102650,0,0,219,0,0,0,0,0,0,0,50,4.3,3,0,0,0,0,0,0,0,0,0,0,0,0
2013,1,3,23,0,,-7.2,-12.2,67,102620,0,0,220,0,0,0,0,0,0,0,50,3.5,3,0,0,0,0,0,0,0,0,0,0,0,0
2013,1,3,24,0,,-7.3,-12,69,102570,0,0,220,0,0,0,0,0,0,0,50,2.9,3,0,0,0,0,0,0,0,0,0,0,0,0
2013,1,4,1,0,,-7.7,-12.2,70,102590,0,0,216,0,0,0,0,0,0,0,0,0.4,2,0,0,0,0,0,0,0,0,0,0,0,0
2013,1,4,2,0,,-8.3,-12.4,72,102620,0,0,211,0,0,0,0,0,0,0,0,0.4,1,0,0,0,0,0,0,0,0,0,0,0,0
2013,1,4,3,0,,-8.4,-12.7,71,102610,0,0,206,0,0,0,0,0,0,0,50,1.1,0,0,0,0,0,0,0,0,0,0,0,0,0
2013,1,4,4,0,,-8.5,-12.9,70,102560,0,0,206,0,0,0,0,0,0,0,50,2.5,0,0,0,0,0,0,0,0,0,0,0,0,0
2013,1,4,5,0,,-9,-13.4,70,102500,0,0,204,0,0,0,0,0,0,0,50,2.2,0,0,0,0,0,0,0,0,0,0,0,0,0
2013,1,4,6,0,,-9.1,-13.7,69,102470,0,0,203,0,0,0,0,0,0,0,50,2.3,0,0,0,0,0,0,0,0,0,0,0,0,0
2013,1,4,7,0,,-10,-14.4,70,102470,0,0,200,0,0,0,0,0,0,0,50,3,0,0,0,0,0,0,0,0,0,0,0,0,0
2013,1,4,8,0,,-10.1,-14.1,72,102460,0,0,206,8,2,6,794,148,748,0,20,3,2,0,0,0,0,0,0,0,0,0,0,0,0
2013,1,4,9,0,,-8.3,-13.9,64,102480,0,0,212,101,69,32,7449,6877,4494,0,50,3.2,2,0,0,0,0,0,0,0,0,0,0,0,0
2013,1,4,10,0,,-6.2,-15.4,48,102500,0,0,216,264,730,51,43901,71678,7618,0,50,2.5,1,0,0,0,0,0,0,0,0,0,0,0,0
2013,1,4,11,0,,-4.3,-16.5,38,102440,0,0,219,401,807,64,51823,79503,9436,0,50,2.3,0,0,0,0,0,0,0,0,0,0,0,0,0
2013,1,4,12,0,,-3,-16,36,102350,0,0,228,481,799,82,52090,79009,11893,0,290,0.9,1,0,0,0,0,0,0,0,0,0,0,0,0
2013,1,4,13,0,,-2.7,-15.4,37,102230,0,0,232,485,702,111,44863,67179,15660,0,340,1.7,2,0,0,0,0,0,0,0,0,0,0,0,0
2013,1,4,14,0,,-1.7,-15.1,35,102110,0,0,241,442,617,125,32915,54449,15709,0,20,2.7,4,0,0,0,0,0,0,0,0,0,0,0,0
2013,1,4,15,0,,-1,-15.6,32,102040,0,0,243,378,612,105,18773,39402,12439,0,20,3.6,4,0,0,0,0,0,0,0,0,0,0,0,0
2013,1,4,16,0,,-1.1,-14.6,35,102020,0,0,239,289,676,66,0,0,0,0,20,2.2,2,0,0,0,0,0,0,0,0,0,0,0,0
2013,1,4,17,0,,-2.6,-13.7,42,102010,0,0,234,141,550,43,0,0,0,0,340,1.7,2,0,0,0,0,0,0,0,0,0,0,0,0
2013,1,4,18,0,,-3.9,-14.1,45,102000,0,0,225,29,13,16,0,0,0,0,0,0.3,1,0,0,0,0,0,0,0,0,0,0,0,0
2013,1,4,19,0,,-5.2,-16.1,42,102010,0,0,218,0,0,0,0,0,0,0,20,0.5,1,0,0,0,0,0,0,0,0,0,0,0,0
2013,1,4,20,0,,-6,-17.1,41,102010,0,0,214,0,0,0,0,0,0,0,50,2.1,0,0,0,0,0,0,0,0,0,0,0,0,0
2013,1,4,21,0,,-6.7,-16.1,47,101990,0,0,210,0,0,0,0,0,0,0,50,2.8,0,0,0,0,0,0,0,0,0,0,0,0,0
2013,1,4,22,0,,-7,-16.1,48,101960,0,0,209,0,0,0,0,0,0,0,50,2.1,0,0,0,0,0,0,0,0,0,0,0,0,0
2013,1,4,23,0,,-7.3,-16.2,49,101970,0,0,208,0,0,0,0,0,0,0,360,1.8,0,0,0,0,0,0,0,0,0,0,0,0,0
2013,1,4,24,0,,-7.4,-14.9,55,101910,0,0,208,0,0,0,0,0,0,0,360,1.9,0,0,0,0,0,0,0,0,0,0,0,0,0
2013,1,5,1,0,,-8,-15,57,101890,0,0,206,0,0,0,0,0,0,0,340,0.6,0,0,0,0,0,0,0,0,0,0,0,0,0
2013,1,5,2,0,,-8.9,-15.2,60,101890,0,0,203,0,0,0,0,0,0,0,20,1,0,0,0,0,0,0,0,0,0,0,0,0,0
2013,1,5,3,0,,-9,-14.7,63,101840,0,0,203,0,0,0,0,0,0,0,20,2.5,0,0,0,0,0,0,0,0,0,0,0,0,0
2013,1,5,4,0,,-8.5,-14.8,60,101890,0,0,204,0,0,0,0,0,0,0,340,0.5,0,0,0,0,0,0,0,0,0,0,0,0,0
2013,1,5,5,0,,-8.7,-14.4,63,101880,0,0,211,0,0,0,0,0,0,0,0,0.4,2,0,0,0,0,0,0,0,0,0,0,0,0
2013,1,5,6,0,,-7.8,-15.9,52,101870,0,0,217,0,0,0,0,0,0,0,50,2.8,4,0,0,0,0,0,0,0,0,0,0,0,0
2013,1,5,7,0,,-7.5,-17.9,43,101870,0,0,219,0,0,0,0,0,0,0,50,3.6,5,0,0,0,0,0,0,0,0,0,0,0,0
2013,1,5,8,0,,-8.7,-16.1,55,101840,0,0,212,8,2,6,817,184,760,0,20,2.8,3,0,0,0,0,0,0,0,0,0,0,0,0
2013,1,5,9,0,,-6.5,-17.9,40,101820,0,0,210,111,85,26,7905,8289,4336,0,20,3.5,0,0,0,0,0,0,0,0,0,0,0,0,0
2013,1,5,10,0,,-2.8,-15.8,36,101840,0,0,225,279,813,41,46870,79979,6284,0,50,3.9,0,0,0,0,0,0,0,0,0,0,0,0,0
2013,1,5,11,0,,-1.3,-13.1,40,101790,0,0,231,425,897,49,54781,88607,7392,0,50,3.4,0,0,0,0,0,0,0,0,0,0,0,0,0
2013,1,5,12,0,,0.4,-11.9,39,101720,0,0,245,495,842,73,52951,82605,10755,0,50,3.2,2,0,0,0,0,0,0,0,0,0,0,0,0
2013,1,5,13,0,,0.6,-11.7,39,101620,0,0,252,430,511,156,41142,49220,19631,0,270,1.3,5,0,0,0,0,0,0,0,0,0,0,0,0
2013,1,5,14,0,,1.9,-9.3,43,101530,0,0,259,405,482,156,32424,42275,18957,0,320,1.5,5,0,0,0,0,0,0,0,0,0,0,0,0
2013,1,5,15,0,,1.9,-7.9,48,101500,0,0,261,339,452,137,19770,28262,15152,0,340,3,5,0,0,0,0,0,0,0,0,0,0,0,0
2013,1,5,16,0,,1.2,-7.5,52,101640,0,0,258,243,427,101,0,0,0,0,340,2.7,5,0,0,0,0,0,0,0,0,0,0,0,0
2013,1,5,17,0,,0.6,-7.6,54,101680,0,0,254,129,419,53,0,0,0,0,360,1.7,4,0,0,0,0,0,0,0,0,0,0,0,0
2013,1,5,18,0,,-0.7,-6.8,63,101730,0,0,249,27,15,13,0,0,0,0,270,1.5,3,0,0,0,0,0,0,0,0,0,0,0,0
2013,1,5,19,0,,-1.2,-6.7,66,101770,0,0,248,0,0,0,0,0,0,0,360,1.1,4,0,0,0,0,0,0,0,0,0,0,0,0
2013,1,5,20,0,,-1.9,-6.4,71,101720,0,0,247,0,0,0,0,0,0,0,50,2,4,0,0,0,0,0,0,0,0,0,0,0,0
2013,1,5,21,0,,-1.9,-6.1,73,101710,0,0,249,0,0,0,0,0,0,0,50,1.4,5,0,0,0,0,0,0,0,0,0,0,0,0
2013,1,5,22,0,,-2.3,-6.6,72,101680,0,0,247,0,0,0,0,0,0,0,20,3.4,5,0,0,0,0,0,0,0,0,0,0,0,0
2013,1,5,23,0,,-3.2,-7,75,101650,0,0,243,0,0,0,0,0,0,0,50,2.3,5,0,0,0,0,0,0,0,0,0,0,0,0
2013,1,5,24,0,,-2.9,-6.5,76,101640,0,0,245,0,0,0,0,0,0,0,50,1.2,5,0,0,0,0,0,0,0,0,0,0,0,0
2013,1,6,1,0,,-1.9,-6.2,72,101710,0,0,251,0,0,0,0,0,0,0,200,0.6,6,0,0,0,0,0,0,0,0,0,0,0,0
2013,1,6,2,0,,-2.4,-6,76,101730,0,0,252,0,0,0,0,0,0,0,250,1.8,7,0,0,0,0,0,0,0,0,0,0,0,0
2013,1,6,3,0,,-2.4,-5.7,78,101700,0,0,257,0,0,0,0,0,0,0,20,0.5,8,0,0,0,0,0,0,0,0,0,0,0,0
2013,1,6,4,0,,-2.7,-5.8,79,101690,0,0,251,0,0,0,0,0,0,0,20,2.3,7,0,0,0,0,0,0,0,0,0,0,0,0
2013,1,6,5,0,,-2.7,-6.1,77,101660,0,0,251,0,0,0,0,0,0,0,50,3.1,7,0,0,0,0,0,0,0,0,0,0,0,0
2013,1,6,6,0,,-2.9,-6.7,75,101660,0,0,254,0,0,0,0,0,0,0,50,2.5,8,0,0,0,0,0,0,0,0,0,0,0,0
2013,1,6,7,0,,-2.9,-7.2,72,101680,0,0,249,0,0,0,0,0,0,0,50,3.2,7,0,0,0,0,0,0,0,0,0,0,0,0
2013,1,6,8,0,,-2.8,-6.9,73,101620,0,0,250,4,0,4,533,9,530,0,50,5.2,7,0,0,0,0,0,0,0,0,0,0,0,0
2013,1,6,9,0,,-1.8,-6.7,69,101630,0,0,254,75,35,39,6560,3502,5049,0,50,4.3,7,0,0,0,0,0,0,0,0,0,0,0,0
2013,1,6,10,0,,0,-6.6,61,101700,0,0,260,189,329,92,29584,32641,12975,0,50,3.7,7,0,0,0,0,0,0,0,0,0,0,0,0
2013,1,6,11,0,,1.2,-6.6,56,101730,0,0,265,279,309,150,35943,30717,19460,0,70,2,7,0,0,0,0,0,0,0,0,0,0,0,0
2013,1,6,12,0,,1.3,-6.5,56,101680,0,0,262,356,339,185,39309,34361,21684,0,290,1.7,6,0,0,0,0,0,0,0,0,0,0,0,0
2013,1,6,13,0,,2.8,-10.1,38,101590,0,0,260,450,576,142,42508,55419,18153,0,360,1.6,4,0,0,0,0,0,0,0,0,0,0,0,0
2013,1,6,14,0,,2.8,-11.9,33,101570,0,0,261,404,471,160,32575,41489,19249,0,340,1.1,5,0,0,0,0,0,0,0,0,0,0,0,0
2013,1,6,15,0,,2.5,-11,36,101540,0,0,251,403,692,91,19336,44940,11871,0,340,2.3,1,0,0,0,0,0,0,0,0,0,0,0,0
2013,1,6,16,0,,1.8,-11.3,37,101530,0,0,255,258,494,92,0,0,0,0,340,2,4,0,0,0,0,0,0,0,0,0,0,0,0
2013,1,6,17,0,,0.5,-11.5,40,101570,0,0,238,145,548,44,0,0,0,0,340,1.9,0,0,0,0,0,0,0,0,0,0,0,0,0
2013,1,6,18,0,,-0.6,-10.5,47,101590,0,0,236,31,14,17,0,0,0,0,360,2.2,0,0,0,0,0,0,0,0,0,0,0,0,0
2013,1,6,19,0,,-1.8,-11.1,49,101610,0,0,231,0,0,0,0,0,0,0,360,1.1,0,0,0,0,0,0,0,0,0,0,0,0,0
2013,1,6,20,0,,-2.5,-11.7,49,101620,0,0,228,0,0,0,0,0,0,0,0,0.4,0,0,0,0,0,0,0,0,0,0,0,0,0
2013,1,6,21,0,,-2.9,-13.4,44,101620,0,0,225,0,0,0,0,0,0,0,20,1.9,0,0,0,0,0,0,0,0,0,0,0,0,0
2013,1,6,22,0,,-3.4,-11.1,55,101680,0,0,225,0,0,0,0,0,0,0,20,0.7,0,0,0,0,0,0,0,0,0,0,0,0,0
2013,1,6,23,0,,-4.1,-10.7,60,101630,0,0,223,0,0,0,0,0,0,0,20,1.7,0,0,0,0,0,0,0,0,0,0,0,0,0
2013,1,6,24,0,,-4.2,-11.2,58,101670,0,0,222,0,0,0,0,0,0,0,0,0.2,0,0,0,0,0,0,0,0,0,0,0,0,0
2013,1,7,1,0,,-4.3,-10.5,62,101630,0,0,222,0,0,0,0,0,0,0,0,0,0,0,0,0,0,0,0,0,0,0,0,0,0
2013,1,7,2,0,,-4.3,-10.3,63,101640,0,0,222,0,0,0,0,0,0,0,0,0,0,0,0,0,0,0,0,0,0,0,0,0,0
2013,1,7,3,0,,-5.3,-10.2,68,101560,0,0,219,0,0,0,0,0,0,0,50,1.7,0,0,0,0,0,0,0,0,0,0,0,0,0
2013,1,7,4,0,,-5.5,-10.8,66,101560,0,0,218,0,0,0,0,0,0,0,50,2.6,0,0,0,0,0,0,0,0,0,0,0,0,0
2013,1,7,5,0,,-5.1,-11,63,101600,0,0,219,0,0,0,0,0,0,0,0,0.2,0,0,0,0,0,0,0,0,0,0,0,0,0
2013,1,7,6,0,,-5.5,-10.2,69,101660,0,0,218,0,0,0,0,0,0,0,0,0.2,0,0,0,0,0,0,0,0,0,0,0,0,0
2013,1,7,7,0,,-6.2,-10.6,71,101660,0,0,216,0,0,0,0,0,0,0,20,0.6,0,0,0,0,0,0,0,0,0,0,0,0,0
2013,1,7,8,0,,-6,-10,73,101680,0,0,221,7,2,6,765,130,725,0,20,0.9,1,0,0,0,0,0,0,0,0,0,0,0,0
2013,1,7,9,0,,-4.2,-9.8,65,101610,0,0,227,104,73,31,8106,7080,5044,0,50,3.2,1,0,0,0,0,0,0,0,0,0,0,0,0
2013,1,7,10,0,,-1.2,-11.3,46,101640,0,0,245,259,697,55,43178,68520,8211,0,50,4.1,4,0,0,0,0,0,0,0,0,0,0,0,0
2013,1,7,11,0,,-0.7,-13.6,37,101650,0,0,246,373,685,85,49026,68115,12347,0,50,1.1,4,0,0,0,0,0,0,0,0,0,0,0,0
2013,1,7,12,0,,0.3,-13.4,35,101550,0,0,240,480,783,86,52307,77422,12421,0,270,1.6,1,0,0,0,0,0,0,0,0,0,0,0,0
2013,1,7,13,0,,1.2,-14.5,30,101520,0,0,238,496,723,107,46011,69563,15265,0,20,2.8,0,0,0,0,0,0,0,0,0,0,0,0,0
2013,1,7,14,0,,2.8,-15.8,24,101400,0,0,248,502,803,85,35542,71791,12291,0,50,4.3,1,0,0,0,0,0,0,0,0,0,0,0,0
2013,1,7,15,0,,2.5,-17.1,22,101370,0,0,246,431,793,73,19016,53680,9950,0,50,4.2,1,0,0,0,0,0,0,0,0,0,0,0,0
2013,1,7,16,0,,2.8,-17.4,21,101380,0,0,247,320,795,51,0,0,0,0,50,4.9,1,0,0,0,0,0,0,0,0,0,0,0,0
2013,1,7,17,0,,1.3,-15.6,27,101420,0,0,243,158,648,37,0,0,0,0,20,4.8,1,0,0,0,0,0,0,0,0,0,0,0,0
2013,1,7,18,0,,-0.6,-14.2,35,101450,0,0,238,34,19,15,0,0,0,0,20,4.1,1,0,0,0,0,0,0,0,0,0,0,0,0
2013,1,7,19,0,,-1.4,-12.1,44,101490,0,0,235,0,0,0,0,0,0,0,20,3.2,1,0,0,0,0,0,0,0,0,0,0,0,0
2013,1,7,20,0,,-1.7,-11.8,46,101490,0,0,232,0,0,0,0,0,0,0,50,3.1,0,0,0,0,0,0,0,0,0,0,0,0,0
2013,1,7,21,0,,-2.6,-11.3,51,101470,0,0,228,0,0,0,0,0,0,0,50,3.7,0,0,0,0,0,0,0,0,0,0,0,0,0
2013,1,7,22,0,,-2.3,-11,51,101530,0,0,229,0,0,0,0,0,0,0,20,2.9,0,0,0,0,0,0,0,0,0,0,0,0,0
2013,1,7,23,0,,-2.7,-10.5,55,101550,0,0,228,0,0,0,0,0,0,0,20,2.6,0,0,0,0,0,0,0,0,0,0,0,0,0
2013,1,7,24,0,,-2.9,-9.5,60,101560,0,0,228,0,0,0,0,0,0,0,20,3.5,0,0,0,0,0,0,0,0,0,0,0,0,0
2013,1,8,1,0,,-3.2,-9.2,63,101550,0,0,227,0,0,0,0,0,0,0,20,3.6,0,0,0,0,0,0,0,0,0,0,0,0,0
2013,1,8,2,0,,-3.2,-8.4,67,101570,0,0,228,0,0,0,0,0,0,0,20,3.1,0,0,0,0,0,0,0,0,0,0,0,0,0
2013,1,8,3,0,,-3.3,-8.5,67,101550,0,0,228,0,0,0,0,0,0,0,20,2.9,0,0,0,0,0,0,0,0,0,0,0,0,0
2013,1,8,4,0,,-3.9,-9.1,67,101540,0,0,225,0,0,0,0,0,0,0,50,2.6,0,0,0,0,0,0,0,0,0,0,0,0,0
2013,1,8,5,0,,-4,-9.4,66,101510,0,0,224,0,0,0,0,0,0,0,50,2.1,0,0,0,0,0,0,0,0,0,0,0,0,0
2013,1,8,6,0,,-4.3,-9.7,66,101530,0,0,223,0,0,0,0,0,0,0,50,2.4,0,0,0,0,0,0,0,0,0,0,0,0,0
2013,1,8,7,0,,-4.5,-9.3,69,101600,0,0,223,0,0,0,0,0,0,0,20,1.7,0,0,0,0,0,0,0,0,0,0,0,0,0
2013,1,8,8,0,,-4.4,-9.4,68,101630,0,0,223,8,2,6,815,174,761,0,20,2.5,0,0,0,0,0,0,0,0,0,0,0,0,0
2013,1,8,9,0,,-3.1,-8.3,67,101710,0,0,228,102,70,32,7489,6972,4465,0,20,2,0,0,0,0,0,0,0,0,0,0,0,0,0
2013,1,8,10,0,,0.8,-9.2,47,101730,0,0,241,274,774,46,45996,76291,6941,0,50,3.2,0,0,0,0,0,0,0,0,0,0,0,0,0
2013,1,8,11,0,,2.8,-9.1,41,101740,0,0,248,419,864,55,54411,85544,8176,0,50,3.4,0,0,0,0,0,0,0,0,0,0,0,0,0
2013,1,8,12,0,,3.1,-10.2,37,101610,0,0,249,505,863,69,54185,84917,10239,0,50,3.7,0,0,0,0,0,0,0,0,0,0,0,0,0
2013,1,8,13,0,,4.7,-10.6,32,101490,0,0,255,526,816,86,47625,78644,12662,0,50,5.1,0,0,0,0,0,0,0,0,0,0,0,0,0
2013,1,8,14,0,,4.2,-10.6,33,101460,0,0,253,488,747,98,35454,66296,13799,0,20,5.1,0,0,0,0,0,0,0,0,0,0,0,0,0
2013,1,8,15,0,,4.5,-12,29,101450,0,0,253,424,757,80,19543,51074,10771,0,50,5.5,0,0,0,0,0,0,0,0,0,0,0,0,0
2013,1,8,16,0,,3.4,-14.8,25,101480,0,0,246,300,684,67,0,0,0,0,20,4.1,0,0,0,0,0,0,0,0,0,0,0,0,0
2013,1,8,17,0,,2,-12.6,33,101510,0,0,243,158,630,39,0,0,0,0,20,5.1,0,0,0,0,0,0,0,0,0,0,0,0,0
2013,1,8,18,0,,0.7,-9.9,45,101540,0,0,240,33,16,17,0,0,0,0,360,3.1,0,0,0,0,0,0,0,0,0,0,0,0,0
2013,1,8,19,0,,-1.1,-9.9,51,101530,0,0,234,0,0,0,0,0,0,0,20,4.5,0,0,0,0,0,0,0,0,0,0,0,0,0
2013,1,8,20,0,,-0.8,-11.2,45,101490,0,0,234,0,0,0,0,0,0,0,20,3.8,0,0,0,0,0,0,0,0,0,0,0,0,0
2013,1,8,21,0,,-1.4,-12.6,42,101530,0,0,231,0,0,0,0,0,0,0,20,4.3,0,0,0,0,0,0,0,0,0,0,0,0,0
2013,1,8,22,0,,-1.2,-14,37,101620,0,0,231,0,0,0,0,0,0,0,20,2.3,0,0,0,0,0,0,0,0,0,0,0,0,0
2013,1,8,23,0,,-1.6,-12,45,101650,0,0,231,0,0,0,0,0,0,0,20,1.5,0,0,0,0,0,0,0,0,0,0,0,0,0
2013,1,8,24,0,,-1.8,-12.4,44,101730,0,0,230,0,0,0,0,0,0,0,20,1.9,0,0,0,0,0,0,0,0,0,0,0,0,0
2013,1,9,1,0,,-2.3,-13.5,42,101740,0,0,232,0,0,0,0,0,0,0,20,1.9,1,0,0,0,0,0,0,0,0,0,0,0,0
2013,1,9,2,0,,-2.9,-13.4,44,101760,0,0,233,0,0,0,0,0,0,0,20,2.7,2,0,0,0,0,0,0,0,0,0,0,0,0
2013,1,9,3,0,,-2.2,-10.9,51,101780,0,0,239,0,0,0,0,0,0,0,20,4.2,3,0,0,0,0,0,0,0,0,0,0,0,0
2013,1,9,4,0,,-3.1,-11.3,53,101750,0,0,236,0,0,0,0,0,0,0,50,3.4,3,0,0,0,0,0,0,0,0,0,0,0,0
2013,1,9,5,0,,-3.4,-11.1,55,101730,0,0,243,0,0,0,0,0,0,0,50,3.7,7,0,0,0,0,0,0,0,0,0,0,0,0
2013,1,9,6,0,,-3.1,-10.6,56,101730,0,0,238,0,0,0,0,0,0,0,50,4,4,0,0,0,0,0,0,0,0,0,0,0,0
2013,1,9,7,0,,-3.5,-10.3,59,101760,0,0,239,0,0,0,0,0,0,0,50,2,5,0,0,0,0,0,0,0,0,0,0,0,0
2013,1,9,8,0,,-3.8,-10,62,101760,0,0,238,6,1,5,752,27,743,0,50,2.8,5,0,0,0,0,0,0,0,0,0,0,0,0
2013,1,9,9,0,,-3.2,-9.8,60,101830,0,0,242,82,36,46,7389,3635,5808,0,50,3.5,6,0,0,0,0,0,0,0,0,0,0,0,0
2013,1,9,10,0,,-1.4,-9.5,54,101870,0,0,244,242,592,68,40376,59046,10049,0,50,3.2,3,0,0,0,0,0,0,0,0,0,0,0,0
2013,1,9,11,0,,-0.5,-9.1,52,101840,0,0,242,381,709,82,50259,70807,11841,0,50,3.7,1,0,0,0,0,0,0,0,0,0,0,0,0
2013,1,9,12,0,,-0.3,-10.2,47,101760,0,0,247,443,646,116,49728,63840,16536,0,20,3.4,3,0,0,0,0,0,0,0,0,0,0,0,0
2013,1,9,13,0,,-0.9,-11.3,45,101690,0,0,244,458,585,141,43435,56606,18117,0,20,3.9,3,0,0,0,0,0,0,0,0,0,0,0,0
2013,1,9,14,0,,-0.9,-10.5,48,101640,0,0,245,423,521,150,33678,46258,18437,0,360,2.9,3,0,0,0,0,0,0,0,0,0,0,0,0
2013,1,9,15,0,,-1.7,-10.7,50,101690,0,0,241,367,529,125,20679,35355,14504,0,360,4.3,3,0,0,0,0,0,0,0,0,0,0,0,0
2013,1,9,16,0,,-2.2,-10.9,51,101740,0,0,237,282,583,82,0,0,0,0,360,4,2,0,0,0,0,0,0,0,0,0,0,0,0
2013,1,9,17,0,,-3.2,-11.4,53,101790,0,0,235,148,518,48,0,0,0,0,20,6.1,3,0,0,0,0,0,0,0,0,0,0,0,0
2013,1,9,18,0,,-4.1,-11.3,57,101830,0,0,232,33,14,19,0,0,0,0,20,2.5,3,0,0,0,0,0,0,0,0,0,0,0,0
2013,1,9,19,0,,-4.6,-12,56,101880,0,0,227,0,0,0,0,0,0,0,360,2.7,2,0,0,0,0,0,0,0,0,0,0,0,0
2013,1,9,20,0,,-4.9,-11.9,58,101880,0,0,223,0,0,0,0,0,0,0,20,3.9,1,0,0,0,0,0,0,0,0,0,0,0,0
2013,1,9,21,0,,-5.7,-12,61,101930,0,0,216,0,0,0,0,0,0,0,50,1.8,0,0,0,0,0,0,0,0,0,0,0,0,0
2013,1,9,22,0,,-5.9,-13,57,101920,0,0,216,0,0,0,0,0,0,0,50,2.4,0,0,0,0,0,0,0,0,0,0,0,0,0
2013,1,9,23,0,,-6.4,-13.5,57,101910,0,0,215,0,0,0,0,0,0,0,50,2.9,1,0,0,0,0,0,0,0,0,0,0,0,0
2013,1,9,24,0,,-6.7,-13.3,59,101930,0,0,216,0,0,0,0,0,0,0,50,2.7,1,0,0,0,0,0,0,0,0,0,0,0,0
2013,1,10,1,0,,-7.3,-13.1,63,101950,0,0,212,0,0,0,0,0,0,0,50,2.5,1,0,0,0,0,0,0,0,0,0,0,0,0
2013,1,10,2,0,,-7.1,-13.1,62,101960,0,0,212,0,0,0,0,0,0,0,50,2.4,0,0,0,0,0,0,0,0,0,0,0,0,0
2013,1,10,3,0,,-7.2,-13,63,101930,0,0,210,0,0,0,0,0,0,0,50,2.7,0,0,0,0,0,0,0,0,0,0,0,0,0
2013,1,10,4,0,,-7.2,-13,63,101950,0,0,221,0,0,0,0,0,0,0,50,1.9,4,0,0,0,0,0,0,0,0,0,0,0,0
2013,1,10,5,0,,-6.6,-12.6,62,101920,0,0,230,0,0,0,0,0,0,0,50,2.1,7,0,0,0,0,0,0,0,0,0,0,0,0
2013,1,10,6,0,,-6.2,-12.1,63,101950,0,0,225,0,0,0,0,0,0,0,50,3.4,4,0,0,0,0,0,0,0,0,0,0,0,0
2013,1,10,7,0,,-6.6,-11.9,66,102060,0,0,224,0,0,0,0,0,0,0,50,3,4,0,0,0,0,0,0,0,0,0,0,0,0
2013,1,10,8,0,,-6.6,-11.7,67,102100,0,0,222,8,2,6,798,157,749,0,50,3.1,3,0,0,0,0,0,0,0,0,0,0,0,0
2013,1,10,9,0,,-5.2,-11.3,62,102170,0,0,218,109,80,28,8113,7820,4700,0,50,5.2,0,0,0,0,0,0,0,0,0,0,0,0,0
2013,1,10,10,0,,-2.9,-11.1,53,102220,0,0,227,272,759,48,45758,74766,7221,0,50,4.7,0,0,0,0,0,0,0,0,0,0,0,0,0
2013,1,10,11,0,,-1.9,-12.2,45,102250,0,0,230,409,815,64,53264,80570,9373,0,50,4.4,0,0,0,0,0,0,0,0,0,0,0,0,0
2013,1,10,12,0,,-0.5,-11.5,43,102180,0,0,235,488,795,84,53400,78825,12218,0,20,4.5,0,0,0,0,0,0,0,0,0,0,0,0,0
2013,1,10,13,0,,-0.7,-13.9,36,102110,0,0,233,508,746,103,47332,72191,14845,0,20,4.4,0,0,0,0,0,0,0,0,0,0,0,0,0
2013,1,10,14,0,,-0.2,-16.5,28,102070,0,0,234,485,724,104,35927,64500,14487,0,20,3.2,0,0,0,0,0,0,0,0,0,0,0,0,0
2013,1,10,15,0,,0.3,-18.9,22,102100,0,0,233,430,761,80,20139,52445,10823,0,50,4.4,0,0,0,0,0,0,0,0,0,0,0,0,0
2013,1,10,16,0,,-0.5,-19.6,22,102100,0,0,232,320,757,58,0,0,0,0,20,6.4,0,0,0,0,0,0,0,0,0,0,0,0,0
2013,1,10,17,0,,-0.6,-18.7,24,102100,0,0,232,173,710,34,0,0,0,0,20,5,0,0,0,0,0,0,0,0,0,0,0,0,0
2013,1,10,18,0,,-2.1,-18.6,27,102120,0,0,227,39,24,15,0,0,0,0,20,4.6,0,0,0,0,0,0,0,0,0,0,0,0,0
2013,1,10,19,0,,-3.4,-18.1,31,102190,0,0,222,0,0,0,0,0,0,0,20,2.8,0,0,0,0,0,0,0,0,0,0,0,0,0
2013,1,10,20,0,,-4,-17.9,33,102230,0,0,220,0,0,0,0,0,0,0,50,2.8,0,0,0,0,0,0,0,0,0,0,0,0,0
2013,1,10,21,0,,-5.2,-17,39,102260,0,0,215,0,0,0,0,0,0,0,50,2.8,0,0,0,0,0,0,0,0,0,0,0,0,0
2013,1,10,22,0,,-5.7,-16.8,41,102270,0,0,213,0,0,0,0,0,0,0,50,2.7,0,0,0,0,0,0,0,0,0,0,0,0,0
2013,1,10,23,0,,-6.1,-16.6,43,102270,0,0,212,0,0,0,0,0,0,0,50,2.3,0,0,0,0,0,0,0,0,0,0,0,0,0
2013,1,10,24,0,,-6.1,-16.6,43,102240,0,0,212,0,0,0,0,0,0,0,50,1.9,0,0,0,0,0,0,0,0,0,0,0,0,0
2013,1,11,1,0,,-6.2,-16.4,44,102250,0,0,212,0,0,0,0,0,0,0,20,1.4,0,0,0,0,0,0,0,0,0,0,0,0,0
2013,1,11,2,0,,-6.6,-16,47,102250,0,0,210,0,0,0,0,0,0,0,50,2.9,0,0,0,0,0,0,0,0,0,0,0,0,0
2013,1,11,3,0,,-6.6,-15.5,49,102270,0,0,210,0,0,0,0,0,0,0,50,1.8,0,0,0,0,0,0,0,0,0,0,0,0,0
2013,1,11,4,0,,-6.2,-14.7,51,102210,0,0,212,0,0,0,0,0,0,0,50,2.6,0,0,0,0,0,0,0,0,0,0,0,0,0
2013,1,11,5,0,,-5.9,-13.7,54,102170,0,0,214,0,0,0,0,0,0,0,50,3.5,0,0,0,0,0,0,0,0,0,0,0,0,0
2013,1,11,6,0,,-6.3,-13.2,58,102180,0,0,213,0,0,0,0,0,0,0,50,3.4,0,0,0,0,0,0,0,0,0,0,0,0,0
2013,1,11,7,0,,-6.3,-12.8,60,102210,0,0,213,0,0,0,0,0,0,0,50,3.6,0,0,0,0,0,0,0,0,0,0,0,0,0
2013,1,11,8,0,,-6.2,-12.1,63,102210,0,0,214,9,3,6,859,236,785,0,50,2.9,0,0,0,0,0,0,0,0,0,0,0,0,0
2013,1,11,9,0,,-5.9,-11.4,65,102280,0,0,216,99,64,35,7631,6439,4811,0,200,1.2,0,0,0,0,0,0,0,0,0,0,0,0,0
2013,1,11,10,0,,-3.9,-10.9,58,102340,0,0,223,252,643,62,42519,64305,9252,0,230,1.3,0,0,0,0,0,0,0,0,0,0,0,0,0
2013,1,11,11,0,,-1.1,-11.5,45,102250,0,0,233,391,742,76,51782,74275,11151,0,50,0.7,0,0,0,0,0,0,0,0,0,0,0,0,0
2013,1,11,12,0,,0.7,-11,41,102120,0,0,239,494,810,81,54092,80496,11828,0,200,0.9,0,0,0,0,0,0,0,0,0,0,0,0,0
2013,1,11,13,0,,2,-11.1,37,101990,0,0,244,531,811,89,48421,78310,12958,0,230,1.4,0,0,0,0,0,0,0,0,0,0,0,0,0
2013,1,11,14,0,,4.5,-12.4,28,101910,0,0,252,517,819,83,37010,74088,12161,0,230,1.8,0,0,0,0,0,0,0,0,0,0,0,0,0
2013,1,11,15,0,,4.5,-13.8,25,101880,0,0,256,442,796,74,20296,55779,10219,0,200,2.3,1,0,0,0,0,0,0,0,0,0,0,0,0
2013,1,11,16,0,,4.4,-14.4,24,101860,0,0,261,310,694,67,0,0,0,0,230,2.1,3,0,0,0,0,0,0,0,0,0,0,0,0
2013,1,11,17,0,,3.3,-14.4,26,101890,0,0,266,119,294,60,0,0,0,0,250,0.9,7,0,0,0,0,0,0,0,0,0,0,0,0
2013,1,11,18,0,,2,-13,32,101880,0,0,262,26,9,17,0,0,0,0,230,2.1,7,0,0,0,0,0,0,0,0,0,0,0,0
2013,1,11,19,0,,1.4,-12.4,35,101870,0,0,260,0,0,0,0,0,0,0,180,1.6,7,0,0,0,0,0,0,0,0,0,0,0,0
2013,1,11,20,0,,0.6,-12.1,38,101820,0,0,257,0,0,0,0,0,0,0,70,1.3,7,0,0,0,0,0,0,0,0,0,0,0,0
2013,1,11,21,0,,0.2,-12.4,38,101770,0,0,255,0,0,0,0,0,0,0,180,1.4,7,0,0,0,0,0,0,0,0,0,0,0,0
2013,1,11,22,0,,0.4,-11.9,39,101790,0,0,256,0,0,0,0,0,0,0,20,1.3,7,0,0,0,0,0,0,0,0,0,0,0,0
2013,1,11,23,0,,-0.3,-10,48,101820,0,0,256,0,0,0,0,0,0,0,250,0.7,7,0,0,0,0,0,0,0,0,0,0,0,0
2013,1,11,24,0,,-0.4,-7.6,58,101850,0,0,258,0,0,0,0,0,0,0,250,0.8,7,0,0,0,0,0,0,0,0,0,0,0,0
2013,1,12,1,0,,-0.5,-7.7,58,101910,0,0,257,0,0,0,0,0,0,0,270,0.8,7,0,0,0,0,0,0,0,0,0,0,0,0
2013,1,12,2,0,,-0.9,-7.7,60,101880,0,0,254,0,0,0,0,0,0,0,110,1,6,0,0,0,0,0,0,0,0,0,0,0,0
2013,1,12,3,0,,-1,-8.2,58,101850,0,0,252,0,0,0,0,0,0,0,50,1,6,0,0,0,0,0,0,0,0,0,0,0,0
2013,1,12,4,0,,-1.9,-7.2,67,101830,0,0,257,0,0,0,0,0,0,0,230,0.5,8,0,0,0,0,0,0,0,0,0,0,0,0
2013,1,12,5,0,,-2.1,-6.8,70,101770,0,0,243,0,0,0,0,0,0,0,0,0.1,3,0,0,0,0,0,0,0,0,0,0,0,0
2013,1,12,6,0,,-1.9,-6.8,69,101720,0,0,250,0,0,0,0,0,0,0,340,1.2,6,0,0,0,0,0,0,0,0,0,0,0,0
2013,1,12,7,0,,-2.6,-6.9,72,101750,0,0,245,0,0,0,0,0,0,0,230,0.7,5,0,0,0,0,0,0,0,0,0,0,0,0
2013,1,12,8,0,,-2,-6.9,69,101760,0,0,253,3,0,3,465,6,464,0,0,0.2,7,0,0,0,0,0,0,0,0,0,0,0,0
2013,1,12,9,0,,-0.6,-6.1,66,101780,0,0,252,94,54,39,7767,5360,5411,0,180,0.7,4,0,0,0,0,0,0,0,0,0,0,0,0
2013,1,12,10,0,,1.2,-5.9,59,101810,0,0,250,257,663,60,42866,65444,8877,0,290,0.5,1,0,0,0,0,0,0,0,0,0,0,0,0
2013,1,12,11,0,,3.1,-5.3,54,101780,0,0,258,392,740,77,52035,74230,11251,0,230,1.1,1,0,0,0,0,0,0,0,0,0,0,0,0
2013,1,12,12,0,,5.1,-4.2,51,101710,0,0,280,390,441,164,44011,43513,21048,0,250,0.9,6,0,0,0,0,0,0,0,0,0,0,0,0
2013,1,12,13,0,,7,-2.2,52,101640,0,0,285,478,635,131,45743,60538,18151,0,200,1.4,4,0,0,0,0,0,0,0,0,0,0,0,0
2013,1,12,14,0,,7.3,-1.6,53,101610,0,0,295,351,258,213,31797,23063,23992,0,290,1,7,0,0,0,0,0,0,0,0,0,0,0,0
2013,1,12,15,0,,6.9,-0.5,59,101610,0,0,289,341,402,154,22044,26278,17216,0,20,2.7,5,0,0,0,0,0,0,0,0,0,0,0,0
2013,1,12,16,0,,6.7,-0.7,59,101590,0,0,280,271,492,98,8226,0,8226,0,340,1.2,2,0,0,0,0,0,0,0,0,0,0,0,0
2013,1,12,17,0,,5.8,-0.9,62,101570,0,0,268,148,466,55,0,0,0,0,360,1.2,0,0,0,0,0,0,0,0,0,0,0,0,0
2013,1,12,18,0,,4.6,-0.8,68,101590,0,0,268,35,15,20,0,0,0,0,320,1,1,0,0,0,0,0,0,0,0,0,0,0,0
2013,1,12,19,0,,3.3,-0.8,74,101620,0,0,262,0,0,0,0,0,0,0,270,1.3,1,0,0,0,0,0,0,0,0,0,0,0,0
2013,1,12,20,0,,2,-0.5,83,101630,0,0,256,0,0,0,0,0,0,0,20,1.7,0,0,0,0,0,0,0,0,0,0,0,0,0
2013,1,12,21,0,,1.4,-0.5,87,101680,0,0,252,0,0,0,0,0,0,0,20,0.6,0,0,0,0,0,0,0,0,0,0,0,0,0
2013,1,12,22,0,,0.5,-1.5,86,101660,0,0,253,0,0,0,0,0,0,0,20,2.1,1,0,0,0,0,0,0,0,0,0,0,0,0
2013,1,12,23,0,,0.1,-1.8,87,101690,0,0,254,0,0,0,0,0,0,0,20,1.1,2,0,0,0,0,0,0,0,0,0,0,0,0
2013,1,12,24,0,,-0.8,-2.2,90,101660,0,0,253,0,0,0,0,0,0,0,20,1.3,3,0,0,0,0,0,0,0,0,0,0,0,0
2013,1,13,1,0,,-1,-2.1,92,101640,0,0,255,0,0,0,0,0,0,0,50,1.1,4,0,0,0,0,0,0,0,0,0,0,0,0
2013,1,13,2,0,,-1.1,-2.3,91,101690,0,0,258,0,0,0,0,0,0,0,230,1,6,0,0,0,0,0,0,0,0,0,0,0,0
2013,1,13,3,0,,-2,-2.9,93,101650,0,0,257,0,0,0,0,0,0,0,0,0.1,7,0,0,0,0,0,0,0,0,0,0,0,0
2013,1,13,4,0,,-2.3,-3.1,94,101580,0,0,253,0,0,0,0,0,0,0,20,2.2,6,0,0,0,0,0,0,0,0,0,0,0,0
2013,1,13,5,0,,-2.1,-3.2,92,101500,0,0,254,0,0,0,0,0,0,0,20,2.9,6,0,0,0,0,0,0,0,0,0,0,0,0
2013,1,13,6,0,,-1.1,-3.1,86,101480,0,0,257,0,0,0,0,0,0,0,50,2.6,6,0,0,0,0,0,0,0,0,0,0,0,0
2013,1,13,7,0,,-2.6,-4,90,101570,0,0,251,0,0,0,0,0,0,0,180,1.8,6,0,0,0,0,0,0,0,0,0,0,0,0
2013,1,13,8,0,,-2.5,-3.7,91,101570,0,0,259,1,0,1,213,0,213,0,230,1.4,8,0,0,0,0,0,0,0,0,0,0,0,0
2013,1,13,9,0,,-1.7,-3.1,90,101600,0,0,268,42,6,36,4491,555,4246,0,20,1.5,9,0,0,0,0,0,0,0,0,0,0,0,0
2013,1,13,10,0,,-0.5,-2.8,84,101610,0,0,273,114,69,94,15099,6983,11458,0,0,0.2,9,0,0,0,0,0,0,0,0,0,0,0,0
2013,1,13,11,0,,1.3,-3.5,70,101530,0,0,279,193,96,152,23331,9711,17971,0,20,1.1,9,0,0,0,0,0,0,0,0,0,0,0,0
2013,1,13,12,0,,3.2,-4.7,56,101420,0,0,285,266,129,200,29962,13004,23064,0,20,1.4,9,0,0,0,0,0,0,0,0,0,0,0,0
2013,1,13,13,0,,3.9,-5.8,49,101370,0,0,287,281,119,215,29822,11648,24478,0,20,0.7,9,0,0,0,0,0,0,0,0,0,0,0,0
2013,1,13,14,0,,3.7,-3.1,61,101240,0,0,297,194,47,169,20459,4307,18988,0,0,0.3,10,0,0,0,0,0,0,0,0,0,0,0,0
2013,1,13,15,0,,3.6,-3.6,59,101240,0,0,296,148,34,132,15160,2730,14650,0,360,1.4,10,0,0,0,0,0,0,0,0,0,0,0,0
2013,1,13,16,0,,4.7,-6.8,43,101140,0,0,298,125,51,107,11145,3295,11127,0,70,0.7,10,0,0,0,0,0,0,0,0,0,0,0,0
2013,1,13,17,0,,4.4,-6.2,46,101210,0,0,297,68,51,57,0,0,0,0,340,1.1,10,0,0,0,0,0,0,0,0,0,0,0,0
2013,1,13,18,0,,3.2,-4.9,55,101240,0,0,293,12,1,11,0,0,0,0,320,0.5,10,0,0,0,0,0,0,0,0,0,0,0,0
2013,1,13,19,0,,2.9,-6,52,101160,0,0,275,0,0,0,0,0,0,0,20,0.7,8,0,0,0,0,0,0,0,0,0,0,0,0
2013,1,13,20,0,,2.3,-4.6,60,101100,0,0,267,0,0,0,0,0,0,0,200,0.9,5,0,0,0,0,0,0,0,0,0,0,0,0
2013,1,13,21,0,,1.3,-3.9,68,101180,0,0,259,0,0,0,0,0,0,0,250,0.7,3,0,0,0,0,0,0,0,0,0,0,0,0
2013,1,13,22,0,,0.7,-3.5,73,101200,0,0,254,0,0,0,0,0,0,0,0,0.1,2,0,0,0,0,0,0,0,0,0,0,0,0
2013,1,13,23,0,,-0.3,-3.8,77,101110,0,0,247,0,0,0,0,0,0,0,110,0.9,1,0,0,0,0,0,0,0,0,0,0,0,0
2013,1,13,24,0,,-1.1,-4.4,78,101100,0,0,239,0,0,0,0,0,0,0,0,0.2,0,0,0,0,0,0,0,0,0,0,0,0,0
2013,1,14,1,0,,-2.1,-4.7,82,101080,0,0,236,0,0,0,0,0,0,0,0,0.1,0,0,0,0,0,0,0,0,0,0,0,0,0
2013,1,14,2,0,,-2.3,-4.8,83,101070,0,0,235,0,0,0,0,0,0,0,0,0.2,0,0,0,0,0,0,0,0,0,0,0,0,0
2013,1,14,3,0,,-3,-5.1,85,101030,0,0,232,0,0,0,0,0,0,0,0,0,0,0,0,0,0,0,0,0,0,0,0,0,0
2013,1,14,4,0,,-3.4,-5.7,84,101010,0,0,230,0,0,0,0,0,0,0,250,0.7,0,0,0,0,0,0,0,0,0,0,0,0,0
2013,1,14,5,0,,-3.6,-5.6,86,101000,0,0,230,0,0,0,0,0,0,0,0,0,0,0,0,0,0,0,0,0,0,0,0,0,0
2013,1,14,6,0,,-4.2,-6.1,86,101010,0,0,227,0,0,0,0,0,0,0,0,0.2,0,0,0,0,0,0,0,0,0,0,0,0,0
2013,1,14,7,0,,-4.2,-5.8,88,101030,0,0,228,0,0,0,0,0,0,0,0,0.2,0,0,0,0,0,0,0,0,0,0,0,0,0
2013,1,14,8,0,,-4.1,-5.9,87,101120,0,0,228,8,2,6,807,139,763,0,0,0.1,0,0,0,0,0,0,0,0,0,0,0,0,0
2013,1,14,9,0,,-2.5,-5.3,81,101160,0,0,234,102,68,35,7797,6684,4835,0,230,0.6,0,0,0,0,0,0,0,0,0,0,0,0,0
2013,1,14,10,0,,0.5,-4.5,69,101190,0,0,244,259,665,60,43341,65741,8913,0,230,0.8,0,0,0,0,0,0,0,0,0,0,0,0,0
2013,1,14,11,0,,3.4,-6,50,101170,0,0,254,408,792,69,53628,78563,10067,0,270,0.8,0,0,0,0,0,0,0,0,0,0,0,0,0
2013,1,14,12,0,,5,-9.2,35,101120,0,0,257,513,853,73,55668,84165,10778,0,340,1.5,0,0,0,0,0,0,0,0,0,0,0,0,0
2013,1,14,13,0,,5.9,-11.2,28,101090,0,0,259,548,844,82,50060,82175,12110,0,320,2.9,0,0,0,0,0,0,0,0,0,0,0,0,0
2013,1,14,14,0,,5.5,-6.7,41,101120,0,0,261,497,731,105,37378,65635,14751,0,20,5.2,0,0,0,0,0,0,0,0,0,0,0,0,0
2013,1,14,15,0,,6,-3.1,52,101140,0,0,275,404,623,111,21682,43144,13483,0,20,3.9,2,0,0,0,0,0,0,0,0,0,0,0,0
2013,1,14,16,0,,5.4,-2.4,57,101160,0,0,281,249,363,119,11048,0,11048,0,360,2.8,5,0,0,0,0,0,0,0,0,0,0,0,0
2013,1,14,17,0,,4.7,-1.5,64,101210,0,0,279,134,308,70,0,0,0,0,360,2,5,0,0,0,0,0,0,0,0,0,0,0,0
2013,1,14,18,0,,3.6,-1.1,71,101230,0,0,271,35,19,16,0,0,0,0,320,2.1,3,0,0,0,0,0,0,0,0,0,0,0,0
2013,1,14,19,0,,2.7,-2.2,70,101300,0,0,263,0,0,0,0,0,0,0,320,3.4,2,0,0,0,0,0,0,0,0,0,0,0,0
2013,1,14,20,0,,1.9,-3.3,68,101390,0,0,256,0,0,0,0,0,0,0,360,2.4,1,0,0,0,0,0,0,0,0,0,0,0,0
2013,1,14,21,0,,1.3,-4.9,63,101450,0,0,247,0,0,0,0,0,0,0,20,2.3,0,0,0,0,0,0,0,0,0,0,0,0,0
2013,1,14,22,0,,0.7,-7,56,101460,0,0,242,0,0,0,0,0,0,0,20,4.4,0,0,0,0,0,0,0,0,0,0,0,0,0
2013,1,14,23,0,,-1.1,-8.3,58,101510,0,0,236,0,0,0,0,0,0,0,20,3,0,0,0,0,0,0,0,0,0,0,0,0,0
2013,1,14,24,0,,-1.9,-8,63,101620,0,0,233,0,0,0,0,0,0,0,50,2.1,0,0,0,0,0,0,0,0,0,0,0,0,0
2013,1,15,1,0,,-2,-8.3,62,101680,0,0,232,0,0,0,0,0,0,0,20,2.1,0,0,0,0,0,0,0,0,0,0,0,0,0
2013,1,15,2,0,,-1.7,-8.4,60,101750,0,0,233,0,0,0,0,0,0,0,270,0.5,0,0,0,0,0,0,0,0,0,0,0,0,0
2013,1,15,3,0,,-2.9,-7.9,68,101700,0,0,230,0,0,0,0,0,0,0,20,1.9,0,0,0,0,0,0,0,0,0,0,0,0,0
2013,1,15,4,0,,-3.3,-8.5,67,101600,0,0,228,0,0,0,0,0,0,0,50,3,0,0,0,0,0,0,0,0,0,0,0,0,0
2013,1,15,5,0,,-3.2,-8.4,67,101560,0,0,228,0,0,0,0,0,0,0,20,2.1,0,0,0,0,0,0,0,0,0,0,0,0,0
2013,1,15,6,0,,-3.9,-8.5,70,101650,0,0,225,0,0,0,0,0,0,0,70,0.5,0,0,0,0,0,0,0,0,0,0,0,0,0
2013,1,15,7,0,,-4.4,-7.8,77,101750,0,0,225,0,0,0,0,0,0,0,0,0.4,0,0,0,0,0,0,0,0,0,0,0,0,0
2013,1,15,8,0,,-4.4,-7.6,78,101780,0,0,232,8,2,6,834,148,787,0,0,0.2,2,0,0,0,0,0,0,0,0,0,0,0,0
2013,1,15,9,0,,-3,-7.3,72,101800,0,0,242,94,53,41,7950,5252,5612,0,20,0.7,4,0,0,0,0,0,0,0,0,0,0,0,0
2013,1,15,10,0,,-1.5,-6.6,68,101820,0,0,255,182,263,103,28004,26157,14245,0,230,1,7,0,0,0,0,0,0,0,0,0,0,0,0
2013,1,15,11,0,,0.6,-6.2,60,101810,0,0,267,257,214,165,31899,21992,19647,0,250,1.4,8,0,0,0,0,0,0,0,0,0,0,0,0
2013,1,15,12,0,,0.9,-7.3,54,101710,0,0,260,380,389,179,43151,38640,22428,0,290,1.5,6,0,0,0,0,0,0,0,0,0,0,0,0
2013,1,15,13,0,,3.5,-7,46,101610,0,0,271,430,453,179,42529,43829,22150,0,200,2.1,6,0,0,0,0,0,0,0,0,0,0,0,0
2013,1,15,14,0,,4.8,-7.3,41,101520,0,0,276,416,451,173,34256,41354,19866,0,200,1.4,6,0,0,0,0,0,0,0,0,0,0,0,0
2013,1,15,15,0,,6.4,-7.2,37,101460,0,0,278,423,684,99,22249,47896,12991,0,250,1.8,4,0,0,0,0,0,0,0,0,0,0,0,0
2013,1,15,16,0,,6.2,-7.4,37,101550,0,0,277,300,595,85,7637,2339,7610,0,320,1,4,0,0,0,0,0,0,0,0,0,0,0,0
2013,1,15,17,0,,5.4,-8.5,36,101560,0,0,270,170,587,47,0,0,0,0,250,1.5,3,0,0,0,0,0,0,0,0,0,0,0,0
2013,1,15,18,0,,3.5,-7.9,43,101520,0,0,257,41,21,20,0,0,0,0,230,1.2,1,0,0,0,0,0,0,0,0,0,0,0,0
2013,1,15,19,0,,2.1,-6.5,53,101440,0,0,252,0,0,0,0,0,0,0,160,1.1,1,0,0,0,0,0,0,0,0,0,0,0,0
2013,1,15,20,0,,2.3,-6.5,52,101450,0,0,251,0,0,0,0,0,0,0,270,1.5,0,0,0,0,0,0,0,0,0,0,0,0,0
2013,1,15,21,0,,0.9,-6.9,56,101460,0,0,243,0,0,0,0,0,0,0,230,0.5,0,0,0,0,0,0,0,0,0,0,0,0,0
2013,1,15,22,0,,0.3,-6.3,61,101500,0,0,246,0,0,0,0,0,0,0,0,0.4,1,0,0,0,0,0,0,0,0,0,0,0,0
2013,1,15,23,0,,-0.7,-6.4,65,101530,0,0,247,0,0,0,0,0,0,0,250,0.6,2,0,0,0,0,0,0,0,0,0,0,0,0
2013,1,15,24,0,,-0.6,-5.5,69,101510,0,0,250,0,0,0,0,0,0,0,230,1,3,0,0,0,0,0,0,0,0,0,0,0,0
2013,1,16,1,0,,-1.7,-5.9,73,101540,0,0,244,0,0,0,0,0,0,0,250,1.1,2,0,0,0,0,0,0,0,0,0,0,0,0
2013,1,16,2,0,,-2,-5.8,75,101550,0,0,239,0,0,0,0,0,0,0,230,0.7,1,0,0,0,0,0,0,0,0,0,0,0,0
2013,1,16,3,0,,-2.6,-6,77,101590,0,0,233,0,0,0,0,0,0,0,360,0.6,0,0,0,0,0,0,0,0,0,0,0,0,0
2013,1,16,4,0,,-2.6,-6.2,76,101580,0,0,232,0,0,0,0,0,0,0,50,2.8,0,0,0,0,0,0,0,0,0,0,0,0,0
2013,1,16,5,0,,-2.1,-5.9,75,101540,0,0,234,0,0,0,0,0,0,0,360,1.3,0,0,0,0,0,0,0,0,0,0,0,0,0
2013,1,16,6,0,,-2.9,-5.8,80,101530,0,0,251,0,0,0,0,0,0,0,270,1.7,7,0,0,0,0,0,0,0,0,0,0,0,0
2013,1,16,7,0,,-3.3,-5.9,82,101530,0,0,246,0,0,0,0,0,0,0,250,1.5,6,0,0,0,0,0,0,0,0,0,0,0,0
2013,1,16,8,0,,-2.4,-5.3,80,101560,0,0,263,0,0,0,34,0,34,0,140,0.7,9,0,0,0,0,0,0,0,0,0,0,0,0
2013,1,16,9,0,,-1.4,-5.2,75,101580,0,0,274,34,3,31,4039,156,3970,0,0,0.2,10,0,0,0,0,0,0,0,0,0,0,0,0
2013,1,16,10,0,,0.1,-5.1,68,101590,0,0,272,134,103,103,17990,10550,12416,0,0,0.4,9,0,0,0,0,0,0,0,0,0,0,0,0
2013,1,16,11,0,,1.3,-4.3,66,101570,0,0,286,158,52,135,18418,5074,15578,0,230,0.9,10,0,0,0,0,0,0,0,0,0,0,0,0
2013,1,16,12,0,,2.5,-4.4,60,101480,0,0,291,211,65,177,23594,6274,20210,0,200,1.4,10,0,0,0,0,0,0,0,0,0,0,0,0
2013,1,16,13,0,,3.1,-3.4,62,101410,0,0,294,215,54,185,23371,5201,20935,0,230,2.2,10,0,0,0,0,0,0,0,0,0,0,0,0
2013,1,16,14,0,,2.3,-1.6,75,101400,0,0,293,174,33,156,18718,3030,17653,0,230,2.6,10,0,0,0,0,0,0,0,0,0,0,0,0
2013,1,16,15,0,,2,0.5,90,101440,0,0,295,124,20,115,12487,936,12303,0,200,0.8,10,0,0,0,0,0,0,0,0,0,0,0,0
2013,1,16,16,0,,2.4,0.1,85,101510,0,0,296,91,19,84,7784,1864,7757,0,290,2.6,10,0,0,0,0,0,0,0,0,0,0,0,0
2013,1,16,17,0,,2,-1.9,75,101600,0,0,292,59,30,52,0,0,0,0,320,2.6,10,0,0,0,0,0,0,0,0,0,0,0,0
2013,1,16,18,0,,1.2,-3.8,69,101650,0,0,286,11,1,11,0,0,0,0,360,2.3,10,0,0,0,0,0,0,0,0,0,0,0,0
2013,1,16,19,0,,1.2,-4.6,65,101670,0,0,285,0,0,0,0,0,0,0,20,4.3,10,0,0,0,0,0,0,0,0,0,0,0,0
2013,1,16,20,0,,0.8,-4.4,68,101690,0,0,283,0,0,0,0,0,0,0,20,2.4,10,0,0,0,0,0,0,0,0,0,0,0,0
2013,1,16,21,0,,0.5,-4.3,70,101700,0,0,282,0,0,0,0,0,0,0,360,1.6,10,0,0,0,0,0,0,0,0,0,0,0,0
2013,1,16,22,0,,0.4,-4,72,101690,0,0,282,0,0,0,0,0,0,0,360,1.4,10,0,0,0,0,0,0,0,0,0,0,0,0
2013,1,16,23,0,,0.3,-3.7,74,101670,0,0,282,0,0,0,0,0,0,0,320,1,10,0,0,0,0,0,0,0,0,0,0,0,0
2013,1,16,24,0,,0.2,-3.8,74,101690,0,0,282,0,0,0,0,0,0,0,340,1.3,10,0,0,0,0,0,0,0,0,0,0,0,0
2013,1,17,1,0,,0.1,-6.1,63,101770,0,0,278,0,0,0,0,0,0,0,340,2.7,10,0,0,0,0,0,0,0,0,0,0,0,0
2013,1,17,2,0,,-0.2,-5.7,66,101820,0,0,278,0,0,0,0,0,0,0,360,2.5,10,0,0,0,0,0,0,0,0,0,0,0,0
2013,1,17,3,0,,-0.3,-6,65,101820,0,0,278,0,0,0,0,0,0,0,20,3.3,10,0,0,0,0,0,0,0,0,0,0,0,0
2013,1,17,4,0,,-0.5,-6,66,101810,0,0,277,0,0,0,0,0,0,0,360,1.8,10,0,0,0,0,0,0,0,0,0,0,0,0
2013,1,17,5,0,,-0.9,-5.6,70,101800,0,0,268,0,0,0,0,0,0,0,360,1.9,9,0,0,0,0,0,0,0,0,0,0,0,0
2013,1,17,6,0,,-1,-6.3,67,101810,0,0,267,0,0,0,0,0,0,0,20,1.8,9,0,0,0,0,0,0,0,0,0,0,0,0
2013,1,17,7,0,,-1.5,-6,71,101870,0,0,265,0,0,0,0,0,0,0,360,2.1,9,0,0,0,0,0,0,0,0,0,0,0,0
2013,1,17,8,0,,-1.7,-6.6,69,101910,0,0,264,2,0,2,228,0,228,0,360,3.7,9,0,0,0,0,0,0,0,0,0,0,0,0
2013,1,17,9,0,,-1.6,-7.3,65,101990,0,0,263,53,12,42,5461,1076,4977,0,20,4.1,9,0,0,0,0,0,0,0,0,0,0,0,0
2013,1,17,10,0,,-1.7,-7.2,66,102030,0,0,251,200,352,93,32580,35118,13935,0,20,4.5,6,0,0,0,0,0,0,0,0,0,0,0,0
2013,1,17,11,0,,-1,-8,59,102020,0,0,252,288,296,159,37173,29656,20486,0,320,2.2,6,0,0,0,0,0,0,0,0,0,0,0,0
2013,1,17,12,0,,-0.8,-8.4,56,101950,0,0,251,392,418,174,44526,41650,21935,0,340,3.3,5,0,0,0,0,0,0,0,0,0,0,0,0
2013,1,17,13,0,,-0.9,-9,54,101920,0,0,252,379,270,228,38472,26947,25769,0,340,2.8,6,0,0,0,0,0,0,0,0,0,0,0,0
2013,1,17,14,0,,-0.9,-8.8,55,101880,0,0,259,290,135,217,28656,12720,24145,0,360,3.3,8,0,0,0,0,0,0,0,0,0,0,0,0
2013,1,17,15,0,,-1.2,-7.5,62,101910,0,0,259,241,123,182,22064,10323,20000,0,360,2.5,8,0,0,0,0,0,0,0,0,0,0,0,0
2013,1,17,16,0,,-1.4,-9,56,102000,0,0,257,188,146,134,14163,10005,13984,0,360,2.9,8,0,0,0,0,0,0,0,0,0,0,0,0
2013,1,17,17,0,,-1.8,-8.9,58,102070,0,0,251,123,244,71,0,0,0,0,360,3.2,7,0,0,0,0,0,0,0,0,0,0,0,0
2013,1,17,18,0,,-2.2,-8.7,61,102130,0,0,254,25,6,19,0,0,0,0,20,2.6,8,0,0,0,0,0,0,0,0,0,0,0,0
2013,1,17,19,0,,-2.9,-9.1,62,102170,0,0,243,0,0,0,0,0,0,0,20,1.9,5,0,0,0,0,0,0,0,0,0,0,0,0
2013,1,17,20,0,,-3.1,-9.3,62,102220,0,0,237,0,0,0,0,0,0,0,20,2.9,3,0,0,0,0,0,0,0,0,0,0,0,0
2013,1,17,21,0,,-3.4,-9,65,102250,0,0,227,0,0,0,0,0,0,0,360,1.2,0,0,0,0,0,0,0,0,0,0,0,0,0
2013,1,17,22,0,,-3.6,-9,66,102280,0,0,226,0,0,0,0,0,0,0,290,1.1,0,0,0,0,0,0,0,0,0,0,0,0,0
2013,1,17,23,0,,-4.1,-9.3,67,102270,0,0,224,0,0,0,0,0,0,0,20,1.6,0,0,0,0,0,0,0,0,0,0,0,0,0
2013,1,17,24,0,,-4.8,-9.6,69,102300,0,0,221,0,0,0,0,0,0,0,50,1.8,0,0,0,0,0,0,0,0,0,0,0,0,0
2013,1,18,1,0,,-5.1,-9.5,71,102290,0,0,220,0,0,0,0,0,0,0,50,1.4,0,0,0,0,0,0,0,0,0,0,0,0,0
2013,1,18,2,0,,-5.2,-9.6,71,102290,0,0,220,0,0,0,0,0,0,0,70,1.6,0,0,0,0,0,0,0,0,0,0,0,0,0
2013,1,18,3,0,,-5.8,-9.6,74,102310,0,0,218,0,0,0,0,0,0,0,50,1.8,0,0,0,0,0,0,0,0,0,0,0,0,0
2013,1,18,4,0,,-5.7,-9.4,75,102310,0,0,219,0,0,0,0,0,0,0,50,1.7,0,0,0,0,0,0,0,0,0,0,0,0,0
2013,1,18,5,0,,-5.9,-9.1,78,102290,0,0,218,0,0,0,0,0,0,0,20,0.7,0,0,0,0,0,0,0,0,0,0,0,0,0
2013,1,18,6,0,,-6.4,-8.9,82,102330,0,0,217,0,0,0,0,0,0,0,0,0.2,0,0,0,0,0,0,0,0,0,0,0,0,0
2013,1,18,7,0,,-6.2,-8.9,81,102350,0,0,218,0,0,0,0,0,0,0,0,0,0,0,0,0,0,0,0,0,0,0,0,0,0
2013,1,18,8,0,,-6.6,-9,83,102390,0,0,216,9,2,7,940,211,871,0,0,0,0,0,0,0,0,0,0,0,0,0,0,0,0
2013,1,18,9,0,,-5.3,-8.5,78,102430,0,0,221,103,65,38,8132,6524,5187,0,270,0.5,0,0,0,0,0,0,0,0,0,0,0,0,0
2013,1,18,10,0,,-2.3,-8.8,61,102420,0,0,231,268,682,59,44744,67409,8779,0,20,1.8,0,0,0,0,0,0,0,0,0,0,0,0,0
2013,1,18,11,0,,0,-7.5,57,102360,0,0,239,413,782,72,54391,77627,10484,0,50,2.6,0,0,0,0,0,0,0,0,0,0,0,0,0
2013,1,18,12,0,,1.4,-7.4,52,102260,0,0,245,504,793,88,55811,79017,12701,0,50,1.5,0,0,0,0,0,0,0,0,0,0,0,0,0
2013,1,18,13,0,,2.4,-7.2,49,102190,0,0,249,515,707,118,49199,68612,16623,0,340,1.5,0,0,0,0,0,0,0,0,0,0,0,0,0
2013,1,18,14,0,,3,-8,44,102100,0,0,250,492,676,121,38361,60909,16554,0,290,2.3,0,0,0,0,0,0,0,0,0,0,0,0,0
2013,1,18,15,0,,3.9,-6.6,46,102050,0,0,260,427,665,105,22804,48222,13002,0,340,2,1,0,0,0,0,0,0,0,0,0,0,0,0
2013,1,18,16,0,,3.1,-6.8,48,102040,0,0,252,315,628,82,7920,6763,7777,0,270,1.8,0,0,0,0,0,0,0,0,0,0,0,0,0
2013,1,18,17,0,,2.7,-6.4,51,102070,0,0,251,179,591,49,0,0,0,0,290,2,0,0,0,0,0,0,0,0,0,0,0,0,0
2013,1,18,18,0,,1.1,-6,59,102090,0,0,245,44,23,22,0,0,0,0,270,1.7,0,0,0,0,0,0,0,0,0,0,0,0,0
2013,1,18,19,0,,0.5,-5.9,62,102130,0,0,243,0,0,0,0,0,0,0,270,1.2,0,0,0,0,0,0,0,0,0,0,0,0,0
2013,1,18,20,0,,-0.2,-5.7,66,102140,0,0,241,0,0,0,0,0,0,0,0,0.4,0,0,0,0,0,0,0,0,0,0,0,0,0
2013,1,18,21,0,,-1,-5.9,69,102090,0,0,238,0,0,0,0,0,0,0,0,0.4,0,0,0,0,0,0,0,0,0,0,0,0,0
2013,1,18,22,0,,-0.8,-5.4,71,102070,0,0,249,0,0,0,0,0,0,0,50,1,3,0,0,0,0,0,0,0,0,0,0,0,0
2013,1,18,23,0,,-0.5,-5.3,70,102080,0,0,256,0,0,0,0,0,0,0,50,0.5,5,0,0,0,0,0,0,0,0,0,0,0,0
2013,1,18,24,0,,-0.5,-4.9,72,102070,0,0,265,0,0,0,0,0,0,0,230,0.6,8,0,0,0,0,0,0,0,0,0,0,0,0
2013,1,19,1,0,,-0.8,-4.8,74,102040,0,0,264,0,0,0,0,0,0,0,0,0.4,8,0,0,0,0,0,0,0,0,0,0,0,0
2013,1,19,2,0,,-0.8,-4.6,75,102060,0,0,264,0,0,0,0,0,0,0,230,0.5,8,0,0,0,0,0,0,0,0,0,0,0,0
2013,1,19,3,0,,-0.9,-4.4,77,102060,0,0,264,0,0,0,0,0,0,0,360,0.5,8,0,0,0,0,0,0,0,0,0,0,0,0
2013,1,19,4,0,,-0.9,-4.4,77,102040,0,0,264,0,0,0,0,0,0,0,0,0.3,8,0,0,0,0,0,0,0,0,0,0,0,0
2013,1,19,5,0,,-0.4,-4.2,75,102030,0,0,266,0,0,0,0,0,0,0,0,0.4,8,0,0,0,0,0,0,0,0,0,0,0,0
2013,1,19,6,0,,-0.4,-4.2,75,102060,0,0,266,0,0,0,0,0,0,0,50,0.8,8,0,0,0,0,0,0,0,0,0,0,0,0
2013,1,19,7,0,,-0.6,-3.9,78,102060,0,0,265,0,0,0,0,0,0,0,50,0.5,8,0,0,0,0,0,0,0,0,0,0,0,0
2013,1,19,8,0,,-0.7,-3.8,79,102090,0,0,265,3,0,3,438,3,437,0,250,0.8,8,0,0,0,0,0,0,0,0,0,0,0,0
2013,1,19,9,0,,0,-3.7,76,102140,0,0,273,49,9,40,5154,801,4790,0,0,0.4,9,0,0,0,0,0,0,0,0,0,0,0,0
2013,1,19,10,0,,0.7,-3.7,72,102190,0,0,276,120,71,98,15791,7270,11892,0,0,0.1,9,0,0,0,0,0,0,0,0,0,0,0,0
2013,1,19,11,0,,2.4,-3.3,66,102180,0,0,283,196,91,156,23657,9273,18384,0,200,0.6,9,0,0,0,0,0,0,0,0,0,0,0,0
2013,1,19,12,0,,4.1,-3.4,58,102100,0,0,284,305,175,213,34220,17645,24536,0,200,1.8,8,0,0,0,0,0,0,0,0,0,0,0,0
2013,1,19,13,0,,5.9,-3.4,51,101990,0,0,287,402,315,224,40549,31094,25681,0,250,2,7,0,0,0,0,0,0,0,0,0,0,0,0
2013,1,19,14,0,,5.4,-3.6,52,101980,0,0,290,322,174,226,31063,15926,25306,0,270,1.5,8,0,0,0,0,0,0,0,0,0,0,0,0
2013,1,19,15,0,,5.5,-3.5,52,102010,0,0,290,266,155,191,23634,13098,20927,0,290,1.1,8,0,0,0,0,0,0,0,0,0,0,0,0
2013,1,19,16,0,,5.1,-3.9,52,102030,0,0,294,155,79,125,13282,5133,13157,0,360,1.9,9,0,0,0,0,0,0,0,0,0,0,0,0
2013,1,19,17,0,,4.9,-3.8,53,102070,0,0,283,124,222,74,0,0,0,0,360,0.5,7,0,0,0,0,0,0,0,0,0,0,0,0
2013,1,19,18,0,,4,-3.7,57,102120,0,0,276,35,14,21,0,0,0,0,320,0.6,6,0,0,0,0,0,0,0,0,0,0,0,0
2013,1,19,19,0,,3.2,-3.3,62,102140,0,0,271,0,0,0,0,0,0,0,340,0.6,5,0,0,0,0,0,0,0,0,0,0,0,0
2013,1,19,20,0,,2.6,-3.1,66,102150,0,0,267,0,0,0,0,0,0,0,50,1.2,4,0,0,0,0,0,0,0,0,0,0,0,0
2013,1,19,21,0,,1.6,-2.9,72,102180,0,0,261,0,0,0,0,0,0,0,0,0.3,3,0,0,0,0,0,0,0,0,0,0,0,0
2013,1,19,22,0,,0.9,-2.8,76,102260,0,0,256,0,0,0,0,0,0,0,50,0.7,2,0,0,0,0,0,0,0,0,0,0,0,0
2013,1,19,23,0,,-0.2,-3,81,102290,0,0,249,0,0,0,0,0,0,0,70,1.5,1,0,0,0,0,0,0,0,0,0,0,0,0
2013,1,19,24,0,,-0.2,-2.9,82,102250,0,0,244,0,0,0,0,0,0,0,70,0.6,0,0,0,0,0,0,0,0,0,0,0,0,0
2013,1,20,1,0,,-0.9,-3.1,85,102300,0,0,242,0,0,0,0,0,0,0,270,1,0,0,0,0,0,0,0,0,0,0,0,0,0
2013,1,20,2,0,,-1.3,-3.3,86,102270,0,0,240,0,0,0,0,0,0,0,360,0.8,0,0,0,0,0,0,0,0,0,0,0,0,0
2013,1,20,3,0,,-1.6,-3.3,88,102140,0,0,239,0,0,0,0,0,0,0,290,0.7,0,0,0,0,0,0,0,0,0,0,0,0,0
2013,1,20,4,0,,-1.9,-3.7,87,102060,0,0,248,0,0,0,0,0,0,0,290,1.1,3,0,0,0,0,0,0,0,0,0,0,0,0
2013,1,20,5,0,,-1.6,-3.3,88,101990,0,0,249,0,0,0,0,0,0,0,50,3.3,3,0,0,0,0,0,0,0,0,0,0,0,0
2013,1,20,6,0,,-2.3,-4,88,102150,0,0,252,0,0,0,0,0,0,0,230,2.3,6,0,0,0,0,0,0,0,0,0,0,0,0
2013,1,20,7,0,,-2.4,-3.9,89,102240,0,0,252,0,0,0,0,0,0,0,250,1.9,6,0,0,0,0,0,0,0,0,0,0,0,0
2013,1,20,8,0,,-2,-3.5,89,102290,0,0,254,6,1,5,752,19,746,0,50,1.1,6,0,0,0,0,0,0,0,0,0,0,0,0
2013,1,20,9,0,,-0.6,-2.9,84,102320,0,0,263,72,26,46,7062,2629,5862,0,340,0.7,7,0,0,0,0,0,0,0,0,0,0,0,0
2013,1,20,10,0,,0.9,-2.8,76,102380,0,0,268,184,246,108,28090,24394,14942,0,20,1.2,7,0,0,0,0,0,0,0,0,0,0,0,0
2013,1,20,11,0,,3,-2.9,65,102450,0,0,276,286,274,165,35816,27940,19842,0,20,1,7,0,0,0,0,0,0,0,0,0,0,0,0
2013,1,20,12,0,,5.7,-2.9,54,102240,0,0,284,416,480,162,47228,47527,20986,0,50,3.5,6,0,0,0,0,0,0,0,0,0,0,0,0
2013,1,20,13,0,,6.8,-2.6,51,102160,0,0,282,514,685,125,49458,66258,17547,0,20,2.5,3,0,0,0,0,0,0,0,0,0,0,0,0
2013,1,20,14,0,,9.8,-2.2,43,101910,0,0,305,423,429,185,35712,39362,21346,0,70,2.5,7,0,0,0,0,0,0,0,0,0,0,0,0
2013,1,20,15,0,,10.5,-1.8,42,101950,0,0,303,428,647,111,23666,47079,13773,0,200,6.6,5,0,0,0,0,0,0,0,0,0,0,0,0
2013,1,20,16,0,,9.7,-1.3,46,102030,0,0,311,223,220,139,14013,1586,13969,0,200,3.1,8,0,0,0,0,0,0,0,0,0,0,0,0
2013,1,20,17,0,,8.9,-1.2,49,102030,0,0,314,94,94,73,0,0,0,0,180,3.5,9,0,0,0,0,0,0,0,0,0,0,0,0
2013,1,20,18,0,,8.1,-0.9,53,102080,0,0,319,15,1,14,0,0,0,0,160,3.6,10,0,0,0,0,0,0,0,0,0,0,0,0
2013,1,20,19,0,,7.7,-0.5,56,102040,0,0,318,0,0,0,0,0,0,0,160,3.4,10,0,0,0,0,0,0,0,0,0,0,0,0
2013,1,20,20,0,,7.8,-0.2,57,102030,0,0,319,0,0,0,0,0,0,0,200,1.2,10,0,0,0,0,0,0,0,0,0,0,0,0
2013,1,20,21,0,,7.8,0.9,62,102090,0,0,320,0,0,0,0,0,0,0,200,1.6,10,0,0,0,0,0,0,0,0,0,0,0,0
2013,1,20,22,0,,7.2,0.6,63,102000,0,0,317,0,0,0,0,0,0,0,50,2.1,10,0,0,0,0,0,0,0,0,0,0,0,0
2013,1,20,23,0,,6.4,2.4,76,101950,0,0,316,0,0,0,0,0,0,0,360,2.2,10,0,0,0,0,0,0,0,0,0,0,0,0
2013,1,20,24,0,,5.6,3.6,87,101850,0,0,314,0,0,0,0,0,0,0,20,2.5,10,0,0,0,0,0,0,0,0,0,0,0,0
2013,1,21,1,0,,6.9,2.9,76,101780,0,0,319,0,0,0,0,0,0,0,20,1.3,10,0,0,0,0,0,0,0,0,0,0,0,0
2013,1,21,2,0,,7.3,2.9,74,101720,0,0,320,0,0,0,0,0,0,0,160,1.7,10,0,0,0,0,0,0,0,0,0,0,0,0
2013,1,21,3,0,,6.9,4.2,83,101660,0,0,320,0,0,0,0,0,0,0,180,1.9,10,0,0,0,0,0,0,0,0,0,0,0,0
2013,1,21,4,0,,6,4.4,90,101570,0,0,317,0,0,0,0,0,0,0,340,1,10,0,0,0,0,0,0,0,0,0,0,0,0
2013,1,21,5,0,,5.7,4.6,93,101470,0,0,316,0,0,0,0,0,0,0,320,1.9,10,0,0,0,0,0,0,0,0,0,0,0,0
2013,1,21,6,0,,5.8,4.7,93,101400,0,0,316,0,0,0,0,0,0,0,360,1.1,10,0,0,0,0,0,0,0,0,0,0,0,0
2013,1,21,7,0,,5.7,4.8,94,101370,0,0,316,0,0,0,0,0,0,0,320,0.9,10,0,0,0,0,0,0,0,0,0,0,0,0
2013,1,21,8,0,,6.1,5,93,101330,0,0,318,0,0,0,0,0,0,0,250,1.4,10,0,0,0,0,0,0,0,0,0,0,0,0
2013,1,21,9,0,,6.7,5.1,90,101290,0,0,321,34,3,31,4083,139,4019,0,270,1.9,10,0,0,0,0,0,0,0,0,0,0,0,0
2013,1,21,10,0,,7.2,5.5,89,101260,0,0,324,90,31,80,10990,2846,9448,0,360,1.5,10,0,0,0,0,0,0,0,0,0,0,0,0
2013,1,21,11,0,,6.8,5.7,93,101230,0,0,322,115,20,107,13560,1890,12473,0,360,1.6,10,0,0,0,0,0,0,0,0,0,0,0,0
2013,1,21,12,0,,7.1,6,93,101140,0,0,324,142,20,131,16284,1853,15254,0,320,1.6,10,0,0,0,0,0,0,0,0,0,0,0,0
2013,1,21,13,0,,7.1,6.1,94,101000,0,0,324,145,17,136,16362,1081,15838,0,20,1.6,10,0,0,0,0,0,0,0,0,0,0,0,0
2013,1,21,14,0,,7.2,6.4,95,100910,0,0,325,145,18,135,15656,1114,15245,0,320,0.8,10,0,0,0,0,0,0,0,0,0,0,0,0
2013,1,21,15,0,,7.2,6.4,95,100860,0,0,325,119,16,111,12205,710,12054,0,20,0.5,10,0,0,0,0,0,0,0,0,0,0,0,0
2013,1,21,16,0,,7.1,6.3,95,100860,0,0,324,90,16,84,7997,968,7967,0,0,0.3,10,0,0,0,0,0,0,0,0,0,0,0,0
2013,1,21,17,0,,7,6.4,96,100800,0,0,324,52,17,48,0,0,0,0,70,1,10,0,0,0,0,0,0,0,0,0,0,0,0
2013,1,21,18,0,,7.2,6.5,96,100800,0,0,325,10,0,10,0,0,0,0,0,0.3,10,0,0,0,0,0,0,0,0,0,0,0,0
2013,1,21,19,0,,7,6.4,96,100830,0,0,324,0,0,0,0,0,0,0,340,0.9,10,0,0,0,0,0,0,0,0,0,0,0,0
2013,1,21,20,0,,7.1,6.6,97,100840,0,0,325,0,0,0,0,0,0,0,250,1.2,10,0,0,0,0,0,0,0,0,0,0,0,0
2013,1,21,21,0,,7,6.5,97,100850,0,0,324,0,0,0,0,0,0,0,250,2.4,10,0,0,0,0,0,0,0,0,0,0,0,0
2013,1,21,22,0,,7.2,6.7,97,100830,0,0,325,0,0,0,0,0,0,0,180,0.7,10,0,0,0,0,0,0,0,0,0,0,0,0
2013,1,21,23,0,,7.3,6.8,97,100820,0,0,326,0,0,0,0,0,0,0,230,2.6,10,0,0,0,0,0,0,0,0,0,0,0,0
2013,1,21,24,0,,6.4,5.9,97,100840,0,0,321,0,0,0,0,0,0,0,270,2.2,10,0,0,0,0,0,0,0,0,0,0,0,0
2013,1,22,1,0,,5.2,4.4,95,100870,0,0,313,0,0,0,0,0,0,0,270,2.2,10,0,0,0,0,0,0,0,0,0,0,0,0
2013,1,22,2,0,,4.4,3.3,93,100920,0,0,308,0,0,0,0,0,0,0,290,1.9,10,0,0,0,0,0,0,0,0,0,0,0,0
2013,1,22,3,0,,4.3,3.2,93,100970,0,0,308,0,0,0,0,0,0,0,290,1.2,10,0,0,0,0,0,0,0,0,0,0,0,0
2013,1,22,4,0,,4,2.8,92,101060,0,0,306,0,0,0,0,0,0,0,320,2.6,10,0,0,0,0,0,0,0,0,0,0,0,0
2013,1,22,5,0,,3.7,2,89,101070,0,0,304,0,0,0,0,0,0,0,320,2.1,10,0,0,0,0,0,0,0,0,0,0,0,0
2013,1,22,6,0,,3.6,1.6,87,101160,0,0,303,0,0,0,0,0,0,0,340,2.1,10,0,0,0,0,0,0,0,0,0,0,0,0
2013,1,22,7,0,,3.4,1.7,89,101190,0,0,302,0,0,0,0,0,0,0,340,1.3,10,0,0,0,0,0,0,0,0,0,0,0,0
2013,1,22,8,0,,3.4,1.5,88,101250,0,0,302,0,0,0,0,0,0,0,360,1.4,10,0,0,0,0,0,0,0,0,0,0,0,0
2013,1,22,9,0,,3.4,1.4,87,101340,0,0,302,31,2,29,3797,105,3748,0,360,1.5,10,0,0,0,0,0,0,0,0,0,0,0,0
2013,1,22,10,0,,3.7,1.5,86,101420,0,0,303,82,23,75,10019,2210,8815,0,320,0.7,10,0,0,0,0,0,0,0,0,0,0,0,0
2013,1,22,11,0,,4.3,1.4,82,101410,0,0,305,132,29,119,15465,2764,13867,0,0,0.3,10,0,0,0,0,0,0,0,0,0,0,0,0
2013,1,22,12,0,,4.6,1,78,101340,0,0,306,168,31,152,19120,3006,17439,0,20,1.9,10,0,0,0,0,0,0,0,0,0,0,0,0
2013,1,22,13,0,,4.9,0.8,75,101300,0,0,307,179,29,162,19863,2792,18499,0,20,1.5,10,0,0,0,0,0,0,0,0,0,0,0,0
2013,1,22,14,0,,4.9,0.6,74,101250,0,0,307,174,29,157,18827,2702,17822,0,360,2.8,10,0,0,0,0,0,0,0,0,0,0,0,0
2013,1,22,15,0,,5.1,1,75,101210,0,0,308,153,31,138,15074,1782,14687,0,50,2.8,10,0,0,0,0,0,0,0,0,0,0,0,0
2013,1,22,16,0,,4.9,1,76,101230,0,0,307,116,33,104,11153,1941,11086,0,50,3.4,10,0,0,0,0,0,0,0,0,0,0,0,0
2013,1,22,17,0,,4.7,1.1,78,101230,0,0,307,60,24,54,0,0,0,0,50,3.1,10,0,0,0,0,0,0,0,0,0,0,0,0
2013,1,22,18,0,,4.1,0.9,80,101210,0,0,304,12,1,11,0,0,0,0,50,2.4,10,0,0,0,0,0,0,0,0,0,0,0,0
2013,1,22,19,0,,4,0.8,80,101260,0,0,303,0,0,0,0,0,0,0,50,2,10,0,0,0,0,0,0,0,0,0,0,0,0
2013,1,22,20,0,,4.1,0.9,80,101290,0,0,304,0,0,0,0,0,0,0,50,1.7,10,0,0,0,0,0,0,0,0,0,0,0,0
2013,1,22,21,0,,4.1,0.9,80,101300,0,0,304,0,0,0,0,0,0,0,50,1,10,0,0,0,0,0,0,0,0,0,0,0,0
2013,1,22,22,0,,4,1.1,82,101310,0,0,304,0,0,0,0,0,0,0,20,1.3,10,0,0,0,0,0,0,0,0,0,0,0,0
2013,1,22,23,0,,3.8,1.3,84,101320,0,0,303,0,0,0,0,0,0,0,0,0.1,10,0,0,0,0,0,0,0,0,0,0,0,0
2013,1,22,24,0,,3.2,1.8,91,101330,0,0,301,0,0,0,0,0,0,0,290,0.8,10,0,0,0,0,0,0,0,0,0,0,0,0
2013,1,23,1,0,,2.8,1.9,94,101300,0,0,300,0,0,0,0,0,0,0,230,0.7,10,0,0,0,0,0,0,0,0,0,0,0,0
2013,1,23,2,0,,2.8,1.9,94,101280,0,0,300,0,0,0,0,0,0,0,270,0.5,10,0,0,0,0,0,0,0,0,0,0,0,0
2013,1,23,3,0,,2.9,2,94,101210,0,0,300,0,0,0,0,0,0,0,360,0.5,10,0,0,0,0,0,0,0,0,0,0,0,0
2013,1,23,4,0,,2.9,2,94,101170,0,0,300,0,0,0,0,0,0,0,0,0.2,10,0,0,0,0,0,0,0,0,0,0,0,0
2013,1,23,5,0,,2.9,2.1,95,101110,0,0,301,0,0,0,0,0,0,0,20,1,10,0,0,0,0,0,0,0,0,0,0,0,0
2013,1,23,6,0,,2.9,2.1,95,101140,0,0,301,0,0,0,0,0,0,0,290,0.6,10,0,0,0,0,0,0,0,0,0,0,0,0
2013,1,23,7,0,,2.9,2.3,96,101150,0,0,301,0,0,0,0,0,0,0,250,0.5,10,0,0,0,0,0,0,0,0,0,0,0,0
2013,1,23,8,0,,2.8,2.2,96,101170,0,0,300,0,0,0,0,0,0,0,230,1.9,10,0,0,0,0,0,0,0,0,0,0,0,0
2013,1,23,9,0,,2.6,2,96,101190,0,0,299,31,2,29,3796,100,3750,0,250,1,10,0,0,0,0,0,0,0,0,0,0,0,0
2013,1,23,10,0,,2.7,1.8,94,101210,0,0,299,76,18,70,9213,1715,8273,0,230,1,10,0,0,0,0,0,0,0,0,0,0,0,0
2013,1,23,11,0,,3,1.9,93,101210,0,0,301,102,14,95,11929,1283,11183,0,200,0.7,10,0,0,0,0,0,0,0,0,0,0,0,0
2013,1,23,12,0,,3.5,2.3,92,101150,0,0,303,138,18,129,15869,1686,14921,0,200,0.7,10,0,0,0,0,0,0,0,0,0,0,0,0
2013,1,23,13,0,,3.6,2.4,92,101050,0,0,304,146,16,136,16497,1083,15964,0,250,1.7,10,0,0,0,0,0,0,0,0,0,0,0,0
2013,1,23,14,0,,3.6,2.8,95,101010,0,0,304,142,16,133,15490,1036,15101,0,230,1.7,10,0,0,0,0,0,0,0,0,0,0,0,0
2013,1,23,15,0,,3.6,2.7,94,101030,0,0,304,119,15,112,12309,717,12151,0,270,1.7,10,0,0,0,0,0,0,0,0,0,0,0,0
2013,1,23,16,0,,3.5,2.1,91,101000,0,0,303,99,20,91,8768,1274,8720,0,270,2,10,0,0,0,0,0,0,0,0,0,0,0,0
2013,1,23,17,0,,3.5,1.5,87,101030,0,0,302,56,19,52,0,0,0,0,270,1.3,10,0,0,0,0,0,0,0,0,0,0,0,0
2013,1,23,18,0,,3.3,1,85,101050,0,0,301,13,1,12,0,0,0,0,270,1,10,0,0,0,0,0,0,0,0,0,0,0,0
2013,1,23,19,0,,3.4,0.9,84,101100,0,0,295,0,0,0,0,0,0,0,290,0.8,9,0,0,0,0,0,0,0,0,0,0,0,0
2013,1,23,20,0,,2.9,0.2,83,101120,0,0,288,0,0,0,0,0,0,0,270,1.4,9,0,0,0,0,0,0,0,0,0,0,0,0
2013,1,23,21,0,,2.2,0,85,101140,0,0,281,0,0,0,0,0,0,0,290,0.9,8,0,0,0,0,0,0,0,0,0,0,0,0
2013,1,23,22,0,,1.5,-0.1,89,101120,0,0,280,0,0,0,0,0,0,0,270,0.8,8,0,0,0,0,0,0,0,0,0,0,0,0
2013,1,23,23,0,,2.1,0,86,101100,0,0,284,0,0,0,0,0,0,0,230,1.1,9,0,0,0,0,0,0,0,0,0,0,0,0
2013,1,23,24,0,,1.4,0,91,101100,0,0,284,0,0,0,0,0,0,0,160,0.9,9,0,0,0,0,0,0,0,0,0,0,0,0
2013,1,24,1,0,,0.8,-0.6,90,101020,0,0,267,0,0,0,0,0,0,0,200,1.3,6,0,0,0,0,0,0,0,0,0,0,0,0
2013,1,24,2,0,,0.4,-1.3,88,101060,0,0,259,0,0,0,0,0,0,0,230,1.8,3,0,0,0,0,0,0,0,0,0,0,0,0
2013,1,24,3,0,,0.1,-1.3,90,101080,0,0,247,0,0,0,0,0,0,0,200,0.9,0,0,0,0,0,0,0,0,0,0,0,0,0
2013,1,24,4,0,,-0.2,-1.6,90,101010,0,0,246,0,0,0,0,0,0,0,90,1,0,0,0,0,0,0,0,0,0,0,0,0,0
2013,1,24,5,0,,0.1,-1.3,90,100970,0,0,267,0,0,0,0,0,0,0,0,0.3,7,0,0,0,0,0,0,0,0,0,0,0,0
2013,1,24,6,0,,0.2,-1.4,89,100950,0,0,285,0,0,0,0,0,0,0,160,1.1,10,0,0,0,0,0,0,0,0,0,0,0,0
2013,1,24,7,0,,0.9,-1.1,86,100960,0,0,288,0,0,0,0,0,0,0,180,0.5,10,0,0,0,0,0,0,0,0,0,0,0,0
2013,1,24,8,0,,1,-0.9,87,100930,0,0,289,0,0,0,0,0,0,0,270,1,10,0,0,0,0,0,0,0,0,0,0,0,0
2013,1,24,9,0,,0.7,-1.2,87,100930,0,0,287,34,3,31,4069,127,4010,0,270,0.8,10,0,0,0,0,0,0,0,0,0,0,0,0
2013,1,24,10,0,,1.3,-1.1,84,100980,0,0,290,79,20,73,9586,1892,8543,0,0,0.3,10,0,0,0,0,0,0,0,0,0,0,0,0
2013,1,24,11,0,,2.8,-0.6,78,100950,0,0,297,135,30,122,15823,2866,14147,0,0,0.3,10,0,0,0,0,0,0,0,0,0,0,0,0
2013,1,24,12,0,,3.3,-0.5,76,100890,0,0,299,185,39,164,20935,3797,18786,0,230,1.4,10,0,0,0,0,0,0,0,0,0,0,0,0
2013,1,24,13,0,,3.4,0.2,80,100830,0,0,300,194,35,173,21425,3378,19749,0,250,2.4,10,0,0,0,0,0,0,0,0,0,0,0,0
2013,1,24,14,0,,3,1,87,100790,0,0,299,152,19,141,16484,1285,15997,0,250,2.4,10,0,0,0,0,0,0,0,0,0,0,0,0
2013,1,24,15,0,,3,1.8,92,100790,0,0,301,123,16,115,12705,800,12525,0,200,1.6,10,0,0,0,0,0,0,0,0,0,0,0,0
2013,1,24,16,0,,3.5,1.5,87,100780,0,0,302,96,18,89,8626,1009,8585,0,200,1,10,0,0,0,0,0,0,0,0,0,0,0,0
2013,1,24,17,0,,3.1,0.4,83,100820,0,0,299,69,32,61,0,0,0,0,250,3.4,10,0,0,0,0,0,0,0,0,0,0,0,0
2013,1,24,18,0,,2.6,-1.2,76,100840,0,0,295,15,1,14,0,0,0,0,290,1.9,10,0,0,0,0,0,0,0,0,0,0,0,0
2013,1,24,19,0,,2.3,-2,73,100920,0,0,281,0,0,0,0,0,0,0,340,2.2,9,0,0,0,0,0,0,0,0,0,0,0,0
2013,1,24,20,0,,1.5,-3.1,71,101000,0,0,270,0,0,0,0,0,0,0,360,2.6,7,0,0,0,0,0,0,0,0,0,0,0,0
2013,1,24,21,0,,0.9,-6.2,59,101070,0,0,264,0,0,0,0,0,0,0,360,3.1,7,0,0,0,0,0,0,0,0,0,0,0,0
2013,1,24,22,0,,0.1,-6.5,61,101150,0,0,260,0,0,0,0,0,0,0,360,4.1,7,0,0,0,0,0,0,0,0,0,0,0,0
2013,1,24,23,0,,-0.4,-7,61,101210,0,0,259,0,0,0,0,0,0,0,20,3.3,7,0,0,0,0,0,0,0,0,0,0,0,0
2013,1,24,24,0,,-0.9,-7.2,62,101230,0,0,257,0,0,0,0,0,0,0,360,4,7,0,0,0,0,0,0,0,0,0,0,0,0
2013,1,25,1,0,,-1.4,-6.3,69,101280,0,0,257,0,0,0,0,0,0,0,20,3.5,8,0,0,0,0,0,0,0,0,0,0,0,0
2013,1,25,2,0,,-2,-5.1,79,101320,0,0,259,0,0,0,0,0,0,0,20,2.1,8,0,0,0,0,0,0,0,0,0,0,0,0
2013,1,25,3,0,,-2.2,-6,75,101370,0,0,253,0,0,0,0,0,0,0,20,3.9,7,0,0,0,0,0,0,0,0,0,0,0,0
2013,1,25,4,0,,-2.5,-7.2,70,101330,0,0,248,0,0,0,0,0,0,0,360,2.1,6,0,0,0,0,0,0,0,0,0,0,0,0
2013,1,25,5,0,,-3,-8,68,101330,0,0,252,0,0,0,0,0,0,0,20,1.3,8,0,0,0,0,0,0,0,0,0,0,0,0
2013,1,25,6,0,,-3.3,-7.4,73,101330,0,0,247,0,0,0,0,0,0,0,290,1.1,7,0,0,0,0,0,0,0,0,0,0,0,0
2013,1,25,7,0,,-3.3,-7.6,72,101350,0,0,247,0,0,0,0,0,0,0,20,1.2,7,0,0,0,0,0,0,0,0,0,0,0,0
2013,1,25,8,0,,-3.1,-8.1,68,101380,0,0,247,8,1,7,985,38,972,0,20,2.1,7,0,0,0,0,0,0,0,0,0,0,0,0
2013,1,25,9,0,,-2.2,-8.3,63,101410,0,0,248,96,296,51,22345,29508,8480,0,20,2.9,6,0,0,0,0,0,0,0,0,0,0,0,0
2013,1,25,10,0,,-1.8,-8.3,61,101430,0,0,249,215,331,109,33471,33261,15035,0,340,2.2,6,0,0,0,0,0,0,0,0,0,0,0,0
2013,1,25,11,0,,-0.8,-8,58,101460,0,0,253,325,374,155,42344,37706,20160,0,320,2.8,6,0,0,0,0,0,0,0,0,0,0,0,0
2013,1,25,12,0,,-0.3,-10.2,47,101440,0,0,253,389,331,209,43647,34250,24133,0,320,2.7,6,0,0,0,0,0,0,0,0,0,0,0,0
2013,1,25,13,0,,-0.8,-9.9,50,101390,0,0,249,446,425,198,45046,41746,24184,0,340,2.9,5,0,0,0,0,0,0,0,0,0,0,0,0
2013,1,25,14,0,,-1.7,-7.6,64,101360,0,0,257,285,108,223,28801,10348,24836,0,340,2.7,8,0,0,0,0,0,0,0,0,0,0,0,0
2013,1,25,15,0,,-1.1,-7.8,60,101330,0,0,252,332,260,200,26475,20042,21907,0,270,3,6,0,0,0,0,0,0,0,0,0,0,0,0
2013,1,25,16,0,,-0.9,-8.3,57,101310,0,0,253,253,280,142,14688,5632,14437,0,340,2,6,0,0,0,0,0,0,0,0,0,0,0,0
2013,1,25,17,0,,-2.2,-8.7,61,101300,0,0,245,169,379,76,0,0,0,0,20,3.4,5,0,0,0,0,0,0,0,0,0,0,0,0
2013,1,25,18,0,,-3.2,-8.8,65,101320,0,0,237,51,25,26,0,0,0,0,360,2.8,3,0,0,0,0,0,0,0,0,0,0,0,0
2013,1,25,19,0,,-3.7,-8.5,69,101340,0,0,239,0,0,0,0,0,0,0,20,2.8,5,0,0,0,0,0,0,0,0,0,0,0,0
2013,1,25,20,0,,-4.1,-9.3,67,101370,0,0,240,0,0,0,0,0,0,0,320,2.3,6,0,0,0,0,0,0,0,0,0,0,0,0
2013,1,25,21,0,,-3.8,-9.2,66,101410,0,0,247,0,0,0,0,0,0,0,360,0.7,8,0,0,0,0,0,0,0,0,0,0,0,0
2013,1,25,22,0,,-4,-9.4,66,101390,0,0,246,0,0,0,0,0,0,0,360,1.3,8,0,0,0,0,0,0,0,0,0,0,0,0
2013,1,25,23,0,,-3.8,-9,67,101400,0,0,248,0,0,0,0,0,0,0,20,0.8,8,0,0,0,0,0,0,0,0,0,0,0,0
2013,1,25,24,0,,-4,-8.6,70,101380,0,0,247,0,0,0,0,0,0,0,340,0.5,8,0,0,0,0,0,0,0,0,0,0,0,0
2013,1,26,1,0,,-3.9,-7.5,76,101310,0,0,249,0,0,0,0,0,0,0,290,1.2,8,0,0,0,0,0,0,0,0,0,0,0,0
2013,1,26,2,0,,-4,-6.7,81,101330,0,0,250,0,0,0,0,0,0,0,290,1.5,8,0,0,0,0,0,0,0,0,0,0,0,0
2013,1,26,3,0,,-3.9,-6.5,82,101290,0,0,250,0,0,0,0,0,0,0,320,0.5,8,0,0,0,0,0,0,0,0,0,0,0,0
2013,1,26,4,0,,-3.8,-5.9,85,101270,0,0,251,0,0,0,0,0,0,0,360,0.7,8,0,0,0,0,0,0,0,0,0,0,0,0
2013,1,26,5,0,,-4.3,-5.9,88,101240,0,0,243,0,0,0,0,0,0,0,20,1.8,6,0,0,0,0,0,0,0,0,0,0,0,0
2013,1,26,6,0,,-4.2,-7.8,76,101290,0,0,244,0,0,0,0,0,0,0,360,1.9,7,0,0,0,0,0,0,0,0,0,0,0,0
2013,1,26,7,0,,-4.6,-8.5,74,101360,0,0,241,0,0,0,0,0,0,0,50,2.3,7,0,0,0,0,0,0,0,0,0,0,0,0
2013,1,26,8,0,,-5.2,-10,69,101420,0,0,237,9,2,8,1015,133,969,0,50,3.8,7,0,0,0,0,0,0,0,0,0,0,0,0
2013,1,26,9,0,,-5.2,-11.3,62,101440,0,0,228,114,476,41,28864,47495,6404,0,70,3.2,3,0,0,0,0,0,0,0,0,0,0,0,0
2013,1,26,10,0,,-3.6,-10.6,58,101490,0,0,234,262,570,78,43194,57204,11299,0,20,3.2,3,0,0,0,0,0,0,0,0,0,0,0,0
2013,1,26,11,0,,-2.5,-10.5,54,101520,0,0,236,400,659,100,53067,65962,14027,0,360,2.5,2,0,0,0,0,0,0,0,0,0,0,0,0
2013,1,26,12,0,,-2.1,-11.6,48,101500,0,0,239,476,627,133,54384,62612,18481,0,340,2.9,3,0,0,0,0,0,0,0,0,0,0,0,0
2013,1,26,13,0,,-1.7,-10.7,50,101460,0,0,241,505,599,153,49412,59212,19597,0,360,4.1,3,0,0,0,0,0,0,0,0,0,0,0,0
2013,1,26,14,0,,-0.1,-9.8,48,101410,0,0,250,475,542,164,39665,50381,20173,0,290,2.4,4,0,0,0,0,0,0,0,0,0,0,0,0
2013,1,26,15,0,,-0.7,-10.9,46,101400,0,0,245,434,601,128,26125,46458,15369,0,320,2.3,3,0,0,0,0,0,0,0,0,0,0,0,0
2013,1,26,16,0,,-1.2,-15,34,101430,0,0,239,354,684,80,9345,13372,8703,0,20,3.9,2,0,0,0,0,0,0,0,0,0,0,0,0
2013,1,26,17,0,,-1.5,-13,41,101470,0,0,231,204,604,55,0,0,0,0,20,3.6,0,0,0,0,0,0,0,0,0,0,0,0,0
2013,1,26,18,0,,-2.9,-11.8,50,101530,0,0,236,56,32,24,0,0,0,0,20,3.5,3,0,0,0,0,0,0,0,0,0,0,0,0
2013,1,26,19,0,,-3.5,-11.2,55,101590,0,0,234,0,0,0,0,0,0,0,20,2.4,3,0,0,0,0,0,0,0,0,0,0,0,0
2013,1,26,20,0,,-3.8,-10.6,59,101600,0,0,234,0,0,0,0,0,0,0,20,2,3,0,0,0,0,0,0,0,0,0,0,0,0
2013,1,26,21,0,,-4,-10.4,61,101630,0,0,233,0,0,0,0,0,0,0,20,1.8,3,0,0,0,0,0,0,0,0,0,0,0,0
2013,1,26,22,0,,-3.9,-9.9,63,101660,0,0,236,0,0,0,0,0,0,0,20,1.1,4,0,0,0,0,0,0,0,0,0,0,0,0
2013,1,26,23,0,,-3.3,-9.7,61,101690,0,0,241,0,0,0,0,0,0,0,360,0.6,6,0,0,0,0,0,0,0,0,0,0,0,0
2013,1,26,24,0,,-3.2,-9.6,61,101720,0,0,245,0,0,0,0,0,0,0,340,0.7,7,0,0,0,0,0,0,0,0,0,0,0,0
2013,1,27,1,0,,-3,-9.4,61,101710,0,0,247,0,0,0,0,0,0,0,290,0.9,7,0,0,0,0,0,0,0,0,0,0,0,0
2013,1,27,2,0,,-2.6,-9.3,60,101710,0,0,250,0,0,0,0,0,0,0,340,1,8,0,0,0,0,0,0,0,0,0,0,0,0
2013,1,27,3,0,,-2.7,-9.4,60,101730,0,0,251,0,0,0,0,0,0,0,360,2.1,8,0,0,0,0,0,0,0,0,0,0,0,0
2013,1,27,4,0,,-2.9,-9.1,62,101700,0,0,251,0,0,0,0,0,0,0,20,2.3,8,0,0,0,0,0,0,0,0,0,0,0,0
2013,1,27,5,0,,-3.1,-8.7,65,101690,0,0,244,0,0,0,0,0,0,0,20,1.2,6,0,0,0,0,0,0,0,0,0,0,0,0
2013,1,27,6,0,,-3.2,-7.9,70,101670,0,0,251,0,0,0,0,0,0,0,360,0.9,8,0,0,0,0,0,0,0,0,0,0,0,0
2013,1,27,7,0,,-3.7,-6.4,81,101690,0,0,251,0,0,0,0,0,0,0,340,1.2,8,0,0,0,0,0,0,0,0,0,0,0,0
2013,1,27,8,0,,-4.2,-6.3,85,101690,0,0,245,7,1,7,930,24,921,0,200,0.6,7,0,0,0,0,0,0,0,0,0,0,0,0
2013,1,27,9,0,,-2.5,-5.6,79,101700,0,0,256,69,124,50,13532,12124,7762,0,270,0.9,8,0,0,0,0,0,0,0,0,0,0,0,0
2013,1,27,10,0,,-2,-4.5,83,101720,0,0,260,153,120,114,21130,12308,14226,0,320,0.9,8,0,0,0,0,0,0,0,0,0,0,0,0
2013,1,27,11,0,,-1.7,-4.7,80,101740,0,0,260,236,133,175,28635,13668,20496,0,290,1.7,8,0,0,0,0,0,0,0,0,0,0,0,0
2013,1,27,12,0,,-0.8,-4.5,76,101730,0,0,260,330,189,226,37076,19228,25978,0,270,3.2,7,0,0,0,0,0,0,0,0,0,0,0,0
2013,1,27,13,0,,-1.3,-6.2,69,101690,0,0,256,365,196,249,38045,19556,28123,0,320,3.9,7,0,0,0,0,0,0,0,0,0,0,0,0
2013,1,27,14,0,,-1.3,-4.3,80,101640,0,0,262,281,101,223,28683,9566,24945,0,320,1.9,8,0,0,0,0,0,0,0,0,0,0,0,0
2013,1,27,15,0,,-1.5,-5.8,72,101650,0,0,256,286,158,205,25805,13831,22553,0,360,4.1,7,0,0,0,0,0,0,0,0,0,0,0,0
2013,1,27,16,0,,-1.1,-6.6,66,101680,0,0,256,234,203,152,15683,4701,15441,0,320,2.4,7,0,0,0,0,0,0,0,0,0,0,0,0
2013,1,27,17,0,,-1.6,-6.3,70,101700,0,0,252,151,276,82,0,0,0,0,340,1.6,6,0,0,0,0,0,0,0,0,0,0,0,0
2013,1,27,18,0,,-2,-6.9,69,101700,0,0,250,44,19,25,0,0,0,0,340,1.4,6,0,0,0,0,0,0,0,0,0,0,0,0
2013,1,27,19,0,,-2.4,-7.5,68,101760,0,0,248,0,0,0,0,0,0,0,20,3,6,0,0,0,0,0,0,0,0,0,0,0,0
2013,1,27,20,0,,-2.4,-7.8,66,101790,0,0,247,0,0,0,0,0,0,0,360,2.3,6,0,0,0,0,0,0,0,0,0,0,0,0
2013,1,27,21,0,,-2.2,-8.5,62,101830,0,0,247,0,0,0,0,0,0,0,360,1.8,6,0,0,0,0,0,0,0,0,0,0,0,0
2013,1,27,22,0,,-2.6,-8.6,63,101850,0,0,242,0,0,0,0,0,0,0,270,0.6,4,0,0,0,0,0,0,0,0,0,0,0,0
2013,1,27,23,0,,-3.1,-8.9,64,101860,0,0,235,0,0,0,0,0,0,0,340,0.8,2,0,0,0,0,0,0,0,0,0,0,0,0
2013,1,27,24,0,,-3.1,-8.9,64,101870,0,0,228,0,0,0,0,0,0,0,320,0.5,0,0,0,0,0,0,0,0,0,0,0,0,0
2013,1,28,1,0,,-3.8,-8.8,68,101830,0,0,232,0,0,0,0,0,0,0,20,1,2,0,0,0,0,0,0,0,0,0,0,0,0
2013,1,28,2,0,,-3.5,-8.5,68,101850,0,0,237,0,0,0,0,0,0,0,20,0.6,3,0,0,0,0,0,0,0,0,0,0,0,0
2013,1,28,3,0,,-3.6,-8.2,70,101870,0,0,240,0,0,0,0,0,0,0,90,0.6,5,0,0,0,0,0,0,0,0,0,0,0,0
2013,1,28,4,0,,-3.8,-7.9,73,101850,0,0,242,0,0,0,0,0,0,0,50,0.9,6,0,0,0,0,0,0,0,0,0,0,0,0
2013,1,28,5,0,,-3.9,-8.2,72,101800,0,0,230,0,0,0,0,0,0,0,340,0.5,1,0,0,0,0,0,0,0,0,0,0,0,0
2013,1,28,6,0,,-4.8,-7.4,82,101830,0,0,224,0,0,0,0,0,0,0,250,1.5,0,0,0,0,0,0,0,0,0,0,0,0,0
2013,1,28,7,0,,-5,-7.2,84,101880,0,0,223,0,0,0,0,0,0,0,250,1.1,0,0,0,0,0,0,0,0,0,0,0,0,0
2013,1,28,8,0,,-5.2,-7,87,101940,0,0,227,15,5,10,1378,480,1210,0,0,0.2,1,0,0,0,0,0,0,0,0,0,0,0,0
2013,1,28,9,0,,-3.7,-6.6,80,102000,0,0,228,119,487,41,29863,48798,6483,0,70,0.9,0,0,0,0,0,0,0,0,0,0,0,0,0
2013,1,28,10,0,,-1.4,-7.1,65,102040,0,0,236,277,628,71,46198,63327,10457,0,0,0.3,0,0,0,0,0,0,0,0,0,0,0,0,0
2013,1,28,11,0,,0.5,-6.6,59,102070,0,0,242,419,709,91,55737,71386,12967,0,290,0.6,0,0,0,0,0,0,0,0,0,0,0,0,0
2013,1,28,12,0,,1.9,-5.7,57,102050,0,0,248,504,700,117,57601,70256,16783,0,290,1.1,0,0,0,0,0,0,0,0,0,0,0,0,0
2013,1,28,13,0,,5,-5.4,47,101950,0,0,260,570,776,108,54826,76540,15699,0,340,0.8,0,0,0,0,0,0,0,0,0,0,0,0,0
2013,1,28,14,0,,4.3,-5.2,50,101880,0,0,269,506,616,147,41258,57332,18640,0,340,1.6,3,0,0,0,0,0,0,0,0,0,0,0,0
2013,1,28,15,0,,4.9,-4.9,49,101850,0,0,276,405,473,160,26769,36637,18018,0,50,1.1,5,0,0,0,0,0,0,0,0,0,0,0,0
2013,1,28,16,0,,5.5,-4.1,50,101810,0,0,275,325,532,108,11655,14427,10863,0,20,1.4,3,0,0,0,0,0,0,0,0,0,0,0,0
2013,1,28,17,0,,4.6,-3.9,54,101780,0,0,276,176,371,81,0,0,0,0,90,1,5,0,0,0,0,0,0,0,0,0,0,0,0
2013,1,28,18,0,,3.8,-3.9,57,101790,0,0,275,46,20,26,0,0,0,0,140,0.5,6,0,0,0,0,0,0,0,0,0,0,0,0
2013,1,28,19,0,,2.7,-3.6,63,101810,0,0,268,0,0,0,0,0,0,0,160,1.7,5,0,0,0,0,0,0,0,0,0,0,0,0
2013,1,28,20,0,,1.5,-3.5,69,101830,0,0,262,0,0,0,0,0,0,0,140,0.7,4,0,0,0,0,0,0,0,0,0,0,0,0
2013,1,28,21,0,,1.1,-3.3,72,101870,0,0,259,0,0,0,0,0,0,0,110,1.6,3,0,0,0,0,0,0,0,0,0,0,0,0
2013,1,28,22,0,,1.4,-3.1,72,101890,0,0,257,0,0,0,0,0,0,0,140,0.8,2,0,0,0,0,0,0,0,0,0,0,0,0
2013,1,28,23,0,,0.4,-3.1,77,101870,0,0,250,0,0,0,0,0,0,0,70,1.4,1,0,0,0,0,0,0,0,0,0,0,0,0
2013,1,28,24,0,,0.1,-2.9,80,101850,0,0,245,0,0,0,0,0,0,0,110,0.8,0,0,0,0,0,0,0,0,0,0,0,0,0
2013,1,29,1,0,,-0.4,-3.2,81,101840,0,0,243,0,0,0,0,0,0,0,0,0.2,0,0,0,0,0,0,0,0,0,0,0,0,0
2013,1,29,2,0,,-0.8,-3,85,101840,0,0,242,0,0,0,0,0,0,0,180,0.5,0,0,0,0,0,0,0,0,0,0,0,0,0
2013,1,29,3,0,,-1.1,-2.9,87,101860,0,0,241,0,0,0,0,0,0,0,160,0.5,0,0,0,0,0,0,0,0,0,0,0,0,0
2013,1,29,4,0,,-1.2,-3,87,101840,0,0,241,0,0,0,0,0,0,0,70,0.8,0,0,0,0,0,0,0,0,0,0,0,0,0
2013,1,29,5,0,,-1.7,-3.2,89,101840,0,0,239,0,0,0,0,0,0,0,0,0.3,0,0,0,0,0,0,0,0,0,0,0,0,0
2013,1,29,6,0,,-1.8,-3,91,101820,0,0,255,0,0,0,0,0,0,0,0,0.2,6,0,0,0,0,0,0,0,0,0,0,0,0
2013,1,29,7,0,,-2,-3.2,91,101840,0,0,254,0,0,0,0,0,0,0,0,0.3,6,0,0,0,0,0,0,0,0,0,0,0,0
2013,1,29,8,0,,-1.9,-3.1,91,101860,0,0,258,9,1,8,1092,39,1078,0,0,0,7,0,0,0,0,0,0,0,0,0,0,0,0
2013,1,29,9,0,,-0.3,-2.3,86,101890,0,0,264,80,171,52,16187,16710,8126,0,250,0.7,7,0,0,0,0,0,0,0,0,0,0,0,0
2013,1,29,10,0,,1.6,-1.6,79,101920,0,0,269,218,341,106,34113,33976,14817,0,230,0.8,6,0,0,0,0,0,0,0,0,0,0,0,0
2013,1,29,11,0,,5,-1,65,101940,0,0,283,347,424,150,45403,42303,19899,0,50,0.5,6,0,0,0,0,0,0,0,0,0,0,0,0
2013,1,29,12,0,,7.2,-0.5,58,101910,0,0,292,435,462,177,49628,45859,22808,0,20,0.6,6,0,0,0,0,0,0,0,0,0,0,0,0
2013,1,29,13,0,,8.9,0.8,57,101850,0,0,298,497,543,172,49260,52773,22077,0,200,1.7,5,0,0,0,0,0,0,0,0,0,0,0,0
2013,1,29,14,0,,10.4,1.7,55,101790,0,0,308,456,450,193,39185,41815,22528,0,230,3.1,6,0,0,0,0,0,0,0,0,0,0,0,0
2013,1,29,15,0,,9.1,0.7,56,101780,0,0,305,325,217,211,27430,16755,23365,0,250,2.9,7,0,0,0,0,0,0,0,0,0,0,0,0
2013,1,29,16,0,,10.1,0.4,51,101760,0,0,309,258,258,152,16108,6539,15726,0,200,2.7,7,0,0,0,0,0,0,0,0,0,0,0,0
2013,1,29,17,0,,8.9,0,54,101730,0,0,304,140,195,89,0,0,0,0,250,1.7,7,0,0,0,0,0,0,0,0,0,0,0,0
2013,1,29,18,0,,7.9,-0.1,57,101750,0,0,296,47,21,26,0,0,0,0,230,0.9,6,0,0,0,0,0,0,0,0,0,0,0,0
2013,1,29,19,0,,7,0.4,63,101780,0,0,293,0,0,0,0,0,0,0,140,1.2,6,0,0,0,0,0,0,0,0,0,0,0,0
2013,1,29,20,0,,6.1,0.6,68,101820,0,0,289,0,0,0,0,0,0,0,110,0.5,6,0,0,0,0,0,0,0,0,0,0,0,0
2013,1,29,21,0,,5.8,0.5,69,101850,0,0,288,0,0,0,0,0,0,0,140,0.7,6,0,0,0,0,0,0,0,0,0,0,0,0
2013,1,29,22,0,,5.1,0.2,71,101890,0,0,285,0,0,0,0,0,0,0,160,0.9,6,0,0,0,0,0,0,0,0,0,0,0,0
2013,1,29,23,0,,4.7,0.4,74,101910,0,0,283,0,0,0,0,0,0,0,0,0.1,6,0,0,0,0,0,0,0,0,0,0,0,0
2013,1,29,24,0,,4.1,0.4,77,101950,0,0,281,0,0,0,0,0,0,0,90,0.5,6,0,0,0,0,0,0,0,0,0,0,0,0
2013,1,30,1,0,,3.4,0.2,80,101970,0,0,273,0,0,0,0,0,0,0,70,0.5,4,0,0,0,0,0,0,0,0,0,0,0,0
2013,1,30,2,0,,2.6,0.1,84,101990,0,0,266,0,0,0,0,0,0,0,0,0.3,2,0,0,0,0,0,0,0,0,0,0,0,0
2013,1,30,3,0,,1.9,0.1,88,102010,0,0,255,0,0,0,0,0,0,0,160,0.5,0,0,0,0,0,0,0,0,0,0,0,0,0
2013,1,30,4,0,,1.1,-0.3,90,102010,0,0,251,0,0,0,0,0,0,0,0,0,0,0,0,0,0,0,0,0,0,0,0,0,0
2013,1,30,5,0,,1.1,-0.2,91,102020,0,0,252,0,0,0,0,0,0,0,180,0.6,0,0,0,0,0,0,0,0,0,0,0,0,0
2013,1,30,6,0,,0.7,-0.4,92,102030,0,0,250,0,0,0,0,0,0,0,0,0.1,0,0,0,0,0,0,0,0,0,0,0,0,0
2013,1,30,7,0,,0.7,-0.3,93,102090,0,0,250,0,0,0,0,0,0,0,70,0.6,0,0,0,0,0,0,0,0,0,0,0,0,0
2013,1,30,8,0,,0.4,-0.6,93,102130,0,0,249,17,6,10,1481,546,1287,0,0,0.3,0,0,0,0,0,0,0,0,0,0,0,0,0
2013,1,30,9,0,,1.5,-0.2,88,102190,0,0,253,119,457,45,29265,45895,6973,0,230,1.3,0,0,0,0,0,0,0,0,0,0,0,0,0
2013,1,30,10,0,,3.7,0.3,79,102220,0,0,261,272,575,80,44798,58014,11642,0,200,0.7,0,0,0,0,0,0,0,0,0,0,0,0,0
2013,1,30,11,0,,6.6,1.1,68,102230,0,0,273,415,670,101,55185,67548,14206,0,0,0.3,0,0,0,0,0,0,0,0,0,0,0,0,0
2013,1,30,12,0,,9.3,1.6,59,102140,0,0,284,532,767,102,59822,76964,14509,0,320,0.7,0,0,0,0,0,0,0,0,0,0,0,0,0
2013,1,30,13,0,,10.8,2.6,57,102050,0,0,291,565,739,120,54809,72351,17257,0,270,1.5,0,0,0,0,0,0,0,0,0,0,0,0,0
2013,1,30,14,0,,11.9,2.6,53,102010,0,0,296,543,707,125,43732,65319,17459,0,230,2.1,0,0,0,0,0,0,0,0,0,0,0,0,0
2013,1,30,15,0,,12.4,1.6,48,101940,0,0,303,461,642,123,27700,49732,15450,0,50,0.8,1,0,0,0,0,0,0,0,0,0,0,0,0
2013,1,30,16,0,,13.2,1.8,46,101970,0,0,314,354,629,94,11244,18843,10077,0,250,2,3,0,0,0,0,0,0,0,0,0,0,0,0
2013,1,30,17,0,,12.2,1.7,49,102010,0,0,314,186,406,80,0,0,0,0,250,1.1,5,0,0,0,0,0,0,0,0,0,0,0,0
2013,1,30,18,0,,10.7,2.2,56,102060,0,0,308,52,28,24,0,0,0,0,200,0.8,5,0,0,0,0,0,0,0,0,0,0,0,0
2013,1,30,19,0,,10,2.8,61,102110,0,0,305,0,0,0,0,0,0,0,180,2.2,5,0,0,0,0,0,0,0,0,0,0,0,0
2013,1,30,20,0,,9,1.4,59,102150,0,0,299,0,0,0,0,0,0,0,160,2.6,5,0,0,0,0,0,0,0,0,0,0,0,0
2013,1,30,21,0,,8.6,1.4,61,102210,0,0,298,0,0,0,0,0,0,0,230,1.6,5,0,0,0,0,0,0,0,0,0,0,0,0
2013,1,30,22,0,,8.1,1.4,63,102210,0,0,296,0,0,0,0,0,0,0,200,1.2,5,0,0,0,0,0,0,0,0,0,0,0,0
2013,1,30,23,0,,7.4,1.4,66,102210,0,0,293,0,0,0,0,0,0,0,50,1.3,5,0,0,0,0,0,0,0,0,0,0,0,0
2013,1,30,24,0,,6.5,1.2,69,102160,0,0,289,0,0,0,0,0,0,0,20,1.8,5,0,0,0,0,0,0,0,0,0,0,0,0
2013,1,31,1,0,,6,1.3,72,102160,0,0,288,0,0,0,0,0,0,0,0,0.2,5,0,0,0,0,0,0,0,0,0,0,0,0
2013,1,31,2,0,,5.4,1.3,75,102170,0,0,286,0,0,0,0,0,0,0,360,0.9,6,0,0,0,0,0,0,0,0,0,0,0,0
2013,1,31,3,0,,5.1,1,75,102190,0,0,285,0,0,0,0,0,0,0,50,1.9,6,0,0,0,0,0,0,0,0,0,0,0,0
2013,1,31,4,0,,5.8,0.3,68,102180,0,0,291,0,0,0,0,0,0,0,290,0.9,7,0,0,0,0,0,0,0,0,0,0,0,0
2013,1,31,5,0,,5.3,0.4,71,102190,0,0,293,0,0,0,0,0,0,0,230,0.5,8,0,0,0,0,0,0,0,0,0,0,0,0
2013,1,31,6,0,,5.4,0,68,102180,0,0,293,0,0,0,0,0,0,0,140,0.6,8,0,0,0,0,0,0,0,0,0,0,0,0
2013,1,31,7,0,,4.8,0,71,102190,0,0,286,0,0,0,0,0,0,0,50,1.8,7,0,0,0,0,0,0,0,0,0,0,0,0
2013,1,31,8,0,,5.4,0.3,70,102280,0,0,294,9,1,8,1104,32,1092,0,0,0.3,8,0,0,0,0,0,0,0,0,0,0,0,0
2013,1,31,9,0,,6.4,0.4,66,102260,0,0,298,80,152,54,15679,14841,8420,0,20,1.6,8,0,0,0,0,0,0,0,0,0,0,0,0
2013,1,31,10,0,,7.9,0.8,61,102270,0,0,305,179,171,122,25244,17282,15303,0,50,1.4,8,0,0,0,0,0,0,0,0,0,0,0,0
2013,1,31,11,0,,10,1.8,57,102260,0,0,315,275,190,186,34082,19215,22351,0,340,0.6,8,0,0,0,0,0,0,0,0,0,0,0,0
2013,1,31,12,0,,11.7,2.6,54,102180,0,0,324,345,197,234,38749,19654,27099,0,20,1.4,8,0,0,0,0,0,0,0,0,0,0,0,0
2013,1,31,13,0,,13.8,1,42,102090,0,0,332,394,226,257,40956,22209,29340,0,20,1.2,8,0,0,0,0,0,0,0,0,0,0,0,0
2013,1,31,14,0,,14.4,-0.5,36,101970,0,0,333,380,218,251,36466,20338,28206,0,200,1.9,8,0,0,0,0,0,0,0,0,0,0,0,0
2013,1,31,15,0,,14,-2.4,32,101890,0,0,336,284,139,210,26244,12224,23187,0,160,3.8,9,0,0,0,0,0,0,0,0,0,0,0,0
2013,1,31,16,0,,13.9,-2.9,31,101870,0,0,335,199,112,152,16749,7679,16246,0,160,2.1,9,0,0,0,0,0,0,0,0,0,0,0,0
2013,1,31,17,0,,13.2,-0.4,39,101880,0,0,344,90,50,77,0,0,0,0,160,2.7,10,0,0,0,0,0,0,0,0,0,0,0,0
2013,1,31,18,0,,12.1,0.5,45,101900,0,0,340,23,2,20,0,0,0,0,180,1.4,10,0,0,0,0,0,0,0,0,0,0,0,0
2013,1,31,19,0,,12.1,1.1,47,101900,0,0,341,0,0,0,0,0,0,0,110,1.9,10,0,0,0,0,0,0,0,0,0,0,0,0
2013,1,31,20,0,,11.2,2.7,56,101860,0,0,338,0,0,0,0,0,0,0,360,2.2,10,0,0,0,0,0,0,0,0,0,0,0,0
2013,1,31,21,0,,11.1,4,62,101800,0,0,339,0,0,0,0,0,0,0,360,2.3,10,0,0,0,0,0,0,0,0,0,0,0,0
2013,1,31,22,0,,10.5,5.4,71,101750,0,0,338,0,0,0,0,0,0,0,360,1.2,10,0,0,0,0,0,0,0,0,0,0,0,0
2013,1,31,23,0,,9.7,7.1,84,101720,0,0,337,0,0,0,0,0,0,0,340,1.4,10,0,0,0,0,0,0,0,0,0,0,0,0
2013,1,31,24,0,,9.5,7.6,88,101680,0,0,337,0,0,0,0,0,0,0,360,1.4,10,0,0,0,0,0,0,0,0,0,0,0,0
2006,2,1,1,0,,4.6,4.1,96,101300,0,0,310,0,0,0,0,0,0,0,290,0.9,10,0,0,0,0,0,0,0,0,0,0,0,0
2006,2,1,2,0,,4.5,3.8,96,101300,0,0,310,0,0,0,0,0,0,0,250,2.3,10,0,0,0,0,0,0,0,0,0,0,0,0
2006,2,1,3,0,,3.9,3.6,96,101300,0,0,307,0,0,0,0,0,0,0,270,3.7,10,0,0,0,0,0,0,0,0,0,0,0,0
2006,2,1,4,0,,3.5,3.1,95,101260,0,0,305,0,0,0,0,0,0,0,290,1.4,10,0,0,0,0,0,0,0,0,0,0,0,0
2006,2,1,5,0,,3.2,2.6,93,101230,0,0,303,0,0,0,0,0,0,0,290,1.2,10,0,0,0,0,0,0,0,0,0,0,0,0
2006,2,1,6,0,,3,2.1,92,101190,0,0,301,0,0,0,0,0,0,0,290,1.1,10,0,0,0,0,0,0,0,0,0,0,0,0
2006,2,1,7,0,,3,1.1,86,101270,0,0,283,0,0,0,0,0,0,0,360,1.7,8,0,0,0,0,0,0,0,0,0,0,0,0
2006,2,1,8,0,,3,0.1,81,101340,0,0,275,16,5,11,1530,406,1383,0,360,2.1,5,0,0,0,0,0,0,0,0,0,0,0,0
2006,2,1,9,0,,3,-0.9,74,101420,0,0,269,120,425,49,28457,42647,7494,0,20,2.3,3,0,0,0,0,0,0,0,0,0,0,0,0
2006,2,1,10,0,,3.2,-0.6,75,101450,0,0,274,226,348,108,35164,34602,15172,0,360,1.6,5,0,0,0,0,0,0,0,0,0,0,0,0
2006,2,1,11,0,,3.2,-0.4,74,101470,0,0,280,269,173,187,33168,17660,22338,0,20,2.4,7,0,0,0,0,0,0,0,0,0,0,0,0
2006,2,1,12,0,,3.5,-0.1,76,101500,0,0,292,233,63,197,26153,6159,22486,0,20,3.4,9,0,0,0,0,0,0,0,0,0,0,0,0
2006,2,1,13,0,,4.1,-0.8,67,101520,0,0,286,303,104,240,32419,10150,27082,0,20,2.6,8,0,0,0,0,0,0,0,0,0,0,0,0
2006,2,1,14,0,,5.1,-1.4,61,101550,0,0,284,405,258,251,38059,24264,28138,0,20,2.3,6,0,0,0,0,0,0,0,0,0,0,0,0
2006,2,1,15,0,,4.5,-2.1,61,101570,0,0,277,388,369,191,28614,29021,21280,0,360,2.8,5,0,0,0,0,0,0,0,0,0,0,0,0
2006,2,1,16,0,,4.1,-3.5,58,101610,0,0,272,326,482,122,13613,13462,12698,0,20,4.7,4,0,0,0,0,0,0,0,0,0,0,0,0
2006,2,1,17,0,,4,-4.9,46,101650,0,0,268,214,548,66,0,0,0,0,20,5.9,3,0,0,0,0,0,0,0,0,0,0,0,0
2006,2,1,18,0,,2.9,-6.3,50,101690,0,0,260,66,40,26,0,0,0,0,20,1.9,2,0,0,0,0,0,0,0,0,0,0,0,0
2006,2,1,19,0,,2,-5.9,51,101700,0,0,254,0,0,0,0,0,0,0,20,2,1,0,0,0,0,0,0,0,0,0,0,0,0
2006,2,1,20,0,,1.6,-5.6,58,101710,0,0,251,0,0,0,0,0,0,0,20,1.9,1,0,0,0,0,0,0,0,0,0,0,0,0
2006,2,1,21,0,,0.4,-5.2,65,101720,0,0,243,0,0,0,0,0,0,0,50,2.2,0,0,0,0,0,0,0,0,0,0,0,0,0
2006,2,1,22,0,,0.4,-4.7,69,101760,0,0,249,0,0,0,0,0,0,0,20,2.2,1,0,0,0,0,0,0,0,0,0,0,0,0
2006,2,1,23,0,,0.3,-4.2,72,101810,0,0,252,0,0,0,0,0,0,0,0,0.2,2,0,0,0,0,0,0,0,0,0,0,0,0
2006,2,1,24,0,,0.3,-3.7,73,101850,0,0,255,0,0,0,0,0,0,0,290,0.9,3,0,0,0,0,0,0,0,0,0,0,0,0
2006,2,2,1,0,,0,-3.7,77,101900,0,0,255,0,0,0,0,0,0,0,20,1.2,3,0,0,0,0,0,0,0,0,0,0,0,0
2006,2,2,2,0,,-0.2,-3.6,76,101950,0,0,255,0,0,0,0,0,0,0,50,0.9,4,0,0,0,0,0,0,0,0,0,0,0,0
2006,2,2,3,0,,-0.2,-3.6,78,102000,0,0,256,0,0,0,0,0,0,0,0,0.4,4,0,0,0,0,0,0,0,0,0,0,0,0
2006,2,2,4,0,,-0.4,-4.2,74,101970,0,0,255,0,0,0,0,0,0,0,0,0.2,4,0,0,0,0,0,0,0,0,0,0,0,0
2006,2,2,5,0,,-0.4,-4.7,70,101930,0,0,254,0,0,0,0,0,0,0,50,1.1,4,0,0,0,0,0,0,0,0,0,0,0,0
2006,2,2,6,0,,-0.3,-5.3,69,101900,0,0,254,0,0,0,0,0,0,0,0,0.2,4,0,0,0,0,0,0,0,0,0,0,0,0
2006,2,2,7,0,,-0.1,-5.6,65,101950,0,0,256,0,0,0,0,0,0,0,50,0.5,5,0,0,0,0,0,0,0,0,0,0,0,0
2006,2,2,8,0,,0.1,-6,64,102000,0,0,258,17,5,12,1615,484,1439,0,20,1.4,6,0,0,0,0,0,0,0,0,0,0,0,0
2006,2,2,9,0,,0.6,-6.3,59,102050,0,0,263,97,249,54,21223,24982,8855,0,70,0.9,7,0,0,0,0,0,0,0,0,0,0,0,0
2006,2,2,10,0,,1.6,-6.2,57,102070,0,0,264,232,336,117,35702,33826,16030,0,50,1.8,6,0,0,0,0,0,0,0,0,0,0,0,0
2006,2,2,11,0,,2.5,-6.1,57,102100,0,0,265,365,451,149,47795,45628,19634,0,20,1.1,5,0,0,0,0,0,0,0,0,0,0,0,0
2006,2,2,12,0,,3.5,-6,49,102120,0,0,267,468,530,166,53285,53289,21336,0,320,1.6,4,0,0,0,0,0,0,0,0,0,0,0,0
2006,2,2,13,0,,4.4,-6.2,44,102050,0,0,268,534,612,158,52820,59672,21204,0,20,2.5,3,0,0,0,0,0,0,0,0,0,0,0,0
2006,2,2,14,0,,4.5,-6.4,45,101990,0,0,266,518,597,159,43095,56207,19892,0,360,1.2,2,0,0,0,0,0,0,0,0,0,0,0,0
2006,2,2,15,0,,5.4,-6.6,41,101920,0,0,266,479,665,121,28765,53619,15014,0,320,1.3,1,0,0,0,0,0,0,0,0,0,0,0,0
2006,2,2,16,0,,4.8,-6.2,47,101940,0,0,266,360,607,101,12185,21460,10652,0,340,2,2,0,0,0,0,0,0,0,0,0,0,0,0
2006,2,2,17,0,,3.2,-5.8,53,101970,0,0,262,215,535,69,0,0,0,0,340,2.2,2,0,0,0,0,0,0,0,0,0,0,0,0
2006,2,2,18,0,,2.2,-5.4,56,101990,0,0,260,62,32,30,0,0,0,0,320,2.1,3,0,0,0,0,0,0,0,0,0,0,0,0
2006,2,2,19,0,,1.7,-5.3,61,102030,0,0,263,0,0,0,0,0,0,0,290,1.6,5,0,0,0,0,0,0,0,0,0,0,0,0
2006,2,2,20,0,,1.2,-5.3,61,102060,0,0,266,0,0,0,0,0,0,0,340,0.9,7,0,0,0,0,0,0,0,0,0,0,0,0
2006,2,2,21,0,,1.3,-5.2,61,102100,0,0,277,0,0,0,0,0,0,0,360,0.7,9,0,0,0,0,0,0,0,0,0,0,0,0
2006,2,2,22,0,,1.5,-4.9,64,102120,0,0,276,0,0,0,0,0,0,0,360,1.5,9,0,0,0,0,0,0,0,0,0,0,0,0
2006,2,2,23,0,,1.2,-4.5,73,102150,0,0,273,0,0,0,0,0,0,0,320,1.3,8,0,0,0,0,0,0,0,0,0,0,0,0
2006,2,2,24,0,,-0.1,-4.2,74,102170,0,0,267,0,0,0,0,0,0,0,20,4.2,8,0,0,0,0,0,0,0,0,0,0,0,0
2006,2,3,1,0,,-0.6,-6.1,67,102260,0,0,259,0,0,0,0,0,0,0,20,3.2,7,0,0,0,0,0,0,0,0,0,0,0,0
2006,2,3,2,0,,-1.6,-8.1,58,102350,0,0,250,0,0,0,0,0,0,0,360,2.9,6,0,0,0,0,0,0,0,0,0,0,0,0
2006,2,3,3,0,,-2.5,-10,58,102440,0,0,243,0,0,0,0,0,0,0,20,4.3,5,0,0,0,0,0,0,0,0,0,0,0,0
2006,2,3,4,0,,-3.9,-10.5,61,102450,0,0,236,0,0,0,0,0,0,0,20,3.7,4,0,0,0,0,0,0,0,0,0,0,0,0
2006,2,3,5,0,,-5,-11.1,58,102470,0,0,230,0,0,0,0,0,0,0,20,4.8,4,0,0,0,0,0,0,0,0,0,0,0,0
2006,2,3,6,0,,-5.5,-11.6,66,102480,0,0,226,0,0,0,0,0,0,0,20,3,3,0,0,0,0,0,0,0,0,0,0,0,0
2006,2,3,7,0,,-6,-12.6,61,102550,0,0,224,0,0,0,0,0,0,0,20,3.3,3,0,0,0,0,0,0,0,0,0,0,0,0
2006,2,3,8,0,,-6.5,-13.5,56,102630,0,0,221,23,13,10,1868,1246,1410,0,20,4.8,3,0,0,0,0,0,0,0,0,0,0,0,0
2006,2,3,9,0,,-5.9,-14.5,54,102700,0,0,223,134,520,43,32011,50961,6595,0,20,3.7,3,0,0,0,0,0,0,0,0,0,0,0,0
2006,2,3,10,0,,-5.5,-14.4,55,102700,0,0,225,276,544,88,45663,55348,13262,0,360,4.4,4,0,0,0,0,0,0,0,0,0,0,0,0
2006,2,3,11,0,,-5.5,-14.2,49,102710,0,0,227,398,562,127,53173,56838,17866,0,20,5.7,4,0,0,0,0,0,0,0,0,0,0,0,0
2006,2,3,12,0,,-5.1,-14.1,52,102710,0,0,229,442,435,192,50449,44178,23783,0,360,3.4,5,0,0,0,0,0,0,0,0,0,0,0,0
2006,2,3,13,0,,-4.5,-15.1,43,102670,0,0,229,506,517,187,50585,51631,23020,0,340,2.9,4,0,0,0,0,0,0,0,0,0,0,0,0
2006,2,3,14,0,,-3.5,-16.1,40,102620,0,0,230,547,674,139,44864,62984,18614,0,360,2.7,2,0,0,0,0,0,0,0,0,0,0,0,0
2006,2,3,15,0,,-4.3,-17.1,38,102580,0,0,223,482,663,123,29198,54390,15044,0,340,3,1,0,0,0,0,0,0,0,0,0,0,0,0
2006,2,3,16,0,,-4.3,-17.1,36,102620,0,0,221,374,650,94,11885,24851,10022,0,360,2.6,1,0,0,0,0,0,0,0,0,0,0,0,0
2006,2,3,17,0,,-5,-17.1,34,102650,0,0,217,229,598,63,0,0,0,0,20,2.6,0,0,0,0,0,0,0,0,0,0,0,0,0
2006,2,3,18,0,,-6.5,-17.1,46,102690,0,0,210,72,47,25,0,0,0,0,340,2.4,0,0,0,0,0,0,0,0,0,0,0,0,0
2006,2,3,19,0,,-7,-16.5,52,102750,0,0,209,0,0,0,0,0,0,0,20,1.6,0,0,0,0,0,0,0,0,0,0,0,0,0
2006,2,3,20,0,,-7.6,-16,57,102820,0,0,207,0,0,0,0,0,0,0,50,2.3,0,0,0,0,0,0,0,0,0,0,0,0,0
2006,2,3,21,0,,-7.6,-15.4,58,102880,0,0,207,0,0,0,0,0,0,0,20,2.1,0,0,0,0,0,0,0,0,0,0,0,0,0
2006,2,3,22,0,,-8.5,-15.6,64,102900,0,0,204,0,0,0,0,0,0,0,70,3.6,0,0,0,0,0,0,0,0,0,0,0,0,0
2006,2,3,23,0,,-8.8,-15.7,64,102920,0,0,202,0,0,0,0,0,0,0,70,2.2,0,0,0,0,0,0,0,0,0,0,0,0,0
2006,2,3,24,0,,-9.1,-15.9,64,102940,0,0,201,0,0,0,0,0,0,0,20,3.5,0,0,0,0,0,0,0,0,0,0,0,0,0
2006,2,4,1,0,,-10,-16.6,66,102960,0,0,198,0,0,0,0,0,0,0,50,2.2,0,0,0,0,0,0,0,0,0,0,0,0,0
2006,2,4,2,0,,-10.5,-17.2,64,102980,0,0,196,0,0,0,0,0,0,0,70,2.5,0,0,0,0,0,0,0,0,0,0,0,0,0
2006,2,4,3,0,,-10.6,-17.9,62,103000,0,0,195,0,0,0,0,0,0,0,50,2,0,0,0,0,0,0,0,0,0,0,0,0,0
2006,2,4,4,0,,-10.6,-18,59,102980,0,0,195,0,0,0,0,0,0,0,50,1.8,0,0,0,0,0,0,0,0,0,0,0,0,0
2006,2,4,5,0,,-11,-18,62,102970,0,0,194,0,0,0,0,0,0,0,70,2.2,0,0,0,0,0,0,0,0,0,0,0,0,0
2006,2,4,6,0,,-10.3,-18.1,59,102950,0,0,196,0,0,0,0,0,0,0,50,2,0,0,0,0,0,0,0,0,0,0,0,0,0
2006,2,4,7,0,,-10.1,-16.7,64,102950,0,0,197,0,0,0,0,0,0,0,50,2.6,0,0,0,0,0,0,0,0,0,0,0,0,0
2006,2,4,8,0,,-9.5,-15.4,68,102940,0,0,200,28,15,13,2267,1448,1730,0,70,3.2,0,0,0,0,0,0,0,0,0,0,0,0,0
2006,2,4,9,0,,-7.6,-14,65,102940,0,0,208,150,646,35,37296,63446,5419,0,50,3.3,0,0,0,0,0,0,0,0,0,0,0,0,0
2006,2,4,10,0,,-5.6,-12.9,59,102910,0,0,216,317,728,62,51788,72410,9116,0,20,2.7,0,0,0,0,0,0,0,0,0,0,0,0,0
2006,2,4,11,0,,-3.2,-11.7,51,102880,0,0,225,451,741,91,59575,74851,12775,0,20,0.7,0,0,0,0,0,0,0,0,0,0,0,0,0
2006,2,4,12,0,,-1.3,-10.6,50,102850,0,0,233,556,782,103,62074,78400,14429,0,290,1.4,0,0,0,0,0,0,0,0,0,0,0,0,0
2006,2,4,13,0,,-0.2,-11.8,36,102780,0,0,236,599,781,114,58095,77766,16260,0,340,2.7,0,0,0,0,0,0,0,0,0,0,0,0,0
2006,2,4,14,0,,-1,-13.1,40,102700,0,0,232,550,672,141,45300,62859,18853,0,340,2.3,0,0,0,0,0,0,0,0,0,0,0,0,0
2006,2,4,15,0,,-0.2,-14.3,34,102630,0,0,235,493,685,119,29606,56411,14712,0,360,3.1,0,0,0,0,0,0,0,0,0,0,0,0,0
2006,2,4,16,0,,-0.5,-14.3,40,102650,0,0,234,374,635,98,12413,24901,10458,0,20,2.4,0,0,0,0,0,0,0,0,0,0,0,0,0
2006,2,4,17,0,,-1.2,-14.2,37,102660,0,0,231,240,644,58,0,0,0,0,360,2.1,0,0,0,0,0,0,0,0,0,0,0,0,0
2006,2,4,18,0,,-2.9,-14.2,43,102680,0,0,225,73,46,26,0,0,0,0,360,2,0,0,0,0,0,0,0,0,0,0,0,0,0
2006,2,4,19,0,,-4,-13.3,56,102720,0,0,221,0,0,0,0,0,0,0,360,1.4,0,0,0,0,0,0,0,0,0,0,0,0,0
2006,2,4,20,0,,-4.5,-12.4,59,102760,0,0,220,0,0,0,0,0,0,0,360,1.7,0,0,0,0,0,0,0,0,0,0,0,0,0
2006,2,4,21,0,,-4.9,-11.5,63,102800,0,0,219,0,0,0,0,0,0,0,20,2.2,0,0,0,0,0,0,0,0,0,0,0,0,0
2006,2,4,22,0,,-5.5,-11.5,66,102760,0,0,217,0,0,0,0,0,0,0,20,2.5,0,0,0,0,0,0,0,0,0,0,0,0,0
2006,2,4,23,0,,-5.4,-11.4,68,102720,0,0,217,0,0,0,0,0,0,0,50,2.8,0,0,0,0,0,0,0,0,0,0,0,0,0
2006,2,4,24,0,,-6,-11.4,70,102680,0,0,215,0,0,0,0,0,0,0,50,3.1,0,0,0,0,0,0,0,0,0,0,0,0,0
2006,2,5,1,0,,-5.5,-11.2,69,102710,0,0,217,0,0,0,0,0,0,0,290,0.7,0,0,0,0,0,0,0,0,0,0,0,0,0
2006,2,5,2,0,,-5.6,-11,70,102730,0,0,217,0,0,0,0,0,0,0,270,1,0,0,0,0,0,0,0,0,0,0,0,0,0
2006,2,5,3,0,,-5.8,-10.8,72,102760,0,0,217,0,0,0,0,0,0,0,50,0.8,0,0,0,0,0,0,0,0,0,0,0,0,0
2006,2,5,4,0,,-6.3,-11.5,75,102730,0,0,214,0,0,0,0,0,0,0,20,1.5,0,0,0,0,0,0,0,0,0,0,0,0,0
2006,2,5,5,0,,-6.3,-12.1,71,102710,0,0,214,0,0,0,0,0,0,0,50,0.6,0,0,0,0,0,0,0,0,0,0,0,0,0
2006,2,5,6,0,,-6.6,-12.8,66,102680,0,0,212,0,0,0,0,0,0,0,50,3.1,0,0,0,0,0,0,0,0,0,0,0,0,0
2006,2,5,7,0,,-6,-13.1,58,102700,0,0,223,0,0,0,0,0,0,0,50,3.3,3,0,0,0,0,0,0,0,0,0,0,0,0
2006,2,5,8,0,,-5.1,-13.5,50,102730,0,0,230,24,12,12,2044,1173,1605,0,50,1.9,5,0,0,0,0,0,0,0,0,0,0,0,0
2006,2,5,9,0,,-4.3,-13.8,50,102750,0,0,241,99,230,58,21077,23119,9375,0,50,2.1,8,0,0,0,0,0,0,0,0,0,0,0,0
2006,2,5,10,0,,-3,-13.8,47,102680,0,0,239,269,484,99,43722,49074,14607,0,70,3.7,6,0,0,0,0,0,0,0,0,0,0,0,0
2006,2,5,11,0,,-0.6,-13.8,40,102620,0,0,244,454,741,91,60004,74905,12865,0,50,3.3,3,0,0,0,0,0,0,0,0,0,0,0,0
2006,2,5,12,0,,0.5,-13.8,33,102550,0,0,241,568,808,98,63381,81186,13707,0,50,3.2,1,0,0,0,0,0,0,0,0,0,0,0,0
2006,2,5,13,0,,1,-13.2,34,102450,0,0,249,575,702,137,56434,69376,18827,0,20,2.9,3,0,0,0,0,0,0,0,0,0,0,0,0
2006,2,5,14,0,,1.5,-12.7,36,102340,0,0,256,456,340,247,41410,33202,27308,0,360,1.2,6,0,0,0,0,0,0,0,0,0,0,0,0
2006,2,5,15,0,,2,-12.1,34,102240,0,0,267,331,190,226,28910,15758,24690,0,20,2.3,8,0,0,0,0,0,0,0,0,0,0,0,0
2006,2,5,16,0,,1.7,-11.7,36,102210,0,0,270,209,110,161,17794,7893,17146,0,290,1.6,9,0,0,0,0,0,0,0,0,0,0,0,0
2006,2,5,17,0,,1.2,-11.4,38,102180,0,0,272,127,107,96,0,0,0,0,320,1.6,9,0,0,0,0,0,0,0,0,0,0,0,0
2006,2,5,18,0,,0.6,-11,41,102150,0,0,275,27,3,24,0,0,0,0,360,0.9,10,0,0,0,0,0,0,0,0,0,0,0,0
2006,2,5,19,0,,0.4,-11,42,102130,0,0,274,0,0,0,0,0,0,0,270,1,10,0,0,0,0,0,0,0,0,0,0,0,0
2006,2,5,20,0,,0.2,-11.1,41,102110,0,0,273,0,0,0,0,0,0,0,0,0.4,10,0,0,0,0,0,0,0,0,0,0,0,0
2006,2,5,21,0,,0.1,-11.1,42,102090,0,0,273,0,0,0,0,0,0,0,230,0.8,10,0,0,0,0,0,0,0,0,0,0,0,0
2006,2,5,22,0,,-0.3,-8.6,55,102020,0,0,275,0,0,0,0,0,0,0,140,1.3,10,0,0,0,0,0,0,0,0,0,0,0,0
2006,2,5,23,0,,-1.8,-6,88,101940,0,0,271,0,0,0,0,0,0,0,70,0.9,10,0,0,0,0,0,0,0,0,0,0,0,0
2006,2,5,24,0,,-2,-3.5,91,101870,0,0,274,0,0,0,0,0,0,0,50,2,10,0,0,0,0,0,0,0,0,0,0,0,0
2006,2,6,1,0,,-2,-3.4,92,101820,0,0,274,0,0,0,0,0,0,0,50,3.5,10,0,0,0,0,0,0,0,0,0,0,0,0
2006,2,6,2,0,,-2,-3.3,93,101770,0,0,274,0,0,0,0,0,0,0,50,2.8,10,0,0,0,0,0,0,0,0,0,0,0,0
2006,2,6,3,0,,-2,-3.2,93,101720,0,0,274,0,0,0,0,0,0,0,50,2.4,10,0,0,0,0,0,0,0,0,0,0,0,0
2006,2,6,4,0,,-2,-3.2,93,101650,0,0,274,0,0,0,0,0,0,0,50,2.1,10,0,0,0,0,0,0,0,0,0,0,0,0
2006,2,6,5,0,,-2.2,-3.3,94,101570,0,0,274,0,0,0,0,0,0,0,50,1.8,10,0,0,0,0,0,0,0,0,0,0,0,0
2006,2,6,6,0,,-2.2,-3.3,94,101500,0,0,273,0,0,0,0,0,0,0,50,1.9,10,0,0,0,0,0,0,0,0,0,0,0,0
2006,2,6,7,0,,-2,-3.1,93,101480,0,0,274,0,0,0,0,0,0,0,50,2.1,10,0,0,0,0,0,0,0,0,0,0,0,0
2006,2,6,8,0,,-1.8,-3,92,101460,0,0,275,4,0,4,582,4,580,0,70,2,10,0,0,0,0,0,0,0,0,0,0,0,0
2006,2,6,9,0,,-1.2,-2.8,90,101440,0,0,278,47,24,42,6712,2475,5449,0,70,1.6,10,0,0,0,0,0,0,0,0,0,0,0,0
2006,2,6,10,0,,-0.2,-2.3,85,101390,0,0,266,200,194,130,28088,19934,16181,0,20,1.2,7,0,0,0,0,0,0,0,0,0,0,0,0
2006,2,6,11,0,,1.5,-1.8,79,101350,0,0,265,354,367,173,45768,36782,22468,0,50,1.3,5,0,0,0,0,0,0,0,0,0,0,0,0
2006,2,6,12,0,,3,-1.3,72,101300,0,0,265,488,548,166,55916,54396,22406,0,50,1,2,0,0,0,0,0,0,0,0,0,0,0,0
2006,2,6,13,0,,4.5,-0.5,72,101210,0,0,277,506,485,201,51050,47514,25098,0,70,1.5,4,0,0,0,0,0,0,0,0,0,0,0,0
2006,2,6,14,0,,5.1,0.3,68,101110,0,0,285,424,261,263,40073,24624,29516,0,340,0.8,6,0,0,0,0,0,0,0,0,0,0,0,0
2006,2,6,15,0,,5.5,1.1,72,101020,0,0,295,297,136,222,27842,12102,24555,0,270,1.3,8,0,0,0,0,0,0,0,0,0,0,0,0
2006,2,6,16,0,,5.1,0.9,71,101000,0,0,297,172,62,144,15947,4230,15585,0,270,1.2,9,0,0,0,0,0,0,0,0,0,0,0,0
2006,2,6,17,0,,5,0.8,72,100990,0,0,302,106,61,88,0,0,0,0,270,0.9,9,0,0,0,0,0,0,0,0,0,0,0,0
2006,2,6,18,0,,4.6,0.6,74,100970,0,0,306,21,1,20,0,0,0,0,270,0.8,10,0,0,0,0,0,0,0,0,0,0,0,0
2006,2,6,19,0,,4.3,0.5,76,100950,0,0,298,0,0,0,0,0,0,0,270,2.1,9,0,0,0,0,0,0,0,0,0,0,0,0
2006,2,6,20,0,,3.7,0.4,78,100920,0,0,291,0,0,0,0,0,0,0,270,0.9,9,0,0,0,0,0,0,0,0,0,0,0,0
2006,2,6,21,0,,3.2,0.3,80,100900,0,0,285,0,0,0,0,0,0,0,50,0.6,8,0,0,0,0,0,0,0,0,0,0,0,0
2006,2,6,22,0,,3,0.6,85,100860,0,0,288,0,0,0,0,0,0,0,250,1.3,9,0,0,0,0,0,0,0,0,0,0,0,0
2006,2,6,23,0,,2.5,0.9,87,100830,0,0,292,0,0,0,0,0,0,0,270,1.1,9,0,0,0,0,0,0,0,0,0,0,0,0
2006,2,6,24,0,,2.7,1.2,88,100790,0,0,298,0,0,0,0,0,0,0,250,0.6,10,0,0,0,0,0,0,0,0,0,0,0,0
2006,2,7,1,0,,2.5,1.2,89,100680,0,0,298,0,0,0,0,0,0,0,200,0.9,10,0,0,0,0,0,0,0,0,0,0,0,0
2006,2,7,2,0,,3.2,1.1,85,100580,0,0,300,0,0,0,0,0,0,0,200,1.6,10,0,0,0,0,0,0,0,0,0,0,0,0
2006,2,7,3,0,,1.8,1.1,93,100470,0,0,295,0,0,0,0,0,0,0,270,1.9,10,0,0,0,0,0,0,0,0,0,0,0,0
2006,2,7,4,0,,2,1,94,100450,0,0,295,0,0,0,0,0,0,0,230,2.1,10,0,0,0,0,0,0,0,0,0,0,0,0
2006,2,7,5,0,,1.8,1,95,100420,0,0,295,0,0,0,0,0,0,0,230,4.9,10,0,0,0,0,0,0,0,0,0,0,0,0
2006,2,7,6,0,,2.7,0.9,86,100400,0,0,298,0,0,0,0,0,0,0,250,4.6,10,0,0,0,0,0,0,0,0,0,0,0,0
2006,2,7,7,0,,2.5,0.5,80,100460,0,0,297,0,0,0,0,0,0,0,270,6.3,10,0,0,0,0,0,0,0,0,0,0,0,0
2006,2,7,8,0,,1.3,0,86,100530,0,0,291,5,0,5,663,4,662,0,250,4.8,10,0,0,0,0,0,0,0,0,0,0,0,0
2006,2,7,9,0,,0.6,-0.4,91,100590,0,0,288,40,15,37,5124,1358,4426,0,270,4,10,0,0,0,0,0,0,0,0,0,0,0,0
2006,2,7,10,0,,0.8,-0.1,91,100610,0,0,289,82,15,77,9940,1450,9068,0,270,4.6,10,0,0,0,0,0,0,0,0,0,0,0,0
2006,2,7,11,0,,1.1,0.3,92,100630,0,0,291,142,25,129,16542,2362,15036,0,270,3.9,10,0,0,0,0,0,0,0,0,0,0,0,0
2006,2,7,12,0,,1.6,0.6,91,100650,0,0,293,186,30,168,21178,2884,19390,0,250,5.2,10,0,0,0,0,0,0,0,0,0,0,0,0
2006,2,7,13,0,,2.2,0.5,82,100670,0,0,296,213,34,191,23612,3304,21794,0,270,6.4,10,0,0,0,0,0,0,0,0,0,0,0,0
2006,2,7,14,0,,1.1,0.3,91,100680,0,0,291,189,26,173,20368,1914,19540,0,250,5.5,10,0,0,0,0,0,0,0,0,0,0,0,0
2006,2,7,15,0,,0.8,0.2,94,100700,0,0,290,150,20,139,15512,1203,15181,0,250,5.8,10,0,0,0,0,0,0,0,0,0,0,0,0
2006,2,7,16,0,,1.2,0.1,95,100830,0,0,291,105,15,99,9995,590,9943,0,320,1.9,10,0,0,0,0,0,0,0,0,0,0,0,0
2006,2,7,17,0,,0.8,0.1,93,100970,0,0,289,65,15,61,0,0,0,0,270,1.6,10,0,0,0,0,0,0,0,0,0,0,0,0
2006,2,7,18,0,,0.4,0,95,101100,0,0,288,21,1,19,0,0,0,0,270,2,10,0,0,0,0,0,0,0,0,0,0,0,0
2006,2,7,19,0,,-0.2,-1.1,95,101220,0,0,284,0,0,0,0,0,0,0,290,1.7,10,0,0,0,0,0,0,0,0,0,0,0,0
2006,2,7,20,0,,-0.8,-2.2,94,101350,0,0,280,0,0,0,0,0,0,0,290,3,10,0,0,0,0,0,0,0,0,0,0,0,0
2006,2,7,21,0,,-0.8,-3.3,84,101470,0,0,279,0,0,0,0,0,0,0,290,1.5,10,0,0,0,0,0,0,0,0,0,0,0,0
2006,2,7,22,0,,-1.5,-3.5,88,101530,0,0,276,0,0,0,0,0,0,0,290,1.6,10,0,0,0,0,0,0,0,0,0,0,0,0
2006,2,7,23,0,,-1.6,-3.8,85,101590,0,0,275,0,0,0,0,0,0,0,270,1.4,10,0,0,0,0,0,0,0,0,0,0,0,0
2006,2,7,24,0,,-2,-4,88,101650,0,0,273,0,0,0,0,0,0,0,290,1.3,10,0,0,0,0,0,0,0,0,0,0,0,0
2006,2,8,1,0,,-2.4,-4.3,90,101680,0,0,271,0,0,0,0,0,0,0,270,2,10,0,0,0,0,0,0,0,0,0,0,0,0
2006,2,8,2,0,,-2.7,-4.5,91,101720,0,0,270,0,0,0,0,0,0,0,290,1.3,10,0,0,0,0,0,0,0,0,0,0,0,0
2006,2,8,3,0,,-3,-4.8,90,101750,0,0,268,0,0,0,0,0,0,0,320,2.4,10,0,0,0,0,0,0,0,0,0,0,0,0
2006,2,8,4,0,,-3.4,-5,91,101800,0,0,267,0,0,0,0,0,0,0,340,1.1,10,0,0,0,0,0,0,0,0,0,0,0,0
2006,2,8,5,0,,-3.5,-5.1,90,101840,0,0,266,0,0,0,0,0,0,0,320,1.1,10,0,0,0,0,0,0,0,0,0,0,0,0
2006,2,8,6,0,,-3.7,-5.3,92,101890,0,0,265,0,0,0,0,0,0,0,340,0.9,10,0,0,0,0,0,0,0,0,0,0,0,0
2006,2,8,7,0,,-4,-5.6,85,102000,0,0,259,0,0,0,0,0,0,0,320,1.6,9,0,0,0,0,0,0,0,0,0,0,0,0
2006,2,8,8,0,,-4.4,-5.8,89,102110,0,0,253,8,0,8,1080,16,1074,0,320,1.8,9,0,0,0,0,0,0,0,0,0,0,0,0
2006,2,8,9,0,,-3.5,-6.1,85,102220,0,0,252,83,113,62,14123,11503,8166,0,20,0.7,8,0,0,0,0,0,0,0,0,0,0,0,0
2006,2,8,10,0,,-3.7,-6.7,85,102240,0,0,251,167,108,128,22099,11214,15308,0,360,1.6,8,0,0,0,0,0,0,0,0,0,0,0,0
2006,2,8,11,0,,-2.9,-7.3,71,102270,0,0,253,276,155,198,33301,16046,23001,0,20,4.4,8,0,0,0,0,0,0,0,0,0,0,0,0
2006,2,8,12,0,,-1.2,-7.9,61,102290,0,0,259,335,150,246,37723,15455,28072,0,360,2.7,8,0,0,0,0,0,0,0,0,0,0,0,0
2006,2,8,13,0,,-1.7,-8.2,63,102280,0,0,251,412,213,276,42990,21556,31037,0,340,3.1,7,0,0,0,0,0,0,0,0,0,0,0,0
2006,2,8,14,0,,-2,-8.4,58,102260,0,0,247,459,321,258,42319,31319,28640,0,360,3.7,5,0,0,0,0,0,0,0,0,0,0,0,0
2006,2,8,15,0,,-0.2,-8.7,53,102250,0,0,251,450,495,171,30948,41726,19297,0,360,2.7,4,0,0,0,0,0,0,0,0,0,0,0,0
2006,2,8,16,0,,-2.5,-8.9,67,102290,0,0,242,338,437,141,16247,17238,14649,0,20,3.2,4,0,0,0,0,0,0,0,0,0,0,0,0
2006,2,8,17,0,,-2.5,-9.2,64,102330,0,0,241,222,464,84,0,0,0,0,20,2.8,4,0,0,0,0,0,0,0,0,0,0,0,0
2006,2,8,18,0,,-3.5,-9.4,66,102370,0,0,238,70,32,39,0,0,0,0,50,2.3,4,0,0,0,0,0,0,0,0,0,0,0,0
2006,2,8,19,0,,-4.3,-9.3,78,102430,0,0,236,0,0,0,0,0,0,0,340,2,5,0,0,0,0,0,0,0,0,0,0,0,0
2006,2,8,20,0,,-4.1,-9.1,73,102500,0,0,238,0,0,0,0,0,0,0,20,3,5,0,0,0,0,0,0,0,0,0,0,0,0
2006,2,8,21,0,,-4.3,-9,73,102560,0,0,239,0,0,0,0,0,0,0,20,2.6,6,0,0,0,0,0,0,0,0,0,0,0,0
2006,2,8,22,0,,-4.3,-9.3,73,102590,0,0,237,0,0,0,0,0,0,0,360,2.7,5,0,0,0,0,0,0,0,0,0,0,0,0
2006,2,8,23,0,,-4.5,-9.7,68,102620,0,0,234,0,0,0,0,0,0,0,20,2.1,4,0,0,0,0,0,0,0,0,0,0,0,0
2006,2,8,24,0,,-4.4,-10,68,102650,0,0,232,0,0,0,0,0,0,0,20,2.2,3,0,0,0,0,0,0,0,0,0,0,0,0
2006,2,9,1,0,,-4.3,-9.8,68,102680,0,0,234,0,0,0,0,0,0,0,20,1.3,4,0,0,0,0,0,0,0,0,0,0,0,0
2006,2,9,2,0,,-4.4,-9.5,69,102720,0,0,236,0,0,0,0,0,0,0,20,1.1,5,0,0,0,0,0,0,0,0,0,0,0,0
2006,2,9,3,0,,-4.3,-9.3,71,102750,0,0,239,0,0,0,0,0,0,0,290,0.8,6,0,0,0,0,0,0,0,0,0,0,0,0
2006,2,9,4,0,,-4.5,-9.3,73,102730,0,0,238,0,0,0,0,0,0,0,50,2.4,6,0,0,0,0,0,0,0,0,0,0,0,0
2006,2,9,5,0,,-4.9,-9.2,78,102720,0,0,237,0,0,0,0,0,0,0,50,1.3,6,0,0,0,0,0,0,0,0,0,0,0,0
2006,2,9,6,0,,-5.1,-9.2,77,102700,0,0,236,0,0,0,0,0,0,0,70,1.9,6,0,0,0,0,0,0,0,0,0,0,0,0
2006,2,9,7,0,,-5.5,-9.3,79,102730,0,0,231,0,0,0,0,0,0,0,50,1.2,4,0,0,0,0,0,0,0,0,0,0,0,0
2006,2,9,8,0,,-6,-9.5,80,102760,0,0,225,29,17,12,2485,1617,1856,0,50,2.4,2,0,0,0,0,0,0,0,0,0,0,0,0
2006,2,9,9,0,,-4,-9.6,68,102790,0,0,224,155,574,44,36255,56661,6682,0,50,2.4,0,0,0,0,0,0,0,0,0,0,0,0,0
2006,2,9,10,0,,-1.1,-10.2,52,102740,0,0,234,336,739,64,54348,73778,9366,0,70,2.6,0,0,0,0,0,0,0,0,0,0,0,0,0
2006,2,9,11,0,,-0.1,-10.8,43,102690,0,0,237,488,806,81,63635,80591,11562,0,50,2.8,0,0,0,0,0,0,0,0,0,0,0,0,0
2006,2,9,12,0,,0.8,-11.4,39,102640,0,0,239,560,732,121,63900,74211,17242,0,50,1.3,0,0,0,0,0,0,0,0,0,0,0,0,0
2006,2,9,13,0,,1.3,-11.3,31,102550,0,0,241,577,659,154,57106,65032,20773,0,50,1.8,0,0,0,0,0,0,0,0,0,0,0,0,0
2006,2,9,14,0,,1.6,-11.3,33,102460,0,0,242,562,645,155,46891,62156,19493,0,360,1.3,0,0,0,0,0,0,0,0,0,0,0,0,0
2006,2,9,15,0,,1.8,-11.2,37,102370,0,0,243,499,641,136,31875,54036,16580,0,360,1.7,0,0,0,0,0,0,0,0,0,0,0,0,0
2006,2,9,16,0,,2,-10.3,39,102300,0,0,244,400,663,98,13764,30309,10847,0,20,2.1,0,0,0,0,0,0,0,0,0,0,0,0,0
2006,2,9,17,0,,1,-9.5,46,102240,0,0,241,250,604,68,0,0,0,0,290,2.5,0,0,0,0,0,0,0,0,0,0,0,0,0
2006,2,9,18,0,,-0.1,-8.6,53,102170,0,0,239,86,55,31,0,0,0,0,320,1.2,0,0,0,0,0,0,0,0,0,0,0,0,0
2006,2,9,19,0,,-1.2,-8.1,63,102130,0,0,243,0,0,0,0,0,0,0,270,0.9,2,0,0,0,0,0,0,0,0,0,0,0,0
2006,2,9,20,0,,-1.8,-7.7,64,102090,0,0,246,0,0,0,0,0,0,0,270,0.9,4,0,0,0,0,0,0,0,0,0,0,0,0
2006,2,9,21,0,,-1.3,-7.2,65,102050,0,0,252,0,0,0,0,0,0,0,250,0.8,6,0,0,0,0,0,0,0,0,0,0,0,0
2006,2,9,22,0,,-1.3,-6.9,70,101990,0,0,252,0,0,0,0,0,0,0,160,1.4,6,0,0,0,0,0,0,0,0,0,0,0,0
2006,2,9,23,0,,-1.6,-6.5,69,101930,0,0,252,0,0,0,0,0,0,0,200,0.9,6,0,0,0,0,0,0,0,0,0,0,0,0
2006,2,9,24,0,,-1.6,-6.2,72,101870,0,0,252,0,0,0,0,0,0,0,250,0.8,6,0,0,0,0,0,0,0,0,0,0,0,0
2006,2,10,1,0,,-1.7,-6.1,74,101810,0,0,254,0,0,0,0,0,0,0,0,0.4,7,0,0,0,0,0,0,0,0,0,0,0,0
2006,2,10,2,0,,-1.8,-6.1,75,101750,0,0,256,0,0,0,0,0,0,0,270,0.7,7,0,0,0,0,0,0,0,0,0,0,0,0
2006,2,10,3,0,,-2.2,-6,77,101690,0,0,257,0,0,0,0,0,0,0,230,1,8,0,0,0,0,0,0,0,0,0,0,0,0
2006,2,10,4,0,,-1.8,-5.7,78,101610,0,0,256,0,0,0,0,0,0,0,0,0.4,7,0,0,0,0,0,0,0,0,0,0,0,0
2006,2,10,5,0,,-2,-5.5,79,101530,0,0,253,0,0,0,0,0,0,0,290,0.8,7,0,0,0,0,0,0,0,0,0,0,0,0
2006,2,10,6,0,,-2,-5.2,80,101450,0,0,252,0,0,0,0,0,0,0,320,0.9,6,0,0,0,0,0,0,0,0,0,0,0,0
2006,2,10,7,0,,-1.8,-4.7,81,101440,0,0,255,0,0,0,0,0,0,0,290,0.5,7,0,0,0,0,0,0,0,0,0,0,0,0
2006,2,10,8,0,,-1.3,-4.2,83,101430,0,0,260,20,5,15,2045,471,1860,0,290,0.6,7,0,0,0,0,0,0,0,0,0,0,0,0
2006,2,10,9,0,,-0.6,-3.7,80,101420,0,0,266,92,136,65,16894,13483,9802,0,230,0.7,8,0,0,0,0,0,0,0,0,0,0,0,0
2006,2,10,10,0,,0.5,-3.2,73,101390,0,0,274,156,83,125,20302,8554,15050,0,230,1.3,9,0,0,0,0,0,0,0,0,0,0,0,0
2006,2,10,11,0,,3,-2.6,65,101350,0,0,289,245,105,191,29420,10763,22419,0,250,2,9,0,0,0,0,0,0,0,0,0,0,0,0
2006,2,10,12,0,,4,-2.1,63,101320,0,0,300,252,64,213,28309,6323,24307,0,230,3.6,10,0,0,0,0,0,0,0,0,0,0,0,0
2006,2,10,13,0,,3.5,-1.2,71,101250,0,0,293,307,88,250,33118,8651,28248,0,250,4.3,9,0,0,0,0,0,0,0,0,0,0,0,0
2006,2,10,14,0,,3.5,-0.2,78,101170,0,0,289,252,54,218,26793,5168,24495,0,250,2.2,9,0,0,0,0,0,0,0,0,0,0,0,0
2006,2,10,15,0,,4.3,0.7,76,101100,0,0,290,285,109,223,27516,9834,24695,0,270,3.3,8,0,0,0,0,0,0,0,0,0,0,0,0
2006,2,10,16,0,,4.9,-0.1,67,101070,0,0,291,241,143,176,19959,10432,18918,0,270,3.3,8,0,0,0,0,0,0,0,0,0,0,0,0
2006,2,10,17,0,,4.6,-0.8,65,101050,0,0,289,156,158,108,0,0,0,0,270,3.4,8,0,0,0,0,0,0,0,0,0,0,0,0
2006,2,10,18,0,,4.4,-1.6,64,101020,0,0,288,53,15,38,0,0,0,0,250,1.7,8,0,0,0,0,0,0,0,0,0,0,0,0
2006,2,10,19,0,,3.9,-1.7,68,101040,0,0,287,0,0,0,0,0,0,0,270,2.3,8,0,0,0,0,0,0,0,0,0,0,0,0
2006,2,10,20,0,,3.5,-1.9,69,101050,0,0,288,0,0,0,0,0,0,0,200,1.4,9,0,0,0,0,0,0,0,0,0,0,0,0
2006,2,10,21,0,,3.5,-2,66,101070,0,0,290,0,0,0,0,0,0,0,230,1.6,9,0,0,0,0,0,0,0,0,0,0,0,0
2006,2,10,22,0,,3.2,-1.5,70,101080,0,0,289,0,0,0,0,0,0,0,230,0.6,9,0,0,0,0,0,0,0,0,0,0,0,0
2006,2,10,23,0,,3.2,-1,72,101080,0,0,290,0,0,0,0,0,0,0,200,1.1,9,0,0,0,0,0,0,0,0,0,0,0,0
2006,2,10,24,0,,3.2,-0.5,75,101090,0,0,290,0,0,0,0,0,0,0,0,0.3,9,0,0,0,0,0,0,0,0,0,0,0,0
2006,2,11,1,0,,3,-0.3,76,101040,0,0,290,0,0,0,0,0,0,0,160,1.1,9,0,0,0,0,0,0,0,0,0,0,0,0
2006,2,11,2,0,,3.2,-0.2,75,101000,0,0,291,0,0,0,0,0,0,0,0,0.2,9,0,0,0,0,0,0,0,0,0,0,0,0
2006,2,11,3,0,,2.5,0,82,100950,0,0,288,0,0,0,0,0,0,0,0,0.3,9,0,0,0,0,0,0,0,0,0,0,0,0
2006,2,11,4,0,,2.2,0,84,100940,0,0,287,0,0,0,0,0,0,0,70,0.8,9,0,0,0,0,0,0,0,0,0,0,0,0
2006,2,11,5,0,,2,0,84,100930,0,0,286,0,0,0,0,0,0,0,0,0.2,9,0,0,0,0,0,0,0,0,0,0,0,0
2006,2,11,6,0,,2,0,85,100920,0,0,286,0,0,0,0,0,0,0,70,0.8,9,0,0,0,0,0,0,0,0,0,0,0,0
2006,2,11,7,0,,2,0.1,86,100930,0,0,286,0,0,0,0,0,0,0,0,0.3,9,0,0,0,0,0,0,0,0,0,0,0,0
2006,2,11,8,0,,2,0.3,86,100940,0,0,286,11,1,10,1440,36,1426,0,290,0.7,9,0,0,0,0,0,0,0,0,0,0,0,0
2006,2,11,9,0,,2.2,0.4,86,100950,0,0,287,63,44,54,9267,4405,6932,0,0,0.2,9,0,0,0,0,0,0,0,0,0,0,0,0
2006,2,11,10,0,,3.4,0.9,84,100970,0,0,283,202,169,139,27899,17244,17239,0,270,1,7,0,0,0,0,0,0,0,0,0,0,0,0
2006,2,11,11,0,,5,1.4,75,100980,0,0,285,337,260,203,41700,26585,24293,0,230,1.1,6,0,0,0,0,0,0,0,0,0,0,0,0
2006,2,11,12,0,,7.4,1.9,67,101000,0,0,291,493,504,186,56029,50158,24062,0,270,1.3,4,0,0,0,0,0,0,0,0,0,0,0,0
2006,2,11,13,0,,7,0.7,61,100970,0,0,288,526,488,209,53270,47988,26056,0,340,1.9,4,0,0,0,0,0,0,0,0,0,0,0,0
2006,2,11,14,0,,7,-0.4,56,100950,0,0,287,504,453,215,44450,43681,24843,0,360,1.7,4,0,0,0,0,0,0,0,0,0,0,0,0
2006,2,11,15,0,,7.9,-1.6,50,100920,0,0,290,448,453,187,32300,37987,21258,0,320,2.4,4,0,0,0,0,0,0,0,0,0,0,0,0
2006,2,11,16,0,,6.9,-1.6,51,100960,0,0,282,358,475,138,16829,19908,14772,0,290,1.9,3,0,0,0,0,0,0,0,0,0,0,0,0
2006,2,11,17,0,,6.1,-1.6,54,101010,0,0,275,244,535,79,0,0,0,0,20,2.7,1,0,0,0,0,0,0,0,0,0,0,0,0
2006,2,11,18,0,,5,-1.6,61,101050,0,0,264,87,50,36,0,0,0,0,320,1.5,0,0,0,0,0,0,0,0,0,0,0,0,0
2006,2,11,19,0,,3.7,-2,67,101130,0,0,259,0,0,0,0,0,0,0,340,1.2,0,0,0,0,0,0,0,0,0,0,0,0,0
2006,2,11,20,0,,3,-2.4,69,101220,0,0,256,0,0,0,0,0,0,0,20,1.4,0,0,0,0,0,0,0,0,0,0,0,0,0
2006,2,11,21,0,,2,-2.8,69,101300,0,0,252,0,0,0,0,0,0,0,50,2,0,0,0,0,0,0,0,0,0,0,0,0,0
2006,2,11,22,0,,1.6,-4.4,69,101370,0,0,248,0,0,0,0,0,0,0,290,0.8,0,0,0,0,0,0,0,0,0,0,0,0,0
2006,2,11,23,0,,1.7,-6.1,53,101430,0,0,247,0,0,0,0,0,0,0,340,1.3,0,0,0,0,0,0,0,0,0,0,0,0,0
2006,2,11,24,0,,1.7,-7.7,49,101500,0,0,246,0,0,0,0,0,0,0,340,1.7,0,0,0,0,0,0,0,0,0,0,0,0,0
2006,2,12,1,0,,1.1,-7.7,53,101560,0,0,243,0,0,0,0,0,0,0,340,1.3,0,0,0,0,0,0,0,0,0,0,0,0,0
2006,2,12,2,0,,0.8,-7.8,54,101610,0,0,242,0,0,0,0,0,0,0,360,2.3,0,0,0,0,0,0,0,0,0,0,0,0,0
2006,2,12,3,0,,0.5,-7.8,53,101670,0,0,241,0,0,0,0,0,0,0,340,2.9,0,0,0,0,0,0,0,0,0,0,0,0,0
2006,2,12,4,0,,-0.5,-8.9,47,101720,0,0,237,0,0,0,0,0,0,0,20,3.8,0,0,0,0,0,0,0,0,0,0,0,0,0
2006,2,12,5,0,,-1.1,-10,47,101770,0,0,234,0,0,0,0,0,0,0,20,2.4,0,0,0,0,0,0,0,0,0,0,0,0,0
2006,2,12,6,0,,-2.2,-11.1,52,101820,0,0,229,0,0,0,0,0,0,0,20,1.9,0,0,0,0,0,0,0,0,0,0,0,0,0
2006,2,12,7,0,,-2.7,-11,53,101900,0,0,227,0,0,0,0,0,0,0,50,2,0,0,0,0,0,0,0,0,0,0,0,0,0
2006,2,12,8,0,,-3,-11,53,101990,0,0,226,36,19,17,3050,1840,2313,0,70,1.6,0,0,0,0,0,0,0,0,0,0,0,0,0
2006,2,12,9,0,,-0.8,-10.9,47,102070,0,0,235,172,639,42,40083,63261,6279,0,50,0.5,0,0,0,0,0,0,0,0,0,0,0,0,0
2006,2,12,10,0,,1.3,-11.8,45,102090,0,0,240,350,755,65,56250,75336,9352,0,320,1.9,0,0,0,0,0,0,0,0,0,0,0,0,0
2006,2,12,11,0,,3,-12.8,39,102120,0,0,246,503,813,82,65278,81348,11660,0,320,1.7,0,0,0,0,0,0,0,0,0,0,0,0,0
2006,2,12,12,0,,5.1,-13.7,24,102140,0,0,254,614,852,93,67630,85005,13087,0,50,3,0,0,0,0,0,0,0,0,0,0,0,0,0
2006,2,12,13,0,,5.6,-13.5,23,102090,0,0,256,643,807,115,61612,79848,15994,0,340,3.2,0,0,0,0,0,0,0,0,0,0,0,0,0
2006,2,12,14,0,,6.3,-13.3,21,102050,0,0,258,615,760,125,50361,72896,17347,0,360,2,0,0,0,0,0,0,0,0,0,0,0,0,0
2006,2,12,15,0,,6.4,-13.1,23,102000,0,0,259,537,722,119,33740,60822,15829,0,320,2.7,0,0,0,0,0,0,0,0,0,0,0,0,0
2006,2,12,16,0,,6.5,-13,23,101980,0,0,260,426,721,90,14510,34009,10876,0,20,2.5,0,0,0,0,0,0,0,0,0,0,0,0,0
2006,2,12,17,0,,6.5,-12.8,22,101970,0,0,260,275,685,60,0,0,0,0,20,1.1,0,0,0,0,0,0,0,0,0,0,0,0,0
2006,2,12,18,0,,4.5,-12.7,27,101950,0,0,252,100,71,30,0,0,0,0,20,1.3,0,0,0,0,0,0,0,0,0,0,0,0,0
2006,2,12,19,0,,3,-11.9,31,101950,0,0,247,0,0,0,0,0,0,0,20,1.3,0,0,0,0,0,0,0,0,0,0,0,0,0
2006,2,12,20,0,,1.6,-11.2,36,101950,0,0,242,0,0,0,0,0,0,0,270,1.3,0,0,0,0,0,0,0,0,0,0,0,0,0
2006,2,12,21,0,,1.2,-10.4,41,101950,0,0,241,0,0,0,0,0,0,0,290,0.7,0,0,0,0,0,0,0,0,0,0,0,0,0
2006,2,12,22,0,,0.3,-9.8,44,101930,0,0,238,0,0,0,0,0,0,0,270,1.2,0,0,0,0,0,0,0,0,0,0,0,0,0
2006,2,12,23,0,,-0.2,-9.2,54,101920,0,0,238,0,0,0,0,0,0,0,250,0.9,0,0,0,0,0,0,0,0,0,0,0,0,0
2006,2,12,24,0,,-1,-8.6,57,101900,0,0,236,0,0,0,0,0,0,0,200,0.5,0,0,0,0,0,0,0,0,0,0,0,0,0
2006,2,13,1,0,,-1,-8.3,60,101870,0,0,236,0,0,0,0,0,0,0,50,0.6,0,0,0,0,0,0,0,0,0,0,0,0,0
2006,2,13,2,0,,-1.8,-7.9,64,101850,0,0,233,0,0,0,0,0,0,0,250,0.7,0,0,0,0,0,0,0,0,0,0,0,0,0
2006,2,13,3,0,,-2.7,-7.6,71,101820,0,0,230,0,0,0,0,0,0,0,250,0.7,0,0,0,0,0,0,0,0,0,0,0,0,0
2006,2,13,4,0,,-3,-7.2,74,101780,0,0,230,0,0,0,0,0,0,0,250,0.6,0,0,0,0,0,0,0,0,0,0,0,0,0
2006,2,13,5,0,,-3,-6.9,77,101730,0,0,230,0,0,0,0,0,0,0,50,1.2,0,0,0,0,0,0,0,0,0,0,0,0,0
2006,2,13,6,0,,-3,-6.5,79,101690,0,0,231,0,0,0,0,0,0,0,70,0.7,0,0,0,0,0,0,0,0,0,0,0,0,0
2006,2,13,7,0,,-3.9,-6.1,80,101670,0,0,228,0,0,0,0,0,0,0,0,0.3,0,0,0,0,0,0,0,0,0,0,0,0,0
2006,2,13,8,0,,-3.5,-5.7,83,101660,0,0,230,34,20,14,2856,1919,2079,0,0,0.3,0,0,0,0,0,0,0,0,0,0,0,0,0
2006,2,13,9,0,,-1.1,-5.3,74,101640,0,0,238,162,532,51,36810,53858,7802,0,270,0.7,0,0,0,0,0,0,0,0,0,0,0,0,0
2006,2,13,10,0,,2.5,-5.4,58,101570,0,0,253,353,752,66,56760,75372,9511,0,20,0.7,0,0,0,0,0,0,0,0,0,0,0,0,0
2006,2,13,11,0,,6,-5.4,48,101490,0,0,268,527,879,69,68491,88317,9893,0,250,1.2,1,0,0,0,0,0,0,0,0,0,0,0,0
2006,2,13,12,0,,9.8,-5.5,33,101420,0,0,285,653,948,69,71393,95183,9906,0,290,0.7,1,0,0,0,0,0,0,0,0,0,0,0,0
2006,2,13,13,0,,12.1,-4.9,26,101280,0,0,293,691,921,83,64798,91692,12027,0,290,1.4,1,0,0,0,0,0,0,0,0,0,0,0,0
2006,2,13,14,0,,13.1,-4.3,25,101140,0,0,296,653,852,100,52048,82106,14531,0,250,1.8,0,0,0,0,0,0,0,0,0,0,0,0,0
2006,2,13,15,0,,14.3,-3.7,28,101000,0,0,300,570,810,97,34373,69334,13692,0,250,3.4,0,0,0,0,0,0,0,0,0,0,0,0,0
2006,2,13,16,0,,15,-1.8,33,100980,0,0,305,437,745,86,14715,36196,10718,0,230,3.3,0,0,0,0,0,0,0,0,0,0,0,0,0
2006,2,13,17,0,,13.3,0.2,45,100970,0,0,299,274,662,64,0,0,0,0,250,4.5,0,0,0,0,0,0,0,0,0,0,0,0,0
2006,2,13,18,0,,11.3,2.1,52,100950,0,0,293,93,56,38,0,0,0,0,250,2.8,0,0,0,0,0,0,0,0,0,0,0,0,0
2006,2,13,19,0,,9.3,1.9,61,100920,0,0,288,0,0,0,0,0,0,0,200,3.1,1,0,0,0,0,0,0,0,0,0,0,0,0
2006,2,13,20,0,,9,1.7,59,100900,0,0,290,0,0,0,0,0,0,0,180,2.9,1,0,0,0,0,0,0,0,0,0,0,0,0
2006,2,13,21,0,,9.1,1.5,58,100870,0,0,293,0,0,0,0,0,0,0,180,2.9,2,0,0,0,0,0,0,0,0,0,0,0,0
2006,2,13,22,0,,9.8,2.4,63,100810,0,0,302,0,0,0,0,0,0,0,180,3.3,4,0,0,0,0,0,0,0,0,0,0,0,0
2006,2,13,23,0,,10.3,3.4,62,100750,0,0,310,0,0,0,0,0,0,0,200,3.2,6,0,0,0,0,0,0,0,0,0,0,0,0
2006,2,13,24,0,,10.6,4.3,64,100690,0,0,321,0,0,0,0,0,0,0,180,2.7,8,0,0,0,0,0,0,0,0,0,0,0,0
2006,2,14,1,0,,11.1,5.7,67,100620,0,0,330,0,0,0,0,0,0,0,200,3.2,9,0,0,0,0,0,0,0,0,0,0,0,0
2006,2,14,2,0,,9.6,7.2,87,100540,0,0,330,0,0,0,0,0,0,0,200,2,9,0,0,0,0,0,0,0,0,0,0,0,0
2006,2,14,3,0,,9.6,8.6,92,100470,0,0,339,0,0,0,0,0,0,0,200,2.5,10,0,0,0,0,0,0,0,0,0,0,0,0
2006,2,14,4,0,,9.8,9.1,94,100460,0,0,340,0,0,0,0,0,0,0,270,2.1,10,0,0,0,0,0,0,0,0,0,0,0,0
2006,2,14,5,0,,9.8,9.6,97,100460,0,0,341,0,0,0,0,0,0,0,250,1.2,10,0,0,0,0,0,0,0,0,0,0,0,0
2006,2,14,6,0,,10.3,10.1,97,100450,0,0,344,0,0,0,0,0,0,0,200,1.9,10,0,0,0,0,0,0,0,0,0,0,0,0
2006,2,14,7,0,,11,10.4,98,100480,0,0,348,0,0,0,0,0,0,0,230,2.3,10,0,0,0,0,0,0,0,0,0,0,0,0
2006,2,14,8,0,,11,10.7,97,100510,0,0,348,9,0,9,1225,14,1219,0,200,3.4,10,0,0,0,0,0,0,0,0,0,0,0,0
2006,2,14,9,0,,11.1,11,98,100540,0,0,349,49,18,45,6341,1627,5458,0,250,2.3,10,0,0,0,0,0,0,0,0,0,0,0,0
2006,2,14,10,0,,10.8,10.9,98,100550,0,0,347,88,14,82,10640,1324,9804,0,200,2.3,10,0,0,0,0,0,0,0,0,0,0,0,0
2006,2,14,11,0,,10.8,10.7,98,100560,0,0,347,128,15,120,15073,1420,14125,0,200,3,10,0,0,0,0,0,0,0,0,0,0,0,0
2006,2,14,12,0,,10.8,10.6,97,100570,0,0,347,152,14,143,17891,921,17292,0,270,3.1,10,0,0,0,0,0,0,0,0,0,0,0,0
2006,2,14,13,0,,11.1,10.3,97,100540,0,0,348,176,17,165,20035,1170,19357,0,250,1.5,10,0,0,0,0,0,0,0,0,0,0,0,0
2006,2,14,14,0,,11.6,9.9,91,100500,0,0,350,201,27,184,21716,1908,20836,0,250,3.6,10,0,0,0,0,0,0,0,0,0,0,0,0
2006,2,14,15,0,,10.6,9.6,92,100470,0,0,345,146,15,137,15326,888,15058,0,290,1.2,10,0,0,0,0,0,0,0,0,0,0,0,0
2006,2,14,16,0,,10.6,8.9,89,100540,0,0,344,125,20,115,11786,878,11686,0,270,2.6,10,0,0,0,0,0,0,0,0,0,0,0,0
2006,2,14,17,0,,9.8,8.2,87,100620,0,0,339,70,14,66,0,0,0,0,270,1.2,10,0,0,0,0,0,0,0,0,0,0,0,0
2006,2,14,18,0,,9,7.5,89,100690,0,0,334,23,1,22,0,0,0,0,320,1.8,10,0,0,0,0,0,0,0,0,0,0,0,0
2006,2,14,19,0,,7.9,7.2,92,100740,0,0,329,0,0,0,0,0,0,0,90,0.8,10,0,0,0,0,0,0,0,0,0,0,0,0
2006,2,14,20,0,,7.9,7,93,100800,0,0,329,0,0,0,0,0,0,0,360,1.4,10,0,0,0,0,0,0,0,0,0,0,0,0
2006,2,14,21,0,,7.5,6.7,93,100850,0,0,327,0,0,0,0,0,0,0,290,1.3,10,0,0,0,0,0,0,0,0,0,0,0,0
2006,2,14,22,0,,7.5,6.4,92,100880,0,0,320,0,0,0,0,0,0,0,0,0.4,9,0,0,0,0,0,0,0,0,0,0,0,0
2006,2,14,23,0,,7.1,6,91,100920,0,0,313,0,0,0,0,0,0,0,0,0.4,9,0,0,0,0,0,0,0,0,0,0,0,0
2006,2,14,24,0,,6.6,5.7,92,100950,0,0,306,0,0,0,0,0,0,0,290,0.6,8,0,0,0,0,0,0,0,0,0,0,0,0
2006,2,15,1,0,,6.3,5.3,93,100880,0,0,298,0,0,0,0,0,0,0,50,1.3,7,0,0,0,0,0,0,0,0,0,0,0,0
2006,2,15,2,0,,5.4,5,93,100820,0,0,290,0,0,0,0,0,0,0,50,2.6,5,0,0,0,0,0,0,0,0,0,0,0,0
2006,2,15,3,0,,5.4,4.6,93,100750,0,0,287,0,0,0,0,0,0,0,20,3.2,4,0,0,0,0,0,0,0,0,0,0,0,0
2006,2,15,4,0,,4.8,4.2,92,100820,0,0,287,0,0,0,0,0,0,0,270,0.7,5,0,0,0,0,0,0,0,0,0,0,0,0
2006,2,15,5,0,,4,3.8,92,100900,0,0,287,0,0,0,0,0,0,0,20,3.2,7,0,0,0,0,0,0,0,0,0,0,0,0
2006,2,15,6,0,,4.5,3.4,91,100970,0,0,294,0,0,0,0,0,0,0,20,3.4,8,0,0,0,0,0,0,0,0,0,0,0,0
2006,2,15,7,0,,4.4,3.1,90,100990,0,0,297,0,0,0,0,0,0,0,20,3.6,9,0,0,0,0,0,0,0,0,0,0,0,0
2006,2,15,8,0,,4.5,2.9,88,101000,0,0,302,16,2,14,1948,82,1914,0,50,5.1,9,0,0,0,0,0,0,0,0,0,0,0,0
2006,2,15,9,0,,5.5,2.6,80,101020,0,0,312,61,32,54,8740,3246,6963,0,50,3.3,10,0,0,0,0,0,0,0,0,0,0,0,0
2006,2,15,10,0,,6.5,2.7,73,100990,0,0,317,141,53,120,18099,5387,14674,0,50,5.6,10,0,0,0,0,0,0,0,0,0,0,0,0
2006,2,15,11,0,,6.8,2.8,70,100950,0,0,318,180,39,160,21042,3785,18497,0,50,3,10,0,0,0,0,0,0,0,0,0,0,0,0
2006,2,15,12,0,,7.1,2.9,73,100920,0,0,319,207,33,186,23538,3214,21434,0,70,1.8,10,0,0,0,0,0,0,0,0,0,0,0,0
2006,2,15,13,0,,8.1,3,57,100910,0,0,324,226,34,203,25112,3255,23210,0,70,1,10,0,0,0,0,0,0,0,0,0,0,0,0
2006,2,15,14,0,,7.8,3.1,62,100910,0,0,323,213,31,193,23279,2894,21933,0,20,2.1,10,0,0,0,0,0,0,0,0,0,0,0,0
2006,2,15,15,0,,6.3,3.2,79,100900,0,0,316,157,18,146,16458,1178,16098,0,20,2.9,10,0,0,0,0,0,0,0,0,0,0,0,0
2006,2,15,16,0,,5.4,3.4,92,100850,0,0,313,118,17,110,11318,700,11236,0,50,4.7,10,0,0,0,0,0,0,0,0,0,0,0,0
2006,2,15,17,0,,4.8,3.6,92,100800,0,0,311,71,14,67,0,0,0,0,50,4,10,0,0,0,0,0,0,0,0,0,0,0,0
2006,2,15,18,0,,4.6,3.8,93,100750,0,0,310,26,2,25,0,0,0,0,50,3.9,10,0,0,0,0,0,0,0,0,0,0,0,0
2006,2,15,19,0,,4.8,3.7,92,100810,0,0,311,0,0,0,0,0,0,0,50,4.2,10,0,0,0,0,0,0,0,0,0,0,0,0
2006,2,15,20,0,,5,3.7,89,100860,0,0,311,0,0,0,0,0,0,0,50,3.5,10,0,0,0,0,0,0,0,0,0,0,0,0
2006,2,15,21,0,,5,3.6,89,100920,0,0,311,0,0,0,0,0,0,0,50,2.3,10,0,0,0,0,0,0,0,0,0,0,0,0
2006,2,15,22,0,,5,3.6,89,100950,0,0,311,0,0,0,0,0,0,0,70,1.3,10,0,0,0,0,0,0,0,0,0,0,0,0
2006,2,15,23,0,,5.1,3.5,87,100970,0,0,312,0,0,0,0,0,0,0,20,1.7,10,0,0,0,0,0,0,0,0,0,0,0,0
2006,2,15,24,0,,5.1,3.5,88,101000,0,0,312,0,0,0,0,0,0,0,360,1,10,0,0,0,0,0,0,0,0,0,0,0,0
2006,2,16,1,0,,5,3.6,88,101010,0,0,311,0,0,0,0,0,0,0,50,2.3,10,0,0,0,0,0,0,0,0,0,0,0,0
2006,2,16,2,0,,4.8,3.7,90,101010,0,0,311,0,0,0,0,0,0,0,20,0.5,10,0,0,0,0,0,0,0,0,0,0,0,0
2006,2,16,3,0,,4.9,3.8,91,101020,0,0,311,0,0,0,0,0,0,0,340,0.5,10,0,0,0,0,0,0,0,0,0,0,0,0
2006,2,16,4,0,,4,3.4,93,100990,0,0,291,0,0,0,0,0,0,0,360,0.8,8,0,0,0,0,0,0,0,0,0,0,0,0
2006,2,16,5,0,,3.4,3.1,95,100950,0,0,280,0,0,0,0,0,0,0,50,2.5,5,0,0,0,0,0,0,0,0,0,0,0,0
2006,2,16,6,0,,3.2,2.7,95,100920,0,0,274,0,0,0,0,0,0,0,320,0.8,3,0,0,0,0,0,0,0,0,0,0,0,0
2006,2,16,7,0,,3,2.9,96,101010,0,0,277,0,0,0,0,0,0,0,50,0.5,5,0,0,0,0,0,0,0,0,0,0,0,0
2006,2,16,8,0,,3.4,3,95,101110,0,0,285,22,5,18,2358,422,2182,0,360,0.5,7,0,0,0,0,0,0,0,0,0,0,0,0
2006,2,16,9,0,,4,3.2,93,101200,0,0,298,71,46,61,10286,4608,7744,0,50,1.4,9,0,0,0,0,0,0,0,0,0,0,0,0
2006,2,16,10,0,,4.5,3.3,86,101220,0,0,300,153,64,127,19669,6489,15515,0,20,2.5,9,0,0,0,0,0,0,0,0,0,0,0,0
2006,2,16,11,0,,5.8,3.3,82,101250,0,0,306,221,67,185,25781,6498,21383,0,20,2,9,0,0,0,0,0,0,0,0,0,0,0,0
2006,2,16,12,0,,6.5,3.4,79,101270,0,0,309,271,68,228,30424,6619,26061,0,50,1,9,0,0,0,0,0,0,0,0,0,0,0,0
2006,2,16,13,0,,8.5,1.4,68,101270,0,0,318,323,88,263,34868,8650,29780,0,50,1.4,9,0,0,0,0,0,0,0,0,0,0,0,0
2006,2,16,14,0,,7.9,-0.6,48,101270,0,0,316,261,52,227,27882,5025,25525,0,20,3.8,10,0,0,0,0,0,0,0,0,0,0,0,0
2006,2,16,15,0,,7.8,-2.6,47,101270,0,0,316,227,50,197,23374,4562,21962,0,360,2.4,10,0,0,0,0,0,0,0,0,0,0,0,0
2006,2,16,16,0,,6.8,-3.6,41,101320,0,0,300,199,70,166,18572,5257,17937,0,340,2.2,9,0,0,0,0,0,0,0,0,0,0,0,0
2006,2,16,17,0,,6,-4.7,49,101370,0,0,288,190,222,117,0,0,0,0,340,2.5,7,0,0,0,0,0,0,0,0,0,0,0,0
2006,2,16,18,0,,5,-5.7,45,101420,0,0,278,83,41,42,0,0,0,0,360,1.9,6,0,0,0,0,0,0,0,0,0,0,0,0
2006,2,16,19,0,,4.1,-5.1,37,101520,0,0,275,4,0,4,0,0,0,0,340,2,6,0,0,0,0,0,0,0,0,0,0,0,0
2006,2,16,20,0,,2.9,-4.5,57,101620,0,0,271,0,0,0,0,0,0,0,20,2,6,0,0,0,0,0,0,0,0,0,0,0,0
2006,2,16,21,0,,2.2,-3.9,63,101720,0,0,269,0,0,0,0,0,0,0,340,1.5,6,0,0,0,0,0,0,0,0,0,0,0,0
2006,2,16,22,0,,1.6,-5.9,52,101780,0,0,260,0,0,0,0,0,0,0,20,2.8,4,0,0,0,0,0,0,0,0,0,0,0,0
2006,2,16,23,0,,0.8,-7.8,43,101840,0,0,250,0,0,0,0,0,0,0,20,2.9,2,0,0,0,0,0,0,0,0,0,0,0,0
2006,2,16,24,0,,-0.1,-9.8,48,101900,0,0,238,0,0,0,0,0,0,0,340,2.8,0,0,0,0,0,0,0,0,0,0,0,0,0
2006,2,17,1,0,,-1,-10,55,101960,0,0,240,0,0,0,0,0,0,0,20,4.1,1,0,0,0,0,0,0,0,0,0,0,0,0
2006,2,17,2,0,,-1.7,-10.2,53,102030,0,0,241,0,0,0,0,0,0,0,340,2.8,3,0,0,0,0,0,0,0,0,0,0,0,0
2006,2,17,3,0,,-2,-10.4,54,102090,0,0,242,0,0,0,0,0,0,0,20,3.6,4,0,0,0,0,0,0,0,0,0,0,0,0
2006,2,17,4,0,,-2.5,-10.7,56,102110,0,0,238,0,0,0,0,0,0,0,20,1.9,3,0,0,0,0,0,0,0,0,0,0,0,0
2006,2,17,5,0,,-2.9,-11.1,58,102130,0,0,234,0,0,0,0,0,0,0,20,4.5,2,0,0,0,0,0,0,0,0,0,0,0,0
2006,2,17,6,0,,-3.4,-11.4,56,102150,0,0,229,0,0,0,0,0,0,0,20,3.4,1,0,0,0,0,0,0,0,0,0,0,0,0
2006,2,17,7,0,,-3.7,-13.7,39,102220,0,0,225,0,0,0,0,0,0,0,20,4.8,1,0,0,0,0,0,0,0,0,0,0,0,0
2006,2,17,8,0,,-3.7,-16,38,102280,0,0,223,47,30,17,3754,2986,2495,0,70,3.1,0,0,0,0,0,0,0,0,0,0,0,0,0
2006,2,17,9,0,,-2.2,-18.3,29,102350,0,0,226,201,731,38,46015,72487,5706,0,20,3.4,0,0,0,0,0,0,0,0,0,0,0,0,0
2006,2,17,10,0,,-1.3,-18.5,22,102360,0,0,233,393,852,53,62742,85275,7769,0,20,7.4,1,0,0,0,0,0,0,0,0,0,0,0,0
2006,2,17,11,0,,-0.3,-18.7,24,102360,0,0,239,525,812,87,67610,81280,12236,0,20,4.3,1,0,0,0,0,0,0,0,0,0,0,0,0
2006,2,17,12,0,,-0.1,-18.9,23,102370,0,0,242,600,746,127,66732,74788,17113,0,20,4.2,2,0,0,0,0,0,0,0,0,0,0,0,0
2006,2,17,13,0,,0.4,-18.4,24,102320,0,0,244,616,671,162,61143,66752,21596,0,360,3.8,3,0,0,0,0,0,0,0,0,0,0,0,0
2006,2,17,14,0,,0.6,-17.9,25,102270,0,0,246,577,591,183,49774,57910,22380,0,20,4,4,0,0,0,0,0,0,0,0,0,0,0,0
2006,2,17,15,0,,0.8,-17.4,24,102220,0,0,249,495,527,178,35220,46088,20775,0,20,5.2,5,0,0,0,0,0,0,0,0,0,0,0,0
2006,2,17,16,0,,0.8,-17.3,25,102240,0,0,246,424,641,112,16818,35134,12446,0,360,3.7,3,0,0,0,0,0,0,0,0,0,0,0,0
2006,2,17,17,0,,0.6,-17.1,24,102270,0,0,241,295,701,63,0,0,0,0,20,4.3,2,0,0,0,0,0,0,0,0,0,0,0,0
2006,2,17,18,0,,-0.5,-17,28,102290,0,0,233,125,97,28,0,0,0,0,20,5.3,0,0,0,0,0,0,0,0,0,0,0,0,0
2006,2,17,19,0,,-1.5,-16.2,31,102300,0,0,229,11,4,7,0,0,0,0,20,4.2,0,0,0,0,0,0,0,0,0,0,0,0,0
2006,2,17,20,0,,-2,-15.3,34,102310,0,0,228,0,0,0,0,0,0,0,20,3.5,0,0,0,0,0,0,0,0,0,0,0,0,0
2006,2,17,21,0,,-2.4,-14.5,40,102320,0,0,226,0,0,0,0,0,0,0,0,0.4,0,0,0,0,0,0,0,0,0,0,0,0,0
2006,2,17,22,0,,-2.5,-14,42,102320,0,0,226,0,0,0,0,0,0,0,320,1,0,0,0,0,0,0,0,0,0,0,0,0,0
2006,2,17,23,0,,-3.4,-13.6,46,102320,0,0,223,0,0,0,0,0,0,0,0,0.4,0,0,0,0,0,0,0,0,0,0,0,0,0
2006,2,17,24,0,,-3.9,-13.1,51,102320,0,0,222,0,0,0,0,0,0,0,20,1.3,0,0,0,0,0,0,0,0,0,0,0,0,0
2006,2,18,1,0,,-3.5,-13.5,47,102290,0,0,227,0,0,0,0,0,0,0,20,0.7,1,0,0,0,0,0,0,0,0,0,0,0,0
2006,2,18,2,0,,-4,-13.8,53,102250,0,0,228,0,0,0,0,0,0,0,70,1.3,2,0,0,0,0,0,0,0,0,0,0,0,0
2006,2,18,3,0,,-3.7,-14.2,46,102220,0,0,231,0,0,0,0,0,0,0,50,1.1,3,0,0,0,0,0,0,0,0,0,0,0,0
2006,2,18,4,0,,-3.5,-13,53,102230,0,0,235,0,0,0,0,0,0,0,20,1.6,4,0,0,0,0,0,0,0,0,0,0,0,0
2006,2,18,5,0,,-4,-11.7,62,102240,0,0,235,0,0,0,0,0,0,0,290,1.1,5,0,0,0,0,0,0,0,0,0,0,0,0
2006,2,18,6,0,,-4.5,-10.5,66,102250,0,0,237,0,0,0,0,0,0,0,230,0.6,6,0,0,0,0,0,0,0,0,0,0,0,0
2006,2,18,7,0,,-4.1,-10.3,68,102260,0,0,238,0,0,0,0,0,0,0,20,0.6,6,0,0,0,0,0,0,0,0,0,0,0,0
2006,2,18,8,0,,-3.7,-10,63,102260,0,0,240,34,14,20,3257,1402,2660,0,0,0.2,6,0,0,0,0,0,0,0,0,0,0,0,0
2006,2,18,9,0,,-1.7,-9.8,55,102270,0,0,248,156,369,72,32293,37499,11273,0,0,0.3,6,0,0,0,0,0,0,0,0,0,0,0,0
2006,2,18,10,0,,-0.6,-8.7,56,102250,0,0,256,264,298,144,38739,30325,19053,0,230,1.1,7,0,0,0,0,0,0,0,0,0,0,0,0
2006,2,18,11,0,,1.1,-7.5,52,102220,0,0,267,329,195,223,39868,20536,25785,0,290,0.6,8,0,0,0,0,0,0,0,0,0,0,0,0
2006,2,18,12,0,,3,-6.4,49,102200,0,0,282,336,119,261,37918,12257,29732,0,270,1.4,9,0,0,0,0,0,0,0,0,0,0,0,0
2006,2,18,13,0,,4,-6.7,46,102100,0,0,276,474,254,301,49219,25824,33811,0,230,1.4,7,0,0,0,0,0,0,0,0,0,0,0,0
2006,2,18,14,0,,5.1,-7,43,102000,0,0,275,545,489,217,48564,47286,26006,0,320,1.1,5,0,0,0,0,0,0,0,0,0,0,0,0
2006,2,18,15,0,,6.9,-7.3,35,101900,0,0,278,545,668,140,35933,58331,17432,0,340,1.3,3,0,0,0,0,0,0,0,0,0,0,0,0
2006,2,18,16,0,,6.8,-7,38,101870,0,0,277,428,641,113,17267,35128,12773,0,320,1.2,3,0,0,0,0,0,0,0,0,0,0,0,0
2006,2,18,17,0,,6.5,-6.7,36,101850,0,0,277,284,629,73,0,0,0,0,340,1.9,3,0,0,0,0,0,0,0,0,0,0,0,0
2006,2,18,18,0,,4.9,-6.4,43,101820,0,0,270,111,71,40,0,0,0,0,320,1.6,3,0,0,0,0,0,0,0,0,0,0,0,0
2006,2,18,19,0,,3.7,-6.2,48,101850,0,0,266,10,3,7,0,0,0,0,340,1.3,3,0,0,0,0,0,0,0,0,0,0,0,0
2006,2,18,20,0,,2.9,-6,53,101870,0,0,263,0,0,0,0,0,0,0,20,1.3,3,0,0,0,0,0,0,0,0,0,0,0,0
2006,2,18,21,0,,1.8,-5.8,56,101900,0,0,258,0,0,0,0,0,0,0,20,1,3,0,0,0,0,0,0,0,0,0,0,0,0
2006,2,18,22,0,,1.7,-5.3,57,101890,0,0,259,0,0,0,0,0,0,0,50,0.6,3,0,0,0,0,0,0,0,0,0,0,0,0
2006,2,18,23,0,,0.6,-4.9,65,101880,0,0,255,0,0,0,0,0,0,0,50,0.9,3,0,0,0,0,0,0,0,0,0,0,0,0
2006,2,18,24,0,,0.4,-4.4,69,101870,0,0,255,0,0,0,0,0,0,0,200,0.9,3,0,0,0,0,0,0,0,0,0,0,0,0
2006,2,19,1,0,,-1.3,-4.3,79,101880,0,0,250,0,0,0,0,0,0,0,0,0.3,3,0,0,0,0,0,0,0,0,0,0,0,0
2006,2,19,2,0,,-1,-4.3,78,101890,0,0,252,0,0,0,0,0,0,0,270,0.7,4,0,0,0,0,0,0,0,0,0,0,0,0
2006,2,19,3,0,,-1.2,-4.2,81,101900,0,0,252,0,0,0,0,0,0,0,0,0.4,4,0,0,0,0,0,0,0,0,0,0,0,0
2006,2,19,4,0,,-2,-4.5,82,101870,0,0,248,0,0,0,0,0,0,0,20,0.9,4,0,0,0,0,0,0,0,0,0,0,0,0
2006,2,19,5,0,,-2,-4.7,82,101830,0,0,248,0,0,0,0,0,0,0,0,0.3,4,0,0,0,0,0,0,0,0,0,0,0,0
2006,2,19,6,0,,-2.5,-5,85,101800,0,0,246,0,0,0,0,0,0,0,270,1.2,4,0,0,0,0,0,0,0,0,0,0,0,0
2006,2,19,7,0,,-2.5,-4.7,85,101850,0,0,246,0,0,0,0,0,0,0,250,0.9,4,0,0,0,0,0,0,0,0,0,0,0,0
2006,2,19,8,0,,-1.8,-4.4,82,101900,0,0,249,40,23,17,3555,2226,2597,0,200,0.6,4,0,0,0,0,0,0,0,0,0,0,0,0
2006,2,19,9,0,,-0.8,-4.1,79,101950,0,0,253,165,410,69,34518,41614,11003,0,0,0.3,4,0,0,0,0,0,0,0,0,0,0,0,0
2006,2,19,10,0,,1,-3.7,72,101950,0,0,263,297,409,130,45536,41428,18454,0,0,0.3,5,0,0,0,0,0,0,0,0,0,0,0,0
2006,2,19,11,0,,3,-3.2,64,101940,0,0,274,353,236,224,43114,24509,26196,0,20,0.5,7,0,0,0,0,0,0,0,0,0,0,0,0
2006,2,19,12,0,,5,-2.8,56,101940,0,0,289,396,184,278,44309,18818,31659,0,250,1.7,8,0,0,0,0,0,0,0,0,0,0,0,0
2006,2,19,13,0,,7,-3.4,47,101820,0,0,290,542,440,240,55326,43877,28961,0,200,1.4,6,0,0,0,0,0,0,0,0,0,0,0,0
2006,2,19,14,0,,8.6,-4.1,43,101690,0,0,291,573,556,198,50118,53715,24278,0,230,2.2,5,0,0,0,0,0,0,0,0,0,0,0,0
2006,2,19,15,0,,8.6,-4.7,38,101570,0,0,287,539,637,150,36351,55512,18536,0,50,1.9,3,0,0,0,0,0,0,0,0,0,0,0,0
2006,2,19,16,0,,10.1,-4.9,30,101560,0,0,296,418,593,124,18218,32660,13926,0,250,1.8,4,0,0,0,0,0,0,0,0,0,0,0,0
2006,2,19,17,0,,8.8,-5,34,101560,0,0,292,251,444,101,0,0,0,0,50,0.8,5,0,0,0,0,0,0,0,0,0,0,0,0
2006,2,19,18,0,,7.6,-5.2,39,101550,0,0,289,96,285,53,0,0,0,0,290,0.8,6,0,0,0,0,0,0,0,0,0,0,0,0
2006,2,19,19,0,,6.5,-4.7,44,101570,0,0,287,6,1,5,0,0,0,0,270,1,7,0,0,0,0,0,0,0,0,0,0,0,0
2006,2,19,20,0,,5,-4.2,49,101600,0,0,284,0,0,0,0,0,0,0,0,0.3,7,0,0,0,0,0,0,0,0,0,0,0,0
2006,2,19,21,0,,4.6,-3.7,54,101620,0,0,286,0,0,0,0,0,0,0,270,1.4,8,0,0,0,0,0,0,0,0,0,0,0,0
2006,2,19,22,0,,3.4,-3.2,62,101650,0,0,279,0,0,0,0,0,0,0,250,1.5,7,0,0,0,0,0,0,0,0,0,0,0,0
2006,2,19,23,0,,3.5,-2.6,61,101670,0,0,277,0,0,0,0,0,0,0,0,0.3,7,0,0,0,0,0,0,0,0,0,0,0,0
2006,2,19,24,0,,3.2,-2.1,67,101700,0,0,275,0,0,0,0,0,0,0,160,0.9,6,0,0,0,0,0,0,0,0,0,0,0,0
2006,2,20,1,0,,2.9,-2,70,101670,0,0,271,0,0,0,0,0,0,0,360,0.6,5,0,0,0,0,0,0,0,0,0,0,0,0
2006,2,20,2,0,,2,-1.9,73,101630,0,0,266,0,0,0,0,0,0,0,0,0.2,4,0,0,0,0,0,0,0,0,0,0,0,0
2006,2,20,3,0,,1.5,-1.8,77,101600,0,0,262,0,0,0,0,0,0,0,290,0.7,3,0,0,0,0,0,0,0,0,0,0,0,0
2006,2,20,4,0,,0.1,-2.1,82,101600,0,0,254,0,0,0,0,0,0,0,140,0.5,2,0,0,0,0,0,0,0,0,0,0,0,0
2006,2,20,5,0,,0.2,-2.4,81,101600,0,0,251,0,0,0,0,0,0,0,0,0.4,1,0,0,0,0,0,0,0,0,0,0,0,0
2006,2,20,6,0,,-0.3,-2.7,84,101600,0,0,244,0,0,0,0,0,0,0,270,0.9,0,0,0,0,0,0,0,0,0,0,0,0,0
2006,2,20,7,0,,-0.8,-2.3,86,101620,0,0,243,0,0,0,0,0,0,0,230,0.7,0,0,0,0,0,0,0,0,0,0,0,0,0
2006,2,20,8,0,,-1,-1.8,86,101650,0,0,243,41,23,18,3687,2250,2709,0,0,0.2,0,0,0,0,0,0,0,0,0,0,0,0,0
2006,2,20,9,0,,1.8,-1.4,78,101670,0,0,253,184,525,60,39269,53325,8895,0,70,0.5,0,0,0,0,0,0,0,0,0,0,0,0,0
2006,2,20,10,0,,3.7,-1.6,70,101640,0,0,259,357,648,90,56112,66049,12634,0,270,1.5,0,0,0,0,0,0,0,0,0,0,0,0,0
2006,2,20,11,0,,6.3,-1.9,56,101600,0,0,269,522,761,102,67899,77472,14073,0,270,1.4,0,0,0,0,0,0,0,0,0,0,0,0,0
2006,2,20,12,0,,8.3,-2.1,47,101570,0,0,276,622,769,124,69298,77578,16805,0,290,1.6,0,0,0,0,0,0,0,0,0,0,0,0,0
2006,2,20,13,0,,9.6,-2.4,40,101470,0,0,287,654,736,146,64542,73393,20132,0,250,1.5,1,0,0,0,0,0,0,0,0,0,0,0,0
2006,2,20,14,0,,11.3,-2.8,33,101370,0,0,298,633,710,151,53383,68079,20361,0,290,1,2,0,0,0,0,0,0,0,0,0,0,0,0
2006,2,20,15,0,,13,-3.1,32,101270,0,0,308,560,689,137,36849,60173,17313,0,270,1.7,3,0,0,0,0,0,0,0,0,0,0,0,0
2006,2,20,16,0,,12.3,-2.1,26,101290,0,0,308,422,594,126,18632,32929,14191,0,270,2,4,0,0,0,0,0,0,0,0,0,0,0,0
2006,2,20,17,0,,10.6,-1.1,48,101300,0,0,304,245,399,108,0,0,0,0,270,2.3,5,0,0,0,0,0,0,0,0,0,0,0,0
2006,2,20,18,0,,8.1,-0.1,55,101320,0,0,297,84,214,50,0,0,0,0,290,1.9,6,0,0,0,0,0,0,0,0,0,0,0,0
2006,2,20,19,0,,6.6,-0.3,62,101330,0,0,290,7,1,6,0,0,0,0,200,1.9,6,0,0,0,0,0,0,0,0,0,0,0,0
2006,2,20,20,0,,5.8,-0.4,64,101330,0,0,287,0,0,0,0,0,0,0,270,1.2,6,0,0,0,0,0,0,0,0,0,0,0,0
2006,2,20,21,0,,5,-0.6,66,101340,0,0,283,0,0,0,0,0,0,0,0,0,6,0,0,0,0,0,0,0,0,0,0,0,0
2006,2,20,22,0,,4.6,-0.6,66,101370,0,0,282,0,0,0,0,0,0,0,250,1.4,6,0,0,0,0,0,0,0,0,0,0,0,0
2006,2,20,23,0,,4.3,-0.6,67,101410,0,0,281,0,0,0,0,0,0,0,230,1.4,6,0,0,0,0,0,0,0,0,0,0,0,0
2006,2,20,24,0,,3.9,-0.6,71,101440,0,0,279,0,0,0,0,0,0,0,180,0.5,6,0,0,0,0,0,0,0,0,0,0,0,0
2006,2,21,1,0,,3.7,-0.7,73,101460,0,0,276,0,0,0,0,0,0,0,250,0.7,5,0,0,0,0,0,0,0,0,0,0,0,0
2006,2,21,2,0,,3.2,-0.7,74,101480,0,0,272,0,0,0,0,0,0,0,270,0.6,4,0,0,0,0,0,0,0,0,0,0,0,0
2006,2,21,3,0,,2.4,-0.8,78,101500,0,0,266,0,0,0,0,0,0,0,270,0.6,3,0,0,0,0,0,0,0,0,0,0,0,0
2006,2,21,4,0,,1.7,-1,81,101490,0,0,261,0,0,0,0,0,0,0,0,0.4,2,0,0,0,0,0,0,0,0,0,0,0,0
2006,2,21,5,0,,1.5,-1.1,83,101480,0,0,257,0,0,0,0,0,0,0,140,0.6,1,0,0,0,0,0,0,0,0,0,0,0,0
2006,2,21,6,0,,0.5,-1.3,86,101470,0,0,248,0,0,0,0,0,0,0,0,0.4,0,0,0,0,0,0,0,0,0,0,0,0,0
2006,2,21,7,0,,0.1,-1.3,88,101460,0,0,247,0,0,0,0,0,0,0,0,0,0,0,0,0,0,0,0,0,0,0,0,0,0
2006,2,21,8,0,,0.6,-1.3,86,101450,0,0,249,44,20,25,4171,1925,3326,0,200,0.7,0,0,0,0,0,0,0,0,0,0,0,0,0
2006,2,21,9,0,,2,-1.3,77,101440,0,0,253,187,525,61,39674,53336,9050,0,250,0.9,0,0,0,0,0,0,0,0,0,0,0,0,0
2006,2,21,10,0,,4.3,-3.1,68,101430,0,0,260,369,680,85,58037,69359,12062,0,270,1,0,0,0,0,0,0,0,0,0,0,0,0,0
2006,2,21,11,0,,8.3,-4.8,50,101410,0,0,274,550,832,86,70663,83784,12073,0,20,0.5,0,0,0,0,0,0,0,0,0,0,0,0,0
2006,2,21,12,0,,11.5,-6.6,27,101400,0,0,285,687,932,79,74996,93705,11179,0,20,1.7,0,0,0,0,0,0,0,0,0,0,0,0,0
2006,2,21,13,0,,12.8,-7.2,25,101350,0,0,297,719,893,98,68548,89780,13843,0,320,1.2,1,0,0,0,0,0,0,0,0,0,0,0,0
2006,2,21,14,0,,14.1,-7.8,24,101300,0,0,306,652,751,139,54552,72620,19038,0,230,1,3,0,0,0,0,0,0,0,0,0,0,0,0
2006,2,21,15,0,,14.8,-8.4,19,101250,0,0,311,559,674,143,37289,59624,17710,0,270,3.2,4,0,0,0,0,0,0,0,0,0,0,0,0
2006,2,21,16,0,,14.1,-7.3,22,101210,0,0,311,420,572,132,19140,32675,14620,0,290,1.2,4,0,0,0,0,0,0,0,0,0,0,0,0
2006,2,21,17,0,,13.1,-6.1,24,101160,0,0,309,262,469,100,0,0,0,0,200,1.9,5,0,0,0,0,0,0,0,0,0,0,0,0
2006,2,21,18,0,,12.3,-5,29,101120,0,0,307,107,353,51,0,0,0,0,270,1.4,5,0,0,0,0,0,0,0,0,0,0,0,0
2006,2,21,19,0,,10.8,-3.8,33,101130,0,0,305,10,2,8,0,0,0,0,290,0.9,6,0,0,0,0,0,0,0,0,0,0,0,0
2006,2,21,20,0,,9,-2.7,42,101130,0,0,301,0,0,0,0,0,0,0,250,1.2,7,0,0,0,0,0,0,0,0,0,0,0,0
2006,2,21,21,0,,8.6,-1.5,48,101140,0,0,306,0,0,0,0,0,0,0,230,1,8,0,0,0,0,0,0,0,0,0,0,0,0
2006,2,21,22,0,,7.6,-1.1,55,101160,0,0,300,0,0,0,0,0,0,0,290,0.8,8,0,0,0,0,0,0,0,0,0,0,0,0
2006,2,21,23,0,,7,-0.6,62,101170,0,0,296,0,0,0,0,0,0,0,0,0.3,7,0,0,0,0,0,0,0,0,0,0,0,0
2006,2,21,24,0,,6,-0.2,63,101190,0,0,291,0,0,0,0,0,0,0,270,2.2,7,0,0,0,0,0,0,0,0,0,0,0,0
2006,2,22,1,0,,4.8,-0.2,67,101200,0,0,288,0,0,0,0,0,0,0,180,0.9,7,0,0,0,0,0,0,0,0,0,0,0,0
2006,2,22,2,0,,5.8,-0.2,64,101210,0,0,293,0,0,0,0,0,0,0,250,0.7,8,0,0,0,0,0,0,0,0,0,0,0,0
2006,2,22,3,0,,6,-0.2,63,101220,0,0,296,0,0,0,0,0,0,0,0,0.4,8,0,0,0,0,0,0,0,0,0,0,0,0
2006,2,22,4,0,,4.9,0,67,101200,0,0,295,0,0,0,0,0,0,0,320,1,9,0,0,0,0,0,0,0,0,0,0,0,0
2006,2,22,5,0,,4.9,0.2,65,101190,0,0,300,0,0,0,0,0,0,0,0,0.4,9,0,0,0,0,0,0,0,0,0,0,0,0
2006,2,22,6,0,,4.6,0.4,73,101170,0,0,305,0,0,0,0,0,0,0,70,2,10,0,0,0,0,0,0,0,0,0,0,0,0
2006,2,22,7,0,,4.5,0.9,76,101230,0,0,306,0,0,0,0,0,0,0,50,3.1,10,0,0,0,0,0,0,0,0,0,0,0,0
2006,2,22,8,0,,4.5,1.5,76,101290,0,0,306,12,1,12,1596,26,1584,0,50,1.8,10,0,0,0,0,0,0,0,0,0,0,0,0
2006,2,22,9,0,,4.4,2,83,101350,0,0,307,64,24,58,8193,2297,6864,0,20,1.9,10,0,0,0,0,0,0,0,0,0,0,0,0
2006,2,22,10,0,,5.4,2.3,78,101360,0,0,311,127,31,114,15366,3006,13360,0,50,1.8,10,0,0,0,0,0,0,0,0,0,0,0,0
2006,2,22,11,0,,5.6,2.7,80,101360,0,0,313,159,23,146,18544,2191,17002,0,360,0.6,10,0,0,0,0,0,0,0,0,0,0,0,0
2006,2,22,12,0,,5.9,3,80,101370,0,0,314,207,28,188,23586,2722,21720,0,340,0.9,10,0,0,0,0,0,0,0,0,0,0,0,0
2006,2,22,13,0,,5.9,2.9,80,101360,0,0,314,214,25,196,23985,2398,22514,0,320,1.9,10,0,0,0,0,0,0,0,0,0,0,0,0
2006,2,22,14,0,,6,2.8,79,101360,0,0,314,207,24,190,22621,1818,21725,0,340,1.4,10,0,0,0,0,0,0,0,0,0,0,0,0
2006,2,22,15,0,,6,2.7,78,101350,0,0,314,182,24,168,18982,1672,18427,0,320,2.1,10,0,0,0,0,0,0,0,0,0,0,0,0
2006,2,22,16,0,,7.4,-1.2,59,101420,0,0,305,238,98,189,21553,7665,20466,0,20,3.5,9,0,0,0,0,0,0,0,0,0,0,0,0
2006,2,22,17,0,,6.6,-5.2,50,101500,0,0,290,216,262,124,0,0,0,0,360,1.8,7,0,0,0,0,0,0,0,0,0,0,0,0
2006,2,22,18,0,,4.5,-9.1,36,101570,0,0,273,103,284,56,0,0,0,0,340,2.3,6,0,0,0,0,0,0,0,0,0,0,0,0
2006,2,22,19,0,,3,-8.9,38,101630,0,0,269,8,1,7,0,0,0,0,360,1.5,7,0,0,0,0,0,0,0,0,0,0,0,0
2006,2,22,20,0,,2,-8.6,42,101690,0,0,267,0,0,0,0,0,0,0,360,1.8,7,0,0,0,0,0,0,0,0,0,0,0,0
2006,2,22,21,0,,1.2,-8.4,48,101750,0,0,267,0,0,0,0,0,0,0,360,1.6,8,0,0,0,0,0,0,0,0,0,0,0,0
2006,2,22,22,0,,0.8,-7.7,54,101760,0,0,266,0,0,0,0,0,0,0,20,2.1,8,0,0,0,0,0,0,0,0,0,0,0,0
2006,2,22,23,0,,0,-6.9,57,101780,0,0,264,0,0,0,0,0,0,0,50,1.2,8,0,0,0,0,0,0,0,0,0,0,0,0
2006,2,22,24,0,,-0.2,-6.2,64,101790,0,0,264,0,0,0,0,0,0,0,20,1.9,8,0,0,0,0,0,0,0,0,0,0,0,0
2006,2,23,1,0,,-0.6,-5.9,68,101820,0,0,259,0,0,0,0,0,0,0,50,1.9,7,0,0,0,0,0,0,0,0,0,0,0,0
2006,2,23,2,0,,-0.8,-5.7,71,101860,0,0,256,0,0,0,0,0,0,0,20,2.8,6,0,0,0,0,0,0,0,0,0,0,0,0
2006,2,23,3,0,,-1,-5.4,73,101890,0,0,253,0,0,0,0,0,0,0,20,0.5,5,0,0,0,0,0,0,0,0,0,0,0,0
2006,2,23,4,0,,-1.5,-5.7,74,101920,0,0,250,0,0,0,0,0,0,0,70,1.5,5,0,0,0,0,0,0,0,0,0,0,0,0
2006,2,23,5,0,,-1.5,-6,74,101940,0,0,249,0,0,0,0,0,0,0,20,2.8,4,0,0,0,0,0,0,0,0,0,0,0,0
2006,2,23,6,0,,-1.7,-6.3,72,101970,0,0,247,0,0,0,0,0,0,0,50,2.2,4,0,0,0,0,0,0,0,0,0,0,0,0
2006,2,23,7,0,,-1.7,-6.5,73,102000,0,0,248,0,0,0,0,0,0,0,50,2.9,5,0,0,0,0,0,0,0,0,0,0,0,0
2006,2,23,8,0,,-0.8,-6.8,69,102040,0,0,253,49,24,25,4404,2361,3346,0,50,3,5,0,0,0,0,0,0,0,0,0,0,0,0
2006,2,23,9,0,,0.6,-7,56,102070,0,0,259,173,383,78,34793,38975,12054,0,70,3,6,0,0,0,0,0,0,0,0,0,0,0,0
2006,2,23,10,0,,4.5,-9.9,41,102030,0,0,270,376,675,89,58575,68703,12402,0,50,3.4,5,0,0,0,0,0,0,0,0,0,0,0,0
2006,2,23,11,0,,7,-12.8,26,101980,0,0,276,531,744,109,68350,75509,14862,0,50,3.2,5,0,0,0,0,0,0,0,0,0,0,0,0
2006,2,23,12,0,,8.6,-15.7,16,101940,0,0,278,671,863,100,73463,86330,13910,0,70,5.4,4,0,0,0,0,0,0,0,0,0,0,0,0
2006,2,23,13,0,,9.6,-15.5,14,101870,0,0,279,692,799,130,67983,80690,18140,0,20,3.5,3,0,0,0,0,0,0,0,0,0,0,0,0
2006,2,23,14,0,,10.3,-15.3,13,101810,0,0,279,685,814,122,56672,79711,17060,0,20,5.2,2,0,0,0,0,0,0,0,0,0,0,0,0
2006,2,23,15,0,,10.3,-15.1,15,101740,0,0,276,608,789,113,38996,70093,15461,0,20,4.2,1,0,0,0,0,0,0,0,0,0,0,0,0
2006,2,23,16,0,,10.3,-12.8,14,101760,0,0,284,467,711,103,18291,42981,12051,0,20,4.5,3,0,0,0,0,0,0,0,0,0,0,0,0
2006,2,23,17,0,,9.3,-10.6,18,101770,0,0,287,293,590,84,0,0,0,0,50,5.2,4,0,0,0,0,0,0,0,0,0,0,0,0
2006,2,23,18,0,,7.5,-8.3,31,101790,0,0,286,103,344,46,0,0,0,0,340,1.5,6,0,0,0,0,0,0,0,0,0,0,0,0
2006,2,23,19,0,,5.9,-8.1,38,101820,0,0,279,12,3,10,0,0,0,0,360,1.9,6,0,0,0,0,0,0,0,0,0,0,0,0
2006,2,23,20,0,,5.4,-8,39,101840,0,0,278,0,0,0,0,0,0,0,50,3.4,6,0,0,0,0,0,0,0,0,0,0,0,0
2006,2,23,21,0,,4.8,-7.8,39,101870,0,0,275,0,0,0,0,0,0,0,50,2.4,6,0,0,0,0,0,0,0,0,0,0,0,0
2006,2,23,22,0,,4.8,-8.5,37,101920,0,0,275,0,0,0,0,0,0,0,50,2.8,6,0,0,0,0,0,0,0,0,0,0,0,0
2006,2,23,23,0,,4.4,-9.1,41,101970,0,0,272,0,0,0,0,0,0,0,20,1.9,6,0,0,0,0,0,0,0,0,0,0,0,0
2006,2,23,24,0,,4.1,-9.8,35,102020,0,0,270,0,0,0,0,0,0,0,50,2.7,6,0,0,0,0,0,0,0,0,0,0,0,0
2006,2,24,1,0,,4,-10.1,34,102020,0,0,270,0,0,0,0,0,0,0,70,4.1,6,0,0,0,0,0,0,0,0,0,0,0,0
2006,2,24,2,0,,3,-10.3,39,102020,0,0,265,0,0,0,0,0,0,0,70,3.4,6,0,0,0,0,0,0,0,0,0,0,0,0
2006,2,24,3,0,,3.2,-10.6,35,102020,0,0,266,0,0,0,0,0,0,0,50,3.5,6,0,0,0,0,0,0,0,0,0,0,0,0
2006,2,24,4,0,,2.7,-10.7,35,102040,0,0,261,0,0,0,0,0,0,0,50,3.1,5,0,0,0,0,0,0,0,0,0,0,0,0
2006,2,24,5,0,,2.7,-10.7,35,102050,0,0,259,0,0,0,0,0,0,0,70,2.3,4,0,0,0,0,0,0,0,0,0,0,0,0
2006,2,24,6,0,,1.8,-10.8,38,102070,0,0,254,0,0,0,0,0,0,0,50,3.2,3,0,0,0,0,0,0,0,0,0,0,0,0
2006,2,24,7,0,,1.7,-11.1,36,102080,0,0,251,0,0,0,0,0,0,0,50,3.8,2,0,0,0,0,0,0,0,0,0,0,0,0
2006,2,24,8,0,,2,-11.3,37,102090,0,0,248,61,43,19,5178,4215,3269,0,50,3.6,1,0,0,0,0,0,0,0,0,0,0,0,0
2006,2,24,9,0,,4.8,-11.6,29,102100,0,0,254,240,801,36,52463,79887,5484,0,50,4.1,0,0,0,0,0,0,0,0,0,0,0,0,0
2006,2,24,10,0,,7.5,-13.1,21,102090,0,0,263,436,892,52,68151,89636,7495,0,50,2.9,0,0,0,0,0,0,0,0,0,0,0,0,0
2006,2,24,11,0,,9.8,-14.5,18,102080,0,0,270,598,933,66,76101,93717,9290,0,70,2.1,0,0,0,0,0,0,0,0,0,0,0,0,0
2006,2,24,12,0,,12.6,-16,12,102070,0,0,276,714,964,73,77337,96574,10295,0,70,3.5,0,0,0,0,0,0,0,0,0,0,0,0,0
2006,2,24,13,0,,13.3,-16.2,11,101980,0,0,282,730,882,104,69546,88492,14514,0,20,3.1,1,0,0,0,0,0,0,0,0,0,0,0,0
2006,2,24,14,0,,14,-16.3,9,101890,0,0,287,694,825,120,57379,81081,16768,0,50,3,1,0,0,0,0,0,0,0,0,0,0,0,0
2006,2,24,15,0,,14.8,-16.5,10,101800,0,0,291,592,731,130,39184,64601,17256,0,70,1.2,2,0,0,0,0,0,0,0,0,0,0,0,0
2006,2,24,16,0,,15.5,-13.2,9,101830,0,0,303,470,707,105,18698,43505,12234,0,110,1.4,3,0,0,0,0,0,0,0,0,0,0,0,0
2006,2,24,17,0,,14.1,-9.9,12,101860,0,0,305,304,625,80,0,0,0,0,360,1.1,3,0,0,0,0,0,0,0,0,0,0,0,0
2006,2,24,18,0,,12.1,-6.6,26,101890,0,0,302,124,454,47,0,0,0,0,270,2.2,4,0,0,0,0,0,0,0,0,0,0,0,0
2006,2,24,19,0,,9.6,-5.9,34,101940,0,0,292,17,6,10,0,0,0,0,230,4.4,4,0,0,0,0,0,0,0,0,0,0,0,0
2006,2,24,20,0,,8.3,-5.1,40,102000,0,0,288,0,0,0,0,0,0,0,230,2.6,4,0,0,0,0,0,0,0,0,0,0,0,0
2006,2,24,21,0,,7.8,-4.4,41,102050,0,0,286,0,0,0,0,0,0,0,200,1.1,4,0,0,0,0,0,0,0,0,0,0,0,0
2006,2,24,22,0,,7.4,-3.8,43,102020,0,0,284,0,0,0,0,0,0,0,230,0.8,4,0,0,0,0,0,0,0,0,0,0,0,0
2006,2,24,23,0,,6.4,-3.2,51,102000,0,0,280,0,0,0,0,0,0,0,0,0.4,3,0,0,0,0,0,0,0,0,0,0,0,0
2006,2,24,24,0,,6,-2.6,53,101970,0,0,278,0,0,0,0,0,0,0,270,1,3,0,0,0,0,0,0,0,0,0,0,0,0
2006,2,25,1,0,,4.5,-2.3,60,101940,0,0,273,0,0,0,0,0,0,0,230,0.6,3,0,0,0,0,0,0,0,0,0,0,0,0
2006,2,25,2,0,,4.6,-2.1,59,101920,0,0,275,0,0,0,0,0,0,0,50,0.7,4,0,0,0,0,0,0,0,0,0,0,0,0
2006,2,25,3,0,,3.9,-1.8,65,101890,0,0,273,0,0,0,0,0,0,0,270,0.6,4,0,0,0,0,0,0,0,0,0,0,0,0
2006,2,25,4,0,,3.2,-2.1,66,101840,0,0,271,0,0,0,0,0,0,0,70,1,4,0,0,0,0,0,0,0,0,0,0,0,0
2006,2,25,5,0,,3.4,-2.4,63,101800,0,0,272,0,0,0,0,0,0,0,20,1.6,5,0,0,0,0,0,0,0,0,0,0,0,0
2006,2,25,6,0,,3.4,-2.7,63,101750,0,0,272,0,0,0,0,0,0,0,50,0.7,5,0,0,0,0,0,0,0,0,0,0,0,0
2006,2,25,7,0,,3.2,-3,62,101760,0,0,274,0,0,0,0,0,0,0,50,2.2,6,0,0,0,0,0,0,0,0,0,0,0,0
2006,2,25,8,0,,4,-3.3,57,101760,0,0,280,41,16,25,4046,1582,3322,0,50,1.8,7,0,0,0,0,0,0,0,0,0,0,0,0
2006,2,25,9,0,,5.5,-3.6,51,101770,0,0,290,141,202,89,24844,20286,12819,0,50,1.4,8,0,0,0,0,0,0,0,0,0,0,0,0
2006,2,25,10,0,,7.8,-3.2,45,101720,0,0,300,263,222,166,35875,23113,20127,0,50,0.7,8,0,0,0,0,0,0,0,0,0,0,0,0
2006,2,25,11,0,,9.1,-2.9,45,101670,0,0,306,360,208,241,43482,21665,27939,0,290,0.8,8,0,0,0,0,0,0,0,0,0,0,0,0
2006,2,25,12,0,,10.3,-2.5,40,101620,0,0,312,439,214,296,48968,21919,33656,0,20,3.2,8,0,0,0,0,0,0,0,0,0,0,0,0
2006,2,25,13,0,,11.6,-1.9,38,101500,0,0,323,386,118,301,41292,11723,33952,0,20,2,9,0,0,0,0,0,0,0,0,0,0,0,0
2006,2,25,14,0,,12.8,-1.3,38,101390,0,0,335,378,119,295,38863,11639,32987,0,70,1.8,9,0,0,0,0,0,0,0,0,0,0,0,0
2006,2,25,15,0,,12.6,-0.7,39,101270,0,0,341,257,57,221,26450,5324,24624,0,50,1.7,10,0,0,0,0,0,0,0,0,0,0,0,0
2006,2,25,16,0,,12.8,0,40,101220,0,0,343,196,53,169,19064,4095,18441,0,200,1.7,10,0,0,0,0,0,0,0,0,0,0,0,0
2006,2,25,17,0,,12.3,0.7,45,101170,0,0,341,122,45,106,0,0,0,0,200,1.4,10,0,0,0,0,0,0,0,0,0,0,0,0
2006,2,25,18,0,,11.8,1.4,48,101120,0,0,340,54,44,47,0,0,0,0,180,3.6,10,0,0,0,0,0,0,0,0,0,0,0,0
2006,2,25,19,0,,10.1,3.5,74,101130,0,0,334,2,0,2,0,0,0,0,140,1.4,10,0,0,0,0,0,0,0,0,0,0,0,0
2006,2,25,20,0,,9.3,5.6,87,101140,0,0,333,0,0,0,0,0,0,0,70,1.2,10,0,0,0,0,0,0,0,0,0,0,0,0
2006,2,25,21,0,,8.5,7.7,93,101150,0,0,332,0,0,0,0,0,0,0,70,2.2,10,0,0,0,0,0,0,0,0,0,0,0,0
2006,2,25,22,0,,8.3,7.4,95,101100,0,0,331,0,0,0,0,0,0,0,50,2.8,10,0,0,0,0,0,0,0,0,0,0,0,0
2006,2,25,23,0,,8.3,7.2,89,101050,0,0,331,0,0,0,0,0,0,0,50,5.1,10,0,0,0,0,0,0,0,0,0,0,0,0
2006,2,25,24,0,,7.9,6.9,92,101000,0,0,329,0,0,0,0,0,0,0,50,4.2,10,0,0,0,0,0,0,0,0,0,0,0,0
2006,2,26,1,0,,8,6.8,90,100980,0,0,329,0,0,0,0,0,0,0,20,3.2,10,0,0,0,0,0,0,0,0,0,0,0,0
2006,2,26,2,0,,7.9,6.8,91,100970,0,0,328,0,0,0,0,0,0,0,50,2.2,10,0,0,0,0,0,0,0,0,0,0,0,0
2006,2,26,3,0,,8.1,6.7,89,100950,0,0,329,0,0,0,0,0,0,0,20,2.3,10,0,0,0,0,0,0,0,0,0,0,0,0
2006,2,26,4,0,,7.8,4.3,92,100960,0,0,316,0,0,0,0,0,0,0,50,0.7,9,0,0,0,0,0,0,0,0,0,0,0,0
2006,2,26,5,0,,7.9,2,82,100980,0,0,306,0,0,0,0,0,0,0,20,1.2,8,0,0,0,0,0,0,0,0,0,0,0,0
2006,2,26,6,0,,7.5,-0.4,56,100990,0,0,297,0,0,0,0,0,0,0,340,1.3,7,0,0,0,0,0,0,0,0,0,0,0,0
2006,2,26,7,0,,5.5,0.2,63,101110,0,0,291,0,0,0,0,0,0,0,360,2.5,7,0,0,0,0,0,0,0,0,0,0,0,0
2006,2,26,8,0,,5.3,0.9,78,101230,0,0,292,32,7,25,3290,654,2988,0,20,3.9,8,0,0,0,0,0,0,0,0,0,0,0,0
2006,2,26,9,0,,5.3,1.5,75,101350,0,0,295,114,101,87,17500,10227,11390,0,20,3.6,8,0,0,0,0,0,0,0,0,0,0,0,0
2006,2,26,10,0,,6,-2.3,56,101400,0,0,284,322,407,143,48185,41193,19927,0,360,3.2,5,0,0,0,0,0,0,0,0,0,0,0,0
2006,2,26,11,0,,6.4,-6.2,35,101440,0,0,276,506,622,145,65799,63394,20031,0,20,4.4,3,0,0,0,0,0,0,0,0,0,0,0,0
2006,2,26,12,0,,6.1,-10,30,101490,0,0,261,622,690,155,70385,70063,21135,0,20,5,0,0,0,0,0,0,0,0,0,0,0,0,0
2006,2,26,13,0,,5.4,-10.3,29,101480,0,0,258,636,613,195,63474,60786,25168,0,360,3.4,0,0,0,0,0,0,0,0,0,0,0,0,0
2006,2,26,14,0,,5,-10.6,27,101460,0,0,256,614,587,200,53747,57797,24347,0,320,3.9,0,0,0,0,0,0,0,0,0,0,0,0,0
2006,2,26,15,0,,4.6,-10.9,31,101450,0,0,254,552,592,173,39257,53289,20781,0,20,3.8,0,0,0,0,0,0,0,0,0,0,0,0,0
2006,2,26,16,0,,3.9,-10.9,30,101510,0,0,251,449,611,129,20488,37954,14592,0,20,3.8,0,0,0,0,0,0,0,0,0,0,0,0,0
2006,2,26,17,0,,3.4,-11,32,101560,0,0,249,308,616,83,0,0,0,0,340,2.9,0,0,0,0,0,0,0,0,0,0,0,0,0
2006,2,26,18,0,,2,-11,37,101620,0,0,244,142,568,41,0,0,0,0,340,2.4,0,0,0,0,0,0,0,0,0,0,0,0,0
2006,2,26,19,0,,0.8,-10.3,49,101750,0,0,240,22,13,9,0,0,0,0,20,2.6,0,0,0,0,0,0,0,0,0,0,0,0,0
2006,2,26,20,0,,0.4,-9.6,50,101870,0,0,239,0,0,0,0,0,0,0,20,2.5,0,0,0,0,0,0,0,0,0,0,0,0,0
2006,2,26,21,0,,-0.2,-8.9,52,102000,0,0,238,0,0,0,0,0,0,0,20,2.9,0,0,0,0,0,0,0,0,0,0,0,0,0
2006,2,26,22,0,,-0.6,-8.7,55,102060,0,0,237,0,0,0,0,0,0,0,20,1.8,0,0,0,0,0,0,0,0,0,0,0,0,0
2006,2,26,23,0,,-0.6,-8.6,56,102110,0,0,237,0,0,0,0,0,0,0,20,2,0,0,0,0,0,0,0,0,0,0,0,0,0
2006,2,26,24,0,,-1,-8.4,58,102170,0,0,236,0,0,0,0,0,0,0,20,1,0,0,0,0,0,0,0,0,0,0,0,0,0
2006,2,27,1,0,,-2.2,-8.8,61,102210,0,0,231,0,0,0,0,0,0,0,70,1.1,0,0,0,0,0,0,0,0,0,0,0,0,0
2006,2,27,2,0,,-2.2,-9.1,61,102260,0,0,231,0,0,0,0,0,0,0,20,2.2,0,0,0,0,0,0,0,0,0,0,0,0,0
2006,2,27,3,0,,-2.7,-9.5,61,102300,0,0,229,0,0,0,0,0,0,0,50,3.5,0,0,0,0,0,0,0,0,0,0,0,0,0
2006,2,27,4,0,,-3.2,-9.9,62,102280,0,0,227,0,0,0,0,0,0,0,50,3.6,0,0,0,0,0,0,0,0,0,0,0,0,0
2006,2,27,5,0,,-2.9,-10.3,57,102270,0,0,227,0,0,0,0,0,0,0,70,3.9,0,0,0,0,0,0,0,0,0,0,0,0,0
2006,2,27,6,0,,-3.2,-10.7,58,102250,0,0,226,0,0,0,0,0,0,0,70,3.4,0,0,0,0,0,0,0,0,0,0,0,0,0
2006,2,27,7,0,,-3.5,-10.7,60,102300,0,0,231,0,0,0,0,0,0,0,70,3.2,2,0,0,0,0,0,0,0,0,0,0,0,0
2006,2,27,8,0,,-2.7,-10.6,57,102350,0,0,238,63,41,23,5194,4110,3274,0,50,4.4,3,0,0,0,0,0,0,0,0,0,0,0,0
2006,2,27,9,0,,-0.6,-10.6,47,102400,0,0,250,214,559,64,43685,56855,9450,0,50,4.5,5,0,0,0,0,0,0,0,0,0,0,0,0
2006,2,27,10,0,,1.6,-11.5,37,102380,0,0,256,386,647,99,58982,65735,13583,0,50,4.5,5,0,0,0,0,0,0,0,0,0,0,0,0
2006,2,27,11,0,,4,-12.5,30,102370,0,0,265,529,682,130,67340,68879,17300,0,70,3.1,5,0,0,0,0,0,0,0,0,0,0,0,0
2006,2,27,12,0,,4.9,-13.4,25,102350,0,0,268,603,627,177,68183,63414,23332,0,50,2.4,5,0,0,0,0,0,0,0,0,0,0,0,0
2006,2,27,13,0,,7.4,-13.9,16,102270,0,0,279,627,577,210,62926,58684,25703,0,20,4.6,6,0,0,0,0,0,0,0,0,0,0,0,0
2006,2,27,14,0,,8.3,-14.3,19,102200,0,0,284,588,506,229,52651,49955,27046,0,50,2.4,6,0,0,0,0,0,0,0,0,0,0,0,0
2006,2,27,15,0,,8,-14.8,18,102120,0,0,285,467,303,272,39409,27741,29690,0,20,1.9,7,0,0,0,0,0,0,0,0,0,0,0,0
2006,2,27,16,0,,8.3,-13.3,18,102110,0,0,286,363,297,206,24854,18658,21893,0,20,2.1,7,0,0,0,0,0,0,0,0,0,0,0,0
2006,2,27,17,0,,7.3,-11.8,23,102100,0,0,283,255,351,126,0,0,0,0,270,1.6,6,0,0,0,0,0,0,0,0,0,0,0,0
2006,2,27,18,0,,5.8,-10.3,30,102090,0,0,277,115,294,62,0,0,0,0,290,1.8,6,0,0,0,0,0,0,0,0,0,0,0,0
2006,2,27,19,0,,4.1,-10.2,36,102100,0,0,269,16,4,12,0,0,0,0,360,0.6,6,0,0,0,0,0,0,0,0,0,0,0,0
2006,2,27,20,0,,3.2,-10.1,43,102110,0,0,265,0,0,0,0,0,0,0,70,0.7,5,0,0,0,0,0,0,0,0,0,0,0,0
2006,2,27,21,0,,2.7,-10,38,102120,0,0,262,0,0,0,0,0,0,0,50,2.9,5,0,0,0,0,0,0,0,0,0,0,0,0
2006,2,27,22,0,,2.4,-9.2,42,102130,0,0,262,0,0,0,0,0,0,0,50,1.3,5,0,0,0,0,0,0,0,0,0,0,0,0
2006,2,27,23,0,,2.2,-8.4,41,102140,0,0,263,0,0,0,0,0,0,0,0,0.2,6,0,0,0,0,0,0,0,0,0,0,0,0
2006,2,27,24,0,,2,-7.6,48,102150,0,0,264,0,0,0,0,0,0,0,250,0.8,6,0,0,0,0,0,0,0,0,0,0,0,0
2006,2,28,1,0,,1.6,-7,55,102140,0,0,265,0,0,0,0,0,0,0,250,0.6,7,0,0,0,0,0,0,0,0,0,0,0,0
2006,2,28,2,0,,1.8,-6.5,54,102130,0,0,268,0,0,0,0,0,0,0,270,0.7,7,0,0,0,0,0,0,0,0,0,0,0,0
2006,2,28,3,0,,2,-5.9,55,102120,0,0,273,0,0,0,0,0,0,0,250,0.7,8,0,0,0,0,0,0,0,0,0,0,0,0
2006,2,28,4,0,,2.2,-5.9,54,102080,0,0,277,0,0,0,0,0,0,0,50,0.9,9,0,0,0,0,0,0,0,0,0,0,0,0
2006,2,28,5,0,,2.5,-5.9,50,102040,0,0,283,0,0,0,0,0,0,0,0,0.3,9,0,0,0,0,0,0,0,0,0,0,0,0
2006,2,28,6,0,,2.5,-5.9,53,102000,0,0,289,0,0,0,0,0,0,0,250,0.6,10,0,0,0,0,0,0,0,0,0,0,0,0
2006,2,28,7,0,,2.7,-5,51,101990,0,0,285,0,0,0,0,0,0,0,70,1.3,9,0,0,0,0,0,0,0,0,0,0,0,0
2006,2,28,8,0,,3.5,-4.2,55,101980,0,0,285,33,7,26,3456,682,3134,0,50,3.6,9,0,0,0,0,0,0,0,0,0,0,0,0
2006,2,28,9,0,,5.5,-3.3,52,101970,0,0,290,158,239,93,27901,24053,13304,0,50,3.7,8,0,0,0,0,0,0,0,0,0,0,0,0
2006,2,28,10,0,,5,-3.3,53,101920,0,0,288,257,185,174,34387,19341,20940,0,50,3.2,8,0,0,0,0,0,0,0,0,0,0,0,0
2006,2,28,11,0,,6.1,-3.3,51,101870,0,0,293,351,176,247,41799,18209,28488,0,20,3,8,0,0,0,0,0,0,0,0,0,0,0,0
2006,2,28,12,0,,8,-3.3,44,101820,0,0,301,401,152,297,44875,15669,33725,0,20,2,8,0,0,0,0,0,0,0,0,0,0,0,0
2006,2,28,13,0,,7.5,-4.4,43,101740,0,0,302,372,100,299,40055,9983,33682,0,20,1.7,9,0,0,0,0,0,0,0,0,0,0,0,0
2006,2,28,14,0,,7.9,-5.6,39,101650,0,0,307,348,89,285,36375,8752,31856,0,360,0.5,9,0,0,0,0,0,0,0,0,0,0,0,0
2006,2,28,15,0,,7.6,-6.7,35,101570,0,0,311,242,45,213,25223,4271,23711,0,20,0.9,10,0,0,0,0,0,0,0,0,0,0,0,0
2006,2,28,16,0,,7.4,-4.5,39,101560,0,0,312,185,42,163,18370,3303,17835,0,70,1.3,10,0,0,0,0,0,0,0,0,0,0,0,0
2006,2,28,17,0,,7,-2.2,43,101560,0,0,313,120,39,105,0,0,0,0,340,1.2,10,0,0,0,0,0,0,0,0,0,0,0,0
2006,2,28,18,0,,4.9,0,69,101550,0,0,306,42,18,39,0,0,0,0,70,2.8,10,0,0,0,0,0,0,0,0,0,0,0,0
2006,2,28,19,0,,4,0.5,81,101540,0,0,303,0,0,0,0,0,0,0,200,1.1,10,0,0,0,0,0,0,0,0,0,0,0,0
2006,2,28,20,0,,3.2,1.1,89,101530,0,0,300,0,0,0,0,0,0,0,70,1,10,0,0,0,0,0,0,0,0,0,0,0,0
2006,2,28,21,0,,2.7,1.6,91,101520,0,0,299,0,0,0,0,0,0,0,90,1.2,10,0,0,0,0,0,0,0,0,0,0,0,0
2006,2,28,22,0,,2.5,1.6,90,101490,0,0,298,0,0,0,0,0,0,0,50,1.2,10,0,0,0,0,0,0,0,0,0,0,0,0
2006,2,28,23,0,,2.4,1.5,92,101470,0,0,298,0,0,0,0,0,0,0,50,1.2,10,0,0,0,0,0,0,0,0,0,0,0,0
2006,2,28,24,0,,2.4,1.5,92,101440,0,0,298,0,0,0,0,0,0,0,20,0.8,10,0,0,0,0,0,0,0,0,0,0,0,0
1998,3,1,1,0,,3.1,0.5,82,101430,0,0,270,0,0,0,0,0,0,0,250,1.5,3,0,0,0,0,0,0,0,0,0,0,0,0
1998,3,1,2,0,,2.6,0.3,85,101450,0,0,263,0,0,0,0,0,0,0,200,1.5,1,0,0,0,0,0,0,0,0,0,0,0,0
1998,3,1,3,0,,2,0.2,87,101460,0,0,255,0,0,0,0,0,0,0,160,1,0,0,0,0,0,0,0,0,0,0,0,0,0
1998,3,1,4,0,,1.6,0.1,89,101480,0,0,258,0,0,0,0,0,0,0,160,1.2,1,0,0,0,0,0,0,0,0,0,0,0,0
1998,3,1,5,0,,1.2,-0.1,91,101510,0,0,260,0,0,0,0,0,0,0,0,0,2,0,0,0,0,0,0,0,0,0,0,0,0
1998,3,1,6,0,,0.8,-0.2,93,101530,0,0,261,0,0,0,0,0,0,0,270,0.5,3,0,0,0,0,0,0,0,0,0,0,0,0
1998,3,1,7,0,,0.1,-0.1,91,101570,0,0,257,0,0,0,0,0,0,0,0,0,2,0,0,0,0,0,0,0,0,0,0,0,0
1998,3,1,8,0,,0.2,-0.1,90,101600,0,0,253,55,23,32,5286,2310,4186,0,0,0,1,0,0,0,0,0,0,0,0,0,0,0,0
1998,3,1,9,0,,1.7,0,88,101640,0,0,254,205,455,79,40601,46283,12308,0,230,0.7,0,0,0,0,0,0,0,0,0,0,0,0,0
1998,3,1,10,0,,3.2,-0.6,74,101630,0,0,260,378,580,114,58088,59220,16655,0,230,1.7,0,0,0,0,0,0,0,0,0,0,0,0,0
1998,3,1,11,0,,5.7,-1.1,60,101610,0,0,271,541,691,131,68852,69982,17398,0,250,2.2,1,0,0,0,0,0,0,0,0,0,0,0,0
1998,3,1,12,0,,9.3,-1.7,46,101600,0,0,286,677,801,125,74843,81125,16785,0,230,1.8,1,0,0,0,0,0,0,0,0,0,0,0,0
1998,3,1,13,0,,10.8,-2.3,42,101550,0,0,295,719,793,139,70600,79789,19356,0,230,2.8,2,0,0,0,0,0,0,0,0,0,0,0,0
1998,3,1,14,0,,10.7,-3,38,101490,0,0,296,668,696,168,57130,67178,22196,0,360,1,2,0,0,0,0,0,0,0,0,0,0,0,0
1998,3,1,15,0,,11.8,-3.6,34,101440,0,0,302,565,596,177,40521,53490,21409,0,20,1.5,3,0,0,0,0,0,0,0,0,0,0,0,0
1998,3,1,16,0,,11.2,-3.9,35,101460,0,0,296,460,610,133,21639,38631,15257,0,360,1.8,2,0,0,0,0,0,0,0,0,0,0,0,0
1998,3,1,17,0,,10.2,-4.1,37,101480,0,0,288,321,631,83,0,0,0,0,290,3,1,0,0,0,0,0,0,0,0,0,0,0,0
1998,3,1,18,0,,9.2,-4.4,38,101500,0,0,278,147,541,45,0,0,0,0,270,1.8,0,0,0,0,0,0,0,0,0,0,0,0,0
1998,3,1,19,0,,7.3,-2.6,51,101530,0,0,272,24,13,11,0,0,0,0,250,1.5,0,0,0,0,0,0,0,0,0,0,0,0,0
1998,3,1,20,0,,5.7,-0.9,64,101570,0,0,267,0,0,0,0,0,0,0,250,2,0,0,0,0,0,0,0,0,0,0,0,0,0
1998,3,1,21,0,,4.6,0.9,77,101600,0,0,265,0,0,0,0,0,0,0,250,3.3,0,0,0,0,0,0,0,0,0,0,0,0,0
1998,3,1,22,0,,4,0.7,78,101600,0,0,263,0,0,0,0,0,0,0,230,2.5,0,0,0,0,0,0,0,0,0,0,0,0,0
1998,3,1,23,0,,3.6,0.4,80,101600,0,0,261,0,0,0,0,0,0,0,230,1.2,0,0,0,0,0,0,0,0,0,0,0,0,0
1998,3,1,24,0,,3.1,0.2,81,101600,0,0,259,0,0,0,0,0,0,0,90,0.7,0,0,0,0,0,0,0,0,0,0,0,0,0
1998,3,2,1,0,,2.1,-0.4,84,101610,0,0,255,0,0,0,0,0,0,0,0,0,0,0,0,0,0,0,0,0,0,0,0,0,0
1998,3,2,2,0,,1,-1.1,86,101620,0,0,250,0,0,0,0,0,0,0,250,1.8,0,0,0,0,0,0,0,0,0,0,0,0,0
1998,3,2,3,0,,0,-1.7,89,101630,0,0,246,0,0,0,0,0,0,0,0,0.2,0,0,0,0,0,0,0,0,0,0,0,0,0
1998,3,2,4,0,,-0.2,-2,89,101650,0,0,245,0,0,0,0,0,0,0,250,0.7,0,0,0,0,0,0,0,0,0,0,0,0,0
1998,3,2,5,0,,-0.5,-2.4,89,101660,0,0,244,0,0,0,0,0,0,0,230,0.7,0,0,0,0,0,0,0,0,0,0,0,0,0
1998,3,2,6,0,,-0.8,-2.7,89,101680,0,0,242,0,0,0,0,0,0,0,230,1,0,0,0,0,0,0,0,0,0,0,0,0,0
1998,3,2,7,0,,-1.7,-2.7,89,101710,0,0,239,0,0,0,0,0,0,0,250,1.8,0,0,0,0,0,0,0,0,0,0,0,0,0
1998,3,2,8,0,,-2.3,-2.7,89,101730,0,0,237,58,26,32,5423,2623,4161,0,250,1.7,0,0,0,0,0,0,0,0,0,0,0,0,0
1998,3,2,9,0,,-1.3,-2.7,89,101760,0,0,241,207,444,82,40487,45232,12622,0,230,2.7,0,0,0,0,0,0,0,0,0,0,0,0,0
1998,3,2,10,0,,2.5,-2.6,76,101720,0,0,254,395,630,106,59612,64076,14483,0,230,0.5,0,0,0,0,0,0,0,0,0,0,0,0,0
1998,3,2,11,0,,5.2,-2.6,62,101670,0,0,264,565,749,117,72051,76194,15687,0,200,1.2,0,0,0,0,0,0,0,0,0,0,0,0,0
1998,3,2,12,0,,7.6,-2.5,49,101630,0,0,273,695,835,116,76686,84798,15635,0,180,2,0,0,0,0,0,0,0,0,0,0,0,0,0
1998,3,2,13,0,,8.9,-3.1,43,101560,0,0,278,705,746,156,69540,74726,21243,0,290,1.2,0,0,0,0,0,0,0,0,0,0,0,0,0
1998,3,2,14,0,,10.5,-3.8,37,101480,0,0,284,700,767,145,58993,74803,19810,0,230,2.2,0,0,0,0,0,0,0,0,0,0,0,0,0
1998,3,2,15,0,,12.1,-4.4,31,101410,0,0,290,622,745,133,41893,66539,17883,0,160,1.2,0,0,0,0,0,0,0,0,0,0,0,0,0
1998,3,2,16,0,,12.4,-3.8,35,101420,0,0,292,503,740,104,21118,47078,13185,0,290,2.2,0,0,0,0,0,0,0,0,0,0,0,0,0
1998,3,2,17,0,,11.4,-3.3,39,101440,0,0,288,337,687,75,0,0,0,0,270,3.2,0,0,0,0,0,0,0,0,0,0,0,0,0
1998,3,2,18,0,,8.9,-2.7,43,101450,0,0,278,146,515,48,0,0,0,0,270,3.5,0,0,0,0,0,0,0,0,0,0,0,0,0
1998,3,2,19,0,,6.7,-2.7,49,101490,0,0,271,25,13,12,0,0,0,0,250,3.7,0,0,0,0,0,0,0,0,0,0,0,0,0
1998,3,2,20,0,,5.5,-2.7,54,101530,0,0,268,0,0,0,0,0,0,0,250,0.8,1,0,0,0,0,0,0,0,0,0,0,0,0
1998,3,2,21,0,,4.4,-2.7,60,101570,0,0,266,0,0,0,0,0,0,0,200,0.8,1,0,0,0,0,0,0,0,0,0,0,0,0
1998,3,2,22,0,,4.5,-3.7,56,101580,0,0,264,0,0,0,0,0,0,0,70,1.8,1,0,0,0,0,0,0,0,0,0,0,0,0
1998,3,2,23,0,,4,-4.7,52,101580,0,0,259,0,0,0,0,0,0,0,20,1.5,0,0,0,0,0,0,0,0,0,0,0,0,0
1998,3,2,24,0,,4.3,-5.7,48,101590,0,0,257,0,0,0,0,0,0,0,360,1.8,0,0,0,0,0,0,0,0,0,0,0,0,0
1998,3,3,1,0,,3.4,-4.9,55,101580,0,0,255,0,0,0,0,0,0,0,360,0.8,0,0,0,0,0,0,0,0,0,0,0,0,0
1998,3,3,2,0,,2.5,-4.1,63,101560,0,0,252,0,0,0,0,0,0,0,270,0.5,0,0,0,0,0,0,0,0,0,0,0,0,0
1998,3,3,3,0,,1.6,-3.3,70,101550,0,0,250,0,0,0,0,0,0,0,50,0.3,0,0,0,0,0,0,0,0,0,0,0,0,0
1998,3,3,4,0,,0.9,-3.1,73,101560,0,0,247,0,0,0,0,0,0,0,250,1.2,0,0,0,0,0,0,0,0,0,0,0,0,0
1998,3,3,5,0,,0.2,-2.9,77,101560,0,0,245,0,0,0,0,0,0,0,230,1,0,0,0,0,0,0,0,0,0,0,0,0,0
1998,3,3,6,0,,0.1,-2.7,80,101570,0,0,245,0,0,0,0,0,0,0,0,0.2,0,0,0,0,0,0,0,0,0,0,0,0,0
1998,3,3,7,0,,-0.1,-2.3,80,101580,0,0,254,0,0,0,0,0,0,0,230,0.8,2,0,0,0,0,0,0,0,0,0,0,0,0
1998,3,3,8,0,,0.1,-1.8,81,101580,0,0,260,53,26,28,4923,2577,3671,0,230,1.2,5,0,0,0,0,0,0,0,0,0,0,0,0
1998,3,3,9,0,,1.3,-1.4,81,101590,0,0,271,152,180,101,25554,18103,14315,0,250,0.7,7,0,0,0,0,0,0,0,0,0,0,0,0
1998,3,3,10,0,,3.7,-1.4,68,101570,0,0,276,348,433,147,51473,43886,20360,0,250,1.5,5,0,0,0,0,0,0,0,0,0,0,0,0
1998,3,3,11,0,,6.7,-1.4,56,101550,0,0,284,537,648,145,69313,66021,20178,0,250,3,4,0,0,0,0,0,0,0,0,0,0,0,0
1998,3,3,12,0,,10.6,-1.4,43,101530,0,0,296,704,845,114,77667,86022,15366,0,250,1.7,2,0,0,0,0,0,0,0,0,0,0,0,0
1998,3,3,13,0,,13,-2.7,36,101440,0,0,302,762,875,114,72994,88204,15631,0,230,1.8,1,0,0,0,0,0,0,0,0,0,0,0,0
1998,3,3,14,0,,14.7,-4.1,30,101350,0,0,305,743,864,114,60811,84711,16118,0,270,1.7,1,0,0,0,0,0,0,0,0,0,0,0,0
1998,3,3,15,0,,15.2,-5.4,23,101260,0,0,302,638,778,125,42510,70159,16946,0,270,1.3,0,0,0,0,0,0,0,0,0,0,0,0,0
1998,3,3,16,0,,14.7,-5,26,101280,0,0,304,496,705,113,21362,46175,13429,0,290,2,1,0,0,0,0,0,0,0,0,0,0,0,0
1998,3,3,17,0,,13,-4.5,30,101310,0,0,300,323,608,89,0,0,0,0,320,2.8,1,0,0,0,0,0,0,0,0,0,0,0,0
1998,3,3,18,0,,11.5,-4.1,33,101330,0,0,297,147,499,50,0,0,0,0,360,1.8,2,0,0,0,0,0,0,0,0,0,0,0,0
1998,3,3,19,0,,9.7,-5,34,101400,0,0,286,27,16,11,0,0,0,0,320,1.3,1,0,0,0,0,0,0,0,0,0,0,0,0
1998,3,3,20,0,,8.8,-5.8,34,101460,0,0,279,0,0,0,0,0,0,0,20,3.5,1,0,0,0,0,0,0,0,0,0,0,0,0
1998,3,3,21,0,,7.9,-6.7,35,101530,0,0,271,0,0,0,0,0,0,0,20,3,0,0,0,0,0,0,0,0,0,0,0,0,0
1998,3,3,22,0,,7.1,-6.4,37,101520,0,0,268,0,0,0,0,0,0,0,20,3,0,0,0,0,0,0,0,0,0,0,0,0,0
1998,3,3,23,0,,6.4,-6,40,101510,0,0,265,0,0,0,0,0,0,0,20,2.2,0,0,0,0,0,0,0,0,0,0,0,0,0
1998,3,3,24,0,,6.3,-5.7,42,101500,0,0,265,0,0,0,0,0,0,0,360,2.7,0,0,0,0,0,0,0,0,0,0,0,0,0
1998,3,4,1,0,,5.7,-4.6,48,101490,0,0,275,0,0,0,0,0,0,0,360,2,3,0,0,0,0,0,0,0,0,0,0,0,0
1998,3,4,2,0,,5.2,-3.6,54,101470,0,0,279,0,0,0,0,0,0,0,360,1.8,5,0,0,0,0,0,0,0,0,0,0,0,0
1998,3,4,3,0,,4.6,-2.5,60,101460,0,0,287,0,0,0,0,0,0,0,20,1.3,8,0,0,0,0,0,0,0,0,0,0,0,0
1998,3,4,4,0,,3.9,-2.3,63,101440,0,0,285,0,0,0,0,0,0,0,320,1.2,8,0,0,0,0,0,0,0,0,0,0,0,0
1998,3,4,5,0,,2.8,-2.1,67,101430,0,0,281,0,0,0,0,0,0,0,200,0.7,8,0,0,0,0,0,0,0,0,0,0,0,0
1998,3,4,6,0,,2.9,-1.9,70,101410,0,0,281,0,0,0,0,0,0,0,250,1.2,8,0,0,0,0,0,0,0,0,0,0,0,0
1998,3,4,7,0,,3,-1.3,70,101420,0,0,278,0,0,0,0,0,0,0,230,0.3,7,0,0,0,0,0,0,0,0,0,0,0,0
1998,3,4,8,0,,2.9,-0.8,69,101440,0,0,275,52,22,30,5027,2223,3936,0,230,1.3,6,0,0,0,0,0,0,0,0,0,0,0,0
1998,3,4,9,0,,5.1,-0.2,69,101450,0,0,282,206,399,90,39107,40579,13721,0,250,2,5,0,0,0,0,0,0,0,0,0,0,0,0
1998,3,4,10,0,,8.3,-0.9,57,101450,0,0,299,323,324,171,45745,32750,22374,0,290,0.7,7,0,0,0,0,0,0,0,0,0,0,0,0
1998,3,4,11,0,,13.1,-1.5,45,101440,0,0,328,467,422,210,58517,42737,26520,0,50,3,8,0,0,0,0,0,0,0,0,0,0,0,0
1998,3,4,12,0,,13.9,-2.2,33,101440,0,0,346,380,119,296,42601,12206,33709,0,340,1,10,0,0,0,0,0,0,0,0,0,0,0,0
1998,3,4,13,0,,15,-2,32,101340,0,0,351,374,93,304,40371,9275,34302,0,340,0.7,10,0,0,0,0,0,0,0,0,0,0,0,0
1998,3,4,14,0,,14.9,-1.9,32,101240,0,0,351,300,54,260,32083,5313,29260,0,340,1.2,10,0,0,0,0,0,0,0,0,0,0,0,0
1998,3,4,15,0,,15.3,-1.7,31,101140,0,0,353,269,56,232,27799,5270,25860,0,340,0.3,10,0,0,0,0,0,0,0,0,0,0,0,0
1998,3,4,16,0,,15.7,-2,31,101140,0,0,355,215,58,184,20922,4692,20101,0,250,1.7,10,0,0,0,0,0,0,0,0,0,0,0,0
1998,3,4,17,0,,15,-2.2,32,101140,0,0,351,152,67,126,0,0,0,0,230,3.2,10,0,0,0,0,0,0,0,0,0,0,0,0
1998,3,4,18,0,,13.7,-2.5,32,101140,0,0,344,68,57,57,0,0,0,0,180,4.2,10,0,0,0,0,0,0,0,0,0,0,0,0
1998,3,4,19,0,,13.1,-1.5,37,101180,0,0,343,9,1,8,0,0,0,0,180,3.2,10,0,0,0,0,0,0,0,0,0,0,0,0
1998,3,4,20,0,,12,-0.4,43,101220,0,0,338,0,0,0,0,0,0,0,250,2.2,10,0,0,0,0,0,0,0,0,0,0,0,0
1998,3,4,21,0,,11.4,0.6,48,101260,0,0,337,0,0,0,0,0,0,0,230,2.2,10,0,0,0,0,0,0,0,0,0,0,0,0
1998,3,4,22,0,,11.1,0.7,49,101240,0,0,335,0,0,0,0,0,0,0,230,1.5,10,0,0,0,0,0,0,0,0,0,0,0,0
1998,3,4,23,0,,10.7,0.8,51,101210,0,0,334,0,0,0,0,0,0,0,230,0.8,10,0,0,0,0,0,0,0,0,0,0,0,0
1998,3,4,24,0,,10.2,0.9,52,101190,0,0,331,0,0,0,0,0,0,0,0,0.2,10,0,0,0,0,0,0,0,0,0,0,0,0
1998,3,5,1,0,,9.4,1,56,101160,0,0,327,0,0,0,0,0,0,0,50,2,10,0,0,0,0,0,0,0,0,0,0,0,0
1998,3,5,2,0,,8.5,1,60,101140,0,0,323,0,0,0,0,0,0,0,20,1.7,10,0,0,0,0,0,0,0,0,0,0,0,0
1998,3,5,3,0,,7.4,1.1,64,101110,0,0,318,0,0,0,0,0,0,0,360,1,10,0,0,0,0,0,0,0,0,0,0,0,0
1998,3,5,4,0,,6.9,1,65,101100,0,0,295,0,0,0,0,0,0,0,20,2.3,7,0,0,0,0,0,0,0,0,0,0,0,0
1998,3,5,5,0,,6.5,1,67,101080,0,0,285,0,0,0,0,0,0,0,20,2.5,3,0,0,0,0,0,0,0,0,0,0,0,0
1998,3,5,6,0,,6.4,0.9,68,101070,0,0,272,0,0,0,0,0,0,0,50,1.7,0,0,0,0,0,0,0,0,0,0,0,0,0
1998,3,5,7,0,,4.9,1.3,70,101100,0,0,267,0,0,0,0,0,0,0,90,0.7,0,0,0,0,0,0,0,0,0,0,0,0,0
1998,3,5,8,0,,4.9,1.7,72,101120,0,0,267,66,35,32,5892,3469,4174,0,70,0.5,0,0,0,0,0,0,0,0,0,0,0,0,0
1998,3,5,9,0,,6.3,2.1,74,101150,0,0,273,220,457,85,42377,46462,13091,0,230,1.2,0,0,0,0,0,0,0,0,0,0,0,0,0
1998,3,5,10,0,,8.5,2.4,65,101100,0,0,282,403,611,114,60161,62218,15473,0,250,1.3,0,0,0,0,0,0,0,0,0,0,0,0,0
1998,3,5,11,0,,11.6,2.6,57,101060,0,0,295,582,755,119,73984,77028,15969,0,230,2,0,0,0,0,0,0,0,0,0,0,0,0,0
1998,3,5,12,0,,13.3,2.9,48,101010,0,0,302,681,759,143,75185,76710,18978,0,230,1.8,0,0,0,0,0,0,0,0,0,0,0,0,0
1998,3,5,13,0,,14.7,0.8,40,100960,0,0,306,719,745,161,70899,74471,21872,0,250,1.7,0,0,0,0,0,0,0,0,0,0,0,0,0
1998,3,5,14,0,,16.4,-1.2,33,100920,0,0,311,713,765,149,60323,74642,20384,0,230,2.3,0,0,0,0,0,0,0,0,0,0,0,0,0
1998,3,5,15,0,,16.9,-3.3,25,100870,0,0,311,632,738,139,43158,66293,18540,0,270,2.2,0,0,0,0,0,0,0,0,0,0,0,0,0
1998,3,5,16,0,,16.4,-2.6,28,100910,0,0,310,507,717,112,21995,47715,13487,0,290,2,0,0,0,0,0,0,0,0,0,0,0,0,0
1998,3,5,17,0,,15.1,-1.9,32,100940,0,0,305,328,603,92,0,0,0,0,290,2.7,0,0,0,0,0,0,0,0,0,0,0,0,0
1998,3,5,18,0,,13.7,-1.2,35,100980,0,0,300,156,526,50,0,0,0,0,290,1.3,0,0,0,0,0,0,0,0,0,0,0,0,0
1998,3,5,19,0,,12,-1.3,38,101020,0,0,293,30,12,17,0,0,0,0,320,1.5,0,0,0,0,0,0,0,0,0,0,0,0,0
1998,3,5,20,0,,10.8,-1.3,42,101060,0,0,287,0,0,0,0,0,0,0,360,0.8,0,0,0,0,0,0,0,0,0,0,0,0,0
1998,3,5,21,0,,10,-1.4,45,101100,0,0,284,0,0,0,0,0,0,0,270,1.2,0,0,0,0,0,0,0,0,0,0,0,0,0
1998,3,5,22,0,,8.6,-1.2,49,101100,0,0,279,0,0,0,0,0,0,0,180,1,0,0,0,0,0,0,0,0,0,0,0,0,0
1998,3,5,23,0,,8.4,-0.9,53,101100,0,0,278,0,0,0,0,0,0,0,200,0.8,0,0,0,0,0,0,0,0,0,0,0,0,0
1998,3,5,24,0,,7.4,-0.7,57,101100,0,0,274,0,0,0,0,0,0,0,160,1.2,0,0,0,0,0,0,0,0,0,0,0,0,0
1998,3,6,1,0,,6.5,0.2,66,101100,0,0,272,0,0,0,0,0,0,0,230,1.5,0,0,0,0,0,0,0,0,0,0,0,0,0
1998,3,6,2,0,,5.6,1,74,101090,0,0,269,0,0,0,0,0,0,0,0,0,0,0,0,0,0,0,0,0,0,0,0,0,0
1998,3,6,3,0,,4.7,1.9,83,101090,0,0,267,0,0,0,0,0,0,0,250,1.2,0,0,0,0,0,0,0,0,0,0,0,0,0
1998,3,6,4,0,,4.2,1.7,84,101090,0,0,264,0,0,0,0,0,0,0,230,1.3,0,0,0,0,0,0,0,0,0,0,0,0,0
1998,3,6,5,0,,3.6,1.5,86,101090,0,0,262,0,0,0,0,0,0,0,230,1.2,0,0,0,0,0,0,0,0,0,0,0,0,0
1998,3,6,6,0,,3.1,1.3,87,101090,0,0,260,0,0,0,0,0,0,0,200,0.5,0,0,0,0,0,0,0,0,0,0,0,0,0
1998,3,6,7,0,,2.2,1.3,84,101120,0,0,257,0,0,0,0,0,0,0,230,1.2,0,0,0,0,0,0,0,0,0,0,0,0,0
1998,3,6,8,0,,2.3,1.3,80,101150,0,0,257,67,34,33,6049,3422,4337,0,250,1.3,0,0,0,0,0,0,0,0,0,0,0,0,0
1998,3,6,9,0,,5,1.3,77,101180,0,0,267,234,514,79,44654,52461,11337,0,0,0.2,0,0,0,0,0,0,0,0,0,0,0,0,0
1998,3,6,10,0,,7.1,1.3,68,101150,0,0,282,423,668,103,63550,68333,14155,0,200,1.5,1,0,0,0,0,0,0,0,0,0,0,0,0
1998,3,6,11,0,,10.4,1.3,58,101120,0,0,300,588,759,119,74601,77429,15941,0,200,2,3,0,0,0,0,0,0,0,0,0,0,0,0
1998,3,6,12,0,,11.6,1.3,49,101090,0,0,308,643,646,182,72118,64951,24253,0,230,2.7,4,0,0,0,0,0,0,0,0,0,0,0,0
1998,3,6,13,0,,12.8,2.6,50,101020,0,0,316,666,598,215,66451,59448,27079,0,250,3,4,0,0,0,0,0,0,0,0,0,0,0,0
1998,3,6,14,0,,14.1,3.8,51,100950,0,0,324,585,424,271,53639,41491,31285,0,230,2.7,5,0,0,0,0,0,0,0,0,0,0,0,0
1998,3,6,15,0,,14.8,5.1,52,100880,0,0,330,533,449,231,41619,40027,26617,0,250,3.3,5,0,0,0,0,0,0,0,0,0,0,0,0
1998,3,6,16,0,,13.8,5.4,57,100900,0,0,325,414,400,192,25782,24539,21327,0,250,3.5,5,0,0,0,0,0,0,0,0,0,0,0,0
1998,3,6,17,0,,13.1,5.8,63,100910,0,0,321,285,400,127,0,0,0,0,290,1.5,4,0,0,0,0,0,0,0,0,0,0,0,0
1998,3,6,18,0,,11.7,6.1,68,100930,0,0,314,131,298,70,0,0,0,0,270,2.8,4,0,0,0,0,0,0,0,0,0,0,0,0
1998,3,6,19,0,,10.3,5.8,72,100990,0,0,307,25,10,15,0,0,0,0,250,1,4,0,0,0,0,0,0,0,0,0,0,0,0
1998,3,6,20,0,,9.3,5.6,77,101040,0,0,302,0,0,0,0,0,0,0,250,0.7,3,0,0,0,0,0,0,0,0,0,0,0,0
1998,3,6,21,0,,8.3,5.3,81,101100,0,0,297,0,0,0,0,0,0,0,250,0.7,3,0,0,0,0,0,0,0,0,0,0,0,0
1998,3,6,22,0,,7.9,5.1,84,101140,0,0,295,0,0,0,0,0,0,0,200,2.3,3,0,0,0,0,0,0,0,0,0,0,0,0
1998,3,6,23,0,,7.1,5,88,101180,0,0,291,0,0,0,0,0,0,0,200,2.8,3,0,0,0,0,0,0,0,0,0,0,0,0
1998,3,6,24,0,,6,4.8,91,101220,0,0,287,0,0,0,0,0,0,0,180,3,3,0,0,0,0,0,0,0,0,0,0,0,0
1998,3,7,1,0,,5.7,4.4,91,101210,0,0,288,0,0,0,0,0,0,0,200,1.7,4,0,0,0,0,0,0,0,0,0,0,0,0
1998,3,7,2,0,,5.5,4,90,101190,0,0,290,0,0,0,0,0,0,0,200,2.2,6,0,0,0,0,0,0,0,0,0,0,0,0
1998,3,7,3,0,,5.2,3.6,90,101180,0,0,293,0,0,0,0,0,0,0,0,0.2,7,0,0,0,0,0,0,0,0,0,0,0,0
1998,3,7,4,0,,4.5,3.2,90,101210,0,0,294,0,0,0,0,0,0,0,230,1,8,0,0,0,0,0,0,0,0,0,0,0,0
1998,3,7,5,0,,3.7,2.9,91,101230,0,0,297,0,0,0,0,0,0,0,0,0.2,9,0,0,0,0,0,0,0,0,0,0,0,0
1998,3,7,6,0,,3.9,2.5,91,101260,0,0,305,0,0,0,0,0,0,0,250,0.8,10,0,0,0,0,0,0,0,0,0,0,0,0
1998,3,7,7,0,,4.1,2.4,90,101330,0,0,306,0,0,0,0,0,0,0,230,1.2,10,0,0,0,0,0,0,0,0,0,0,0,0
1998,3,7,8,0,,4.2,2.4,89,101390,0,0,306,23,2,22,2925,92,2879,0,20,2,10,0,0,0,0,0,0,0,0,0,0,0,0
1998,3,7,9,0,,4,2.3,88,101460,0,0,305,78,22,72,9858,2104,8512,0,20,3,10,0,0,0,0,0,0,0,0,0,0,0,0
1998,3,7,10,0,,5.1,2.2,78,101480,0,0,289,271,167,190,35474,17151,22996,0,20,2.8,7,0,0,0,0,0,0,0,0,0,0,0,0
1998,3,7,11,0,,6.7,2.2,68,101490,0,0,287,493,463,205,61726,46593,26222,0,20,1.7,3,0,0,0,0,0,0,0,0,0,0,0,0
1998,3,7,12,0,,9.8,2.1,58,101510,0,0,287,669,704,164,75089,71121,22380,0,20,1.7,0,0,0,0,0,0,0,0,0,0,0,0,0
1998,3,7,13,0,,11.6,1.5,51,101440,0,0,297,726,740,165,71640,73949,22373,0,50,1.3,1,0,0,0,0,0,0,0,0,0,0,0,0
1998,3,7,14,0,,13.4,0.8,44,101370,0,0,308,717,753,156,60977,73408,21158,0,360,1.5,1,0,0,0,0,0,0,0,0,0,0,0,0
1998,3,7,15,0,,14.7,0.2,37,101300,0,0,316,622,687,157,43348,62331,19774,0,50,0.8,2,0,0,0,0,0,0,0,0,0,0,0,0
1998,3,7,16,0,,14.4,0.2,38,101340,0,0,318,486,625,137,23741,41695,16038,0,250,1.8,3,0,0,0,0,0,0,0,0,0,0,0,0
1998,3,7,17,0,,14.2,0.2,40,101370,0,0,320,303,469,117,0,0,0,0,180,2.3,5,0,0,0,0,0,0,0,0,0,0,0,0
1998,3,7,18,0,,12.9,0.2,41,101410,0,0,318,133,301,71,0,0,0,0,160,3.5,6,0,0,0,0,0,0,0,0,0,0,0,0
1998,3,7,19,0,,11.3,0.1,43,101460,0,0,306,31,18,13,0,0,0,0,160,5.3,4,0,0,0,0,0,0,0,0,0,0,0,0
1998,3,7,20,0,,10.1,-0.1,46,101520,0,0,295,0,0,0,0,0,0,0,200,3,2,0,0,0,0,0,0,0,0,0,0,0,0
1998,3,7,21,0,,9,-0.2,48,101570,0,0,281,0,0,0,0,0,0,0,180,2.5,0,0,0,0,0,0,0,0,0,0,0,0,0
1998,3,7,22,0,,8.5,0.2,54,101600,0,0,279,0,0,0,0,0,0,0,160,1.8,0,0,0,0,0,0,0,0,0,0,0,0,0
1998,3,7,23,0,,7.7,0.5,61,101630,0,0,277,0,0,0,0,0,0,0,200,1.3,0,0,0,0,0,0,0,0,0,0,0,0,0
1998,3,7,24,0,,6.7,0.9,67,101660,0,0,273,0,0,0,0,0,0,0,20,1,0,0,0,0,0,0,0,0,0,0,0,0,0
1998,3,8,1,0,,6,1,71,101650,0,0,270,0,0,0,0,0,0,0,0,0.2,0,0,0,0,0,0,0,0,0,0,0,0,0
1998,3,8,2,0,,5.2,1,74,101630,0,0,268,0,0,0,0,0,0,0,250,0.8,0,0,0,0,0,0,0,0,0,0,0,0,0
1998,3,8,3,0,,4.5,1.1,78,101620,0,0,265,0,0,0,0,0,0,0,230,1,0,0,0,0,0,0,0,0,0,0,0,0,0
1998,3,8,4,0,,4,0.6,77,101610,0,0,268,0,0,0,0,0,0,0,0,0.2,1,0,0,0,0,0,0,0,0,0,0,0,0
1998,3,8,5,0,,4.2,0,75,101600,0,0,271,0,0,0,0,0,0,0,360,0.7,2,0,0,0,0,0,0,0,0,0,0,0,0
1998,3,8,6,0,,3.5,-0.5,74,101590,0,0,271,0,0,0,0,0,0,0,20,0.7,3,0,0,0,0,0,0,0,0,0,0,0,0
1998,3,8,7,0,,3.7,-0.7,70,101580,0,0,273,0,0,0,0,0,0,0,20,2.3,4,0,0,0,0,0,0,0,0,0,0,0,0
1998,3,8,8,0,,4.2,-1,66,101580,0,0,277,67,29,38,6451,2955,4944,0,70,0.8,5,0,0,0,0,0,0,0,0,0,0,0,0
1998,3,8,9,0,,5.7,-1.2,62,101570,0,0,285,206,358,95,37860,36504,14330,0,50,0.8,6,0,0,0,0,0,0,0,0,0,0,0,0
1998,3,8,10,0,,7.6,-1.2,55,101530,0,0,294,360,405,163,51551,41077,21480,0,50,2.8,6,0,0,0,0,0,0,0,0,0,0,0,0
1998,3,8,11,0,,9.2,-1.2,49,101490,0,0,303,440,275,267,52658,28632,30714,0,360,1.3,7,0,0,0,0,0,0,0,0,0,0,0,0
1998,3,8,12,0,,10.9,-1.2,42,101450,0,0,311,518,267,326,57183,27586,36624,0,320,0.8,7,0,0,0,0,0,0,0,0,0,0,0,0
1998,3,8,13,0,,11.3,-1.7,38,101330,0,0,314,531,231,354,55379,23438,39673,0,20,2.7,7,0,0,0,0,0,0,0,0,0,0,0,0
1998,3,8,14,0,,13.2,-2.2,33,101210,0,0,324,483,188,342,48169,18547,38041,0,50,2.7,8,0,0,0,0,0,0,0,0,0,0,0,0
1998,3,8,15,0,,15.1,-2.7,29,101090,0,0,334,441,204,302,40287,18670,33162,0,50,2.3,8,0,0,0,0,0,0,0,0,0,0,0,0
1998,3,8,16,0,,15,-2.8,29,101050,0,0,334,362,231,232,27842,15514,24926,0,360,2.2,8,0,0,0,0,0,0,0,0,0,0,0,0
1998,3,8,17,0,,14.8,-2.9,30,101020,0,0,333,240,224,150,0,0,0,0,50,2,8,0,0,0,0,0,0,0,0,0,0,0,0
1998,3,8,18,0,,14.1,-3,30,100980,0,0,329,109,184,71,0,0,0,0,50,2,8,0,0,0,0,0,0,0,0,0,0,0,0
1998,3,8,19,0,,13.3,-2.1,34,100990,0,0,326,21,5,16,0,0,0,0,230,2.8,8,0,0,0,0,0,0,0,0,0,0,0,0
1998,3,8,20,0,,12.6,-1.1,39,100990,0,0,324,0,0,0,0,0,0,0,230,1.5,8,0,0,0,0,0,0,0,0,0,0,0,0
1998,3,8,21,0,,11.8,-0.2,43,101000,0,0,322,0,0,0,0,0,0,0,230,1.7,8,0,0,0,0,0,0,0,0,0,0,0,0
1998,3,8,22,0,,11,0.6,48,100980,0,0,321,0,0,0,0,0,0,0,160,0.3,8,0,0,0,0,0,0,0,0,0,0,0,0
1998,3,8,23,0,,10.7,1.3,52,100960,0,0,322,0,0,0,0,0,0,0,230,1.3,9,0,0,0,0,0,0,0,0,0,0,0,0
1998,3,8,24,0,,10.2,2.1,57,100940,0,0,324,0,0,0,0,0,0,0,230,1.2,9,0,0,0,0,0,0,0,0,0,0,0,0
1998,3,9,1,0,,9.8,1.9,58,100910,0,0,319,0,0,0,0,0,0,0,250,2.3,9,0,0,0,0,0,0,0,0,0,0,0,0
1998,3,9,2,0,,9.4,1.7,58,100870,0,0,315,0,0,0,0,0,0,0,270,0.5,8,0,0,0,0,0,0,0,0,0,0,0,0
1998,3,9,3,0,,9,1.5,59,100840,0,0,311,0,0,0,0,0,0,0,290,0.7,8,0,0,0,0,0,0,0,0,0,0,0,0
1998,3,9,4,0,,8.7,1.7,62,100800,0,0,306,0,0,0,0,0,0,0,230,1.2,7,0,0,0,0,0,0,0,0,0,0,0,0
1998,3,9,5,0,,8.3,1.9,64,100750,0,0,302,0,0,0,0,0,0,0,250,0.3,7,0,0,0,0,0,0,0,0,0,0,0,0
1998,3,9,6,0,,7.8,2.1,67,100710,0,0,298,0,0,0,0,0,0,0,290,0.8,6,0,0,0,0,0,0,0,0,0,0,0,0
1998,3,9,7,0,,7.5,2,64,100710,0,0,301,0,0,0,0,0,0,0,230,0.7,7,0,0,0,0,0,0,0,0,0,0,0,0
1998,3,9,8,0,,7.6,1.8,61,100700,0,0,309,38,6,31,4084,578,3787,0,340,0.8,9,0,0,0,0,0,0,0,0,0,0,0,0
1998,3,9,9,0,,9.5,1.7,58,100700,0,0,329,105,46,91,14329,4705,11274,0,360,1.2,10,0,0,0,0,0,0,0,0,0,0,0,0
1998,3,9,10,0,,11.8,1.6,53,100700,0,0,340,198,64,166,24709,6601,19846,0,250,0.8,10,0,0,0,0,0,0,0,0,0,0,0,0
1998,3,9,11,0,,12.3,1.4,47,100700,0,0,342,272,68,229,31403,6624,26298,0,250,1.8,10,0,0,0,0,0,0,0,0,0,0,0,0
1998,3,9,12,0,,14,1.3,42,100700,0,0,350,319,66,271,35734,6469,30886,0,360,1,10,0,0,0,0,0,0,0,0,0,0,0,0
1998,3,9,13,0,,14.8,0.6,39,100580,0,0,354,343,67,292,37485,6598,33038,0,20,3.2,10,0,0,0,0,0,0,0,0,0,0,0,0
1998,3,9,14,0,,15.8,0,35,100460,0,0,358,353,77,295,37284,7577,33119,0,20,4.5,10,0,0,0,0,0,0,0,0,0,0,0,0
1998,3,9,15,0,,15.6,-0.7,32,100340,0,0,356,295,65,251,30310,6204,27921,0,50,3.7,10,0,0,0,0,0,0,0,0,0,0,0,0
1998,3,9,16,0,,15,-2.3,30,100420,0,0,351,239,69,200,22983,5764,21882,0,50,5.5,10,0,0,0,0,0,0,0,0,0,0,0,0
1998,3,9,17,0,,14.1,-3.8,27,100500,0,0,345,145,52,125,0,0,0,0,50,2.8,10,0,0,0,0,0,0,0,0,0,0,0,0
1998,3,9,18,0,,14.1,-5.4,25,100580,0,0,343,71,50,60,0,0,0,0,110,0.8,10,0,0,0,0,0,0,0,0,0,0,0,0
1998,3,9,19,0,,13.4,-5.2,26,100610,0,0,340,13,1,11,0,0,0,0,20,2.8,10,0,0,0,0,0,0,0,0,0,0,0,0
1998,3,9,20,0,,13.5,-4.9,26,100630,0,0,341,0,0,0,0,0,0,0,50,2.8,10,0,0,0,0,0,0,0,0,0,0,0,0
1998,3,9,21,0,,13.5,-4.7,27,100660,0,0,341,0,0,0,0,0,0,0,50,4.5,10,0,0,0,0,0,0,0,0,0,0,0,0
1998,3,9,22,0,,12.5,-3.8,32,100710,0,0,337,0,0,0,0,0,0,0,20,5,10,0,0,0,0,0,0,0,0,0,0,0,0
1998,3,9,23,0,,12,-2.8,36,100770,0,0,336,0,0,0,0,0,0,0,70,3.8,10,0,0,0,0,0,0,0,0,0,0,0,0
1998,3,9,24,0,,10.4,-1.9,41,100820,0,0,329,0,0,0,0,0,0,0,20,3.7,10,0,0,0,0,0,0,0,0,0,0,0,0
1998,3,10,1,0,,9.4,-2.5,42,100850,0,0,324,0,0,0,0,0,0,0,50,5.2,10,0,0,0,0,0,0,0,0,0,0,0,0
1998,3,10,2,0,,8.4,-3,44,100880,0,0,319,0,0,0,0,0,0,0,50,6.2,10,0,0,0,0,0,0,0,0,0,0,0,0
1998,3,10,3,0,,7.8,-3.6,45,100910,0,0,315,0,0,0,0,0,0,0,50,8,10,0,0,0,0,0,0,0,0,0,0,0,0
1998,3,10,4,0,,7.7,-3.9,44,100900,0,0,314,0,0,0,0,0,0,0,50,5,10,0,0,0,0,0,0,0,0,0,0,0,0
1998,3,10,5,0,,7.2,-4.1,44,100890,0,0,312,0,0,0,0,0,0,0,50,4.7,10,0,0,0,0,0,0,0,0,0,0,0,0
1998,3,10,6,0,,7.1,-4.4,43,100880,0,0,311,0,0,0,0,0,0,0,50,6.7,10,0,0,0,0,0,0,0,0,0,0,0,0
1998,3,10,7,0,,6.8,-4.7,42,100940,0,0,309,0,0,0,0,0,0,0,50,7,10,0,0,0,0,0,0,0,0,0,0,0,0
1998,3,10,8,0,,6.8,-5.1,41,100990,0,0,309,43,8,34,4523,767,4124,0,50,8,10,0,0,0,0,0,0,0,0,0,0,0,0
1998,3,10,9,0,,7.3,-5.4,40,101050,0,0,311,128,76,104,17857,7924,12674,0,50,6,10,0,0,0,0,0,0,0,0,0,0,0,0
1998,3,10,10,0,,8.2,-4.8,38,101020,0,0,316,208,72,172,25968,7509,20402,0,50,3.7,10,0,0,0,0,0,0,0,0,0,0,0,0
1998,3,10,11,0,,8.9,-4.2,37,100990,0,0,320,281,72,235,33097,7545,27249,0,50,4.7,10,0,0,0,0,0,0,0,0,0,0,0,0
1998,3,10,12,0,,11,-3.6,35,100960,0,0,330,360,90,294,40163,8979,33398,0,50,6,10,0,0,0,0,0,0,0,0,0,0,0,0
1998,3,10,13,0,,12.4,-3.8,34,100920,0,0,333,365,77,305,39617,7721,34384,0,50,3,10,0,0,0,0,0,0,0,0,0,0,0,0
1998,3,10,14,0,,11.8,-3.9,32,100880,0,0,327,429,129,331,44092,12886,36962,0,50,5.2,9,0,0,0,0,0,0,0,0,0,0,0,0
1998,3,10,15,0,,12.2,-4.1,31,100840,0,0,326,355,106,282,35167,10222,31197,0,70,3.2,9,0,0,0,0,0,0,0,0,0,0,0,0
1998,3,10,16,0,,11.9,-3.3,36,100830,0,0,328,284,110,222,26004,9307,24196,0,70,5.5,9,0,0,0,0,0,0,0,0,0,0,0,0
1998,3,10,17,0,,11.2,-2.5,40,100810,0,0,329,170,77,138,0,0,0,0,20,8.3,10,0,0,0,0,0,0,0,0,0,0,0,0
1998,3,10,18,0,,9.4,-1.7,45,100800,0,0,325,68,43,59,0,0,0,0,50,5.8,10,0,0,0,0,0,0,0,0,0,0,0,0
1998,3,10,19,0,,8.4,-1,51,100830,0,0,321,12,1,11,0,0,0,0,50,8,10,0,0,0,0,0,0,0,0,0,0,0,0
1998,3,10,20,0,,7.7,-0.3,57,100850,0,0,318,0,0,0,0,0,0,0,50,7,10,0,0,0,0,0,0,0,0,0,0,0,0
1998,3,10,21,0,,7,0.4,63,100880,0,0,316,0,0,0,0,0,0,0,50,7,10,0,0,0,0,0,0,0,0,0,0,0,0
1998,3,10,22,0,,7,1,67,100880,0,0,317,0,0,0,0,0,0,0,50,5,10,0,0,0,0,0,0,0,0,0,0,0,0
1998,3,10,23,0,,6.8,1.5,70,100880,0,0,316,0,0,0,0,0,0,0,50,4,10,0,0,0,0,0,0,0,0,0,0,0,0
1998,3,10,24,0,,6.3,2.1,74,100880,0,0,315,0,0,0,0,0,0,0,20,5.8,10,0,0,0,0,0,0,0,0,0,0,0,0
1998,3,11,1,0,,5.8,2.5,78,100840,0,0,313,0,0,0,0,0,0,0,50,4,10,0,0,0,0,0,0,0,0,0,0,0,0
1998,3,11,2,0,,5.2,3,83,100790,0,0,311,0,0,0,0,0,0,0,360,2.8,10,0,0,0,0,0,0,0,0,0,0,0,0
1998,3,11,3,0,,5.3,3.4,87,100750,0,0,312,0,0,0,0,0,0,0,50,3.5,10,0,0,0,0,0,0,0,0,0,0,0,0
1998,3,11,4,0,,5.3,3.5,88,100680,0,0,313,0,0,0,0,0,0,0,20,3,10,0,0,0,0,0,0,0,0,0,0,0,0
1998,3,11,5,0,,5.2,3.7,90,100610,0,0,312,0,0,0,0,0,0,0,50,3.8,10,0,0,0,0,0,0,0,0,0,0,0,0
1998,3,11,6,0,,5.1,3.8,91,100540,0,0,312,0,0,0,0,0,0,0,20,3.3,10,0,0,0,0,0,0,0,0,0,0,0,0
1998,3,11,7,0,,5.1,3.8,90,100570,0,0,312,0,0,0,0,0,0,0,50,4.8,10,0,0,0,0,0,0,0,0,0,0,0,0
1998,3,11,8,0,,5.6,3.9,89,100610,0,0,314,31,3,28,3723,144,3648,0,20,5,10,0,0,0,0,0,0,0,0,0,0,0,0
1998,3,11,9,0,,5.9,3.9,88,100640,0,0,316,94,31,84,11887,2900,9977,0,50,2.5,10,0,0,0,0,0,0,0,0,0,0,0,0
1998,3,11,10,0,,6.2,4.4,87,100580,0,0,318,141,23,129,16792,2234,15126,0,20,2,10,0,0,0,0,0,0,0,0,0,0,0,0
1998,3,11,11,0,,7.2,4.8,86,100530,0,0,323,198,27,181,23038,2584,21023,0,20,2.2,10,0,0,0,0,0,0,0,0,0,0,0,0
1998,3,11,12,0,,7.7,5.3,85,100470,0,0,325,225,24,207,25651,2317,23896,0,50,2.3,10,0,0,0,0,0,0,0,0,0,0,0,0
1998,3,11,13,0,,8.8,5.5,83,100390,0,0,331,267,33,242,29871,3147,27725,0,50,2.5,10,0,0,0,0,0,0,0,0,0,0,0,0
1998,3,11,14,0,,8.9,5.7,82,100320,0,0,331,235,24,217,25901,1909,24838,0,270,1,10,0,0,0,0,0,0,0,0,0,0,0,0
1998,3,11,15,0,,9.2,5.9,80,100240,0,0,333,215,26,197,22511,2014,21723,0,250,0.8,10,0,0,0,0,0,0,0,0,0,0,0,0
1998,3,11,16,0,,9.3,5.6,81,100240,0,0,333,174,27,158,16804,1780,16453,0,270,1.5,10,0,0,0,0,0,0,0,0,0,0,0,0
1998,3,11,17,0,,9,5.4,81,100240,0,0,331,113,24,103,0,0,0,0,290,1.3,10,0,0,0,0,0,0,0,0,0,0,0,0
1998,3,11,18,0,,7.9,5.1,82,100240,0,0,326,48,15,44,0,0,0,0,270,2,10,0,0,0,0,0,0,0,0,0,0,0,0
1998,3,11,19,0,,6.8,4.4,82,100260,0,0,320,5,0,5,0,0,0,0,270,2.3,10,0,0,0,0,0,0,0,0,0,0,0,0
1998,3,11,20,0,,6.4,3.7,81,100270,0,0,317,0,0,0,0,0,0,0,270,2.3,10,0,0,0,0,0,0,0,0,0,0,0,0
1998,3,11,21,0,,6,3,81,100290,0,0,315,0,0,0,0,0,0,0,290,1.8,10,0,0,0,0,0,0,0,0,0,0,0,0
1998,3,11,22,0,,5.9,3.1,82,100310,0,0,314,0,0,0,0,0,0,0,290,2,10,0,0,0,0,0,0,0,0,0,0,0,0
1998,3,11,23,0,,5.9,3.1,84,100330,0,0,315,0,0,0,0,0,0,0,290,3.3,10,0,0,0,0,0,0,0,0,0,0,0,0
1998,3,11,24,0,,5.6,3.2,85,100350,0,0,313,0,0,0,0,0,0,0,320,1.5,10,0,0,0,0,0,0,0,0,0,0,0,0
1998,3,12,1,0,,5.4,2.4,81,100340,0,0,306,0,0,0,0,0,0,0,340,1.8,9,0,0,0,0,0,0,0,0,0,0,0,0
1998,3,12,2,0,,5.3,1.7,78,100320,0,0,299,0,0,0,0,0,0,0,320,2.2,9,0,0,0,0,0,0,0,0,0,0,0,0
1998,3,12,3,0,,5,0.9,74,100310,0,0,293,0,0,0,0,0,0,0,360,2,8,0,0,0,0,0,0,0,0,0,0,0,0
1998,3,12,4,0,,4.9,0.7,75,100300,0,0,289,0,0,0,0,0,0,0,270,2.2,7,0,0,0,0,0,0,0,0,0,0,0,0
1998,3,12,5,0,,4.3,0.6,77,100280,0,0,284,0,0,0,0,0,0,0,320,0.8,7,0,0,0,0,0,0,0,0,0,0,0,0
1998,3,12,6,0,,4,0.4,78,100270,0,0,280,0,0,0,0,0,0,0,20,0.8,6,0,0,0,0,0,0,0,0,0,0,0,0
1998,3,12,7,0,,4.1,0.6,76,100290,0,0,277,0,0,0,0,0,0,0,270,1.2,4,0,0,0,0,0,0,0,0,0,0,0,0
1998,3,12,8,0,,4.3,0.7,74,100310,0,0,274,89,50,39,8109,4993,5466,0,250,1.3,3,0,0,0,0,0,0,0,0,0,0,0,0
1998,3,12,9,0,,5.4,0.9,72,100330,0,0,273,267,562,81,49711,57541,11531,0,250,1.3,1,0,0,0,0,0,0,0,0,0,0,0,0
1998,3,12,10,0,,5.9,0,64,100310,0,0,278,422,566,134,62353,57803,18986,0,320,2.2,2,0,0,0,0,0,0,0,0,0,0,0,0
1998,3,12,11,0,,8.1,-1,55,100290,0,0,289,569,621,167,72056,63110,22596,0,360,3.2,3,0,0,0,0,0,0,0,0,0,0,0,0
1998,3,12,12,0,,8.8,-1.9,47,100270,0,0,293,623,524,236,69511,53092,29078,0,360,2.7,4,0,0,0,0,0,0,0,0,0,0,0,0
1998,3,12,13,0,,10.3,-2.9,41,100210,0,0,296,722,671,197,71459,66927,25589,0,290,3.5,3,0,0,0,0,0,0,0,0,0,0,0,0
1998,3,12,14,0,,11,-4,36,100140,0,0,295,699,654,199,60934,64700,24681,0,270,2.7,2,0,0,0,0,0,0,0,0,0,0,0,0
1998,3,12,15,0,,11.8,-5,30,100080,0,0,294,645,698,159,45480,64769,19900,0,270,2.3,1,0,0,0,0,0,0,0,0,0,0,0,0
1998,3,12,16,0,,11.9,-4.9,32,100100,0,0,296,517,671,131,25005,47662,15448,0,290,2.8,1,0,0,0,0,0,0,0,0,0,0,0,0
1998,3,12,17,0,,10.9,-4.8,33,100110,0,0,293,352,618,96,0,0,0,0,270,1.8,2,0,0,0,0,0,0,0,0,0,0,0,0
1998,3,12,18,0,,9.8,-4.7,35,100130,0,0,290,178,564,52,0,0,0,0,270,2.2,2,0,0,0,0,0,0,0,0,0,0,0,0
1998,3,12,19,0,,8.2,-3.4,44,100180,0,0,284,39,19,20,0,0,0,0,270,2.2,2,0,0,0,0,0,0,0,0,0,0,0,0
1998,3,12,20,0,,7,-2,52,100220,0,0,280,0,0,0,0,0,0,0,270,1.2,2,0,0,0,0,0,0,0,0,0,0,0,0
1998,3,12,21,0,,6.5,-0.7,61,100270,0,0,280,0,0,0,0,0,0,0,270,0.8,2,0,0,0,0,0,0,0,0,0,0,0,0
1998,3,12,22,0,,6,-0.7,64,100280,0,0,275,0,0,0,0,0,0,0,230,3.7,1,0,0,0,0,0,0,0,0,0,0,0,0
1998,3,12,23,0,,5.3,-0.7,66,100290,0,0,270,0,0,0,0,0,0,0,160,2.2,1,0,0,0,0,0,0,0,0,0,0,0,0
1998,3,12,24,0,,4.7,-0.7,69,100300,0,0,264,0,0,0,0,0,0,0,160,2.7,0,0,0,0,0,0,0,0,0,0,0,0,0
1998,3,13,1,0,,4.3,-0.3,73,100270,0,0,273,0,0,0,0,0,0,0,230,1.3,3,0,0,0,0,0,0,0,0,0,0,0,0
1998,3,13,2,0,,3.9,0.2,77,100230,0,0,278,0,0,0,0,0,0,0,200,1.2,5,0,0,0,0,0,0,0,0,0,0,0,0
1998,3,13,3,0,,3.5,0.6,81,100200,0,0,287,0,0,0,0,0,0,0,230,0.8,8,0,0,0,0,0,0,0,0,0,0,0,0
1998,3,13,4,0,,3.3,0.8,83,100180,0,0,286,0,0,0,0,0,0,0,230,0.3,8,0,0,0,0,0,0,0,0,0,0,0,0
1998,3,13,5,0,,3.2,1.1,85,100160,0,0,286,0,0,0,0,0,0,0,230,0.8,8,0,0,0,0,0,0,0,0,0,0,0,0
1998,3,13,6,0,,3,1.3,87,100140,0,0,285,0,0,0,0,0,0,0,0,0.2,8,0,0,0,0,0,0,0,0,0,0,0,0
1998,3,13,7,0,,2.8,1.4,84,100160,0,0,287,0,0,0,0,0,0,0,140,0.3,8,0,0,0,0,0,0,0,0,0,0,0,0
1998,3,13,8,0,,3.3,1.4,82,100190,0,0,291,43,6,36,4661,599,4341,0,50,1.2,9,0,0,0,0,0,0,0,0,0,0,0,0
1998,3,13,9,0,,4.6,1.5,79,100210,0,0,298,131,70,107,18001,7175,13207,0,230,1.5,9,0,0,0,0,0,0,0,0,0,0,0,0
1998,3,13,10,0,,6,2.4,73,100190,0,0,297,271,136,201,34293,13973,23747,0,250,1.5,8,0,0,0,0,0,0,0,0,0,0,0,0
1998,3,13,11,0,,8.6,3.4,68,100180,0,0,304,461,276,281,54906,28228,32663,0,200,1.2,6,0,0,0,0,0,0,0,0,0,0,0,0
1998,3,13,12,0,,11.4,4.3,62,100160,0,0,313,635,543,231,70617,54151,29161,0,200,3,5,0,0,0,0,0,0,0,0,0,0,0,0
1998,3,13,13,0,,14.1,3.4,54,100090,0,0,323,718,651,207,71250,64464,26828,0,180,2.7,4,0,0,0,0,0,0,0,0,0,0,0,0
1998,3,13,14,0,,15.3,2.6,47,100010,0,0,326,727,714,178,62703,69321,23620,0,230,4,4,0,0,0,0,0,0,0,0,0,0,0,0
1998,3,13,15,0,,15.7,1.7,39,99940,0,0,325,640,673,169,45737,61581,21215,0,250,4.3,3,0,0,0,0,0,0,0,0,0,0,0,0
1998,3,13,16,0,,14.9,2.3,45,99950,0,0,325,477,534,168,26309,36397,18899,0,230,4,4,0,0,0,0,0,0,0,0,0,0,0,0
1998,3,13,17,0,,13.5,3,50,99960,0,0,323,279,313,149,0,0,0,0,230,6.5,6,0,0,0,0,0,0,0,0,0,0,0,0
1998,3,13,18,0,,12.2,3.6,56,99970,0,0,323,119,189,76,0,0,0,0,230,3.8,7,0,0,0,0,0,0,0,0,0,0,0,0
1998,3,13,19,0,,11.1,4.8,66,100000,0,0,314,29,10,19,0,0,0,0,230,4.5,6,0,0,0,0,0,0,0,0,0,0,0,0
1998,3,13,20,0,,10.4,6.1,75,100030,0,0,310,0,0,0,0,0,0,0,230,3.3,4,0,0,0,0,0,0,0,0,0,0,0,0
1998,3,13,21,0,,9.8,7.3,85,100060,0,0,305,0,0,0,0,0,0,0,230,3.8,3,0,0,0,0,0,0,0,0,0,0,0,0
1998,3,13,22,0,,9.8,7.1,85,100070,0,0,310,0,0,0,0,0,0,0,230,2.3,5,0,0,0,0,0,0,0,0,0,0,0,0
1998,3,13,23,0,,9.3,6.9,84,100090,0,0,314,0,0,0,0,0,0,0,200,4.3,7,0,0,0,0,0,0,0,0,0,0,0,0
1998,3,13,24,0,,9.3,6.7,84,100100,0,0,325,0,0,0,0,0,0,0,180,3.2,9,0,0,0,0,0,0,0,0,0,0,0,0
1998,3,14,1,0,,9.2,6.6,84,100090,0,0,322,0,0,0,0,0,0,0,200,2.8,9,0,0,0,0,0,0,0,0,0,0,0,0
1998,3,14,2,0,,9.2,6.5,83,100090,0,0,320,0,0,0,0,0,0,0,200,4.2,8,0,0,0,0,0,0,0,0,0,0,0,0
1998,3,14,3,0,,9.1,6.4,83,100080,0,0,317,0,0,0,0,0,0,0,200,2.5,8,0,0,0,0,0,0,0,0,0,0,0,0
1998,3,14,4,0,,8.2,5,80,100100,0,0,301,0,0,0,0,0,0,0,250,3.2,5,0,0,0,0,0,0,0,0,0,0,0,0
1998,3,14,5,0,,7.2,3.5,77,100120,0,0,289,0,0,0,0,0,0,0,250,2,3,0,0,0,0,0,0,0,0,0,0,0,0
1998,3,14,6,0,,6.3,2.1,74,100140,0,0,273,0,0,0,0,0,0,0,270,1.3,0,0,0,0,0,0,0,0,0,0,0,0,0
1998,3,14,7,0,,5.5,1.8,72,100200,0,0,269,0,0,0,0,0,0,0,250,1.3,0,0,0,0,0,0,0,0,0,0,0,0,0
1998,3,14,8,0,,5.6,1.4,70,100250,0,0,269,96,54,42,8776,5457,5834,0,200,1.8,0,0,0,0,0,0,0,0,0,0,0,0,0
1998,3,14,9,0,,6.5,1.1,68,100310,0,0,273,276,568,83,50860,58102,11764,0,230,3,0,0,0,0,0,0,0,0,0,0,0,0,0
1998,3,14,10,0,,7.2,-0.6,57,100260,0,0,274,436,585,133,64241,59760,18869,0,250,1.7,0,0,0,0,0,0,0,0,0,0,0,0,0
1998,3,14,11,0,,8.3,-2.4,46,100220,0,0,276,585,640,165,73949,65227,22277,0,20,2.2,0,0,0,0,0,0,0,0,0,0,0,0,0
1998,3,14,12,0,,10.6,-4.1,35,100170,0,0,284,702,703,175,78205,71324,23319,0,20,2,0,0,0,0,0,0,0,0,0,0,0,0,0
1998,3,14,13,0,,11.4,-4.3,34,100120,0,0,300,725,658,206,71789,65533,26387,0,270,1.8,3,0,0,0,0,0,0,0,0,0,0,0,0
1998,3,14,14,0,,12.6,-4.5,33,100080,0,0,314,575,281,358,55513,28024,39617,0,250,3.2,7,0,0,0,0,0,0,0,0,0,0,0,0
1998,3,14,15,0,,11.3,-4.7,32,100030,0,0,330,291,57,251,30150,5510,27938,0,270,3.5,10,0,0,0,0,0,0,0,0,0,0,0,0
1998,3,14,16,0,,8.2,-4.5,37,100090,0,0,316,196,36,175,18739,2679,18185,0,290,4.5,10,0,0,0,0,0,0,0,0,0,0,0,0
1998,3,14,17,0,,6.7,-4.3,42,100150,0,0,309,100,16,93,0,0,0,0,250,1.8,10,0,0,0,0,0,0,0,0,0,0,0,0
1998,3,14,18,0,,6.1,-4.1,47,100210,0,0,307,53,18,49,0,0,0,0,270,1.5,10,0,0,0,0,0,0,0,0,0,0,0,0
1998,3,14,19,0,,5.5,-3,59,100320,0,0,305,11,1,10,0,0,0,0,360,2.5,10,0,0,0,0,0,0,0,0,0,0,0,0
1998,3,14,20,0,,2.8,-1.8,70,100420,0,0,295,0,0,0,0,0,0,0,320,2.5,10,0,0,0,0,0,0,0,0,0,0,0,0
1998,3,14,21,0,,2,-0.7,82,100530,0,0,293,0,0,0,0,0,0,0,20,2.5,10,0,0,0,0,0,0,0,0,0,0,0,0
1998,3,14,22,0,,1.6,-2.1,75,100610,0,0,280,0,0,0,0,0,0,0,250,1.7,9,0,0,0,0,0,0,0,0,0,0,0,0
1998,3,14,23,0,,1.4,-3.6,69,100690,0,0,270,0,0,0,0,0,0,0,320,3.5,7,0,0,0,0,0,0,0,0,0,0,0,0
1998,3,14,24,0,,1.4,-5,62,100770,0,0,264,0,0,0,0,0,0,0,340,3,6,0,0,0,0,0,0,0,0,0,0,0,0
1998,3,15,1,0,,1.4,-6.1,58,100840,0,0,261,0,0,0,0,0,0,0,360,3.3,5,0,0,0,0,0,0,0,0,0,0,0,0
1998,3,15,2,0,,1.4,-7.1,54,100900,0,0,259,0,0,0,0,0,0,0,20,3.2,5,0,0,0,0,0,0,0,0,0,0,0,0
1998,3,15,3,0,,1,-8.2,50,100970,0,0,255,0,0,0,0,0,0,0,360,2,4,0,0,0,0,0,0,0,0,0,0,0,0
1998,3,15,4,0,,1,-10.5,43,101010,0,0,250,0,0,0,0,0,0,0,20,2.5,3,0,0,0,0,0,0,0,0,0,0,0,0
1998,3,15,5,0,,1.1,-12.8,36,101060,0,0,245,0,0,0,0,0,0,0,360,4.5,1,0,0,0,0,0,0,0,0,0,0,0,0
1998,3,15,6,0,,1.2,-15.1,29,101100,0,0,238,0,0,0,0,0,0,0,360,5.2,0,0,0,0,0,0,0,0,0,0,0,0,0
1998,3,15,7,0,,1.1,-14.5,29,101180,0,0,238,0,0,0,0,0,0,0,360,5.2,0,0,0,0,0,0,0,0,0,0,0,0,0
1998,3,15,8,0,,1.8,-13.9,28,101260,0,0,241,125,99,26,10355,10188,4814,0,20,4.7,0,0,0,0,0,0,0,0,0,0,0,0,0
1998,3,15,9,0,,3,-13.3,28,101340,0,0,246,318,750,59,59434,75301,8415,0,20,4.3,0,0,0,0,0,0,0,0,0,0,0,0,0
1998,3,15,10,0,,4,-12.8,28,101340,0,0,250,503,796,87,73163,80130,11970,0,20,5,0,0,0,0,0,0,0,0,0,0,0,0,0
1998,3,15,11,0,,5.1,-12.2,27,101340,0,0,255,631,754,132,78128,76570,17150,0,20,2.8,0,0,0,0,0,0,0,0,0,0,0,0,0
1998,3,15,12,0,,5.9,-11.7,27,101340,0,0,259,720,737,164,80232,75237,22040,0,360,2.7,0,0,0,0,0,0,0,0,0,0,0,0,0
1998,3,15,13,0,,7,-11.4,26,101260,0,0,267,765,745,174,75321,75127,22998,0,360,3,1,0,0,0,0,0,0,0,0,0,0,0,0
1998,3,15,14,0,,8.8,-11,25,101170,0,0,277,757,765,161,64608,75545,21498,0,50,3,1,0,0,0,0,0,0,0,0,0,0,0,0
1998,3,15,15,0,,8.3,-10.7,24,101090,0,0,277,657,700,162,46725,65883,20066,0,320,3.3,2,0,0,0,0,0,0,0,0,0,0,0,0
1998,3,15,16,0,,7.7,-10.1,28,101080,0,0,277,510,616,148,26492,45025,17049,0,360,3,3,0,0,0,0,0,0,0,0,0,0,0,0
1998,3,15,17,0,,6.6,-9.6,31,101080,0,0,275,338,523,116,0,0,0,0,290,2.3,3,0,0,0,0,0,0,0,0,0,0,0,0
1998,3,15,18,0,,5.2,-9,35,101070,0,0,271,165,413,69,0,0,0,0,290,1.8,4,0,0,0,0,0,0,0,0,0,0,0,0
1998,3,15,19,0,,4.5,-7.4,41,101090,0,0,271,36,18,18,0,0,0,0,320,1.5,5,0,0,0,0,0,0,0,0,0,0,0,0
1998,3,15,20,0,,4.5,-5.7,47,101110,0,0,274,0,0,0,0,0,0,0,20,1,5,0,0,0,0,0,0,0,0,0,0,0,0
1998,3,15,21,0,,4.6,-4.1,53,101130,0,0,278,0,0,0,0,0,0,0,270,0.8,6,0,0,0,0,0,0,0,0,0,0,0,0
1998,3,15,22,0,,4.6,-4.1,54,101150,0,0,276,0,0,0,0,0,0,0,50,0.7,5,0,0,0,0,0,0,0,0,0,0,0,0
1998,3,15,23,0,,4.3,-4.1,54,101180,0,0,272,0,0,0,0,0,0,0,360,0.8,4,0,0,0,0,0,0,0,0,0,0,0,0
1998,3,15,24,0,,4.2,-4.1,55,101200,0,0,270,0,0,0,0,0,0,0,0,0.2,3,0,0,0,0,0,0,0,0,0,0,0,0
1998,3,16,1,0,,3.8,-3.7,59,101180,0,0,272,0,0,0,0,0,0,0,230,0.5,5,0,0,0,0,0,0,0,0,0,0,0,0
1998,3,16,2,0,,3.3,-3.4,62,101150,0,0,275,0,0,0,0,0,0,0,250,0.3,6,0,0,0,0,0,0,0,0,0,0,0,0
1998,3,16,3,0,,2.9,-3,66,101130,0,0,280,0,0,0,0,0,0,0,0,0,8,0,0,0,0,0,0,0,0,0,0,0,0
1998,3,16,4,0,,2.3,-2.6,71,101140,0,0,269,0,0,0,0,0,0,0,230,0.3,5,0,0,0,0,0,0,0,0,0,0,0,0
1998,3,16,5,0,,1.6,-2.3,75,101140,0,0,261,0,0,0,0,0,0,0,0,0.2,3,0,0,0,0,0,0,0,0,0,0,0,0
1998,3,16,6,0,,1.1,-1.9,80,101150,0,0,250,0,0,0,0,0,0,0,290,0.5,0,0,0,0,0,0,0,0,0,0,0,0,0
1998,3,16,7,0,,1,-1.7,77,101160,0,0,257,7,1,6,775,116,731,0,230,0.3,2,0,0,0,0,0,0,0,0,0,0,0,0
1998,3,16,8,0,,1.5,-1.4,74,101180,0,0,263,102,56,46,9424,5714,6289,0,360,0.3,3,0,0,0,0,0,0,0,0,0,0,0,0
1998,3,16,9,0,,3.5,-1.2,71,101190,0,0,274,244,365,116,42191,37151,16848,0,140,0.5,5,0,0,0,0,0,0,0,0,0,0,0,0
1998,3,16,10,0,,5.6,-1.5,62,101190,0,0,281,431,537,148,62541,54823,20433,0,270,0.8,4,0,0,0,0,0,0,0,0,0,0,0,0
1998,3,16,11,0,,7,-1.9,52,101180,0,0,285,570,573,189,71270,58019,24824,0,360,1.2,4,0,0,0,0,0,0,0,0,0,0,0,0
1998,3,16,12,0,,9.7,-2.2,43,101180,0,0,294,702,679,187,77952,68642,24594,0,20,1.3,3,0,0,0,0,0,0,0,0,0,0,0,0
1998,3,16,13,0,,11.1,-4.1,36,101100,0,0,295,764,731,180,75260,73447,23842,0,230,1.7,2,0,0,0,0,0,0,0,0,0,0,0,0
1998,3,16,14,0,,11.9,-5.9,30,101020,0,0,293,752,745,170,64546,73216,22517,0,270,2,1,0,0,0,0,0,0,0,0,0,0,0,0
1998,3,16,15,0,,12.3,-7.8,23,100940,0,0,287,665,711,160,47167,66843,19907,0,340,1.8,0,0,0,0,0,0,0,0,0,0,0,0,0
1998,3,16,16,0,,13.3,-6.6,26,100950,0,0,292,544,711,124,26062,52333,14928,0,250,1.7,0,0,0,0,0,0,0,0,0,0,0,0,0
1998,3,16,17,0,,12.9,-5.3,30,100970,0,0,292,380,686,87,7438,0,7438,0,320,1.7,0,0,0,0,0,0,0,0,0,0,0,0,0
1998,3,16,18,0,,11.4,-4.1,33,100980,0,0,287,195,614,51,0,0,0,0,20,1.7,0,0,0,0,0,0,0,0,0,0,0,0,0
1998,3,16,19,0,,8.8,-3.9,38,101050,0,0,277,43,22,21,0,0,0,0,290,2.3,0,0,0,0,0,0,0,0,0,0,0,0,0
1998,3,16,20,0,,7.6,-3.8,43,101130,0,0,272,0,0,0,0,0,0,0,270,2.5,0,0,0,0,0,0,0,0,0,0,0,0,0
1998,3,16,21,0,,6.6,-3.6,48,101200,0,0,268,0,0,0,0,0,0,0,270,0.5,0,0,0,0,0,0,0,0,0,0,0,0,0
1998,3,16,22,0,,6,-4.4,47,101250,0,0,265,0,0,0,0,0,0,0,340,0.3,0,0,0,0,0,0,0,0,0,0,0,0,0
1998,3,16,23,0,,5.1,-5.2,47,101310,0,0,261,0,0,0,0,0,0,0,20,2,0,0,0,0,0,0,0,0,0,0,0,0,0
1998,3,16,24,0,,4.5,-6,46,101360,0,0,258,0,0,0,0,0,0,0,20,2,0,0,0,0,0,0,0,0,0,0,0,0,0
1998,3,17,1,0,,4.2,-5.3,50,101370,0,0,258,0,0,0,0,0,0,0,360,1.5,0,0,0,0,0,0,0,0,0,0,0,0,0
1998,3,17,2,0,,3.9,-4.5,55,101370,0,0,257,0,0,0,0,0,0,0,20,1.8,0,0,0,0,0,0,0,0,0,0,0,0,0
1998,3,17,3,0,,3.6,-3.8,59,101380,0,0,257,0,0,0,0,0,0,0,270,0.5,0,0,0,0,0,0,0,0,0,0,0,0,0
1998,3,17,4,0,,2.4,-3.2,65,101390,0,0,253,0,0,0,0,0,0,0,50,0.5,0,0,0,0,0,0,0,0,0,0,0,0,0
1998,3,17,5,0,,1.8,-2.5,72,101410,0,0,251,0,0,0,0,0,0,0,230,0.5,0,0,0,0,0,0,0,0,0,0,0,0,0
1998,3,17,6,0,,1.6,-1.9,78,101420,0,0,251,0,0,0,0,0,0,0,0,0,0,0,0,0,0,0,0,0,0,0,0,0,0
1998,3,17,7,0,,1.7,-1.9,74,101460,0,0,252,10,3,7,979,233,890,0,20,1,0,0,0,0,0,0,0,0,0,0,0,0,0
1998,3,17,8,0,,1.6,-1.9,71,101510,0,0,251,113,461,42,31746,45981,6298,0,200,2.2,0,0,0,0,0,0,0,0,0,0,0,0,0
1998,3,17,9,0,,3.7,-1.9,67,101550,0,0,259,293,586,85,53054,59941,11889,0,200,1.5,0,0,0,0,0,0,0,0,0,0,0,0,0
1998,3,17,10,0,,7.2,-2.5,55,101560,0,0,272,492,728,104,71081,73627,14208,0,340,1,0,0,0,0,0,0,0,0,0,0,0,0,0
1998,3,17,11,0,,10.7,-3.2,43,101570,0,0,285,689,884,96,85051,89551,12994,0,230,2.2,0,0,0,0,0,0,0,0,0,0,0,0,0
1998,3,17,12,0,,12.9,-3.8,31,101580,0,0,294,790,885,115,85353,89372,15538,0,230,1.5,0,0,0,0,0,0,0,0,0,0,0,0,0
1998,3,17,13,0,,14,-4.7,28,101530,0,0,297,806,821,148,77399,82281,19502,0,270,2,0,0,0,0,0,0,0,0,0,0,0,0,0
1998,3,17,14,0,,15.6,-5.5,24,101490,0,0,303,773,785,156,65894,77608,21084,0,230,2,0,0,0,0,0,0,0,0,0,0,0,0,0
1998,3,17,15,0,,16.1,-6.4,21,101440,0,0,304,686,756,146,48143,69845,19440,0,230,2.3,0,0,0,0,0,0,0,0,0,0,0,0,0
1998,3,17,16,0,,16.7,-5.4,23,101430,0,0,308,562,758,113,26530,55203,14619,0,230,2.7,0,0,0,0,0,0,0,0,0,0,0,0,0
1998,3,17,17,0,,16.4,-4.3,26,101430,0,0,308,389,708,84,7357,0,7357,0,250,2.2,0,0,0,0,0,0,0,0,0,0,0,0,0
1998,3,17,18,0,,15.4,-3.3,28,101420,0,0,305,200,633,50,0,0,0,0,250,1.7,0,0,0,0,0,0,0,0,0,0,0,0,0
1998,3,17,19,0,,13.1,-2.8,33,101510,0,0,296,46,26,20,0,0,0,0,250,1.8,0,0,0,0,0,0,0,0,0,0,0,0,0
1998,3,17,20,0,,11.6,-2.4,37,101590,0,0,290,0,0,0,0,0,0,0,230,2.8,0,0,0,0,0,0,0,0,0,0,0,0,0
1998,3,17,21,0,,10.4,-1.9,42,101680,0,0,285,0,0,0,0,0,0,0,180,2,0,0,0,0,0,0,0,0,0,0,0,0,0
1998,3,17,22,0,,10,-1.8,45,101720,0,0,284,0,0,0,0,0,0,0,230,1.8,0,0,0,0,0,0,0,0,0,0,0,0,0
1998,3,17,23,0,,8.5,-1.8,49,101770,0,0,278,0,0,0,0,0,0,0,250,2.5,0,0,0,0,0,0,0,0,0,0,0,0,0
1998,3,17,24,0,,7.4,-1.7,52,101810,0,0,273,0,0,0,0,0,0,0,340,1.5,0,0,0,0,0,0,0,0,0,0,0,0,0
1998,3,18,1,0,,6.9,-1.4,55,101800,0,0,271,0,0,0,0,0,0,0,340,0.7,0,0,0,0,0,0,0,0,0,0,0,0,0
1998,3,18,2,0,,6.3,-1.2,59,101780,0,0,270,0,0,0,0,0,0,0,340,0.8,0,0,0,0,0,0,0,0,0,0,0,0,0
1998,3,18,3,0,,5.8,-0.9,62,101770,0,0,268,0,0,0,0,0,0,0,180,1.7,0,0,0,0,0,0,0,0,0,0,0,0,0
1998,3,18,4,0,,5.6,-0.5,65,101770,0,0,267,0,0,0,0,0,0,0,360,0.8,0,0,0,0,0,0,0,0,0,0,0,0,0
1998,3,18,5,0,,5.3,0,69,101770,0,0,267,0,0,0,0,0,0,0,290,0.8,0,0,0,0,0,0,0,0,0,0,0,0,0
1998,3,18,6,0,,5,0.4,72,101770,0,0,266,0,0,0,0,0,0,0,20,1,0,0,0,0,0,0,0,0,0,0,0,0,0
1998,3,18,7,0,,5.1,1.5,71,101800,0,0,274,12,4,8,1125,321,1001,0,50,0.3,1,0,0,0,0,0,0,0,0,0,0,0,0
1998,3,18,8,0,,5.7,2.5,69,101840,0,0,282,107,360,50,28083,36693,7600,0,160,0.5,3,0,0,0,0,0,0,0,0,0,0,0,0
1998,3,18,9,0,,9.2,3.6,68,101870,0,0,301,288,540,93,51223,55310,12984,0,20,1.3,4,0,0,0,0,0,0,0,0,0,0,0,0
1998,3,18,10,0,,11.3,2.5,58,101790,0,0,309,462,615,132,66131,62693,17432,0,90,2,4,0,0,0,0,0,0,0,0,0,0,0,0
1998,3,18,11,0,,14,1.3,47,101710,0,0,321,627,704,151,77244,71435,19474,0,160,5,5,0,0,0,0,0,0,0,0,0,0,0,0
1998,3,18,12,0,,14.8,0.2,37,101630,0,0,324,710,677,191,78718,68317,25091,0,160,8.5,5,0,0,0,0,0,0,0,0,0,0,0,0
1998,3,18,13,0,,15.4,-0.3,35,101550,0,0,326,721,607,232,71846,60977,28723,0,160,7.2,5,0,0,0,0,0,0,0,0,0,0,0,0
1998,3,18,14,0,,15.6,-0.9,34,101480,0,0,327,664,509,263,60334,50017,31289,0,160,6.7,5,0,0,0,0,0,0,0,0,0,0,0,0
1998,3,18,15,0,,15,-1.4,32,101400,0,0,323,596,508,231,46174,47986,26305,0,160,9,5,0,0,0,0,0,0,0,0,0,0,0,0
1998,3,18,16,0,,15,-0.8,35,101420,0,0,325,466,453,196,28747,32574,21621,0,180,5.7,5,0,0,0,0,0,0,0,0,0,0,0,0
1998,3,18,17,0,,14.4,-0.2,37,101430,0,0,324,301,350,150,14462,0,14462,0,140,4.5,6,0,0,0,0,0,0,0,0,0,0,0,0
1998,3,18,18,0,,13.8,0.4,40,101450,0,0,323,160,332,80,0,0,0,0,160,4.2,6,0,0,0,0,0,0,0,0,0,0,0,0
1998,3,18,19,0,,12.9,1.8,46,101410,0,0,321,38,18,20,0,0,0,0,180,5.3,6,0,0,0,0,0,0,0,0,0,0,0,0
1998,3,18,20,0,,12.4,3.1,53,101380,0,0,322,0,0,0,0,0,0,0,160,4.2,7,0,0,0,0,0,0,0,0,0,0,0,0
1998,3,18,21,0,,12.3,4.5,59,101340,0,0,324,0,0,0,0,0,0,0,140,4.2,7,0,0,0,0,0,0,0,0,0,0,0,0
1998,3,18,22,0,,12.4,5.1,61,101260,0,0,330,0,0,0,0,0,0,0,160,6.2,8,0,0,0,0,0,0,0,0,0,0,0,0
1998,3,18,23,0,,12.6,5.6,62,101170,0,0,339,0,0,0,0,0,0,0,140,6.7,9,0,0,0,0,0,0,0,0,0,0,0,0
1998,3,18,24,0,,12.8,6.2,64,101090,0,0,351,0,0,0,0,0,0,0,160,4,10,0,0,0,0,0,0,0,0,0,0,0,0
1998,3,19,1,0,,13.4,7.3,66,100970,0,0,355,0,0,0,0,0,0,0,160,5.5,10,0,0,0,0,0,0,0,0,0,0,0,0
1998,3,19,2,0,,14,8.3,69,100850,0,0,359,0,0,0,0,0,0,0,180,7.3,10,0,0,0,0,0,0,0,0,0,0,0,0
1998,3,19,3,0,,14.6,9.4,71,100730,0,0,364,0,0,0,0,0,0,0,160,8,10,0,0,0,0,0,0,0,0,0,0,0,0
1998,3,19,4,0,,15.3,9.7,70,100650,0,0,368,0,0,0,0,0,0,0,180,7.8,10,0,0,0,0,0,0,0,0,0,0,0,0
1998,3,19,5,0,,15.5,10,70,100580,0,0,369,0,0,0,0,0,0,0,160,5,10,0,0,0,0,0,0,0,0,0,0,0,0
1998,3,19,6,0,,16,10.3,69,100500,0,0,372,0,0,0,0,0,0,0,140,6.8,10,0,0,0,0,0,0,0,0,0,0,0,0
1998,3,19,7,0,,16.2,10.9,73,100470,0,0,374,3,0,3,373,0,373,0,180,8.2,10,0,0,0,0,0,0,0,0,0,0,0,0
1998,3,19,8,0,,16.7,11.6,77,100450,0,0,377,54,53,46,9466,5027,6636,0,180,7,10,0,0,0,0,0,0,0,0,0,0,0,0
1998,3,19,9,0,,15.5,12.2,81,100420,0,0,372,106,30,95,13239,2718,11348,0,160,4.3,10,0,0,0,0,0,0,0,0,0,0,0,0
1998,3,19,10,0,,14.8,12.4,84,100310,0,0,369,146,20,135,17383,1854,15935,0,180,3.3,10,0,0,0,0,0,0,0,0,0,0,0,0
1998,3,19,11,0,,14.6,12.6,88,100210,0,0,368,180,17,169,21144,1581,19859,0,180,5.7,10,0,0,0,0,0,0,0,0,0,0,0,0
1998,3,19,12,0,,14.3,12.8,91,100100,0,0,367,210,17,197,24283,1574,23041,0,180,4,10,0,0,0,0,0,0,0,0,0,0,0,0
1998,3,19,13,0,,13.1,12.8,92,99990,0,0,361,240,21,223,27425,1506,26354,0,160,8.8,10,0,0,0,0,0,0,0,0,0,0,0,0
1998,3,19,14,0,,13.3,12.7,93,99870,0,0,362,236,21,219,26097,1585,25171,0,180,7.8,10,0,0,0,0,0,0,0,0,0,0,0,0
1998,3,19,15,0,,13.7,12.7,94,99760,0,0,364,204,20,190,21704,1409,21116,0,180,5.7,10,0,0,0,0,0,0,0,0,0,0,0,0
1998,3,19,16,0,,14,11.3,94,99750,0,0,363,205,37,182,19516,2617,18936,0,180,7,10,0,0,0,0,0,0,0,0,0,0,0,0
1998,3,19,17,0,,14.3,10,94,99750,0,0,363,168,60,141,14876,4096,14832,0,200,9,10,0,0,0,0,0,0,0,0,0,0,0,0
1998,3,19,18,0,,9.5,8.6,94,99740,0,0,338,40,7,39,0,0,0,0,250,3.2,10,0,0,0,0,0,0,0,0,0,0,0,0
1998,3,19,19,0,,12,6.7,92,99920,0,0,347,13,1,12,0,0,0,0,250,4,10,0,0,0,0,0,0,0,0,0,0,0,0
1998,3,19,20,0,,10.8,4.8,90,100090,0,0,339,0,0,0,0,0,0,0,360,2.5,10,0,0,0,0,0,0,0,0,0,0,0,0
1998,3,19,21,0,,4.5,2.9,88,100270,0,0,308,0,0,0,0,0,0,0,290,4.7,10,0,0,0,0,0,0,0,0,0,0,0,0
1998,3,19,22,0,,3.6,1.5,84,100330,0,0,302,0,0,0,0,0,0,0,320,3.8,10,0,0,0,0,0,0,0,0,0,0,0,0
1998,3,19,23,0,,2.9,0,80,100400,0,0,298,0,0,0,0,0,0,0,360,3.5,10,0,0,0,0,0,0,0,0,0,0,0,0
1998,3,19,24,0,,2.4,-1.4,76,100460,0,0,294,0,0,0,0,0,0,0,320,2.2,10,0,0,0,0,0,0,0,0,0,0,0,0
1998,3,20,1,0,,2.2,-2.8,69,100510,0,0,291,0,0,0,0,0,0,0,360,4.3,10,0,0,0,0,0,0,0,0,0,0,0,0
1998,3,20,2,0,,1.8,-4.3,63,100550,0,0,288,0,0,0,0,0,0,0,360,3,10,0,0,0,0,0,0,0,0,0,0,0,0
1998,3,20,3,0,,1.9,-5.7,56,100600,0,0,287,0,0,0,0,0,0,0,360,2.8,10,0,0,0,0,0,0,0,0,0,0,0,0
1998,3,20,4,0,,1.6,-6.4,54,100660,0,0,284,0,0,0,0,0,0,0,360,3.2,10,0,0,0,0,0,0,0,0,0,0,0,0
1998,3,20,5,0,,1.7,-7.1,52,100730,0,0,284,0,0,0,0,0,0,0,360,2.3,10,0,0,0,0,0,0,0,0,0,0,0,0
1998,3,20,6,0,,1.2,-7.8,50,100790,0,0,281,0,0,0,0,0,0,0,360,5.5,10,0,0,0,0,0,0,0,0,0,0,0,0
1998,3,20,7,0,,1,-7.7,50,100880,0,0,280,3,0,3,403,0,403,0,360,3.3,10,0,0,0,0,0,0,0,0,0,0,0,0
1998,3,20,8,0,,1.2,-7.5,51,100970,0,0,281,57,54,47,9629,5590,6455,0,20,5.2,10,0,0,0,0,0,0,0,0,0,0,0,0
1998,3,20,9,0,,1.5,-7.4,51,101060,0,0,283,144,67,119,19378,7057,14435,0,360,5.5,10,0,0,0,0,0,0,0,0,0,0,0,0
1998,3,20,10,0,,1.7,-7.2,52,101080,0,0,284,206,51,178,24509,5067,20530,0,360,3.5,10,0,0,0,0,0,0,0,0,0,0,0,0
1998,3,20,11,0,,1.6,-6.9,54,101110,0,0,284,270,51,235,31101,5099,26936,0,360,5.7,10,0,0,0,0,0,0,0,0,0,0,0,0
1998,3,20,12,0,,1.7,-6.7,55,101130,0,0,285,277,36,249,31217,3560,28396,0,360,2.8,10,0,0,0,0,0,0,0,0,0,0,0,0
1998,3,20,13,0,,2.1,-7.9,50,101120,0,0,285,324,47,286,35631,4682,32288,0,360,4.2,10,0,0,0,0,0,0,0,0,0,0,0,0
1998,3,20,14,0,,2.3,-9.1,44,101110,0,0,285,328,52,286,35199,5222,32133,0,20,5.2,10,0,0,0,0,0,0,0,0,0,0,0,0
1998,3,20,15,0,,2.3,-10.3,39,101100,0,0,283,293,52,255,30452,5108,28305,0,360,3.2,10,0,0,0,0,0,0,0,0,0,0,0,0
1998,3,20,16,0,,2.6,-10.3,41,101150,0,0,285,236,54,204,23366,4707,22308,0,20,2.3,10,0,0,0,0,0,0,0,0,0,0,0,0
1998,3,20,17,0,,2.1,-10.3,44,101210,0,0,283,167,58,141,14696,4181,14638,0,360,2.7,10,0,0,0,0,0,0,0,0,0,0,0,0
1998,3,20,18,0,,1.3,-10.3,46,101260,0,0,279,83,51,71,0,0,0,0,20,2.7,10,0,0,0,0,0,0,0,0,0,0,0,0
1998,3,20,19,0,,1.3,-9.3,48,101310,0,0,280,16,1,15,0,0,0,0,20,2.2,10,0,0,0,0,0,0,0,0,0,0,0,0
1998,3,20,20,0,,1.1,-8.4,50,101370,0,0,280,0,0,0,0,0,0,0,360,2,10,0,0,0,0,0,0,0,0,0,0,0,0
1998,3,20,21,0,,1,-7.4,52,101420,0,0,281,0,0,0,0,0,0,0,20,2.7,10,0,0,0,0,0,0,0,0,0,0,0,0
1998,3,20,22,0,,1,-7.4,52,101450,0,0,281,0,0,0,0,0,0,0,20,1.8,10,0,0,0,0,0,0,0,0,0,0,0,0
1998,3,20,23,0,,1.2,-7.4,53,101480,0,0,282,0,0,0,0,0,0,0,360,2.7,10,0,0,0,0,0,0,0,0,0,0,0,0
1998,3,20,24,0,,1.2,-7.4,53,101510,0,0,282,0,0,0,0,0,0,0,360,6.2,10,0,0,0,0,0,0,0,0,0,0,0,0
1998,3,21,1,0,,1,-7.1,55,101480,0,0,271,0,0,0,0,0,0,0,20,6.3,9,0,0,0,0,0,0,0,0,0,0,0,0
1998,3,21,2,0,,0.8,-6.7,56,101440,0,0,264,0,0,0,0,0,0,0,20,4.2,7,0,0,0,0,0,0,0,0,0,0,0,0
1998,3,21,3,0,,0.6,-6.4,58,101410,0,0,259,0,0,0,0,0,0,0,20,3.7,6,0,0,0,0,0,0,0,0,0,0,0,0
1998,3,21,4,0,,0.3,-6.4,60,101420,0,0,256,0,0,0,0,0,0,0,20,3.3,5,0,0,0,0,0,0,0,0,0,0,0,0
1998,3,21,5,0,,-0.1,-6.4,62,101430,0,0,253,0,0,0,0,0,0,0,50,2.8,4,0,0,0,0,0,0,0,0,0,0,0,0
1998,3,21,6,0,,-0.4,-6.4,64,101440,0,0,250,0,0,0,0,0,0,0,50,3.2,3,0,0,0,0,0,0,0,0,0,0,0,0
1998,3,21,7,0,,-0.2,-6.3,60,101420,0,0,249,19,11,9,1666,1032,1252,0,20,3.7,2,0,0,0,0,0,0,0,0,0,0,0,0
1998,3,21,8,0,,1.1,-6.1,56,101400,0,0,250,143,612,37,40539,61088,5572,0,20,3.7,1,0,0,0,0,0,0,0,0,0,0,0,0
1998,3,21,9,0,,3,-6,52,101380,0,0,252,346,750,65,62490,75640,9172,0,20,5.5,0,0,0,0,0,0,0,0,0,0,0,0,0
1998,3,21,10,0,,3.8,-6.6,49,101390,0,0,260,527,781,97,75415,78836,13168,0,20,6,1,0,0,0,0,0,0,0,0,0,0,0,0
1998,3,21,11,0,,4.4,-7.2,45,101390,0,0,265,621,651,173,77534,66498,22959,0,70,1.5,2,0,0,0,0,0,0,0,0,0,0,0,0
1998,3,21,12,0,,4,-7.8,42,101400,0,0,265,664,529,251,73468,54234,30291,0,270,2.7,3,0,0,0,0,0,0,0,0,0,0,0,0
1998,3,21,13,0,,5.1,-8.2,39,101330,0,0,270,699,524,270,70233,53390,31922,0,270,2,3,0,0,0,0,0,0,0,0,0,0,0,0
1998,3,21,14,0,,5.8,-8.6,36,101270,0,0,274,658,467,285,60136,48121,31726,0,340,2,4,0,0,0,0,0,0,0,0,0,0,0,0
1998,3,21,15,0,,5.6,-9,33,101200,0,0,273,612,526,230,47336,50987,25755,0,320,2.7,4,0,0,0,0,0,0,0,0,0,0,0,0
1998,3,21,16,0,,5.6,-9,34,101270,0,0,270,515,574,166,28837,43471,18943,0,360,2.8,3,0,0,0,0,0,0,0,0,0,0,0,0
1998,3,21,17,0,,5.1,-9,36,101330,0,0,264,377,615,104,9066,3290,9011,0,360,2,1,0,0,0,0,0,0,0,0,0,0,0,0
1998,3,21,18,0,,4.5,-9,37,101400,0,0,255,205,599,56,0,0,0,0,360,2.3,0,0,0,0,0,0,0,0,0,0,0,0,0
1998,3,21,19,0,,3.1,-8.2,42,101470,0,0,250,52,31,21,0,0,0,0,320,2.2,0,0,0,0,0,0,0,0,0,0,0,0,0
1998,3,21,20,0,,2.4,-7.5,47,101550,0,0,248,0,0,0,0,0,0,0,360,2,0,0,0,0,0,0,0,0,0,0,0,0,0
1998,3,21,21,0,,2,-6.7,52,101620,0,0,248,0,0,0,0,0,0,0,360,1.8,0,0,0,0,0,0,0,0,0,0,0,0,0
1998,3,21,22,0,,1.9,-6.3,54,101630,0,0,256,0,0,0,0,0,0,0,360,2,2,0,0,0,0,0,0,0,0,0,0,0,0
1998,3,21,23,0,,1.6,-5.8,55,101630,0,0,260,0,0,0,0,0,0,0,340,0.7,4,0,0,0,0,0,0,0,0,0,0,0,0
1998,3,21,24,0,,1.8,-5.4,57,101640,0,0,265,0,0,0,0,0,0,0,320,0.7,6,0,0,0,0,0,0,0,0,0,0,0,0
1998,3,22,1,0,,1.5,-4.2,65,101650,0,0,270,0,0,0,0,0,0,0,0,0.2,7,0,0,0,0,0,0,0,0,0,0,0,0
1998,3,22,2,0,,1.2,-3.1,73,101650,0,0,277,0,0,0,0,0,0,0,0,0,9,0,0,0,0,0,0,0,0,0,0,0,0
1998,3,22,3,0,,0.9,-1.9,81,101660,0,0,287,0,0,0,0,0,0,0,340,1.5,10,0,0,0,0,0,0,0,0,0,0,0,0
1998,3,22,4,0,,0.7,-3.1,74,101710,0,0,273,0,0,0,0,0,0,0,340,1.5,8,0,0,0,0,0,0,0,0,0,0,0,0
1998,3,22,5,0,,0.7,-4.2,68,101760,0,0,264,0,0,0,0,0,0,0,20,2.5,7,0,0,0,0,0,0,0,0,0,0,0,0
1998,3,22,6,0,,1,-5.4,61,101810,0,0,260,0,0,0,0,0,0,0,360,3.5,5,0,0,0,0,0,0,0,0,0,0,0,0
1998,3,22,7,0,,0.8,-5.4,60,101890,0,0,258,17,6,11,1606,575,1372,0,20,1.5,5,0,0,0,0,0,0,0,0,0,0,0,0
1998,3,22,8,0,,1.5,-5.4,58,101980,0,0,260,130,450,50,34013,45892,7529,0,270,0.3,4,0,0,0,0,0,0,0,0,0,0,0,0
1998,3,22,9,0,,2.6,-5.4,57,102060,0,0,264,295,499,106,51882,51234,15540,0,20,0.8,4,0,0,0,0,0,0,0,0,0,0,0,0
1998,3,22,10,0,,3.2,-6.3,50,102050,0,0,265,458,543,157,65346,55513,21282,0,20,2,4,0,0,0,0,0,0,0,0,0,0,0,0
1998,3,22,11,0,,4.7,-7.3,44,102030,0,0,269,610,609,188,75683,62054,24513,0,360,2.7,3,0,0,0,0,0,0,0,0,0,0,0,0
1998,3,22,12,0,,5.6,-8.2,37,102020,0,0,271,714,644,209,78726,65098,26663,0,360,4,3,0,0,0,0,0,0,0,0,0,0,0,0
1998,3,22,13,0,,6.2,-9.5,33,102020,0,0,271,768,679,209,75685,68100,26588,0,290,3.5,2,0,0,0,0,0,0,0,0,0,0,0,0
1998,3,22,14,0,,6.1,-10.9,28,102020,0,0,267,743,664,209,65185,66864,25497,0,320,3.8,2,0,0,0,0,0,0,0,0,0,0,0,0
1998,3,22,15,0,,6.6,-12.2,24,102020,0,0,266,682,699,171,49392,66718,20953,0,360,4,1,0,0,0,0,0,0,0,0,0,0,0,0
1998,3,22,16,0,,6.7,-13.2,23,102040,0,0,264,559,699,133,28236,53976,15795,0,360,3.5,1,0,0,0,0,0,0,0,0,0,0,0,0
1998,3,22,17,0,,5.8,-14.1,22,102050,0,0,258,409,731,83,7894,0,7894,0,360,6.3,0,0,0,0,0,0,0,0,0,0,0,0,0
1998,3,22,18,0,,5,-15.1,21,102070,0,0,252,217,665,50,0,0,0,0,360,3.8,0,0,0,0,0,0,0,0,0,0,0,0,0
1998,3,22,19,0,,3.9,-13.6,26,102090,0,0,249,54,34,20,0,0,0,0,20,1.8,0,0,0,0,0,0,0,0,0,0,0,0,0
1998,3,22,20,0,,2.8,-12.2,32,102100,0,0,246,0,0,0,0,0,0,0,20,2.5,0,0,0,0,0,0,0,0,0,0,0,0,0
1998,3,22,21,0,,2.2,-10.7,37,102120,0,0,245,0,0,0,0,0,0,0,20,3.7,0,0,0,0,0,0,0,0,0,0,0,0,0
1998,3,22,22,0,,2,-9.9,40,102150,0,0,245,0,0,0,0,0,0,0,360,2.3,0,0,0,0,0,0,0,0,0,0,0,0,0
1998,3,22,23,0,,2.1,-9,44,102180,0,0,246,0,0,0,0,0,0,0,20,3.3,0,0,0,0,0,0,0,0,0,0,0,0,0
1998,3,22,24,0,,2.2,-8.2,47,102210,0,0,247,0,0,0,0,0,0,0,360,2.3,0,0,0,0,0,0,0,0,0,0,0,0,0
1998,3,23,1,0,,2,-7.9,48,102220,0,0,251,0,0,0,0,0,0,0,20,1.7,1,0,0,0,0,0,0,0,0,0,0,0,0
1998,3,23,2,0,,1.8,-7.7,50,102230,0,0,254,0,0,0,0,0,0,0,20,1,2,0,0,0,0,0,0,0,0,0,0,0,0
1998,3,23,3,0,,1.6,-7.4,51,102240,0,0,256,0,0,0,0,0,0,0,20,1.2,3,0,0,0,0,0,0,0,0,0,0,0,0
1998,3,23,4,0,,1.8,-7.2,52,102190,0,0,255,0,0,0,0,0,0,0,20,1.2,2,0,0,0,0,0,0,0,0,0,0,0,0
1998,3,23,5,0,,1.8,-6.9,54,102150,0,0,254,0,0,0,0,0,0,0,50,1.5,2,0,0,0,0,0,0,0,0,0,0,0,0
1998,3,23,6,0,,1.6,-6.7,55,102100,0,0,251,0,0,0,0,0,0,0,20,2,1,0,0,0,0,0,0,0,0,0,0,0,0
1998,3,23,7,0,,1.5,-5.8,55,102130,0,0,254,23,9,14,2284,928,1903,0,360,1.8,2,0,0,0,0,0,0,0,0,0,0,0,0
1998,3,23,8,0,,2.7,-5,55,102170,0,0,261,143,533,45,37689,53252,6712,0,0,0.2,2,0,0,0,0,0,0,0,0,0,0,0,0
1998,3,23,9,0,,4.1,-4.1,55,102200,0,0,269,310,550,99,53610,56108,13563,0,200,0.5,3,0,0,0,0,0,0,0,0,0,0,0,0
1998,3,23,10,0,,5.4,-4.3,50,102170,0,0,277,470,567,152,67159,58038,20850,0,250,1.8,4,0,0,0,0,0,0,0,0,0,0,0,0
1998,3,23,11,0,,6.1,-4.5,46,102140,0,0,283,513,295,307,60221,30984,34552,0,230,1,6,0,0,0,0,0,0,0,0,0,0,0,0
1998,3,23,12,0,,7.7,-4.7,41,102110,0,0,294,548,225,371,60234,23295,41520,0,270,1.5,7,0,0,0,0,0,0,0,0,0,0,0,0
1998,3,23,13,0,,9,-4.9,39,101990,0,0,302,523,166,386,55237,17031,42902,0,290,3.2,8,0,0,0,0,0,0,0,0,0,0,0,0
1998,3,23,14,0,,9.4,-5.2,36,101880,0,0,307,506,163,374,51062,16419,41265,0,230,2.3,8,0,0,0,0,0,0,0,0,0,0,0,0
1998,3,23,15,0,,9.5,-5.4,34,101760,0,0,312,377,100,303,37786,9793,33583,0,290,2,9,0,0,0,0,0,0,0,0,0,0,0,0
1998,3,23,16,0,,10.3,-5.2,36,101750,0,0,319,317,115,246,29269,10265,26874,0,360,2.8,9,0,0,0,0,0,0,0,0,0,0,0,0
1998,3,23,17,0,,9.2,-4.9,38,101730,0,0,317,170,57,144,15151,3991,15062,0,290,2.5,10,0,0,0,0,0,0,0,0,0,0,0,0
1998,3,23,18,0,,7.9,-4.7,40,101720,0,0,314,82,44,71,0,0,0,0,340,2.5,10,0,0,0,0,0,0,0,0,0,0,0,0
1998,3,23,19,0,,6.8,-4.1,44,101760,0,0,301,21,3,19,0,0,0,0,290,2.3,9,0,0,0,0,0,0,0,0,0,0,0,0
1998,3,23,20,0,,6.1,-3.6,49,101800,0,0,293,0,0,0,0,0,0,0,270,1.3,8,0,0,0,0,0,0,0,0,0,0,0,0
1998,3,23,21,0,,5.6,-3,53,101840,0,0,287,0,0,0,0,0,0,0,290,1.2,7,0,0,0,0,0,0,0,0,0,0,0,0
1998,3,23,22,0,,5.2,-3.8,51,101820,0,0,287,0,0,0,0,0,0,0,360,1.5,8,0,0,0,0,0,0,0,0,0,0,0,0
1998,3,23,23,0,,5.3,-4.6,50,101790,0,0,290,0,0,0,0,0,0,0,20,1.5,8,0,0,0,0,0,0,0,0,0,0,0,0
1998,3,23,24,0,,4.8,-5.4,48,101770,0,0,291,0,0,0,0,0,0,0,50,2,9,0,0,0,0,0,0,0,0,0,0,0,0
1998,3,24,1,0,,4.7,-5.3,48,101730,0,0,291,0,0,0,0,0,0,0,50,3.8,9,0,0,0,0,0,0,0,0,0,0,0,0
1998,3,24,2,0,,4.6,-5.1,49,101700,0,0,291,0,0,0,0,0,0,0,20,3.2,9,0,0,0,0,0,0,0,0,0,0,0,0
1998,3,24,3,0,,4.6,-5,49,101660,0,0,291,0,0,0,0,0,0,0,20,2.3,9,0,0,0,0,0,0,0,0,0,0,0,0
1998,3,24,4,0,,4.5,-4.8,51,101690,0,0,285,0,0,0,0,0,0,0,20,2,8,0,0,0,0,0,0,0,0,0,0,0,0
1998,3,24,5,0,,4.2,-4.6,54,101720,0,0,279,0,0,0,0,0,0,0,20,3.3,7,0,0,0,0,0,0,0,0,0,0,0,0
1998,3,24,6,0,,3.3,-4.4,56,101750,0,0,272,0,0,0,0,0,0,0,20,2.7,6,0,0,0,0,0,0,0,0,0,0,0,0
1998,3,24,7,0,,3.4,-4,53,101770,0,0,269,22,10,12,2080,1006,1662,0,20,1.8,4,0,0,0,0,0,0,0,0,0,0,0,0
1998,3,24,8,0,,4.4,-3.7,50,101790,0,0,270,142,489,50,36040,48902,7367,0,50,1.2,3,0,0,0,0,0,0,0,0,0,0,0,0
1998,3,24,9,0,,7.2,-3.3,47,101810,0,0,276,353,721,72,62472,72844,10160,0,50,2,1,0,0,0,0,0,0,0,0,0,0,0,0
1998,3,24,10,0,,8,-3.6,43,101750,0,0,279,518,706,119,73517,72170,15636,0,20,1,1,0,0,0,0,0,0,0,0,0,0,0,0
1998,3,24,11,0,,9,-3.8,39,101690,0,0,283,659,716,156,80187,72617,19749,0,290,2.3,1,0,0,0,0,0,0,0,0,0,0,0,0
1998,3,24,12,0,,10.6,-4.1,35,101630,0,0,289,731,665,204,80545,67243,26287,0,20,1.5,1,0,0,0,0,0,0,0,0,0,0,0,0
1998,3,24,13,0,,12.2,-4.2,33,101520,0,0,297,801,738,188,78698,74298,24640,0,360,2.5,1,0,0,0,0,0,0,0,0,0,0,0,0
1998,3,24,14,0,,11.9,-4.3,31,101420,0,0,297,746,655,215,65647,65398,26423,0,360,2.7,2,0,0,0,0,0,0,0,0,0,0,0,0
1998,3,24,15,0,,12.7,-4.4,29,101310,0,0,302,670,649,190,49730,61362,23211,0,20,2,2,0,0,0,0,0,0,0,0,0,0,0,0
1998,3,24,16,0,,12.3,-2.3,38,101310,0,0,306,513,544,178,29710,41273,19959,0,290,2.8,3,0,0,0,0,0,0,0,0,0,0,0,0
1998,3,24,17,0,,11.4,-0.2,47,101300,0,0,308,334,415,146,13816,188,13812,0,270,3,5,0,0,0,0,0,0,0,0,0,0,0,0
1998,3,24,18,0,,10.3,1.9,56,101300,0,0,308,153,264,85,0,0,0,0,270,2.2,6,0,0,0,0,0,0,0,0,0,0,0,0
1998,3,24,19,0,,8.9,2,60,101290,0,0,307,33,9,24,0,0,0,0,290,2.2,7,0,0,0,0,0,0,0,0,0,0,0,0
1998,3,24,20,0,,8.1,2,64,101270,0,0,311,0,0,0,0,0,0,0,340,1.2,9,0,0,0,0,0,0,0,0,0,0,0,0
1998,3,24,21,0,,7.6,2.1,68,101260,0,0,321,0,0,0,0,0,0,0,270,1.2,10,0,0,0,0,0,0,0,0,0,0,0,0
1998,3,24,22,0,,7.3,2.3,70,101300,0,0,320,0,0,0,0,0,0,0,340,1.2,10,0,0,0,0,0,0,0,0,0,0,0,0
1998,3,24,23,0,,7.2,2.5,72,101330,0,0,319,0,0,0,0,0,0,0,250,1.8,10,0,0,0,0,0,0,0,0,0,0,0,0
1998,3,24,24,0,,6.9,2.7,74,101370,0,0,318,0,0,0,0,0,0,0,270,2.5,10,0,0,0,0,0,0,0,0,0,0,0,0
1998,3,25,1,0,,6.6,2.6,75,101370,0,0,317,0,0,0,0,0,0,0,230,2.2,10,0,0,0,0,0,0,0,0,0,0,0,0
1998,3,25,2,0,,6.5,2.6,75,101370,0,0,316,0,0,0,0,0,0,0,230,3,10,0,0,0,0,0,0,0,0,0,0,0,0
1998,3,25,3,0,,6.5,2.5,76,101370,0,0,316,0,0,0,0,0,0,0,270,1.3,10,0,0,0,0,0,0,0,0,0,0,0,0
1998,3,25,4,0,,6.5,2.6,77,101390,0,0,316,0,0,0,0,0,0,0,20,0.5,10,0,0,0,0,0,0,0,0,0,0,0,0
1998,3,25,5,0,,6.4,2.6,78,101420,0,0,316,0,0,0,0,0,0,0,360,1.7,10,0,0,0,0,0,0,0,0,0,0,0,0
1998,3,25,6,0,,6.2,2.7,79,101440,0,0,315,0,0,0,0,0,0,0,20,0.8,10,0,0,0,0,0,0,0,0,0,0,0,0
1998,3,25,7,0,,6.2,2.5,76,101480,0,0,312,4,0,4,573,4,571,0,20,1,10,0,0,0,0,0,0,0,0,0,0,0,0
1998,3,25,8,0,,6.6,2.3,72,101530,0,0,310,72,70,58,12122,7074,7941,0,20,2,9,0,0,0,0,0,0,0,0,0,0,0,0
1998,3,25,9,0,,7.3,2.1,69,101570,0,0,310,161,74,132,21539,7655,16009,0,20,1.8,9,0,0,0,0,0,0,0,0,0,0,0,0
1998,3,25,10,0,,8.8,1.1,59,101540,0,0,301,386,268,234,49955,27797,27549,0,0,0.2,6,0,0,0,0,0,0,0,0,0,0,0,0
1998,3,25,11,0,,12,0.1,48,101500,0,0,306,642,660,176,79649,67132,23523,0,50,1.2,3,0,0,0,0,0,0,0,0,0,0,0,0
1998,3,25,12,0,,13.2,-0.9,38,101470,0,0,298,782,778,162,84404,78618,20692,0,250,2.5,0,0,0,0,0,0,0,0,0,0,0,0,0
1998,3,25,13,0,,14,-0.8,36,101410,0,0,301,792,709,201,77966,70940,26121,0,290,1.5,0,0,0,0,0,0,0,0,0,0,0,0,0
1998,3,25,14,0,,15.4,-0.6,35,101340,0,0,308,755,666,212,66198,66082,26363,0,360,1.5,0,0,0,0,0,0,0,0,0,0,0,0,0
1998,3,25,15,0,,15.4,-0.5,33,101280,0,0,308,674,653,190,50104,61324,23422,0,320,2.2,0,0,0,0,0,0,0,0,0,0,0,0,0
1998,3,25,16,0,,15.1,0.1,38,101320,0,0,319,529,582,169,30266,44124,19716,0,360,2.5,3,0,0,0,0,0,0,0,0,0,0,0,0
1998,3,25,17,0,,14.4,0.7,42,101370,0,0,324,333,405,149,14232,767,14210,0,360,3,5,0,0,0,0,0,0,0,0,0,0,0,0
1998,3,25,18,0,,12.5,1.3,47,101410,0,0,326,122,126,89,0,0,0,0,290,1.8,8,0,0,0,0,0,0,0,0,0,0,0,0
1998,3,25,19,0,,11.2,1.6,51,101470,0,0,321,28,5,22,0,0,0,0,290,1.8,8,0,0,0,0,0,0,0,0,0,0,0,0
1998,3,25,20,0,,10.2,1.8,54,101540,0,0,316,0,0,0,0,0,0,0,20,0.7,8,0,0,0,0,0,0,0,0,0,0,0,0
1998,3,25,21,0,,9.8,2.1,58,101600,0,0,315,0,0,0,0,0,0,0,250,1,8,0,0,0,0,0,0,0,0,0,0,0,0
1998,3,25,22,0,,8.8,2.3,62,101620,0,0,311,0,0,0,0,0,0,0,290,1.3,8,0,0,0,0,0,0,0,0,0,0,0,0
1998,3,25,23,0,,8.4,2.5,65,101650,0,0,309,0,0,0,0,0,0,0,250,1,8,0,0,0,0,0,0,0,0,0,0,0,0
1998,3,25,24,0,,7.8,2.7,69,101670,0,0,307,0,0,0,0,0,0,0,230,1.3,8,0,0,0,0,0,0,0,0,0,0,0,0
1998,3,26,1,0,,7.7,3.1,73,101640,0,0,307,0,0,0,0,0,0,0,250,1.2,8,0,0,0,0,0,0,0,0,0,0,0,0
1998,3,26,2,0,,7.4,3.4,77,101620,0,0,306,0,0,0,0,0,0,0,0,0.2,8,0,0,0,0,0,0,0,0,0,0,0,0
1998,3,26,3,0,,7,3.8,81,101590,0,0,305,0,0,0,0,0,0,0,320,0.8,8,0,0,0,0,0,0,0,0,0,0,0,0
1998,3,26,4,0,,6.7,3.6,81,101590,0,0,303,0,0,0,0,0,0,0,230,2.3,8,0,0,0,0,0,0,0,0,0,0,0,0
1998,3,26,5,0,,6.3,3.4,80,101580,0,0,301,0,0,0,0,0,0,0,20,1,8,0,0,0,0,0,0,0,0,0,0,0,0
1998,3,26,6,0,,6.4,3.2,80,101580,0,0,302,0,0,0,0,0,0,0,230,1.5,8,0,0,0,0,0,0,0,0,0,0,0,0
1998,3,26,7,0,,6.6,3.3,77,101560,0,0,307,9,1,9,1198,25,1187,0,0,0.2,9,0,0,0,0,0,0,0,0,0,0,0,0
1998,3,26,8,0,,7.2,3.3,73,101530,0,0,314,72,66,59,12044,6652,8083,0,50,0.7,9,0,0,0,0,0,0,0,0,0,0,0,0
1998,3,26,9,0,,8.5,3.4,70,101510,0,0,326,126,36,112,15678,3486,13144,0,230,1,10,0,0,0,0,0,0,0,0,0,0,0,0
1998,3,26,10,0,,8.8,1.6,59,101490,0,0,325,208,45,182,24652,4338,21138,0,250,1.5,10,0,0,0,0,0,0,0,0,0,0,0,0
1998,3,26,11,0,,9.9,-0.1,48,101460,0,0,329,282,50,246,32403,4965,28233,0,360,1.8,10,0,0,0,0,0,0,0,0,0,0,0,0
1998,3,26,12,0,,12.2,-1.9,37,101440,0,0,338,359,66,307,40164,6525,34854,0,180,2.3,10,0,0,0,0,0,0,0,0,0,0,0,0
1998,3,26,13,0,,12.6,0.8,50,101370,0,0,343,369,61,318,40486,6049,36046,0,180,2.5,10,0,0,0,0,0,0,0,0,0,0,0,0
1998,3,26,14,0,,11,3.5,63,101290,0,0,338,284,32,257,31104,3119,29215,0,160,1,10,0,0,0,0,0,0,0,0,0,0,0,0
1998,3,26,15,0,,10.1,6.2,76,101220,0,0,338,178,12,169,19491,849,19119,0,70,0.8,10,0,0,0,0,0,0,0,0,0,0,0,0
1998,3,26,16,0,,10,6.2,77,101160,0,0,337,144,12,137,14871,712,14699,0,160,1.3,10,0,0,0,0,0,0,0,0,0,0,0,0
1998,3,26,17,0,,10,6.1,78,101100,0,0,337,131,26,119,11003,3155,10905,0,160,3.2,10,0,0,0,0,0,0,0,0,0,0,0,0
1998,3,26,18,0,,9.7,6.1,79,101040,0,0,336,66,22,61,0,0,0,0,200,1.8,10,0,0,0,0,0,0,0,0,0,0,0,0
1998,3,26,19,0,,9,6.6,84,101010,0,0,333,12,1,12,0,0,0,0,360,1.5,10,0,0,0,0,0,0,0,0,0,0,0,0
1998,3,26,20,0,,8.7,7.2,90,100990,0,0,333,0,0,0,0,0,0,0,360,2.3,10,0,0,0,0,0,0,0,0,0,0,0,0
1998,3,26,21,0,,8.5,7.7,95,100960,0,0,332,0,0,0,0,0,0,0,20,1.2,10,0,0,0,0,0,0,0,0,0,0,0,0
1998,3,26,22,0,,8.3,7.8,95,100900,0,0,332,0,0,0,0,0,0,0,20,2.3,10,0,0,0,0,0,0,0,0,0,0,0,0
1998,3,26,23,0,,8.4,7.9,96,100840,0,0,332,0,0,0,0,0,0,0,20,0.8,10,0,0,0,0,0,0,0,0,0,0,0,0
1998,3,26,24,0,,8.5,8,96,100780,0,0,333,0,0,0,0,0,0,0,0,0.2,10,0,0,0,0,0,0,0,0,0,0,0,0
1998,3,27,1,0,,8.6,8.1,96,100760,0,0,333,0,0,0,0,0,0,0,0,0,10,0,0,0,0,0,0,0,0,0,0,0,0
1998,3,27,2,0,,8.6,8.1,96,100750,0,0,333,0,0,0,0,0,0,0,0,0,10,0,0,0,0,0,0,0,0,0,0,0,0
1998,3,27,3,0,,8.8,8.2,96,100730,0,0,334,0,0,0,0,0,0,0,250,1,10,0,0,0,0,0,0,0,0,0,0,0,0
1998,3,27,4,0,,8.9,8,95,100750,0,0,325,0,0,0,0,0,0,0,230,1.3,9,0,0,0,0,0,0,0,0,0,0,0,0
1998,3,27,5,0,,8.8,7.9,95,100780,0,0,318,0,0,0,0,0,0,0,250,1.3,8,0,0,0,0,0,0,0,0,0,0,0,0
1998,3,27,6,0,,8.6,7.7,94,100800,0,0,312,0,0,0,0,0,0,0,270,2.3,7,0,0,0,0,0,0,0,0,0,0,0,0
1998,3,27,7,0,,8.4,7.2,92,100860,0,0,315,13,2,11,1588,60,1562,0,270,1.7,8,0,0,0,0,0,0,0,0,0,0,0,0
1998,3,27,8,0,,8,6.7,89,100920,0,0,320,62,39,54,9340,3917,6990,0,290,1.7,9,0,0,0,0,0,0,0,0,0,0,0,0
1998,3,27,9,0,,8.2,6.2,87,100980,0,0,329,106,21,97,12968,2001,11505,0,290,1.5,10,0,0,0,0,0,0,0,0,0,0,0,0
1998,3,27,10,0,,8.4,5.7,81,101030,0,0,329,155,19,144,18374,1829,16885,0,270,1.5,10,0,0,0,0,0,0,0,0,0,0,0,0
1998,3,27,11,0,,8.7,5.3,75,101080,0,0,330,219,25,201,25346,2366,23350,0,250,1.5,10,0,0,0,0,0,0,0,0,0,0,0,0
1998,3,27,12,0,,10,4.8,69,101130,0,0,335,278,32,252,31563,3115,29018,0,320,2,10,0,0,0,0,0,0,0,0,0,0,0,0
1998,3,27,13,0,,9.9,5,66,101090,0,0,326,373,62,321,40909,6042,36455,0,360,2.2,9,0,0,0,0,0,0,0,0,0,0,0,0
1998,3,27,14,0,,11,5.3,64,101050,0,0,324,441,106,355,46199,10395,39870,0,360,2.2,8,0,0,0,0,0,0,0,0,0,0,0,0
1998,3,27,15,0,,12.7,5.5,61,101010,0,0,327,477,182,341,45637,17562,37895,0,270,2,7,0,0,0,0,0,0,0,0,0,0,0,0
1998,3,27,16,0,,12.4,4.9,63,101010,0,0,322,433,268,265,33939,19942,29059,0,360,2.2,6,0,0,0,0,0,0,0,0,0,0,0,0
1998,3,27,17,0,,12,4.4,65,101010,0,0,318,307,294,172,17289,1633,17234,0,290,2,6,0,0,0,0,0,0,0,0,0,0,0,0
1998,3,27,18,0,,11.4,3.8,67,101010,0,0,313,178,331,89,0,0,0,0,270,2.2,5,0,0,0,0,0,0,0,0,0,0,0,0
1998,3,27,19,0,,9.8,4.1,71,101070,0,0,311,35,10,25,0,0,0,0,270,2.2,7,0,0,0,0,0,0,0,0,0,0,0,0
1998,3,27,20,0,,8.9,4.3,74,101120,0,0,316,0,0,0,0,0,0,0,250,0.3,8,0,0,0,0,0,0,0,0,0,0,0,0
1998,3,27,21,0,,8.3,4.6,78,101180,0,0,327,0,0,0,0,0,0,0,230,2.2,10,0,0,0,0,0,0,0,0,0,0,0,0
1998,3,27,22,0,,7.8,4.6,80,101190,0,0,319,0,0,0,0,0,0,0,270,0.8,9,0,0,0,0,0,0,0,0,0,0,0,0
1998,3,27,23,0,,7.2,4.5,83,101210,0,0,311,0,0,0,0,0,0,0,290,0.5,9,0,0,0,0,0,0,0,0,0,0,0,0
1998,3,27,24,0,,6.7,4.5,85,101220,0,0,305,0,0,0,0,0,0,0,250,1.3,8,0,0,0,0,0,0,0,0,0,0,0,0
1998,3,28,1,0,,6,4.2,88,101200,0,0,301,0,0,0,0,0,0,0,0,0,8,0,0,0,0,0,0,0,0,0,0,0,0
1998,3,28,2,0,,5.3,3.9,90,101190,0,0,298,0,0,0,0,0,0,0,230,1.3,8,0,0,0,0,0,0,0,0,0,0,0,0
1998,3,28,3,0,,4.6,3.6,93,101170,0,0,295,0,0,0,0,0,0,0,230,1,8,0,0,0,0,0,0,0,0,0,0,0,0
1998,3,28,4,0,,4.5,3.6,94,101200,0,0,298,0,0,0,0,0,0,0,230,1.3,9,0,0,0,0,0,0,0,0,0,0,0,0
1998,3,28,5,0,,4.4,3.6,95,101230,0,0,303,0,0,0,0,0,0,0,230,0.8,9,0,0,0,0,0,0,0,0,0,0,0,0
1998,3,28,6,0,,4.3,3.6,96,101260,0,0,309,0,0,0,0,0,0,0,270,0.3,10,0,0,0,0,0,0,0,0,0,0,0,0
1998,3,28,7,0,,4.2,3.7,95,101280,0,0,308,5,0,5,752,4,750,0,50,1.3,10,0,0,0,0,0,0,0,0,0,0,0,0
1998,3,28,8,0,,4.1,3.8,95,101290,0,0,308,40,11,38,5217,1014,4604,0,360,0.5,10,0,0,0,0,0,0,0,0,0,0,0,0
1998,3,28,9,0,,4.9,3.9,94,101310,0,0,311,107,21,98,13069,1997,11600,0,20,1.3,10,0,0,0,0,0,0,0,0,0,0,0,0
1998,3,28,10,0,,6,4.3,85,101300,0,0,308,231,57,198,28361,5789,23626,0,20,1.2,9,0,0,0,0,0,0,0,0,0,0,0,0
1998,3,28,11,0,,8.6,4.6,76,101290,0,0,313,389,118,305,45338,11941,35224,0,320,0.7,8,0,0,0,0,0,0,0,0,0,0,0,0
1998,3,28,12,0,,10.7,5,67,101280,0,0,317,536,192,381,59151,19329,43290,0,230,1.2,7,0,0,0,0,0,0,0,0,0,0,0,0
1998,3,28,13,0,,13.4,4.4,57,101210,0,0,328,615,244,409,63981,24378,45933,0,250,1.5,7,0,0,0,0,0,0,0,0,0,0,0,0
1998,3,28,14,0,,16.4,3.8,46,101130,0,0,340,692,492,287,63544,47954,34208,0,250,1.7,6,0,0,0,0,0,0,0,0,0,0,0,0
1998,3,28,15,0,,18.3,3.2,36,101060,0,0,347,635,528,239,49677,49758,27602,0,250,2.2,6,0,0,0,0,0,0,0,0,0,0,0,0
1998,3,28,16,0,,19.6,2,33,101060,0,0,346,574,689,141,30429,53101,17285,0,250,1.7,4,0,0,0,0,0,0,0,0,0,0,0,0
1998,3,28,17,0,,19.4,0.7,29,101060,0,0,338,422,717,90,9491,12636,9027,0,250,1.5,2,0,0,0,0,0,0,0,0,0,0,0,0
1998,3,28,18,0,,18.9,-0.5,26,101060,0,0,323,237,694,50,0,0,0,0,250,3.2,0,0,0,0,0,0,0,0,0,0,0,0,0
1998,3,28,19,0,,16.6,1.3,36,101140,0,0,321,60,37,23,0,0,0,0,200,3,1,0,0,0,0,0,0,0,0,0,0,0,0
1998,3,28,20,0,,15,3.2,47,101230,0,0,320,0,0,0,0,0,0,0,200,2,2,0,0,0,0,0,0,0,0,0,0,0,0
1998,3,28,21,0,,13.2,5,57,101310,0,0,317,0,0,0,0,0,0,0,230,2,3,0,0,0,0,0,0,0,0,0,0,0,0
1998,3,28,22,0,,10.7,5.3,65,101360,0,0,307,0,0,0,0,0,0,0,200,2.5,3,0,0,0,0,0,0,0,0,0,0,0,0
1998,3,28,23,0,,10.1,5.5,72,101410,0,0,304,0,0,0,0,0,0,0,230,1.7,3,0,0,0,0,0,0,0,0,0,0,0,0
1998,3,28,24,0,,9,5.8,80,101460,0,0,300,0,0,0,0,0,0,0,200,1.5,3,0,0,0,0,0,0,0,0,0,0,0,0
1998,3,29,1,0,,8.5,5.7,82,101460,0,0,298,0,0,0,0,0,0,0,250,0.7,3,0,0,0,0,0,0,0,0,0,0,0,0
1998,3,29,2,0,,7.9,5.6,84,101450,0,0,295,0,0,0,0,0,0,0,230,1,3,0,0,0,0,0,0,0,0,0,0,0,0
1998,3,29,3,0,,7.6,5.5,86,101450,0,0,294,0,0,0,0,0,0,0,0,0,3,0,0,0,0,0,0,0,0,0,0,0,0
1998,3,29,4,0,,7.4,5.3,87,101450,0,0,294,0,0,0,0,0,0,0,0,0.2,3,0,0,0,0,0,0,0,0,0,0,0,0
1998,3,29,5,0,,6.6,5,88,101440,0,0,291,0,0,0,0,0,0,0,0,0,4,0,0,0,0,0,0,0,0,0,0,0,0
1998,3,29,6,0,,6.4,4.8,89,101440,0,0,291,0,0,0,0,0,0,0,270,0.7,4,0,0,0,0,0,0,0,0,0,0,0,0
1998,3,29,7,0,,5.3,4.8,86,101500,0,0,290,21,5,16,2195,477,1985,0,200,1.2,6,0,0,0,0,0,0,0,0,0,0,0,0
1998,3,29,8,0,,6.5,4.8,83,101560,0,0,301,107,162,72,20710,15959,10993,0,200,0.8,7,0,0,0,0,0,0,0,0,0,0,0,0
1998,3,29,9,0,,8.1,4.8,80,101620,0,0,318,163,66,136,21547,6729,16571,0,200,0.5,9,0,0,0,0,0,0,0,0,0,0,0,0
1998,3,29,10,0,,10.3,4.7,69,101620,0,0,325,287,101,228,35346,10270,26906,0,230,1,9,0,0,0,0,0,0,0,0,0,0,0,0
1998,3,29,11,0,,13.4,4.7,58,101620,0,0,337,461,185,327,53532,18771,37564,0,250,1,8,0,0,0,0,0,0,0,0,0,0,0,0
1998,3,29,12,0,,15.9,4.6,47,101620,0,0,347,555,209,386,61084,21010,43773,0,200,1.8,8,0,0,0,0,0,0,0,0,0,0,0,0
1998,3,29,13,0,,18.1,3.8,40,101560,0,0,346,714,489,299,71953,48521,35882,0,250,1.5,6,0,0,0,0,0,0,0,0,0,0,0,0
1998,3,29,14,0,,20.4,2.9,34,101510,0,0,349,819,784,170,70403,77313,22882,0,230,3.5,3,0,0,0,0,0,0,0,0,0,0,0,0
1998,3,29,15,0,,21.5,2.1,27,101450,0,0,345,737,778,150,52799,72812,20292,0,200,1.7,1,0,0,0,0,0,0,0,0,0,0,0,0
1998,3,29,16,0,,22.2,1.4,27,101430,0,0,354,584,711,136,30575,55271,16741,0,230,2.5,3,0,0,0,0,0,0,0,0,0,0,0,0
1998,3,29,17,0,,21.6,0.7,27,101420,0,0,355,397,612,111,11145,10694,10723,0,230,3.5,4,0,0,0,0,0,0,0,0,0,0,0,0
1998,3,29,18,0,,19.3,0,27,101400,0,0,348,183,341,90,0,0,0,0,230,3.7,6,0,0,0,0,0,0,0,0,0,0,0,0
1998,3,29,19,0,,17.3,0.4,31,101460,0,0,333,52,23,29,0,0,0,0,250,2.3,4,0,0,0,0,0,0,0,0,0,0,0,0
1998,3,29,20,0,,15.9,0.9,35,101530,0,0,322,0,0,0,0,0,0,0,230,0.7,2,0,0,0,0,0,0,0,0,0,0,0,0
1998,3,29,21,0,,15.1,1.3,39,101590,0,0,308,0,0,0,0,0,0,0,230,1.5,0,0,0,0,0,0,0,0,0,0,0,0,0
1998,3,29,22,0,,13.7,2.2,46,101570,0,0,303,0,0,0,0,0,0,0,230,0.7,0,0,0,0,0,0,0,0,0,0,0,0,0
1998,3,29,23,0,,12.5,3.2,52,101560,0,0,299,0,0,0,0,0,0,0,230,1.7,0,0,0,0,0,0,0,0,0,0,0,0,0
1998,3,29,24,0,,11.8,4.1,59,101540,0,0,297,0,0,0,0,0,0,0,0,0.2,0,0,0,0,0,0,0,0,0,0,0,0,0
1998,3,30,1,0,,10.5,4.4,65,101500,0,0,292,0,0,0,0,0,0,0,250,0.8,0,0,0,0,0,0,0,0,0,0,0,0,0
1998,3,30,2,0,,9.5,4.7,71,101460,0,0,288,0,0,0,0,0,0,0,250,0.5,0,0,0,0,0,0,0,0,0,0,0,0,0
1998,3,30,3,0,,8.9,5,77,101420,0,0,286,0,0,0,0,0,0,0,230,0.3,0,0,0,0,0,0,0,0,0,0,0,0,0
1998,3,30,4,0,,7.8,4.6,80,101410,0,0,282,0,0,0,0,0,0,0,160,0.5,0,0,0,0,0,0,0,0,0,0,0,0,0
1998,3,30,5,0,,7,4.3,82,101410,0,0,278,0,0,0,0,0,0,0,360,0.7,0,0,0,0,0,0,0,0,0,0,0,0,0
1998,3,30,6,0,,6.3,3.9,85,101400,0,0,275,0,0,0,0,0,0,0,250,2.2,0,0,0,0,0,0,0,0,0,0,0,0,0
1998,3,30,7,0,,5.5,3.7,78,101390,0,0,272,33,18,15,2834,1733,2064,0,200,1.8,0,0,0,0,0,0,0,0,0,0,0,0,0
1998,3,30,8,0,,6.9,3.4,72,101380,0,0,277,158,438,63,36772,44860,9260,0,230,0.7,0,0,0,0,0,0,0,0,0,0,0,0,0
1998,3,30,9,0,,9.5,3.2,65,101370,0,0,287,355,615,97,60315,63139,13372,0,230,1.3,0,0,0,0,0,0,0,0,0,0,0,0,0
1998,3,30,10,0,,13.1,1.7,52,101370,0,0,307,575,797,103,80725,81080,13781,0,140,0.7,1,0,0,0,0,0,0,0,0,0,0,0,0
1998,3,30,11,0,,15.9,0.3,40,101370,0,0,323,732,834,124,88694,84660,16378,0,230,0.8,3,0,0,0,0,0,0,0,0,0,0,0,0
1998,3,30,12,0,,17.8,-1.2,27,101370,0,0,334,793,752,178,87039,76482,23775,0,230,2,4,0,0,0,0,0,0,0,0,0,0,0,0
1998,3,30,13,0,,19.6,-1.4,26,101290,0,0,344,762,593,257,75846,59798,31211,0,200,2.3,5,0,0,0,0,0,0,0,0,0,0,0,0
1998,3,30,14,0,,20.2,-1.5,25,101210,0,0,348,705,506,284,64346,50170,33364,0,250,1.7,5,0,0,0,0,0,0,0,0,0,0,0,0
1998,3,30,15,0,,19.3,-1.7,24,101130,0,0,346,581,316,341,51034,29975,37569,0,250,3.3,6,0,0,0,0,0,0,0,0,0,0,0,0
1998,3,30,16,0,,18.8,-1.6,25,101120,0,0,340,478,390,230,32853,30313,25183,0,270,1,5,0,0,0,0,0,0,0,0,0,0,0,0
1998,3,30,17,0,,18.4,-1.5,25,101100,0,0,335,382,547,126,12845,7224,12540,0,230,2,3,0,0,0,0,0,0,0,0,0,0,0,0
1998,3,30,18,0,,18,-1.4,26,101090,0,0,329,224,584,63,0,0,0,0,360,1.5,2,0,0,0,0,0,0,0,0,0,0,0,0
1998,3,30,19,0,,16.7,-1,30,101100,0,0,323,64,42,22,0,0,0,0,250,3.7,2,0,0,0,0,0,0,0,0,0,0,0,0
1998,3,30,20,0,,15.1,-0.6,35,101120,0,0,316,0,0,0,0,0,0,0,250,1,2,0,0,0,0,0,0,0,0,0,0,0,0
1998,3,30,21,0,,13.6,-0.2,39,101130,0,0,310,0,0,0,0,0,0,0,160,0.3,2,0,0,0,0,0,0,0,0,0,0,0,0
1998,3,30,22,0,,13,0.1,42,101150,0,0,305,0,0,0,0,0,0,0,290,1.3,1,0,0,0,0,0,0,0,0,0,0,0,0
1998,3,30,23,0,,11.6,0.3,45,101160,0,0,296,0,0,0,0,0,0,0,230,1.8,1,0,0,0,0,0,0,0,0,0,0,0,0
1998,3,30,24,0,,10.9,0.6,48,101180,0,0,290,0,0,0,0,0,0,0,180,0.3,0,0,0,0,0,0,0,0,0,0,0,0,0
1998,3,31,1,0,,10.5,0.8,51,101210,0,0,292,0,0,0,0,0,0,0,250,1.3,1,0,0,0,0,0,0,0,0,0,0,0,0
1998,3,31,2,0,,9.5,0.9,54,101230,0,0,291,0,0,0,0,0,0,0,140,0.7,1,0,0,0,0,0,0,0,0,0,0,0,0
1998,3,31,3,0,,9.1,1.1,57,101260,0,0,292,0,0,0,0,0,0,0,290,0.5,2,0,0,0,0,0,0,0,0,0,0,0,0
1998,3,31,4,0,,8.2,1.6,61,101220,0,0,286,0,0,0,0,0,0,0,250,1,1,0,0,0,0,0,0,0,0,0,0,0,0
1998,3,31,5,0,,8.1,2,65,101190,0,0,283,0,0,0,0,0,0,0,160,0.5,1,0,0,0,0,0,0,0,0,0,0,0,0
1998,3,31,6,0,,8,2.5,69,101150,0,0,280,0,0,0,0,0,0,0,270,0.7,0,0,0,0,0,0,0,0,0,0,0,0,0
1998,3,31,7,0,,8,2.7,67,101160,0,0,280,38,19,19,3444,1884,2599,0,20,2.5,0,0,0,0,0,0,0,0,0,0,0,0,0
1998,3,31,8,0,,7.8,2.8,65,101170,0,0,279,169,492,59,39962,50494,8775,0,230,2.5,0,0,0,0,0,0,0,0,0,0,0,0,0
1998,3,31,9,0,,9.7,3,63,101180,0,0,287,348,571,107,58217,58487,14495,0,230,2.3,0,0,0,0,0,0,0,0,0,0,0,0,0
1998,3,31,10,0,,12.5,2.6,53,101160,0,0,302,549,707,127,76695,72447,16606,0,270,1.3,1,0,0,0,0,0,0,0,0,0,0,0,0
1998,3,31,11,0,,16.5,2.1,43,101150,0,0,323,750,869,114,90956,88501,15052,0,200,2.2,1,0,0,0,0,0,0,0,0,0,0,0,0
1998,3,31,12,0,,17.9,1.7,33,101130,0,0,332,824,815,155,88534,82771,19803,0,200,1.3,2,0,0,0,0,0,0,0,0,0,0,0,0
1998,3,31,13,0,,19,1.9,32,101030,0,0,341,813,703,212,79893,70168,27307,0,200,2.3,3,0,0,0,0,0,0,0,0,0,0,0,0
1998,3,31,14,0,,19.5,2.1,31,100920,0,0,348,683,447,310,63054,44884,35210,0,230,2.3,5,0,0,0,0,0,0,0,0,0,0,0,0
1998,3,31,15,0,,20.6,2.3,30,100820,0,0,357,582,314,344,51377,29360,38107,0,250,2,6,0,0,0,0,0,0,0,0,0,0,0,0
1998,3,31,16,0,,19.9,3.3,35,100780,0,0,352,507,470,208,32648,35896,23467,0,270,3.7,5,0,0,0,0,0,0,0,0,0,0,0,0
1998,3,31,17,0,,19.5,4.3,39,100730,0,0,349,370,494,137,14200,5812,13937,0,250,2,4,0,0,0,0,0,0,0,0,0,0,0,0
1998,3,31,18,0,,17.6,5.3,44,100690,0,0,338,205,452,79,0,0,0,0,250,1.3,3,0,0,0,0,0,0,0,0,0,0,0,0
1998,3,31,19,0,,15.5,5.5,49,100740,0,0,334,49,25,25,0,0,0,0,230,3.3,5,0,0,0,0,0,0,0,0,0,0,0,0
1998,3,31,20,0,,14.2,5.6,54,100780,0,0,338,0,0,0,0,0,0,0,230,4,8,0,0,0,0,0,0,0,0,0,0,0,0
1998,3,31,21,0,,13.7,5.8,59,100830,0,0,355,0,0,0,0,0,0,0,230,2.8,10,0,0,0,0,0,0,0,0,0,0,0,0
1998,3,31,22,0,,13.4,6.6,64,100760,0,0,354,0,0,0,0,0,0,0,360,0.8,10,0,0,0,0,0,0,0,0,0,0,0,0
1998,3,31,23,0,,12.4,7.3,69,100690,0,0,350,0,0,0,0,0,0,0,230,1.8,10,0,0,0,0,0,0,0,0,0,0,0,0
1998,3,31,24,0,,12.6,8.1,74,100620,0,0,352,0,0,0,0,0,0,0,250,1,10,0,0,0,0,0,0,0,0,0,0,0,0
2012,4,1,1,0,,2.8,-7.1,48,101320,0,0,250,0,0,0,0,0,0,0,20,2.7,0,0,0,0,0,0,0,0,0,0,0,0,0
2012,4,1,2,0,,2.9,-6.7,49,101350,0,0,251,0,0,0,0,0,0,0,360,1.4,0,0,0,0,0,0,0,0,0,0,0,0,0
2012,4,1,3,0,,2.7,-6.1,52,101360,0,0,251,0,0,0,0,0,0,0,20,2.7,0,0,0,0,0,0,0,0,0,0,0,0,0
2012,4,1,4,0,,1.9,-5.9,56,101350,0,0,248,0,0,0,0,0,0,0,20,2.2,0,0,0,0,0,0,0,0,0,0,0,0,0
2012,4,1,5,0,,2.3,-6.8,51,101360,0,0,249,0,0,0,0,0,0,0,20,3.6,0,0,0,0,0,0,0,0,0,0,0,0,0
2012,4,1,6,0,,1,-7.7,52,101410,0,0,243,0,0,0,0,0,0,0,50,1.8,0,0,0,0,0,0,0,0,0,0,0,0,0
2012,4,1,7,0,,1.7,-7.6,50,101500,0,0,246,43,26,18,3779,2597,2596,0,110,1,0,0,0,0,0,0,0,0,0,0,0,0,0
2012,4,1,8,0,,3.8,-10.2,35,101550,0,0,251,198,679,43,48872,68044,6375,0,70,1.6,0,0,0,0,0,0,0,0,0,0,0,0,0
2012,4,1,9,0,,6,-9.4,32,101600,0,0,261,413,815,64,71050,82261,9026,0,50,2.4,0,0,0,0,0,0,0,0,0,0,0,0,0
2012,4,1,10,0,,7.1,-9.7,29,101660,0,0,265,584,798,104,81232,80570,13927,0,20,1.2,0,0,0,0,0,0,0,0,0,0,0,0,0
2012,4,1,11,0,,9.3,-11.9,21,101580,0,0,271,760,881,111,91313,88872,14605,0,20,5.4,0,0,0,0,0,0,0,0,0,0,0,0,0
2012,4,1,12,0,,10.2,-10,23,101500,0,0,276,822,802,161,87887,80964,20247,0,50,5,0,0,0,0,0,0,0,0,0,0,0,0,0
2012,4,1,13,0,,11.7,-9.9,21,101490,0,0,282,834,742,196,81710,74918,25211,0,200,1.1,0,0,0,0,0,0,0,0,0,0,0,0,0
2012,4,1,14,0,,11.8,-8.7,23,101430,0,0,284,779,667,220,68779,67316,26718,0,250,1.6,0,0,0,0,0,0,0,0,0,0,0,0,0
2012,4,1,15,0,,12.3,-10,20,101350,0,0,284,713,696,182,52900,67228,22221,0,250,1.4,0,0,0,0,0,0,0,0,0,0,0,0,0
2012,4,1,16,0,,14.1,-6.2,24,101350,0,0,296,593,714,137,31589,57533,16623,0,270,2.3,0,0,0,0,0,0,0,0,0,0,0,0,0
2012,4,1,17,0,,12.8,-3.9,31,101340,0,0,293,431,714,93,10362,17953,9471,0,230,4.1,0,0,0,0,0,0,0,0,0,0,0,0,0
2012,4,1,18,0,,10.7,-2.7,39,101410,0,0,286,226,570,66,0,0,0,0,270,2.1,0,0,0,0,0,0,0,0,0,0,0,0,0
2012,4,1,19,0,,8.8,-2.5,45,101400,0,0,278,59,32,27,0,0,0,0,250,2.4,0,0,0,0,0,0,0,0,0,0,0,0,0
2012,4,1,20,0,,8.1,-2.8,46,101430,0,0,275,0,0,0,0,0,0,0,250,2.1,0,0,0,0,0,0,0,0,0,0,0,0,0
2012,4,1,21,0,,7.2,-2,52,101480,0,0,272,0,0,0,0,0,0,0,230,3.4,0,0,0,0,0,0,0,0,0,0,0,0,0
2012,4,1,22,0,,7.1,-2.3,51,101510,0,0,271,0,0,0,0,0,0,0,250,0.9,0,0,0,0,0,0,0,0,0,0,0,0,0
2012,4,1,23,0,,6,-1.8,57,101470,0,0,268,0,0,0,0,0,0,0,20,1.3,0,0,0,0,0,0,0,0,0,0,0,0,0
2012,4,1,24,0,,5.7,-1.4,60,101440,0,0,267,0,0,0,0,0,0,0,0,0,0,0,0,0,0,0,0,0,0,0,0,0,0
2012,4,2,1,0,,5.4,-1.7,60,101420,0,0,265,0,0,0,0,0,0,0,90,1.1,0,0,0,0,0,0,0,0,0,0,0,0,0
2012,4,2,2,0,,5.2,-1.7,61,101400,0,0,265,0,0,0,0,0,0,0,0,0.1,0,0,0,0,0,0,0,0,0,0,0,0,0
2012,4,2,3,0,,4.7,0,72,101340,0,0,265,0,0,0,0,0,0,0,0,0,0,0,0,0,0,0,0,0,0,0,0,0,0
2012,4,2,4,0,,4.2,0.1,75,101300,0,0,263,0,0,0,0,0,0,0,0,0.2,0,0,0,0,0,0,0,0,0,0,0,0,0
2012,4,2,5,0,,4.2,-0.2,73,101270,0,0,262,0,0,0,0,0,0,0,0,0.4,0,0,0,0,0,0,0,0,0,0,0,0,0
2012,4,2,6,0,,4,-2.2,64,101250,0,0,260,0,0,0,0,0,0,0,20,1.1,0,0,0,0,0,0,0,0,0,0,0,0,0
2012,4,2,7,0,,4.8,-2,61,101230,0,0,263,45,27,18,3938,2623,2730,0,20,1.5,0,0,0,0,0,0,0,0,0,0,0,0,0
2012,4,2,8,0,,7.4,-1.3,54,101230,0,0,274,195,628,49,46923,63202,7183,0,0,0.4,0,0,0,0,0,0,0,0,0,0,0,0,0
2012,4,2,9,0,,10.9,0.5,49,101190,0,0,290,415,803,67,71257,81601,9411,0,230,1.2,0,0,0,0,0,0,0,0,0,0,0,0,0
2012,4,2,10,0,,14.4,2.2,44,101140,0,0,319,611,864,88,85792,88059,11912,0,160,3.9,3,0,0,0,0,0,0,0,0,0,0,0,0
2012,4,2,11,0,,15,2.8,44,101030,0,0,326,713,755,154,86118,76923,19467,0,180,5.5,4,0,0,0,0,0,0,0,0,0,0,0,0
2012,4,2,12,0,,15.9,3.6,44,100900,0,0,333,733,582,251,79785,58019,31136,0,160,6.7,5,0,0,0,0,0,0,0,0,0,0,0,0
2012,4,2,13,0,,17.5,5,44,100670,0,0,340,760,564,274,75779,55839,33508,0,160,5.8,4,0,0,0,0,0,0,0,0,0,0,0,0
2012,4,2,14,0,,17,6.4,50,100660,0,0,349,605,236,406,59901,22888,45537,0,180,8.3,7,0,0,0,0,0,0,0,0,0,0,0,0
2012,4,2,15,0,,15.4,7.4,59,100630,0,0,365,287,41,255,30587,3909,28793,0,180,7.4,10,0,0,0,0,0,0,0,0,0,0,0,0
2012,4,2,16,0,,14.8,7.8,63,100560,0,0,363,185,22,171,18565,1551,18157,0,160,3.7,10,0,0,0,0,0,0,0,0,0,0,0,0
2012,4,2,17,0,,14.2,8.7,70,100450,0,0,361,137,26,125,11878,2383,11753,0,160,5.3,10,0,0,0,0,0,0,0,0,0,0,0,0
2012,4,2,18,0,,14.6,9.8,73,100400,0,0,364,82,32,73,0,0,0,0,180,4.6,10,0,0,0,0,0,0,0,0,0,0,0,0
2012,4,2,19,0,,14.7,10.7,77,100330,0,0,366,20,2,19,0,0,0,0,180,5.2,10,0,0,0,0,0,0,0,0,0,0,0,0
2012,4,2,20,0,,15.1,11.4,79,100260,0,0,369,0,0,0,0,0,0,0,160,4.6,10,0,0,0,0,0,0,0,0,0,0,0,0
2012,4,2,21,0,,15.4,11.9,80,100220,0,0,371,0,0,0,0,0,0,0,180,4.8,10,0,0,0,0,0,0,0,0,0,0,0,0
2012,4,2,22,0,,15.2,12.5,84,100150,0,0,371,0,0,0,0,0,0,0,180,4.4,10,0,0,0,0,0,0,0,0,0,0,0,0
2012,4,2,23,0,,14.9,12.7,87,99940,0,0,370,0,0,0,0,0,0,0,180,4.7,10,0,0,0,0,0,0,0,0,0,0,0,0
2012,4,2,24,0,,14.9,12.9,88,99840,0,0,370,0,0,0,0,0,0,0,200,4.5,10,0,0,0,0,0,0,0,0,0,0,0,0
2012,4,3,1,0,,14.4,13.2,93,99630,0,0,368,0,0,0,0,0,0,0,180,3.5,10,0,0,0,0,0,0,0,0,0,0,0,0
2012,4,3,2,0,,15.3,13.3,88,99430,0,0,373,0,0,0,0,0,0,0,180,3.7,10,0,0,0,0,0,0,0,0,0,0,0,0
2012,4,3,3,0,,14.4,13.6,95,99290,0,0,368,0,0,0,0,0,0,0,250,3.7,10,0,0,0,0,0,0,0,0,0,0,0,0
2012,4,3,4,0,,14,13.3,96,99040,0,0,366,0,0,0,0,0,0,0,200,8.2,10,0,0,0,0,0,0,0,0,0,0,0,0
2012,4,3,5,0,,13,12.3,96,98770,0,0,360,0,0,0,0,0,0,0,200,5.8,10,0,0,0,0,0,0,0,0,0,0,0,0
2012,4,3,6,0,,12.1,11.4,96,98750,0,0,354,0,0,0,0,0,0,0,250,6.8,10,0,0,0,0,0,0,0,0,0,0,0,0
2012,4,3,7,0,,6.1,4.5,90,99100,0,0,317,2,0,2,336,0,336,0,270,5.2,10,0,0,0,0,0,0,0,0,0,0,0,0
2012,4,3,8,0,,4.7,2.8,88,99380,0,0,309,26,2,26,3569,111,3499,0,270,4.6,10,0,0,0,0,0,0,0,0,0,0,0,0
2012,4,3,9,0,,4.4,2.8,90,99510,0,0,308,59,3,58,7774,185,7633,0,270,4.5,10,0,0,0,0,0,0,0,0,0,0,0,0
2012,4,3,10,0,,4,1.7,85,99700,0,0,304,164,19,152,19320,1815,17791,0,270,5.3,10,0,0,0,0,0,0,0,0,0,0,0,0
2012,4,3,11,0,,4.9,-0.3,69,99880,0,0,306,265,37,238,30521,3605,27386,0,290,4.9,10,0,0,0,0,0,0,0,0,0,0,0,0
2012,4,3,12,0,,5.5,-1.8,59,100000,0,0,298,401,78,336,44701,7809,38129,0,290,4.9,9,0,0,0,0,0,0,0,0,0,0,0,0
2012,4,3,13,0,,6.6,-3.1,50,100080,0,0,295,552,163,410,58186,16706,45492,0,290,6.5,8,0,0,0,0,0,0,0,0,0,0,0,0
2012,4,3,14,0,,7.8,-4.6,41,100130,0,0,286,737,552,271,66598,55224,31792,0,320,4.9,4,0,0,0,0,0,0,0,0,0,0,0,0
2012,4,3,15,0,,8.1,-6.8,34,100200,0,0,285,679,595,221,52552,57112,26186,0,290,4.7,4,0,0,0,0,0,0,0,0,0,0,0,0
2012,4,3,16,0,,7.2,-6.5,37,100290,0,0,280,562,608,170,32815,49176,19760,0,290,5,3,0,0,0,0,0,0,0,0,0,0,0,0
2012,4,3,17,0,,6.7,-7.7,35,100410,0,0,274,406,601,118,12289,16148,11398,0,320,3.6,2,0,0,0,0,0,0,0,0,0,0,0,0
2012,4,3,18,0,,6.2,-6.7,39,100520,0,0,273,232,582,66,0,0,0,0,340,4.4,2,0,0,0,0,0,0,0,0,0,0,0,0
2012,4,3,19,0,,5.3,-5.4,46,100600,0,0,268,67,42,24,0,0,0,0,340,2.2,1,0,0,0,0,0,0,0,0,0,0,0,0
2012,4,3,20,0,,5.1,-4.4,50,100710,0,0,265,0,0,0,0,0,0,0,290,3.4,1,0,0,0,0,0,0,0,0,0,0,0,0
2012,4,3,21,0,,4.7,-4.5,51,100830,0,0,260,0,0,0,0,0,0,0,290,2.1,0,0,0,0,0,0,0,0,0,0,0,0,0
2012,4,3,22,0,,4.8,-4.7,50,100910,0,0,260,0,0,0,0,0,0,0,290,3.1,0,0,0,0,0,0,0,0,0,0,0,0,0
2012,4,3,23,0,,4.4,-4.6,52,100940,0,0,259,0,0,0,0,0,0,0,290,1.6,0,0,0,0,0,0,0,0,0,0,0,0,0
2012,4,3,24,0,,4.4,-4.8,51,100970,0,0,259,0,0,0,0,0,0,0,360,1.8,0,0,0,0,0,0,0,0,0,0,0,0,0
2012,4,4,1,0,,3.5,-4.9,54,100950,0,0,255,0,0,0,0,0,0,0,230,1.6,0,0,0,0,0,0,0,0,0,0,0,0,0
2012,4,4,2,0,,3.2,-4,59,100940,0,0,255,0,0,0,0,0,0,0,230,2,0,0,0,0,0,0,0,0,0,0,0,0,0
2012,4,4,3,0,,2.7,-3.8,62,100840,0,0,253,0,0,0,0,0,0,0,0,0.4,0,0,0,0,0,0,0,0,0,0,0,0,0
2012,4,4,4,0,,2,-3.1,69,100800,0,0,251,0,0,0,0,0,0,0,160,2,0,0,0,0,0,0,0,0,0,0,0,0,0
2012,4,4,5,0,,1.6,-2.9,72,100810,0,0,250,0,0,0,0,0,0,0,180,1.3,0,0,0,0,0,0,0,0,0,0,0,0,0
2012,4,4,6,0,,1.9,-2,75,100860,0,0,252,0,0,0,0,0,0,0,200,2.9,0,0,0,0,0,0,0,0,0,0,0,0,0
2012,4,4,7,0,,2.2,-1.6,76,100860,0,0,254,46,24,21,4023,2444,2877,0,160,1.6,0,0,0,0,0,0,0,0,0,0,0,0,0
2012,4,4,8,0,,5,-1.2,64,100870,0,0,264,200,604,53,46526,60800,7793,0,0,0.2,0,0,0,0,0,0,0,0,0,0,0,0,0
2012,4,4,9,0,,7.7,-1,54,100880,0,0,275,412,757,77,69488,76783,10702,0,200,2,0,0,0,0,0,0,0,0,0,0,0,0,0
2012,4,4,10,0,,9.8,-1.8,44,100860,0,0,283,624,874,87,86859,88753,11767,0,230,4.4,0,0,0,0,0,0,0,0,0,0,0,0,0
2012,4,4,11,0,,12.8,1.7,47,100770,0,0,299,752,831,130,90744,84468,17006,0,230,4.8,0,0,0,0,0,0,0,0,0,0,0,0,0
2012,4,4,12,0,,14.5,3.3,47,100650,0,0,314,846,828,154,90718,84222,19591,0,230,6.9,1,0,0,0,0,0,0,0,0,0,0,0,0
2012,4,4,13,0,,15.4,2.1,41,100540,0,0,311,887,837,160,84954,84311,20655,0,250,8.2,0,0,0,0,0,0,0,0,0,0,0,0,0
2012,4,4,14,0,,16.5,-0.2,32,100430,0,0,319,857,823,159,73438,81896,21603,0,250,8.6,1,0,0,0,0,0,0,0,0,0,0,0,0
2012,4,4,15,0,,16.2,-0.5,32,100370,0,0,317,745,753,164,54509,70762,21657,0,250,8.4,1,0,0,0,0,0,0,0,0,0,0,0,0
2012,4,4,16,0,,15.3,1,38,100340,0,0,319,580,653,158,32974,52129,18996,0,230,6.7,2,0,0,0,0,0,0,0,0,0,0,0,0
2012,4,4,17,0,,14.1,2.3,45,100340,0,0,315,392,540,132,14160,10910,13528,0,250,6.2,2,0,0,0,0,0,0,0,0,0,0,0,0
2012,4,4,18,0,,12.6,2.7,51,100350,0,0,309,223,513,75,0,0,0,0,200,5.2,2,0,0,0,0,0,0,0,0,0,0,0,0
2012,4,4,19,0,,10.9,3.6,61,100410,0,0,300,64,38,27,0,0,0,0,200,6.6,1,0,0,0,0,0,0,0,0,0,0,0,0
2012,4,4,20,0,,10,3.7,65,100490,0,0,293,0,0,0,0,0,0,0,200,5.4,1,0,0,0,0,0,0,0,0,0,0,0,0
2012,4,4,21,0,,9.5,3.6,67,100550,0,0,287,0,0,0,0,0,0,0,230,4.3,0,0,0,0,0,0,0,0,0,0,0,0,0
2012,4,4,22,0,,9.5,3.2,65,100630,0,0,295,0,0,0,0,0,0,0,230,2.7,2,0,0,0,0,0,0,0,0,0,0,0,0
2012,4,4,23,0,,9.3,3.2,66,100620,0,0,299,0,0,0,0,0,0,0,230,3.8,3,0,0,0,0,0,0,0,0,0,0,0,0
2012,4,4,24,0,,9.4,3.7,68,100570,0,0,304,0,0,0,0,0,0,0,230,4,5,0,0,0,0,0,0,0,0,0,0,0,0
2012,4,5,1,0,,8.8,4.2,73,100560,0,0,298,0,0,0,0,0,0,0,200,2.6,3,0,0,0,0,0,0,0,0,0,0,0,0
2012,4,5,2,0,,8.7,4.5,75,100540,0,0,293,0,0,0,0,0,0,0,250,2.2,2,0,0,0,0,0,0,0,0,0,0,0,0
2012,4,5,3,0,,7.3,4.2,81,100480,0,0,279,0,0,0,0,0,0,0,0,0.1,0,0,0,0,0,0,0,0,0,0,0,0,0
2012,4,5,4,0,,6.9,3.8,81,100450,0,0,277,0,0,0,0,0,0,0,0,0.1,0,0,0,0,0,0,0,0,0,0,0,0,0
2012,4,5,5,0,,5.9,3,82,100440,0,0,272,0,0,0,0,0,0,0,50,0.5,0,0,0,0,0,0,0,0,0,0,0,0,0
2012,4,5,6,0,,5.3,2.9,85,100460,0,0,270,0,0,0,0,0,0,0,0,0.1,0,0,0,0,0,0,0,0,0,0,0,0,0
2012,4,5,7,0,,5.2,2.8,85,100490,0,0,270,43,18,25,4196,1759,3363,0,0,0.2,0,0,0,0,0,0,0,0,0,0,0,0,0
2012,4,5,8,0,,6.4,3.1,80,100530,0,0,274,185,472,68,40944,48459,9875,0,0,0.4,0,0,0,0,0,0,0,0,0,0,0,0,0
2012,4,5,9,0,,8.5,1.3,61,100550,0,0,281,378,611,106,62458,62637,14267,0,20,1.2,0,0,0,0,0,0,0,0,0,0,0,0,0
2012,4,5,10,0,,11.6,-0.5,43,100510,0,0,292,594,775,115,81976,78619,15187,0,250,1,0,0,0,0,0,0,0,0,0,0,0,0,0
2012,4,5,11,0,,12.3,-6.2,27,100480,0,0,298,730,767,153,87455,77910,19194,0,360,1.4,2,0,0,0,0,0,0,0,0,0,0,0,0
2012,4,5,12,0,,15.7,-3.7,26,100420,0,0,312,856,843,149,91494,85696,18871,0,160,2.2,1,0,0,0,0,0,0,0,0,0,0,0,0
2012,4,5,13,0,,16.2,-8.1,18,100320,0,0,320,771,566,277,76860,57824,32603,0,290,2.4,5,0,0,0,0,0,0,0,0,0,0,0,0
2012,4,5,14,0,,15.1,-10.5,16,100310,0,0,312,738,541,278,66857,54640,32129,0,290,3.6,5,0,0,0,0,0,0,0,0,0,0,0,0
2012,4,5,15,0,,14.6,-8.8,19,100320,0,0,310,639,479,267,51717,47448,29566,0,270,3.3,4,0,0,0,0,0,0,0,0,0,0,0,0
2012,4,5,16,0,,12.5,-5.5,28,100340,0,0,290,538,523,198,33505,42823,21910,0,320,3.2,0,0,0,0,0,0,0,0,0,0,0,0,0
2012,4,5,17,0,,11.9,-4.7,31,100370,0,0,289,395,543,132,14109,12939,13324,0,290,3.3,0,0,0,0,0,0,0,0,0,0,0,0,0
2012,4,5,18,0,,10.8,-6.1,30,100380,0,0,283,231,550,72,0,0,0,0,20,2.9,0,0,0,0,0,0,0,0,0,0,0,0,0
2012,4,5,19,0,,9,-7.2,31,100470,0,0,275,68,43,25,0,0,0,0,340,3.1,0,0,0,0,0,0,0,0,0,0,0,0,0
2012,4,5,20,0,,7.3,-1.1,55,100610,0,0,273,0,0,0,0,0,0,0,340,2.2,0,0,0,0,0,0,0,0,0,0,0,0,0
2012,4,5,21,0,,6.8,-3.1,49,100740,0,0,270,0,0,0,0,0,0,0,340,1.8,0,0,0,0,0,0,0,0,0,0,0,0,0
2012,4,5,22,0,,6,-4.7,46,100810,0,0,265,0,0,0,0,0,0,0,340,1.5,0,0,0,0,0,0,0,0,0,0,0,0,0
2012,4,5,23,0,,4.7,-7.4,41,100920,0,0,258,0,0,0,0,0,0,0,20,3.2,0,0,0,0,0,0,0,0,0,0,0,0,0
2012,4,5,24,0,,4.1,-7.3,43,100970,0,0,255,0,0,0,0,0,0,0,50,3.5,0,0,0,0,0,0,0,0,0,0,0,0,0
2012,4,6,1,0,,4.7,-7.7,40,100960,0,0,257,0,0,0,0,0,0,0,360,0.9,0,0,0,0,0,0,0,0,0,0,0,0,0
2012,4,6,2,0,,4.5,-7.3,42,100920,0,0,257,0,0,0,0,0,0,0,340,0.9,0,0,0,0,0,0,0,0,0,0,0,0,0
2012,4,6,3,0,,3.5,-6.7,47,100950,0,0,253,0,0,0,0,0,0,0,0,0.4,0,0,0,0,0,0,0,0,0,0,0,0,0
2012,4,6,4,0,,3.2,-5.9,51,100970,0,0,253,0,0,0,0,0,0,0,200,0.7,0,0,0,0,0,0,0,0,0,0,0,0,0
2012,4,6,5,0,,2.4,-5.9,54,100930,0,0,250,0,0,0,0,0,0,0,160,1.4,0,0,0,0,0,0,0,0,0,0,0,0,0
2012,4,6,6,0,,2.3,-4.4,61,100950,0,0,251,0,0,0,0,0,0,0,250,1.2,0,0,0,0,0,0,0,0,0,0,0,0,0
2012,4,6,7,0,,2.2,-3.5,66,101000,0,0,252,49,26,23,4577,2614,3328,0,250,0.9,0,0,0,0,0,0,0,0,0,0,0,0,0
2012,4,6,8,0,,4.7,-2.8,58,101030,0,0,262,208,607,55,47461,61107,8038,0,200,0.9,0,0,0,0,0,0,0,0,0,0,0,0,0
2012,4,6,9,0,,7,-2.2,52,101040,0,0,271,417,746,81,69604,75512,11227,0,230,2.4,0,0,0,0,0,0,0,0,0,0,0,0,0
2012,4,6,10,0,,8.8,-3.7,41,101040,0,0,277,619,834,100,85377,84513,13293,0,230,3.4,0,0,0,0,0,0,0,0,0,0,0,0,0
2012,4,6,11,0,,11,-2.7,38,101020,0,0,287,758,825,134,90879,83478,17479,0,230,3.5,0,0,0,0,0,0,0,0,0,0,0,0,0
2012,4,6,12,0,,12.4,-6.1,27,100970,0,0,289,862,847,148,91914,86034,18757,0,250,6.9,0,0,0,0,0,0,0,0,0,0,0,0,0
2012,4,6,13,0,,13.7,-4.9,27,100950,0,0,306,870,783,184,84980,79198,24150,0,290,4.4,2,0,0,0,0,0,0,0,0,0,0,0,0
2012,4,6,14,0,,13.3,-2.6,33,100920,0,0,306,779,629,242,69376,62906,29232,0,290,3.1,2,0,0,0,0,0,0,0,0,0,0,0,0
2012,4,6,15,0,,11.6,0,45,100870,0,0,302,652,507,258,52301,49099,29252,0,290,3.7,2,0,0,0,0,0,0,0,0,0,0,0,0
2012,4,6,16,0,,11.7,-3.6,34,100860,0,0,295,548,545,192,33666,44560,21483,0,360,3.4,1,0,0,0,0,0,0,0,0,0,0,0,0
2012,4,6,17,0,,10.8,-5.6,31,100910,0,0,283,405,573,126,13437,17185,12346,0,290,3.8,0,0,0,0,0,0,0,0,0,0,0,0,0
2012,4,6,18,0,,10,-9.1,25,100980,0,0,277,252,659,59,0,0,0,0,360,4,0,0,0,0,0,0,0,0,0,0,0,0,0
2012,4,6,19,0,,7.6,-10.7,26,101070,0,0,266,71,47,24,0,0,0,0,360,3.7,0,0,0,0,0,0,0,0,0,0,0,0,0
2012,4,6,20,0,,6.6,-9.3,31,101160,0,0,263,0,0,0,0,0,0,0,360,2,0,0,0,0,0,0,0,0,0,0,0,0,0
2012,4,6,21,0,,5.8,-8.5,35,101230,0,0,261,0,0,0,0,0,0,0,340,0.9,0,0,0,0,0,0,0,0,0,0,0,0,0
2012,4,6,22,0,,5.1,-6.7,42,101270,0,0,260,0,0,0,0,0,0,0,0,0.3,0,0,0,0,0,0,0,0,0,0,0,0,0
2012,4,6,23,0,,4.9,-7.2,41,101330,0,0,258,0,0,0,0,0,0,0,20,1.1,0,0,0,0,0,0,0,0,0,0,0,0,0
2012,4,6,24,0,,4.3,-6.6,45,101390,0,0,257,0,0,0,0,0,0,0,360,1.5,0,0,0,0,0,0,0,0,0,0,0,0,0
2012,4,7,1,0,,3.7,-6.8,46,101400,0,0,254,0,0,0,0,0,0,0,360,1.1,0,0,0,0,0,0,0,0,0,0,0,0,0
2012,4,7,2,0,,3.5,-5.9,50,101400,0,0,254,0,0,0,0,0,0,0,270,1.1,0,0,0,0,0,0,0,0,0,0,0,0,0
2012,4,7,3,0,,3,-4.9,56,101390,0,0,253,0,0,0,0,0,0,0,270,0.6,0,0,0,0,0,0,0,0,0,0,0,0,0
2012,4,7,4,0,,2.6,-4.1,61,101390,0,0,253,0,0,0,0,0,0,0,20,0.5,0,0,0,0,0,0,0,0,0,0,0,0,0
2012,4,7,5,0,,2.6,-3.9,62,101420,0,0,253,0,0,0,0,0,0,0,0,0.4,0,0,0,0,0,0,0,0,0,0,0,0,0
2012,4,7,6,0,,1.9,-4.2,64,101470,0,0,250,0,0,0,0,0,0,0,0,0.3,0,0,0,0,0,0,0,0,0,0,0,0,0
2012,4,7,7,0,,2.6,-4.3,60,101520,0,0,252,53,32,22,4711,3178,3179,0,50,0.5,0,0,0,0,0,0,0,0,0,0,0,0,0
2012,4,7,8,0,,4.5,-4.5,52,101570,0,0,259,216,634,54,49163,63729,7796,0,290,1.9,0,0,0,0,0,0,0,0,0,0,0,0,0
2012,4,7,9,0,,6,-4.7,46,101590,0,0,265,419,736,84,69359,74392,11577,0,340,2.1,0,0,0,0,0,0,0,0,0,0,0,0,0
2012,4,7,10,0,,9,-5.6,35,101580,0,0,276,615,812,106,84483,82164,14129,0,50,2.7,0,0,0,0,0,0,0,0,0,0,0,0,0
2012,4,7,11,0,,10.4,-8.3,26,101580,0,0,279,758,815,139,90522,82232,17965,0,340,1.8,0,0,0,0,0,0,0,0,0,0,0,0,0
2012,4,7,12,0,,11.6,-8.3,24,101500,0,0,284,845,800,168,89803,80710,20945,0,320,2.8,0,0,0,0,0,0,0,0,0,0,0,0,0
2012,4,7,13,0,,13.9,-5.8,25,101470,0,0,296,862,757,196,84243,76428,25336,0,340,2,0,0,0,0,0,0,0,0,0,0,0,0,0
2012,4,7,14,0,,14.6,-5.7,24,101390,0,0,299,824,726,202,71731,71676,25807,0,270,2.3,0,0,0,0,0,0,0,0,0,0,0,0,0
2012,4,7,15,0,,15.4,-4.5,25,101320,0,0,303,749,741,171,55261,69924,22259,0,250,2,0,0,0,0,0,0,0,0,0,0,0,0,0
2012,4,7,16,0,,16,-6.3,21,101310,0,0,304,614,726,138,33413,60002,16852,0,270,2.3,0,0,0,0,0,0,0,0,0,0,0,0,0
2012,4,7,17,0,,15.9,-7,20,101300,0,0,302,453,737,92,11369,24705,9734,0,290,1.9,0,0,0,0,0,0,0,0,0,0,0,0,0
2012,4,7,18,0,,14.9,-5.5,24,101300,0,0,300,255,661,59,0,0,0,0,270,1.9,0,0,0,0,0,0,0,0,0,0,0,0,0
2012,4,7,19,0,,12.8,-4.3,30,101300,0,0,293,72,47,25,0,0,0,0,250,2.9,0,0,0,0,0,0,0,0,0,0,0,0,0
2012,4,7,20,0,,11.4,-6,29,101340,0,0,285,0,0,0,0,0,0,0,250,2.5,0,0,0,0,0,0,0,0,0,0,0,0,0
2012,4,7,21,0,,10.6,-5.4,32,101400,0,0,283,0,0,0,0,0,0,0,200,2.9,0,0,0,0,0,0,0,0,0,0,0,0,0
2012,4,7,22,0,,10,-4.4,36,101400,0,0,281,0,0,0,0,0,0,0,200,2.3,0,0,0,0,0,0,0,0,0,0,0,0,0
2012,4,7,23,0,,9.2,-2.7,43,101430,0,0,280,0,0,0,0,0,0,0,230,1.3,0,0,0,0,0,0,0,0,0,0,0,0,0
2012,4,7,24,0,,8.5,-2.7,45,101420,0,0,277,0,0,0,0,0,0,0,160,1,0,0,0,0,0,0,0,0,0,0,0,0,0
2012,4,8,1,0,,8.1,-3.4,44,101430,0,0,274,0,0,0,0,0,0,0,200,1.2,0,0,0,0,0,0,0,0,0,0,0,0,0
2012,4,8,2,0,,7.9,-1.6,51,101420,0,0,275,0,0,0,0,0,0,0,20,0.9,0,0,0,0,0,0,0,0,0,0,0,0,0
2012,4,8,3,0,,7,-1.6,54,101390,0,0,272,0,0,0,0,0,0,0,0,0,0,0,0,0,0,0,0,0,0,0,0,0,0
2012,4,8,4,0,,6.2,0.3,66,101380,0,0,271,0,0,0,0,0,0,0,0,0.2,0,0,0,0,0,0,0,0,0,0,0,0,0
2012,4,8,5,0,,6,0,65,101360,0,0,269,0,0,0,0,0,0,0,0,0.1,0,0,0,0,0,0,0,0,0,0,0,0,0
2012,4,8,6,0,,5.4,0,68,101340,0,0,267,0,0,0,0,0,0,0,290,0.5,0,0,0,0,0,0,0,0,0,0,0,0,0
2012,4,8,7,0,,5.5,0.4,70,101390,0,0,268,53,29,24,4890,2849,3504,0,250,0.8,0,0,0,0,0,0,0,0,0,0,0,0,0
2012,4,8,8,0,,7.5,0.8,63,101430,0,0,276,213,587,60,47335,59293,8616,0,250,0.8,0,0,0,0,0,0,0,0,0,0,0,0,0
2012,4,8,9,0,,11.1,1.5,52,101420,0,0,291,422,731,86,69764,74255,11822,0,200,0.9,0,0,0,0,0,0,0,0,0,0,0,0,0
2012,4,8,10,0,,14.9,3,45,101410,0,0,309,645,885,88,89404,90286,11798,0,230,2.3,0,0,0,0,0,0,0,0,0,0,0,0,0
2012,4,8,11,0,,17.7,2.8,37,101400,0,0,322,810,929,100,97242,94852,13265,0,200,3.3,0,0,0,0,0,0,0,0,0,0,0,0,0
2012,4,8,12,0,,19.5,2.3,32,101350,0,0,329,910,936,115,96782,95276,15232,0,230,6.1,0,0,0,0,0,0,0,0,0,0,0,0,0
2012,4,8,13,0,,21.4,1.6,27,101280,0,0,337,922,882,144,87937,89418,18785,0,200,6.2,0,0,0,0,0,0,0,0,0,0,0,0,0
2012,4,8,14,0,,22.6,4.5,31,101220,0,0,346,860,801,171,74117,79244,23144,0,250,5.1,0,0,0,0,0,0,0,0,0,0,0,0,0
2012,4,8,15,0,,21.7,3.3,30,101160,0,0,341,739,711,183,55070,67159,23205,0,250,5.3,0,0,0,0,0,0,0,0,0,0,0,0,0
2012,4,8,16,0,,20.8,2.5,30,101100,0,0,335,587,644,164,34265,51898,19807,0,230,6.9,0,0,0,0,0,0,0,0,0,0,0,0,0
2012,4,8,17,0,,19.3,-0.7,26,101100,0,0,335,416,597,123,13731,18940,12425,0,230,6.2,2,0,0,0,0,0,0,0,0,0,0,0,0
2012,4,8,18,0,,18,3.4,38,101120,0,0,340,221,456,85,0,0,0,0,230,6,4,0,0,0,0,0,0,0,0,0,0,0,0
2012,4,8,19,0,,16.8,6.5,51,101130,0,0,339,63,31,32,0,0,0,0,230,4.7,4,0,0,0,0,0,0,0,0,0,0,0,0
2012,4,8,20,0,,16.2,7.4,56,101160,0,0,338,0,0,0,0,0,0,0,230,5.6,5,0,0,0,0,0,0,0,0,0,0,0,0
2012,4,8,21,0,,15.8,8.5,62,101170,0,0,338,0,0,0,0,0,0,0,200,7.9,5,0,0,0,0,0,0,0,0,0,0,0,0
2012,4,8,22,0,,15.4,8.6,64,101250,0,0,337,0,0,0,0,0,0,0,200,5.2,5,0,0,0,0,0,0,0,0,0,0,0,0
2012,4,8,23,0,,15,9.1,68,101290,0,0,335,0,0,0,0,0,0,0,230,4.4,5,0,0,0,0,0,0,0,0,0,0,0,0
2012,4,8,24,0,,14.7,9.2,70,101320,0,0,334,0,0,0,0,0,0,0,200,5.1,5,0,0,0,0,0,0,0,0,0,0,0,0
2012,4,9,1,0,,14.3,9.3,72,101290,0,0,335,0,0,0,0,0,0,0,200,5.3,6,0,0,0,0,0,0,0,0,0,0,0,0
2012,4,9,2,0,,14.2,9.2,72,101270,0,0,339,0,0,0,0,0,0,0,230,2.7,7,0,0,0,0,0,0,0,0,0,0,0,0
2012,4,9,3,0,,14.6,9.6,72,101240,0,0,347,0,0,0,0,0,0,0,200,3.9,8,0,0,0,0,0,0,0,0,0,0,0,0
2012,4,9,4,0,,14.6,10.2,75,101210,0,0,347,0,0,0,0,0,0,0,200,5.2,8,0,0,0,0,0,0,0,0,0,0,0,0
2012,4,9,5,0,,14.3,10.5,78,101190,0,0,346,0,0,0,0,0,0,0,200,5.5,8,0,0,0,0,0,0,0,0,0,0,0,0
2012,4,9,6,0,,14.3,10.6,79,101180,0,0,346,0,0,0,0,0,0,0,200,3.5,8,0,0,0,0,0,0,0,0,0,0,0,0
2012,4,9,7,0,,14.3,11,81,101200,0,0,354,25,4,21,2774,348,2603,0,200,3.4,9,0,0,0,0,0,0,0,0,0,0,0,0
2012,4,9,8,0,,14.5,11.4,82,101250,0,0,348,121,116,90,19594,11214,12228,0,200,3.1,8,0,0,0,0,0,0,0,0,0,0,0,0
2012,4,9,9,0,,14.9,11.4,80,101270,0,0,350,234,127,175,32064,12341,22390,0,200,4.7,8,0,0,0,0,0,0,0,0,0,0,0,0
2012,4,9,10,0,,16.2,11.7,75,101330,0,0,344,452,289,268,57064,28129,32795,0,200,2.6,5,0,0,0,0,0,0,0,0,0,0,0,0
2012,4,9,11,0,,18.6,12.5,68,101320,0,0,357,580,299,351,67401,28761,41853,0,200,2.3,5,0,0,0,0,0,0,0,0,0,0,0,0
2012,4,9,12,0,,19.3,12.3,64,101270,0,0,357,713,478,306,77840,45919,38411,0,200,3,4,0,0,0,0,0,0,0,0,0,0,0,0
2012,4,9,13,0,,21.7,13,58,101190,0,0,370,779,556,287,77644,52953,36556,0,200,4,4,0,0,0,0,0,0,0,0,0,0,0,0
2012,4,9,14,0,,22,12.5,55,101130,0,0,374,692,327,410,66722,30557,46990,0,230,3,5,0,0,0,0,0,0,0,0,0,0,0,0
2012,4,9,15,0,,23.1,11.1,47,101060,0,0,378,650,482,271,53116,43658,32293,0,230,3.4,5,0,0,0,0,0,0,0,0,0,0,0,0
2012,4,9,16,0,,23.2,11.2,47,101040,0,0,379,516,434,230,35960,32414,26847,0,200,4,5,0,0,0,0,0,0,0,0,0,0,0,0
2012,4,9,17,0,,22.2,11.2,50,101070,0,0,373,364,400,166,18395,7955,17825,0,250,3.4,5,0,0,0,0,0,0,0,0,0,0,0,0
2012,4,9,18,0,,20.7,12.3,59,101110,0,0,367,194,331,95,0,0,0,0,230,3.2,5,0,0,0,0,0,0,0,0,0,0,0,0
2012,4,9,19,0,,19.1,12.5,66,101150,0,0,362,49,18,31,0,0,0,0,230,3.5,6,0,0,0,0,0,0,0,0,0,0,0,0
2012,4,9,20,0,,17.2,11.8,71,101210,0,0,356,0,0,0,0,0,0,0,230,2.6,7,0,0,0,0,0,0,0,0,0,0,0,0
2012,4,9,21,0,,16.3,11.8,75,101270,0,0,358,0,0,0,0,0,0,0,200,4.2,8,0,0,0,0,0,0,0,0,0,0,0,0
2012,4,9,22,0,,15.4,11.5,78,101270,0,0,353,0,0,0,0,0,0,0,230,2.3,8,0,0,0,0,0,0,0,0,0,0,0,0
2012,4,9,23,0,,14.9,11.4,80,101320,0,0,350,0,0,0,0,0,0,0,230,3.9,8,0,0,0,0,0,0,0,0,0,0,0,0
2012,4,9,24,0,,14,11.3,84,101350,0,0,346,0,0,0,0,0,0,0,200,2,8,0,0,0,0,0,0,0,0,0,0,0,0
2012,4,10,1,0,,13.6,11.1,85,101350,0,0,342,0,0,0,0,0,0,0,180,1,8,0,0,0,0,0,0,0,0,0,0,0,0
2012,4,10,2,0,,13.9,11.2,84,101330,0,0,341,0,0,0,0,0,0,0,0,0.3,7,0,0,0,0,0,0,0,0,0,0,0,0
2012,4,10,3,0,,13.6,11.1,85,101260,0,0,338,0,0,0,0,0,0,0,70,1.4,7,0,0,0,0,0,0,0,0,0,0,0,0
2012,4,10,4,0,,13.4,11,86,101240,0,0,343,0,0,0,0,0,0,0,20,1,8,0,0,0,0,0,0,0,0,0,0,0,0
2012,4,10,5,0,,13.4,11,86,101180,0,0,350,0,0,0,0,0,0,0,0,0.1,9,0,0,0,0,0,0,0,0,0,0,0,0
2012,4,10,6,0,,13.1,11.1,88,101160,0,0,359,0,0,0,0,0,0,0,200,0.9,10,0,0,0,0,0,0,0,0,0,0,0,0
2012,4,10,7,0,,13.7,11.3,86,101160,0,0,362,15,1,14,1973,38,1954,0,180,0.5,10,0,0,0,0,0,0,0,0,0,0,0,0
2012,4,10,8,0,,13.8,11.4,86,101200,0,0,362,71,24,64,9166,2215,7703,0,230,1,10,0,0,0,0,0,0,0,0,0,0,0,0
2012,4,10,9,0,,13.5,11.8,90,101230,0,0,362,121,19,112,14695,1781,13292,0,160,2.6,10,0,0,0,0,0,0,0,0,0,0,0,0
2012,4,10,10,0,,13.3,11.6,90,101120,0,0,360,170,18,159,20164,1673,18715,0,70,2.5,10,0,0,0,0,0,0,0,0,0,0,0,0
2012,4,10,11,0,,15.2,11.5,79,100930,0,0,370,256,30,233,29682,2793,27193,0,70,3.6,10,0,0,0,0,0,0,0,0,0,0,0,0
2012,4,10,12,0,,17.1,8.7,58,100810,0,0,376,371,58,322,41720,5554,36937,0,110,4.3,10,0,0,0,0,0,0,0,0,0,0,0,0
2012,4,10,13,0,,17,10.1,64,100670,0,0,377,377,53,330,41714,5119,37729,0,160,4.3,10,0,0,0,0,0,0,0,0,0,0,0,0
2012,4,10,14,0,,16.2,12.1,77,100560,0,0,376,290,28,266,31981,2273,30508,0,160,4.3,10,0,0,0,0,0,0,0,0,0,0,0,0
2012,4,10,15,0,,15.2,11.7,80,100500,0,0,370,224,19,209,24114,1428,23430,0,180,6.1,10,0,0,0,0,0,0,0,0,0,0,0,0
2012,4,10,16,0,,15.5,10.2,71,100380,0,0,369,206,27,188,20525,1979,19964,0,160,4.9,10,0,0,0,0,0,0,0,0,0,0,0,0
2012,4,10,17,0,,15.1,10,72,100300,0,0,367,151,29,136,13245,2361,13069,0,180,4.4,10,0,0,0,0,0,0,0,0,0,0,0,0
2012,4,10,18,0,,14.4,10.7,79,100240,0,0,364,89,32,79,0,0,0,0,180,4.4,10,0,0,0,0,0,0,0,0,0,0,0,0
2012,4,10,19,0,,14.8,11.1,79,100200,0,0,367,23,2,21,0,0,0,0,180,4.3,10,0,0,0,0,0,0,0,0,0,0,0,0
2012,4,10,20,0,,14.9,11.8,82,100170,0,0,368,0,0,0,0,0,0,0,200,3.4,10,0,0,0,0,0,0,0,0,0,0,0,0
2012,4,10,21,0,,15,12.1,83,100170,0,0,369,0,0,0,0,0,0,0,200,3.1,10,0,0,0,0,0,0,0,0,0,0,0,0
2012,4,10,22,0,,15.3,12.6,84,100140,0,0,372,0,0,0,0,0,0,0,180,2.7,10,0,0,0,0,0,0,0,0,0,0,0,0
2012,4,10,23,0,,15.4,12.8,85,100050,0,0,372,0,0,0,0,0,0,0,200,0.6,10,0,0,0,0,0,0,0,0,0,0,0,0
2012,4,10,24,0,,15.5,13.3,87,100030,0,0,374,0,0,0,0,0,0,0,200,3.1,10,0,0,0,0,0,0,0,0,0,0,0,0
2012,4,11,1,0,,15,13.1,89,99990,0,0,371,0,0,0,0,0,0,0,270,2,10,0,0,0,0,0,0,0,0,0,0,0,0
2012,4,11,2,0,,14.5,13.5,94,99930,0,0,369,0,0,0,0,0,0,0,250,0.8,10,0,0,0,0,0,0,0,0,0,0,0,0
2012,4,11,3,0,,14.4,13.7,96,99900,0,0,369,0,0,0,0,0,0,0,250,2,10,0,0,0,0,0,0,0,0,0,0,0,0
2012,4,11,4,0,,14.2,13.7,97,99760,0,0,368,0,0,0,0,0,0,0,0,0.1,10,0,0,0,0,0,0,0,0,0,0,0,0
2012,4,11,5,0,,14.2,13.7,97,99700,0,0,368,0,0,0,0,0,0,0,200,1.4,10,0,0,0,0,0,0,0,0,0,0,0,0
2012,4,11,6,0,,14.2,13.7,97,99590,0,0,368,0,0,0,0,0,0,0,0,0,10,0,0,0,0,0,0,0,0,0,0,0,0
2012,4,11,7,0,,14.2,13.7,97,99580,0,0,368,14,1,13,1798,24,1786,0,250,1,10,0,0,0,0,0,0,0,0,0,0,0,0
2012,4,11,8,0,,14.3,13.8,97,99550,0,0,368,63,17,59,8130,1528,7115,0,230,0.9,10,0,0,0,0,0,0,0,0,0,0,0,0
2012,4,11,9,0,,14.1,13.6,97,99630,0,0,367,107,13,100,12977,1199,12029,0,250,1.7,10,0,0,0,0,0,0,0,0,0,0,0,0
2012,4,11,10,0,,14,13.5,97,99610,0,0,366,155,13,146,18419,1235,17345,0,250,2.4,10,0,0,0,0,0,0,0,0,0,0,0,0
2012,4,11,11,0,,14,12.7,92,99640,0,0,365,189,12,179,22914,794,22204,0,250,1.6,10,0,0,0,0,0,0,0,0,0,0,0,0
2012,4,11,12,0,,13.5,12.2,92,99680,0,0,362,218,13,207,25982,879,25223,0,270,1.9,10,0,0,0,0,0,0,0,0,0,0,0,0
2012,4,11,13,0,,13.7,11,84,99680,0,0,361,259,19,242,29845,1377,28770,0,320,2.5,10,0,0,0,0,0,0,0,0,0,0,0,0
2012,4,11,14,0,,14.2,10.7,80,99720,0,0,337,549,160,410,56549,15215,46650,0,270,2.5,6,0,0,0,0,0,0,0,0,0,0,0,0
2012,4,11,15,0,,14.6,10.2,75,99780,0,0,338,503,174,366,48926,16645,40905,0,290,2.1,6,0,0,0,0,0,0,0,0,0,0,0,0
2012,4,11,16,0,,16,10.3,69,99790,0,0,339,521,434,232,36378,33194,26876,0,250,3.1,4,0,0,0,0,0,0,0,0,0,0,0,0
2012,4,11,17,0,,15.5,8.9,65,99790,0,0,332,404,529,140,16192,13493,15152,0,250,3.9,3,0,0,0,0,0,0,0,0,0,0,0,0
2012,4,11,18,0,,11.8,6.7,71,99920,0,0,300,225,443,89,0,0,0,0,270,3.2,0,0,0,0,0,0,0,0,0,0,0,0,0
2012,4,11,19,0,,9.5,5.2,75,100070,0,0,289,61,35,26,0,0,0,0,250,3.8,0,0,0,0,0,0,0,0,0,0,0,0,0
2012,4,11,20,0,,8.1,3.7,74,100140,0,0,282,0,0,0,0,0,0,0,250,2.8,0,0,0,0,0,0,0,0,0,0,0,0,0
2012,4,11,21,0,,7.3,3.1,75,100200,0,0,278,0,0,0,0,0,0,0,250,1.7,0,0,0,0,0,0,0,0,0,0,0,0,0
2012,4,11,22,0,,6.9,2.9,76,100270,0,0,278,0,0,0,0,0,0,0,270,1.1,0,0,0,0,0,0,0,0,0,0,0,0,0
2012,4,11,23,0,,6.7,2.3,74,100280,0,0,278,0,0,0,0,0,0,0,290,1.3,1,0,0,0,0,0,0,0,0,0,0,0,0
2012,4,11,24,0,,5.9,2.3,78,100360,0,0,277,0,0,0,0,0,0,0,250,1.7,1,0,0,0,0,0,0,0,0,0,0,0,0
2012,4,12,1,0,,6,1.8,75,100410,0,0,275,0,0,0,0,0,0,0,270,0.8,1,0,0,0,0,0,0,0,0,0,0,0,0
2012,4,12,2,0,,5.3,1.5,77,100380,0,0,270,0,0,0,0,0,0,0,70,1.1,0,0,0,0,0,0,0,0,0,0,0,0,0
2012,4,12,3,0,,5.3,1.2,75,100350,0,0,268,0,0,0,0,0,0,0,50,0.7,0,0,0,0,0,0,0,0,0,0,0,0,0
2012,4,12,4,0,,4.3,1.6,83,100380,0,0,265,0,0,0,0,0,0,0,0,0.4,0,0,0,0,0,0,0,0,0,0,0,0,0
2012,4,12,5,0,,3.5,1.3,86,100370,0,0,262,0,0,0,0,0,0,0,20,1,0,0,0,0,0,0,0,0,0,0,0,0,0
2012,4,12,6,0,,3.5,1.3,86,100400,0,0,262,0,0,0,0,0,0,0,270,1.5,0,0,0,0,0,0,0,0,0,0,0,0,0
2012,4,12,7,0,,3.4,1.7,89,100500,0,0,262,57,28,28,5184,2823,3766,0,250,2.5,0,0,0,0,0,0,0,0,0,0,0,0,0
2012,4,12,8,0,,5.4,2.3,81,100530,0,0,270,219,537,70,46950,55207,10070,0,0,0.4,0,0,0,0,0,0,0,0,0,0,0,0,0
2012,4,12,9,0,,7.8,2.2,68,100520,0,0,279,410,631,110,66139,64731,14738,0,270,0.6,0,0,0,0,0,0,0,0,0,0,0,0,0
2012,4,12,10,0,,9.9,2.9,62,100490,0,0,297,593,692,146,80144,70675,18507,0,180,1.8,2,0,0,0,0,0,0,0,0,0,0,0,0
2012,4,12,11,0,,12.6,0,42,100430,0,0,309,733,708,183,86576,71605,22358,0,250,1.2,3,0,0,0,0,0,0,0,0,0,0,0,0
2012,4,12,12,0,,14.6,1.4,41,100340,0,0,320,810,679,224,87650,68411,28367,0,230,1.7,3,0,0,0,0,0,0,0,0,0,0,0,0
2012,4,12,13,0,,16.3,-2.2,28,100300,0,0,326,830,651,249,81329,64780,30581,0,340,2,4,0,0,0,0,0,0,0,0,0,0,0,0
2012,4,12,14,0,,16.4,0,33,100230,0,0,329,761,548,284,69086,54395,33566,0,290,1.5,4,0,0,0,0,0,0,0,0,0,0,0,0
2012,4,12,15,0,,17,-0.7,30,100260,0,0,333,658,485,274,53741,47303,30833,0,270,2.9,5,0,0,0,0,0,0,0,0,0,0,0,0
2012,4,12,16,0,,16.5,-1.6,29,100220,0,0,325,573,577,188,35676,47577,21938,0,270,2.8,3,0,0,0,0,0,0,0,0,0,0,0,0
2012,4,12,17,0,,16.2,-1.4,30,100210,0,0,324,414,556,135,15484,17711,14071,0,320,1.7,3,0,0,0,0,0,0,0,0,0,0,0,0
2012,4,12,18,0,,14.5,-2,32,100280,0,0,320,216,381,98,0,0,0,0,290,2.6,5,0,0,0,0,0,0,0,0,0,0,0,0
2012,4,12,19,0,,12.6,-1.7,37,100310,0,0,315,57,26,30,0,0,0,0,290,2.3,6,0,0,0,0,0,0,0,0,0,0,0,0
2012,4,12,20,0,,11.4,-1.7,40,100380,0,0,313,0,0,0,0,0,0,0,340,1.4,7,0,0,0,0,0,0,0,0,0,0,0,0
2012,4,12,21,0,,10.6,-2.1,41,100490,0,0,314,0,0,0,0,0,0,0,20,1.6,8,0,0,0,0,0,0,0,0,0,0,0,0
2012,4,12,22,0,,10.1,-2.2,42,100480,0,0,314,0,0,0,0,0,0,0,0,0.2,8,0,0,0,0,0,0,0,0,0,0,0,0
2012,4,12,23,0,,10.2,-3.5,38,100500,0,0,315,0,0,0,0,0,0,0,340,1.1,9,0,0,0,0,0,0,0,0,0,0,0,0
2012,4,12,24,0,,9.9,-2.7,41,100500,0,0,317,0,0,0,0,0,0,0,20,1.4,9,0,0,0,0,0,0,0,0,0,0,0,0
2012,4,13,1,0,,9.5,-2.7,42,100470,0,0,318,0,0,0,0,0,0,0,50,2.7,9,0,0,0,0,0,0,0,0,0,0,0,0
2012,4,13,2,0,,9.7,-5.4,34,100500,0,0,319,0,0,0,0,0,0,0,50,3.4,10,0,0,0,0,0,0,0,0,0,0,0,0
2012,4,13,3,0,,9.5,-4.4,37,100480,0,0,322,0,0,0,0,0,0,0,50,3.6,10,0,0,0,0,0,0,0,0,0,0,0,0
2012,4,13,4,0,,9.5,-5.6,34,100440,0,0,321,0,0,0,0,0,0,0,50,4.8,10,0,0,0,0,0,0,0,0,0,0,0,0
2012,4,13,5,0,,8.8,-5.4,36,100390,0,0,318,0,0,0,0,0,0,0,50,3.6,10,0,0,0,0,0,0,0,0,0,0,0,0
2012,4,13,6,0,,8.9,-3.9,40,100440,0,0,320,0,0,0,0,0,0,0,50,1.6,10,0,0,0,0,0,0,0,0,0,0,0,0
2012,4,13,7,0,,8.4,-0.6,53,100480,0,0,321,22,2,20,2693,103,2640,0,50,2.6,10,0,0,0,0,0,0,0,0,0,0,0,0
2012,4,13,8,0,,8.1,1.4,63,100510,0,0,322,84,34,74,11709,3510,9351,0,50,1.6,10,0,0,0,0,0,0,0,0,0,0,0,0
2012,4,13,9,0,,8.9,2.8,66,100520,0,0,328,142,28,128,17176,2666,15051,0,360,0.5,10,0,0,0,0,0,0,0,0,0,0,0,0
2012,4,13,10,0,,9.7,3.8,67,100480,0,0,333,206,29,188,24262,2802,21810,0,180,0.6,10,0,0,0,0,0,0,0,0,0,0,0,0
2012,4,13,11,0,,11.6,5.2,65,100390,0,0,343,288,39,257,33056,3781,29655,0,340,0.6,10,0,0,0,0,0,0,0,0,0,0,0,0
2012,4,13,12,0,,11.9,5.5,65,100340,0,0,345,306,33,277,34638,3174,31880,0,360,1.2,10,0,0,0,0,0,0,0,0,0,0,0,0
2012,4,13,13,0,,12.4,4.8,60,100340,0,0,347,336,38,302,37376,3683,34482,0,320,1,10,0,0,0,0,0,0,0,0,0,0,0,0
2012,4,13,14,0,,13,5.1,59,100330,0,0,350,299,30,273,32934,2903,31032,0,250,1.2,10,0,0,0,0,0,0,0,0,0,0,0,0
2012,4,13,15,0,,12.2,6.2,67,100370,0,0,348,256,26,235,27293,2206,26219,0,270,1,10,0,0,0,0,0,0,0,0,0,0,0,0
2012,4,13,16,0,,11.8,7.3,74,100340,0,0,347,181,18,169,18573,1266,18204,0,340,0.5,10,0,0,0,0,0,0,0,0,0,0,0,0
2012,4,13,17,0,,12,7.5,74,100350,0,0,348,140,23,129,12670,1571,12541,0,290,0.6,10,0,0,0,0,0,0,0,0,0,0,0,0
2012,4,13,18,0,,12,7.5,74,100360,0,0,348,91,32,81,0,0,0,0,20,2.3,10,0,0,0,0,0,0,0,0,0,0,0,0
2012,4,13,19,0,,11,7.6,80,100360,0,0,344,24,2,22,0,0,0,0,50,4.3,10,0,0,0,0,0,0,0,0,0,0,0,0
2012,4,13,20,0,,9.9,6.2,78,100420,0,0,337,0,0,0,0,0,0,0,50,3.8,10,0,0,0,0,0,0,0,0,0,0,0,0
2012,4,13,21,0,,9.8,6.1,78,100480,0,0,336,0,0,0,0,0,0,0,20,2.4,10,0,0,0,0,0,0,0,0,0,0,0,0
2012,4,13,22,0,,9.7,5.6,76,100490,0,0,335,0,0,0,0,0,0,0,20,2,10,0,0,0,0,0,0,0,0,0,0,0,0
2012,4,13,23,0,,9.5,5.4,76,100520,0,0,334,0,0,0,0,0,0,0,50,1.4,10,0,0,0,0,0,0,0,0,0,0,0,0
2012,4,13,24,0,,9.8,5.1,73,100520,0,0,335,0,0,0,0,0,0,0,0,0.3,10,0,0,0,0,0,0,0,0,0,0,0,0
2012,4,14,1,0,,9.6,5.1,74,100510,0,0,327,0,0,0,0,0,0,0,20,1.3,9,0,0,0,0,0,0,0,0,0,0,0,0
2012,4,14,2,0,,9,5.3,78,100510,0,0,320,0,0,0,0,0,0,0,0,0,9,0,0,0,0,0,0,0,0,0,0,0,0
2012,4,14,3,0,,9.2,5.7,79,100530,0,0,317,0,0,0,0,0,0,0,340,0.6,8,0,0,0,0,0,0,0,0,0,0,0,0
2012,4,14,4,0,,8.8,5.7,81,100560,0,0,310,0,0,0,0,0,0,0,20,0.6,7,0,0,0,0,0,0,0,0,0,0,0,0
2012,4,14,5,0,,8.5,5.4,81,100600,0,0,308,0,0,0,0,0,0,0,0,0.2,7,0,0,0,0,0,0,0,0,0,0,0,0
2012,4,14,6,0,,7.4,5.3,87,100630,0,0,293,0,0,0,0,0,0,0,20,1.1,3,0,0,0,0,0,0,0,0,0,0,0,0
2012,4,14,7,0,,8.2,5.6,84,100660,0,0,284,62,34,28,5803,3346,4095,0,20,1.8,0,0,0,0,0,0,0,0,0,0,0,0,0
2012,4,14,8,0,,10.7,5.4,70,100700,0,0,294,236,591,66,50005,60110,9420,0,50,1.9,0,0,0,0,0,0,0,0,0,0,0,0,0
2012,4,14,9,0,,13,4.1,55,100700,0,0,302,453,759,86,73751,77392,11792,0,50,3.5,0,0,0,0,0,0,0,0,0,0,0,0,0
2012,4,14,10,0,,14.6,3.6,48,100710,0,0,309,622,754,130,84648,77423,16669,0,50,1.9,0,0,0,0,0,0,0,0,0,0,0,0,0
2012,4,14,11,0,,15.8,4.1,46,100710,0,0,315,721,662,202,86795,66995,26350,0,290,1.2,0,0,0,0,0,0,0,0,0,0,0,0,0
2012,4,14,12,0,,17.3,3.9,41,100660,0,0,321,808,660,234,87266,66197,29571,0,290,1.8,0,0,0,0,0,0,0,0,0,0,0,0,0
2012,4,14,13,0,,19.7,3.7,35,100590,0,0,332,865,715,222,84574,71319,28363,0,20,2,0,0,0,0,0,0,0,0,0,0,0,0,0
2012,4,14,14,0,,20.7,3.3,32,100510,0,0,336,840,717,212,73544,70311,27302,0,270,1.3,0,0,0,0,0,0,0,0,0,0,0,0,0
2012,4,14,15,0,,21.9,4.4,32,100450,0,0,343,752,703,191,56727,66521,24195,0,270,1.6,0,0,0,0,0,0,0,0,0,0,0,0,0
2012,4,14,16,0,,21.7,4.2,32,100390,0,0,357,591,615,178,36217,50084,21505,0,270,2.1,3,0,0,0,0,0,0,0,0,0,0,0,0
2012,4,14,17,0,,20.6,1.9,29,100370,0,0,348,425,580,131,15536,21692,13688,0,290,2.1,3,0,0,0,0,0,0,0,0,0,0,0,0
2012,4,14,18,0,,19.2,1.1,30,100390,0,0,346,225,415,95,0,0,0,0,290,2.6,5,0,0,0,0,0,0,0,0,0,0,0,0
2012,4,14,19,0,,17.8,2.5,36,100460,0,0,342,64,37,27,0,0,0,0,270,1.6,5,0,0,0,0,0,0,0,0,0,0,0,0
2012,4,14,20,0,,15.7,4.4,47,100520,0,0,335,0,0,0,0,0,0,0,250,2.1,6,0,0,0,0,0,0,0,0,0,0,0,0
2012,4,14,21,0,,13.8,6.1,60,100580,0,0,329,0,0,0,0,0,0,0,230,3.5,6,0,0,0,0,0,0,0,0,0,0,0,0
2012,4,14,22,0,,12.4,5.5,63,100600,0,0,324,0,0,0,0,0,0,0,200,2.4,7,0,0,0,0,0,0,0,0,0,0,0,0
2012,4,14,23,0,,11.9,5.5,65,100600,0,0,325,0,0,0,0,0,0,0,200,2.5,7,0,0,0,0,0,0,0,0,0,0,0,0
2012,4,14,24,0,,11.4,5,65,100580,0,0,326,0,0,0,0,0,0,0,200,1.2,8,0,0,0,0,0,0,0,0,0,0,0,0
2012,4,15,1,0,,11,5,67,100590,0,0,322,0,0,0,0,0,0,0,200,1.5,8,0,0,0,0,0,0,0,0,0,0,0,0
2012,4,15,2,0,,10.7,6.4,75,100550,0,0,321,0,0,0,0,0,0,0,250,1.5,7,0,0,0,0,0,0,0,0,0,0,0,0
2012,4,15,3,0,,10,6.3,78,100590,0,0,316,0,0,0,0,0,0,0,250,1.6,7,0,0,0,0,0,0,0,0,0,0,0,0
2012,4,15,4,0,,9.9,6,77,100560,0,0,320,0,0,0,0,0,0,0,0,0.1,8,0,0,0,0,0,0,0,0,0,0,0,0
2012,4,15,5,0,,9.9,6.2,78,100520,0,0,321,0,0,0,0,0,0,0,0,0,8,0,0,0,0,0,0,0,0,0,0,0,0
2012,4,15,6,0,,9.3,6.5,83,100520,0,0,310,0,0,0,0,0,0,0,290,1.1,6,0,0,0,0,0,0,0,0,0,0,0,0
2012,4,15,7,0,,9.9,6.6,80,100530,0,0,316,43,13,29,4187,1211,3565,0,360,1.1,7,0,0,0,0,0,0,0,0,0,0,0,0
2012,4,15,8,0,,11.4,6.9,74,100540,0,0,328,142,139,102,22810,13903,13375,0,200,0.7,8,0,0,0,0,0,0,0,0,0,0,0,0
2012,4,15,9,0,,14,7,63,100560,0,0,326,393,526,136,62459,53474,19480,0,70,0.6,4,0,0,0,0,0,0,0,0,0,0,0,0
2012,4,15,10,0,,16.5,6.5,52,100520,0,0,334,601,686,151,80954,70166,19145,0,200,1.4,3,0,0,0,0,0,0,0,0,0,0,0,0
2012,4,15,11,0,,18.8,7.2,47,100480,0,0,343,757,741,174,89854,75518,21521,0,230,1.7,2,0,0,0,0,0,0,0,0,0,0,0,0
2012,4,15,12,0,,22.4,3.4,29,100440,0,0,344,902,865,148,96062,88386,18812,0,250,2.3,0,0,0,0,0,0,0,0,0,0,0,0,0
2012,4,15,13,0,,22.9,0.6,23,100350,0,0,343,915,818,177,87396,82187,22429,0,250,3.3,0,0,0,0,0,0,0,0,0,0,0,0,0
2012,4,15,14,0,,23,1.3,24,100300,0,0,344,850,733,206,74225,72220,26563,0,290,2.8,0,0,0,0,0,0,0,0,0,0,0,0,0
2012,4,15,15,0,,23.7,2.4,25,100140,0,0,349,732,648,213,56553,61641,26264,0,250,2.1,0,0,0,0,0,0,0,0,0,0,0,0,0
2012,4,15,16,0,,24.3,2.4,24,100160,0,0,352,623,696,153,36007,57568,18953,0,270,2.7,0,0,0,0,0,0,0,0,0,0,0,0,0
2012,4,15,17,0,,22.6,1.5,25,100170,0,0,349,452,668,112,14479,26364,12163,0,250,2.8,1,0,0,0,0,0,0,0,0,0,0,0,0
2012,4,15,18,0,,20.9,0.1,25,100260,0,0,353,233,445,92,0,0,0,0,250,4.5,5,0,0,0,0,0,0,0,0,0,0,0,0
2012,4,15,19,0,,18.7,1.2,31,100280,0,0,344,63,34,29,0,0,0,0,270,2.3,5,0,0,0,0,0,0,0,0,0,0,0,0
2012,4,15,20,0,,16.6,2.5,39,100400,0,0,335,0,0,0,0,0,0,0,250,3.6,5,0,0,0,0,0,0,0,0,0,0,0,0
2012,4,15,21,0,,15.3,4,47,100500,0,0,331,0,0,0,0,0,0,0,0,0.1,5,0,0,0,0,0,0,0,0,0,0,0,0
2012,4,15,22,0,,14.6,4.5,51,100450,0,0,330,0,0,0,0,0,0,0,230,0.9,6,0,0,0,0,0,0,0,0,0,0,0,0
2012,4,15,23,0,,14,4.8,54,100380,0,0,330,0,0,0,0,0,0,0,20,0.7,6,0,0,0,0,0,0,0,0,0,0,0,0
2012,4,15,24,0,,13.2,5.8,61,100370,0,0,330,0,0,0,0,0,0,0,270,0.6,7,0,0,0,0,0,0,0,0,0,0,0,0
2012,4,16,1,0,,12.6,6.1,65,100370,0,0,324,0,0,0,0,0,0,0,290,0.9,6,0,0,0,0,0,0,0,0,0,0,0,0
2012,4,16,2,0,,11.4,6.1,70,100410,0,0,316,0,0,0,0,0,0,0,0,0.1,5,0,0,0,0,0,0,0,0,0,0,0,0
2012,4,16,3,0,,10.7,6.2,74,100430,0,0,310,0,0,0,0,0,0,0,250,0.7,4,0,0,0,0,0,0,0,0,0,0,0,0
2012,4,16,4,0,,10,6.3,78,100460,0,0,305,0,0,0,0,0,0,0,0,0.2,3,0,0,0,0,0,0,0,0,0,0,0,0
2012,4,16,5,0,,9.4,5.5,77,100430,0,0,301,0,0,0,0,0,0,0,20,0.8,3,0,0,0,0,0,0,0,0,0,0,0,0
2012,4,16,6,0,,9.5,5.2,75,100460,0,0,289,0,0,0,0,0,0,0,0,0,0,0,0,0,0,0,0,0,0,0,0,0,0
2012,4,16,7,0,,9.5,5.6,77,100520,0,0,289,64,33,30,6094,3269,4401,0,0,0.2,0,0,0,0,0,0,0,0,0,0,0,0,0
2012,4,16,8,0,,11.4,6.1,70,100540,0,0,298,238,567,71,50107,58493,10212,0,270,0.8,0,0,0,0,0,0,0,0,0,0,0,0,0
2012,4,16,9,0,,14.6,4.8,52,100510,0,0,310,444,698,101,71072,71196,13629,0,50,0.7,0,0,0,0,0,0,0,0,0,0,0,0,0
2012,4,16,10,0,,17.4,5,44,100510,0,0,323,646,799,118,87704,81699,15507,0,360,1.4,0,0,0,0,0,0,0,0,0,0,0,0,0
2012,4,16,11,0,,19.5,3.2,34,100500,0,0,330,800,836,139,95274,85249,17918,0,270,2,0,0,0,0,0,0,0,0,0,0,0,0,0
2012,4,16,12,0,,20.9,4,33,100470,0,0,338,873,793,179,92698,80382,22252,0,200,2.8,0,0,0,0,0,0,0,0,0,0,0,0,0
2012,4,16,13,0,,22.9,3.9,29,100370,0,0,347,891,761,203,86959,76256,26507,0,250,2.4,0,0,0,0,0,0,0,0,0,0,0,0,0
2012,4,16,14,0,,22.8,5.2,32,100290,0,0,348,843,713,216,73997,69743,27811,0,250,4.6,0,0,0,0,0,0,0,0,0,0,0,0,0
2012,4,16,15,0,,22.6,4.1,30,100270,0,0,346,727,631,221,56678,59712,27198,0,270,2.3,0,0,0,0,0,0,0,0,0,0,0,0,0
2012,4,16,16,0,,21.3,3.4,31,100260,0,0,339,574,556,198,36428,45762,22759,0,290,2.7,0,0,0,0,0,0,0,0,0,0,0,0,0
2012,4,16,17,0,,18.2,6,45,100320,0,0,328,393,452,162,18496,14621,17173,0,270,3.1,0,0,0,0,0,0,0,0,0,0,0,0,0
2012,4,16,18,0,,15.8,6.4,54,100430,0,0,328,215,338,108,0,0,0,0,270,3.1,2,0,0,0,0,0,0,0,0,0,0,0,0
2012,4,16,19,0,,12.9,7.1,68,100470,0,0,313,61,29,32,0,0,0,0,270,1.1,1,0,0,0,0,0,0,0,0,0,0,0,0
2012,4,16,20,0,,11.8,7.3,74,100530,0,0,305,0,0,0,0,0,0,0,290,1.7,1,0,0,0,0,0,0,0,0,0,0,0,0
2012,4,16,21,0,,11.7,7.2,74,100570,0,0,300,0,0,0,0,0,0,0,340,1,0,0,0,0,0,0,0,0,0,0,0,0,0
2012,4,16,22,0,,11.1,5.1,67,100590,0,0,295,0,0,0,0,0,0,0,50,0.9,0,0,0,0,0,0,0,0,0,0,0,0,0
2012,4,16,23,0,,10.1,3.3,63,100600,0,0,289,0,0,0,0,0,0,0,0,0.1,0,0,0,0,0,0,0,0,0,0,0,0,0
2012,4,16,24,0,,9.7,1.8,58,100590,0,0,286,0,0,0,0,0,0,0,0,0.1,0,0,0,0,0,0,0,0,0,0,0,0,0
2012,4,17,1,0,,9.1,2.1,62,100620,0,0,284,0,0,0,0,0,0,0,250,1.2,0,0,0,0,0,0,0,0,0,0,0,0,0
2012,4,17,2,0,,8.7,1.8,62,100600,0,0,282,0,0,0,0,0,0,0,270,1,0,0,0,0,0,0,0,0,0,0,0,0,0
2012,4,17,3,0,,7.2,3.9,80,100590,0,0,278,0,0,0,0,0,0,0,0,0.1,0,0,0,0,0,0,0,0,0,0,0,0,0
2012,4,17,4,0,,6.8,3.4,79,100600,0,0,276,0,0,0,0,0,0,0,250,1.6,0,0,0,0,0,0,0,0,0,0,0,0,0
2012,4,17,5,0,,6.2,3.5,83,100650,0,0,274,0,0,0,0,0,0,0,250,1.2,0,0,0,0,0,0,0,0,0,0,0,0,0
2012,4,17,6,0,,5.8,3.2,84,100710,0,0,272,0,0,0,0,0,0,0,250,1.3,0,0,0,0,0,0,0,0,0,0,0,0,0
2012,4,17,7,0,,5.7,2.5,80,100780,0,0,271,63,31,32,5863,3124,4234,0,0,0.2,0,0,0,0,0,0,0,0,0,0,0,0,0
2012,4,17,8,0,,8.1,2.9,70,100870,0,0,281,247,598,68,51254,60645,9689,0,230,1.9,0,0,0,0,0,0,0,0,0,0,0,0,0
2012,4,17,9,0,,10.2,2.2,58,100880,0,0,288,437,663,109,69740,68183,14521,0,230,1.4,0,0,0,0,0,0,0,0,0,0,0,0,0
2012,4,17,10,0,,13.2,3.2,51,100850,0,0,302,642,778,125,86623,79251,16372,0,230,1,0,0,0,0,0,0,0,0,0,0,0,0,0
2012,4,17,11,0,,15.5,4.5,48,100790,0,0,314,767,748,173,90558,76072,21339,0,250,1.5,0,0,0,0,0,0,0,0,0,0,0,0,0
2012,4,17,12,0,,17.1,3.7,41,100720,0,0,320,863,764,193,91424,77090,23683,0,180,1.2,0,0,0,0,0,0,0,0,0,0,0,0,0
2012,4,17,13,0,,19,2.3,33,100660,0,0,327,883,735,215,86169,73635,27629,0,180,2.1,0,0,0,0,0,0,0,0,0,0,0,0,0
2012,4,17,14,0,,20.2,0,26,100610,0,0,330,853,728,210,74590,71812,26874,0,250,2.1,0,0,0,0,0,0,0,0,0,0,0,0,0
2012,4,17,15,0,,21,-2.8,20,100520,0,0,330,785,763,170,58426,72805,22315,0,230,2.7,0,0,0,0,0,0,0,0,0,0,0,0,0
2012,4,17,16,0,,21.1,-1.4,22,100470,0,0,332,638,724,146,36426,61167,18006,0,230,2.4,0,0,0,0,0,0,0,0,0,0,0,0,0
2012,4,17,17,0,,20.3,-0.3,25,100430,0,0,330,456,667,113,14929,27957,12324,0,250,1.8,0,0,0,0,0,0,0,0,0,0,0,0,0
2012,4,17,18,0,,18.6,0.6,30,100460,0,0,323,257,557,79,0,0,0,0,270,2,0,0,0,0,0,0,0,0,0,0,0,0,0
2012,4,17,19,0,,16.2,0.7,35,100560,0,0,315,81,50,31,0,0,0,0,250,3.6,0,0,0,0,0,0,0,0,0,0,0,0,0
2012,4,17,20,0,,14,0.9,41,100670,0,0,307,0,0,0,0,0,0,0,200,4,1,0,0,0,0,0,0,0,0,0,0,0,0
2012,4,17,21,0,,13.3,0,40,100830,0,0,305,0,0,0,0,0,0,0,230,1.8,1,0,0,0,0,0,0,0,0,0,0,0,0
2012,4,17,22,0,,12.6,-1.7,37,100910,0,0,299,0,0,0,0,0,0,0,200,2.7,1,0,0,0,0,0,0,0,0,0,0,0,0
2012,4,17,23,0,,12.4,-0.8,40,100970,0,0,297,0,0,0,0,0,0,0,200,3,0,0,0,0,0,0,0,0,0,0,0,0,0
2012,4,17,24,0,,11.9,2.8,54,100970,0,0,296,0,0,0,0,0,0,0,200,0.9,0,0,0,0,0,0,0,0,0,0,0,0,0
2012,4,18,1,0,,11.7,3.4,57,100960,0,0,305,0,0,0,0,0,0,0,320,1.2,2,0,0,0,0,0,0,0,0,0,0,0,0
2012,4,18,2,0,,10.3,2.1,57,100890,0,0,302,0,0,0,0,0,0,0,20,1.2,3,0,0,0,0,0,0,0,0,0,0,0,0
2012,4,18,3,0,,10.4,2.2,57,100840,0,0,306,0,0,0,0,0,0,0,50,0.9,5,0,0,0,0,0,0,0,0,0,0,0,0
2012,4,18,4,0,,10.2,2.7,60,100850,0,0,312,0,0,0,0,0,0,0,290,0.5,7,0,0,0,0,0,0,0,0,0,0,0,0
2012,4,18,5,0,,9.3,3.4,67,100880,0,0,306,0,0,0,0,0,0,0,250,0.7,6,0,0,0,0,0,0,0,0,0,0,0,0
2012,4,18,6,0,,8.6,4,73,100930,0,0,296,0,0,0,0,0,0,0,250,0.8,3,0,0,0,0,0,0,0,0,0,0,0,0
2012,4,18,7,0,,9.7,4.2,69,100940,0,0,312,45,14,31,4483,1290,3806,0,0,0,7,0,0,0,0,0,0,0,0,0,0,0,0
2012,4,18,8,0,,12,5.6,65,100980,0,0,318,218,411,93,43041,41861,14212,0,0,0.3,5,0,0,0,0,0,0,0,0,0,0,0,0
2012,4,18,9,0,,14.4,7.2,62,100970,0,0,330,399,513,143,62602,52091,20261,0,50,1.1,5,0,0,0,0,0,0,0,0,0,0,0,0
2012,4,18,10,0,,16.4,6.2,51,100970,0,0,342,526,446,229,68824,44392,29354,0,360,0.7,6,0,0,0,0,0,0,0,0,0,0,0,0
2012,4,18,11,0,,18.7,6.5,45,100960,0,0,353,638,425,299,74988,42120,36559,0,50,1.5,6,0,0,0,0,0,0,0,0,0,0,0,0
2012,4,18,12,0,,20.1,4.5,36,100930,0,0,358,705,318,425,75718,32245,47310,0,290,1.3,6,0,0,0,0,0,0,0,0,0,0,0,0
2012,4,18,13,0,,22.3,2.8,28,100850,0,0,371,703,276,452,72455,27695,50376,0,200,3.4,7,0,0,0,0,0,0,0,0,0,0,0,0
2012,4,18,14,0,,22,0.4,24,100750,0,0,366,645,236,436,63833,23578,48115,0,140,2.3,7,0,0,0,0,0,0,0,0,0,0,0,0
2012,4,18,15,0,,23.2,0.8,23,100710,0,0,368,654,441,298,54825,42935,33431,0,160,3.6,6,0,0,0,0,0,0,0,0,0,0,0,0
2012,4,18,16,0,,22.6,0.9,24,100680,0,0,365,511,323,291,39930,26869,31773,0,160,3.6,6,0,0,0,0,0,0,0,0,0,0,0,0
2012,4,18,17,0,,21.7,-0.3,23,100700,0,0,363,345,274,203,22144,10737,21115,0,180,4.3,7,0,0,0,0,0,0,0,0,0,0,0,0
2012,4,18,18,0,,20.4,0.2,26,100740,0,0,363,173,177,116,0,0,0,0,180,3.9,8,0,0,0,0,0,0,0,0,0,0,0,0
2012,4,18,19,0,,19.1,0.6,29,100800,0,0,357,52,16,36,0,0,0,0,180,3.8,8,0,0,0,0,0,0,0,0,0,0,0,0
2012,4,18,20,0,,18,1.4,33,100870,0,0,353,0,0,0,0,0,0,0,200,4.2,8,0,0,0,0,0,0,0,0,0,0,0,0
2012,4,18,21,0,,17,1.4,35,100970,0,0,348,0,0,0,0,0,0,0,250,2.2,8,0,0,0,0,0,0,0,0,0,0,0,0
2012,4,18,22,0,,15.9,2.6,41,101020,0,0,344,0,0,0,0,0,0,0,320,0.5,8,0,0,0,0,0,0,0,0,0,0,0,0
2012,4,18,23,0,,15.7,2.4,41,101070,0,0,343,0,0,0,0,0,0,0,50,0.9,8,0,0,0,0,0,0,0,0,0,0,0,0
2012,4,18,24,0,,13.8,4,52,101030,0,0,336,0,0,0,0,0,0,0,50,2.6,8,0,0,0,0,0,0,0,0,0,0,0,0
2012,4,19,1,0,,14.1,3.5,49,101020,0,0,339,0,0,0,0,0,0,0,0,0.3,8,0,0,0,0,0,0,0,0,0,0,0,0
2012,4,19,2,0,,13.4,4,53,100970,0,0,338,0,0,0,0,0,0,0,20,0.9,9,0,0,0,0,0,0,0,0,0,0,0,0
2012,4,19,3,0,,13.1,5,58,101000,0,0,341,0,0,0,0,0,0,0,250,0.7,9,0,0,0,0,0,0,0,0,0,0,0,0
2012,4,19,4,0,,12.9,5.5,61,100990,0,0,350,0,0,0,0,0,0,0,0,0.3,10,0,0,0,0,0,0,0,0,0,0,0,0
2012,4,19,5,0,,12.5,2.8,52,100970,0,0,345,0,0,0,0,0,0,0,20,2.6,10,0,0,0,0,0,0,0,0,0,0,0,0
2012,4,19,6,0,,12.7,2.2,49,100960,0,0,345,0,0,0,0,0,0,0,20,1.3,10,0,0,0,0,0,0,0,0,0,0,0,0
2012,4,19,7,0,,12.8,4.4,57,101080,0,0,348,26,3,23,3199,137,3127,0,230,0.9,10,0,0,0,0,0,0,0,0,0,0,0,0
2012,4,19,8,0,,13.6,4.7,55,101100,0,0,353,97,40,85,13446,4030,10658,0,0,0.2,10,0,0,0,0,0,0,0,0,0,0,0,0
2012,4,19,9,0,,14.8,5.2,53,101110,0,0,359,184,49,159,23408,5042,19295,0,0,0.4,10,0,0,0,0,0,0,0,0,0,0,0,0
2012,4,19,10,0,,15.1,3.8,47,101170,0,0,359,262,50,228,30705,4874,26358,0,250,1.4,10,0,0,0,0,0,0,0,0,0,0,0,0
2012,4,19,11,0,,14.6,6.6,59,101180,0,0,360,270,30,246,31113,2907,28454,0,180,1.1,10,0,0,0,0,0,0,0,0,0,0,0,0
2012,4,19,12,0,,15.6,6.5,55,101140,0,0,365,307,31,280,34868,3006,32213,0,200,1.7,10,0,0,0,0,0,0,0,0,0,0,0,0
2012,4,19,13,0,,15.5,6.7,56,101100,0,0,365,318,31,290,35633,2972,33257,0,180,1.4,10,0,0,0,0,0,0,0,0,0,0,0,0
2012,4,19,14,0,,15.9,7.6,58,101090,0,0,368,341,41,305,37333,3937,34700,0,20,3.1,10,0,0,0,0,0,0,0,0,0,0,0,0
2012,4,19,15,0,,15.6,8,61,101070,0,0,367,255,25,235,27348,2042,26326,0,340,0.9,10,0,0,0,0,0,0,0,0,0,0,0,0
2012,4,19,16,0,,14.8,9.1,69,101080,0,0,364,208,25,191,21016,1866,20445,0,20,2.2,10,0,0,0,0,0,0,0,0,0,0,0,0
2012,4,19,17,0,,13.2,10.5,84,101130,0,0,358,120,13,113,11319,617,11258,0,50,2.4,10,0,0,0,0,0,0,0,0,0,0,0,0
2012,4,19,18,0,,12.3,10.5,89,101090,0,0,354,72,15,68,0,0,0,0,50,4.8,10,0,0,0,0,0,0,0,0,0,0,0,0
2012,4,19,19,0,,12,10.7,92,101100,0,0,353,21,1,19,0,0,0,0,50,3.4,10,0,0,0,0,0,0,0,0,0,0,0,0
2012,4,19,20,0,,11.7,10.7,94,101100,0,0,351,0,0,0,0,0,0,0,50,4.4,10,0,0,0,0,0,0,0,0,0,0,0,0
2012,4,19,21,0,,11.8,10.8,94,101110,0,0,352,0,0,0,0,0,0,0,50,4.2,10,0,0,0,0,0,0,0,0,0,0,0,0
2012,4,19,22,0,,11.9,10.7,93,101160,0,0,352,0,0,0,0,0,0,0,20,2.4,10,0,0,0,0,0,0,0,0,0,0,0,0
2012,4,19,23,0,,11.6,10.6,94,101170,0,0,351,0,0,0,0,0,0,0,50,3.1,10,0,0,0,0,0,0,0,0,0,0,0,0
2012,4,19,24,0,,11.9,11.1,95,101170,0,0,353,0,0,0,0,0,0,0,20,3.6,10,0,0,0,0,0,0,0,0,0,0,0,0
2012,4,20,1,0,,12.1,10.8,92,101150,0,0,353,0,0,0,0,0,0,0,50,3.6,10,0,0,0,0,0,0,0,0,0,0,0,0
2012,4,20,2,0,,12.4,10.6,89,101070,0,0,355,0,0,0,0,0,0,0,50,3.3,10,0,0,0,0,0,0,0,0,0,0,0,0
2012,4,20,3,0,,12.2,10.7,91,101100,0,0,354,0,0,0,0,0,0,0,20,2.9,10,0,0,0,0,0,0,0,0,0,0,0,0
2012,4,20,4,0,,12.9,10.2,84,101090,0,0,356,0,0,0,0,0,0,0,50,2.4,10,0,0,0,0,0,0,0,0,0,0,0,0
2012,4,20,5,0,,12.6,10.1,85,101100,0,0,355,0,0,0,0,0,0,0,50,5.1,10,0,0,0,0,0,0,0,0,0,0,0,0
2012,4,20,6,0,,12.7,10,84,101070,0,0,355,0,0,0,0,0,0,0,50,5,10,0,0,0,0,0,0,0,0,0,0,0,0
2012,4,20,7,0,,13.8,10,78,101100,0,0,351,35,6,29,3863,571,3559,0,20,2.2,9,0,0,0,0,0,0,0,0,0,0,0,0
2012,4,20,8,0,,15.4,11.3,77,101140,0,0,360,138,104,106,21198,10044,14217,0,50,3,9,0,0,0,0,0,0,0,0,0,0,0,0
2012,4,20,9,0,,16.3,10.8,70,101200,0,0,364,231,91,185,29852,8956,22521,0,230,1.9,9,0,0,0,0,0,0,0,0,0,0,0,0
2012,4,20,10,0,,17.2,11.4,69,101170,0,0,369,313,81,258,37927,7899,30863,0,20,1.7,9,0,0,0,0,0,0,0,0,0,0,0,0
2012,4,20,11,0,,17.7,11,65,101150,0,0,371,395,85,327,46019,8290,38416,0,50,5.5,9,0,0,0,0,0,0,0,0,0,0,0,0
2012,4,20,12,0,,19.2,10.9,59,101100,0,0,379,460,92,378,51131,8813,43328,0,70,4.6,9,0,0,0,0,0,0,0,0,0,0,0,0
2012,4,20,13,0,,19,10.7,59,101080,0,0,388,345,38,310,38503,3606,35613,0,70,3,10,0,0,0,0,0,0,0,0,0,0,0,0
2012,4,20,14,0,,19.2,10.7,58,101010,0,0,390,354,44,314,38698,4250,35846,0,70,5.3,10,0,0,0,0,0,0,0,0,0,0,0,0
2012,4,20,15,0,,19.7,10.9,57,100970,0,0,393,279,32,254,29560,2645,28230,0,70,3.3,10,0,0,0,0,0,0,0,0,0,0,0,0
2012,4,20,16,0,,18.7,10.7,60,100950,0,0,368,371,122,287,35291,10919,31923,0,50,4.6,8,0,0,0,0,0,0,0,0,0,0,0,0
2012,4,20,17,0,,19.3,10.5,57,100930,0,0,371,286,152,207,23532,11025,22417,0,70,4.9,8,0,0,0,0,0,0,0,0,0,0,0,0
2012,4,20,18,0,,18.5,10.3,59,100920,0,0,385,101,36,89,0,0,0,0,50,3.6,10,0,0,0,0,0,0,0,0,0,0,0,0
2012,4,20,19,0,,17.5,10.1,62,100910,0,0,380,33,4,29,0,0,0,0,50,4.5,10,0,0,0,0,0,0,0,0,0,0,0,0
2012,4,20,20,0,,17,10.1,64,100950,0,0,377,0,0,0,0,0,0,0,50,3.9,10,0,0,0,0,0,0,0,0,0,0,0,0
2012,4,20,21,0,,16.4,10.2,67,100930,0,0,374,0,0,0,0,0,0,0,50,5.9,10,0,0,0,0,0,0,0,0,0,0,0,0
2012,4,20,22,0,,15.9,10.2,69,100920,0,0,371,0,0,0,0,0,0,0,50,5.8,10,0,0,0,0,0,0,0,0,0,0,0,0
2012,4,20,23,0,,16.6,9.7,64,100870,0,0,374,0,0,0,0,0,0,0,50,3.9,10,0,0,0,0,0,0,0,0,0,0,0,0
2012,4,20,24,0,,16.8,9.2,61,100800,0,0,375,0,0,0,0,0,0,0,70,3.3,10,0,0,0,0,0,0,0,0,0,0,0,0
2012,4,21,1,0,,16.1,9.5,65,100690,0,0,372,0,0,0,0,0,0,0,70,4.5,10,0,0,0,0,0,0,0,0,0,0,0,0
2012,4,21,2,0,,16.2,9.6,65,100700,0,0,372,0,0,0,0,0,0,0,70,3.8,10,0,0,0,0,0,0,0,0,0,0,0,0
2012,4,21,3,0,,15.9,9.9,68,100560,0,0,371,0,0,0,0,0,0,0,50,5,10,0,0,0,0,0,0,0,0,0,0,0,0
2012,4,21,4,0,,14.8,10.9,78,100510,0,0,367,0,0,0,0,0,0,0,50,5.2,10,0,0,0,0,0,0,0,0,0,0,0,0
2012,4,21,5,0,,13.6,11.8,89,100390,0,0,362,0,0,0,0,0,0,0,50,5.9,10,0,0,0,0,0,0,0,0,0,0,0,0
2012,4,21,6,0,,13.6,12.1,91,100230,0,0,362,0,0,0,0,0,0,0,50,5.7,10,0,0,0,0,0,0,0,0,0,0,0,0
2012,4,21,7,0,,14.2,12.4,89,100270,0,0,366,22,2,21,2796,71,2758,0,70,3.5,10,0,0,0,0,0,0,0,0,0,0,0,0
2012,4,21,8,0,,14.4,12.6,89,100220,0,0,367,90,30,81,12434,2888,10417,0,90,3.1,10,0,0,0,0,0,0,0,0,0,0,0,0
2012,4,21,9,0,,14,12.5,91,100180,0,0,365,132,19,122,15974,1721,14560,0,50,1.6,10,0,0,0,0,0,0,0,0,0,0,0,0
2012,4,21,10,0,,14.5,12.5,88,100120,0,0,367,183,18,171,21629,1667,20135,0,70,2.1,10,0,0,0,0,0,0,0,0,0,0,0,0
2012,4,21,11,0,,15.4,12.7,84,100010,0,0,372,253,25,233,29342,2294,27233,0,70,2.9,10,0,0,0,0,0,0,0,0,0,0,0,0
2012,4,21,12,0,,15.9,12.8,82,99850,0,0,375,299,28,274,34166,2652,31813,0,360,2.2,10,0,0,0,0,0,0,0,0,0,0,0,0
2012,4,21,13,0,,15.9,12.8,82,99780,0,0,375,299,25,276,33807,2382,31893,0,340,2,10,0,0,0,0,0,0,0,0,0,0,0,0
2012,4,21,14,0,,16.8,12.7,77,99660,0,0,379,294,26,270,32531,2094,31122,0,90,3.7,10,0,0,0,0,0,0,0,0,0,0,0,0
2012,4,21,15,0,,16.6,12.7,78,99460,0,0,378,270,29,247,28704,2326,27530,0,140,5.4,10,0,0,0,0,0,0,0,0,0,0,0,0
2012,4,21,16,0,,17.3,13,76,99390,0,0,382,245,38,218,24091,3073,23136,0,140,5.7,10,0,0,0,0,0,0,0,0,0,0,0,0
2012,4,21,17,0,,16.6,13.3,81,99380,0,0,379,169,34,151,14968,2456,14713,0,140,5.5,10,0,0,0,0,0,0,0,0,0,0,0,0
2012,4,21,18,0,,16.9,13.2,79,99400,0,0,381,98,33,87,0,0,0,0,110,4,10,0,0,0,0,0,0,0,0,0,0,0,0
2012,4,21,19,0,,16,13.4,85,99450,0,0,376,25,2,23,0,0,0,0,180,2.1,10,0,0,0,0,0,0,0,0,0,0,0,0
2012,4,21,20,0,,16,13.8,87,99390,0,0,377,0,0,0,0,0,0,0,140,2.3,10,0,0,0,0,0,0,0,0,0,0,0,0
2012,4,21,21,0,,16.9,13.8,82,99410,0,0,381,0,0,0,0,0,0,0,160,3.2,10,0,0,0,0,0,0,0,0,0,0,0,0
2012,4,21,22,0,,17,14,83,99370,0,0,382,0,0,0,0,0,0,0,200,4.7,10,0,0,0,0,0,0,0,0,0,0,0,0
2012,4,21,23,0,,16,14.1,89,99370,0,0,377,0,0,0,0,0,0,0,180,3.1,10,0,0,0,0,0,0,0,0,0,0,0,0
2012,4,21,24,0,,14.3,13.5,95,99400,0,0,368,0,0,0,0,0,0,0,230,4.7,10,0,0,0,0,0,0,0,0,0,0,0,0
2012,4,22,1,0,,13.8,13.1,96,99440,0,0,365,0,0,0,0,0,0,0,230,3.6,10,0,0,0,0,0,0,0,0,0,0,0,0
2012,4,22,2,0,,12.1,11.6,97,99500,0,0,355,0,0,0,0,0,0,0,230,4.9,10,0,0,0,0,0,0,0,0,0,0,0,0
2012,4,22,3,0,,11.2,10.7,97,99560,0,0,349,0,0,0,0,0,0,0,200,5.5,10,0,0,0,0,0,0,0,0,0,0,0,0
2012,4,22,4,0,,10.9,10.2,96,99570,0,0,347,0,0,0,0,0,0,0,230,4.2,10,0,0,0,0,0,0,0,0,0,0,0,0
2012,4,22,5,0,,10.3,9.8,97,99620,0,0,344,0,0,0,0,0,0,0,230,3.4,10,0,0,0,0,0,0,0,0,0,0,0,0
2012,4,22,6,0,,9.7,8.9,95,99710,0,0,340,0,0,0,0,0,0,0,230,4.1,10,0,0,0,0,0,0,0,0,0,0,0,0
2012,4,22,7,0,,9.6,8.6,94,99800,0,0,339,20,1,19,2565,51,2537,0,230,3.5,10,0,0,0,0,0,0,0,0,0,0,0,0
2012,4,22,8,0,,9.9,8.6,92,99910,0,0,340,84,24,77,10708,2216,9154,0,250,4.7,10,0,0,0,0,0,0,0,0,0,0,0,0
2012,4,22,9,0,,9.9,8.3,90,99970,0,0,340,160,31,144,19419,2976,16967,0,250,4.9,10,0,0,0,0,0,0,0,0,0,0,0,0
2012,4,22,10,0,,9.8,8.2,90,100070,0,0,339,209,26,191,24561,2440,22367,0,230,4.1,10,0,0,0,0,0,0,0,0,0,0,0,0
2012,4,22,11,0,,10.2,8.4,89,100140,0,0,341,226,18,212,26229,1689,24673,0,230,3.4,10,0,0,0,0,0,0,0,0,0,0,0,0
2012,4,22,12,0,,10.6,8.8,89,100180,0,0,344,268,21,250,30670,1971,28917,0,230,3.7,10,0,0,0,0,0,0,0,0,0,0,0,0
2012,4,22,13,0,,11,9,88,100200,0,0,346,287,22,266,32415,2148,30685,0,230,3.6,10,0,0,0,0,0,0,0,0,0,0,0,0
2012,4,22,14,0,,11.7,9,84,100220,0,0,349,298,27,274,33123,2249,31604,0,250,3.5,10,0,0,0,0,0,0,0,0,0,0,0,0
2012,4,22,15,0,,12.2,8.8,80,100220,0,0,334,421,96,344,43198,9199,38532,0,250,3.6,8,0,0,0,0,0,0,0,0,0,0,0,0
2012,4,22,16,0,,13.1,8.9,76,100200,0,0,339,368,116,287,35179,10564,31871,0,250,2.4,8,0,0,0,0,0,0,0,0,0,0,0,0
2012,4,22,17,0,,13.9,8.7,71,100180,0,0,337,311,188,213,24429,13946,22945,0,200,1.6,7,0,0,0,0,0,0,0,0,0,0,0,0
2012,4,22,18,0,,13.7,8.5,71,100190,0,0,326,249,464,95,0,0,0,0,250,2,4,0,0,0,0,0,0,0,0,0,0,0,0
2012,4,22,19,0,,12.4,8.2,76,100200,0,0,317,83,44,39,0,0,0,0,230,1.8,3,0,0,0,0,0,0,0,0,0,0,0,0
2012,4,22,20,0,,11.6,8.4,81,100270,0,0,309,0,0,0,0,0,0,0,230,1.9,1,0,0,0,0,0,0,0,0,0,0,0,0
2012,4,22,21,0,,11,8.5,85,100350,0,0,299,0,0,0,0,0,0,0,200,2.7,0,0,0,0,0,0,0,0,0,0,0,0,0
2012,4,22,22,0,,10.4,8.3,87,100380,0,0,296,0,0,0,0,0,0,0,180,1.3,0,0,0,0,0,0,0,0,0,0,0,0,0
2012,4,22,23,0,,10.2,8.4,89,100370,0,0,296,0,0,0,0,0,0,0,0,0.4,0,0,0,0,0,0,0,0,0,0,0,0,0
2012,4,22,24,0,,9.5,8,91,100380,0,0,292,0,0,0,0,0,0,0,90,0.6,0,0,0,0,0,0,0,0,0,0,0,0,0
2012,4,23,1,0,,9.5,8.2,92,100430,0,0,303,0,0,0,0,0,0,0,0,0,2,0,0,0,0,0,0,0,0,0,0,0,0
2012,4,23,2,0,,9.5,8.4,93,100440,0,0,309,0,0,0,0,0,0,0,70,0.9,5,0,0,0,0,0,0,0,0,0,0,0,0
2012,4,23,3,0,,10.1,8.6,91,100450,0,0,319,0,0,0,0,0,0,0,0,0,7,0,0,0,0,0,0,0,0,0,0,0,0
2012,4,23,4,0,,10.4,8.8,90,100460,0,0,321,0,0,0,0,0,0,0,0,0,7,0,0,0,0,0,0,0,0,0,0,0,0
2012,4,23,5,0,,10.3,8.7,90,100490,0,0,320,0,0,0,0,0,0,0,0,0.1,7,0,0,0,0,0,0,0,0,0,0,0,0
2012,4,23,6,0,,10.6,9,90,100500,0,0,327,0,0,0,0,0,0,0,0,0.1,8,0,0,0,0,0,0,0,0,0,0,0,0
2012,4,23,7,0,,11.2,9.4,89,100560,0,0,330,44,10,35,4681,893,4197,0,0,0,8,0,0,0,0,0,0,0,0,0,0,0,0
2012,4,23,8,0,,12.3,10,86,100580,0,0,353,87,25,79,11097,2344,9446,0,0,0,10,0,0,0,0,0,0,0,0,0,0,0,0
2012,4,23,9,0,,13.9,11.4,85,100630,0,0,346,262,121,199,34019,11847,24225,0,200,0.6,8,0,0,0,0,0,0,0,0,0,0,0,0
2012,4,23,10,0,,15.8,11.9,78,100640,0,0,334,567,519,213,74877,51841,28136,0,340,0.7,2,0,0,0,0,0,0,0,0,0,0,0,0
2012,4,23,11,0,,18,13,73,100660,0,0,368,470,131,364,54328,12622,42668,0,230,1.4,8,0,0,0,0,0,0,0,0,0,0,0,0
2012,4,23,12,0,,21,13.6,63,100610,0,0,361,836,665,242,89957,65725,31347,0,230,1.8,2,0,0,0,0,0,0,0,0,0,0,0,0
2012,4,23,13,0,,22.5,12.7,54,100540,0,0,367,919,779,200,89421,77284,27004,0,200,6.6,2,0,0,0,0,0,0,0,0,0,0,0,0
2012,4,23,14,0,,23.3,12.2,50,100470,0,0,359,864,721,218,76098,69931,28742,0,230,4.6,0,0,0,0,0,0,0,0,0,0,0,0,0
2012,4,23,15,0,,24.7,10.1,40,100410,0,0,364,755,659,216,58672,60968,27619,0,230,3.3,0,0,0,0,0,0,0,0,0,0,0,0,0
2012,4,23,16,0,,24.4,10.2,41,100360,0,0,362,634,680,164,38428,55282,20985,0,230,5.7,0,0,0,0,0,0,0,0,0,0,0,0,0
2012,4,23,17,0,,23.3,10.6,45,100360,0,0,357,460,637,124,17329,27256,14359,0,230,5.3,0,0,0,0,0,0,0,0,0,0,0,0,0
2012,4,23,18,0,,21.9,9,44,100370,0,0,349,267,545,85,0,0,0,0,230,4.1,0,0,0,0,0,0,0,0,0,0,0,0,0
2012,4,23,19,0,,20.1,9.9,52,100420,0,0,341,90,53,37,0,0,0,0,230,3.3,0,0,0,0,0,0,0,0,0,0,0,0,0
2012,4,23,20,0,,19,10,56,100500,0,0,336,0,0,0,0,0,0,0,200,3.1,0,0,0,0,0,0,0,0,0,0,0,0,0
2012,4,23,21,0,,18,9.6,58,100630,0,0,331,0,0,0,0,0,0,0,230,3,0,0,0,0,0,0,0,0,0,0,0,0,0
2012,4,23,22,0,,16.4,10.2,67,100660,0,0,324,0,0,0,0,0,0,0,180,1.9,0,0,0,0,0,0,0,0,0,0,0,0,0
2012,4,23,23,0,,15.6,10.1,70,100590,0,0,320,0,0,0,0,0,0,0,160,1.3,0,0,0,0,0,0,0,0,0,0,0,0,0
2012,4,23,24,0,,15.6,10.3,71,100560,0,0,321,0,0,0,0,0,0,0,110,0.8,0,0,0,0,0,0,0,0,0,0,0,0,0
2012,4,24,1,0,,14.7,10.5,76,100580,0,0,317,0,0,0,0,0,0,0,200,1,0,0,0,0,0,0,0,0,0,0,0,0,0
2012,4,24,2,0,,13.8,10.7,82,100600,0,0,313,0,0,0,0,0,0,0,0,0.4,0,0,0,0,0,0,0,0,0,0,0,0,0
2012,4,24,3,0,,13.2,10.1,82,100600,0,0,310,0,0,0,0,0,0,0,70,1.1,0,0,0,0,0,0,0,0,0,0,0,0,0
2012,4,24,4,0,,12.9,10.2,84,100650,0,0,309,0,0,0,0,0,0,0,20,0.5,0,0,0,0,0,0,0,0,0,0,0,0,0
2012,4,24,5,0,,12.6,10.3,86,100640,0,0,308,0,0,0,0,0,0,0,0,0,0,0,0,0,0,0,0,0,0,0,0,0,0
2012,4,24,6,0,,12.1,10.1,88,100640,0,0,315,0,0,0,0,0,0,0,0,0,2,0,0,0,0,0,0,0,0,0,0,0,0
2012,4,24,7,0,,13,10.3,84,100660,0,0,328,67,32,35,6411,3143,4697,0,0,0,5,0,0,0,0,0,0,0,0,0,0,0,0
2012,4,24,8,0,,15.2,10.9,76,100690,0,0,339,224,356,108,41740,35898,16365,0,230,0.9,5,0,0,0,0,0,0,0,0,0,0,0,0
2012,4,24,9,0,,17.6,10.9,65,100660,0,0,341,454,641,121,70974,66224,16059,0,20,0.7,2,0,0,0,0,0,0,0,0,0,0,0,0
2012,4,24,10,0,,20.6,10.3,52,100570,0,0,361,617,649,172,82906,65515,23685,0,20,1.2,4,0,0,0,0,0,0,0,0,0,0,0,0
2012,4,24,11,0,,24.1,8.8,38,100510,0,0,380,741,635,224,87865,63607,28969,0,180,1.5,5,0,0,0,0,0,0,0,0,0,0,0,0
2012,4,24,12,0,,26.4,9.2,34,100370,0,0,401,729,331,433,78506,32507,49453,0,230,2.5,7,0,0,0,0,0,0,0,0,0,0,0,0
2012,4,24,13,0,,27.4,8.2,30,100320,0,0,405,724,285,461,74643,27818,52121,0,160,2.9,7,0,0,0,0,0,0,0,0,0,0,0,0
2012,4,24,14,0,,27.3,7.6,29,100300,0,0,404,672,253,445,66593,24425,50003,0,180,5.1,7,0,0,0,0,0,0,0,0,0,0,0,0
2012,4,24,15,0,,27.2,9.5,33,100260,0,0,401,606,262,391,56301,23983,44035,0,200,4,6,0,0,0,0,0,0,0,0,0,0,0,0
2012,4,24,16,0,,25.8,12.2,43,100260,0,0,402,422,168,306,38826,15096,34027,0,180,4.1,7,0,0,0,0,0,0,0,0,0,0,0,0
2012,4,24,17,0,,23.7,10.3,43,100280,0,0,384,337,232,214,24083,9225,23054,0,180,3.6,6,0,0,0,0,0,0,0,0,0,0,0,0
2012,4,24,18,0,,23.6,11.2,46,100260,0,0,384,202,246,119,0,0,0,0,160,3.3,6,0,0,0,0,0,0,0,0,0,0,0,0
2012,4,24,19,0,,21.9,10.9,50,100250,0,0,375,72,33,40,0,0,0,0,160,3.3,6,0,0,0,0,0,0,0,0,0,0,0,0
2012,4,24,20,0,,20.8,10.5,52,100280,0,0,369,0,0,0,0,0,0,0,160,1.6,6,0,0,0,0,0,0,0,0,0,0,0,0
2012,4,24,21,0,,19.9,7.6,45,100320,0,0,361,0,0,0,0,0,0,0,140,1,6,0,0,0,0,0,0,0,0,0,0,0,0
2012,4,24,22,0,,20,6.6,42,100330,0,0,366,0,0,0,0,0,0,0,180,0.6,7,0,0,0,0,0,0,0,0,0,0,0,0
2012,4,24,23,0,,20.2,5.4,38,100260,0,0,374,0,0,0,0,0,0,0,180,2.6,9,0,0,0,0,0,0,0,0,0,0,0,0
2012,4,24,24,0,,20.2,8.5,47,100210,0,0,392,0,0,0,0,0,0,0,180,4.2,10,0,0,0,0,0,0,0,0,0,0,0,0
2012,4,25,1,0,,19.7,9.5,52,100080,0,0,391,0,0,0,0,0,0,0,180,2,10,0,0,0,0,0,0,0,0,0,0,0,0
2012,4,25,2,0,,19.8,10.4,55,100000,0,0,392,0,0,0,0,0,0,0,180,5.8,10,0,0,0,0,0,0,0,0,0,0,0,0
2012,4,25,3,0,,19.5,12,62,99910,0,0,393,0,0,0,0,0,0,0,160,5.2,10,0,0,0,0,0,0,0,0,0,0,0,0
2012,4,25,4,0,,19,12.7,67,99810,0,0,391,0,0,0,0,0,0,0,140,3.2,10,0,0,0,0,0,0,0,0,0,0,0,0
2012,4,25,5,0,,18.2,13.8,76,99690,0,0,388,0,0,0,0,0,0,0,140,3.8,10,0,0,0,0,0,0,0,0,0,0,0,0
2012,4,25,6,0,,17.8,14.6,82,99590,0,0,387,0,0,0,0,0,0,0,140,2.5,10,0,0,0,0,0,0,0,0,0,0,0,0
2012,4,25,7,0,,17.8,15.4,86,99590,0,0,388,25,2,23,3151,73,3111,0,160,2.8,10,0,0,0,0,0,0,0,0,0,0,0,0
2012,4,25,8,0,,17.5,15.6,89,99440,0,0,387,87,23,79,10994,2076,9521,0,90,3,10,0,0,0,0,0,0,0,0,0,0,0,0
2012,4,25,9,0,,17.5,15.6,89,99330,0,0,387,152,25,138,18402,2299,16490,0,110,3.4,10,0,0,0,0,0,0,0,0,0,0,0,0
2012,4,25,10,0,,17.5,15.4,88,99260,0,0,387,188,18,176,22319,1673,20804,0,140,1.8,10,0,0,0,0,0,0,0,0,0,0,0,0
2012,4,25,11,0,,17.6,15,85,99200,0,0,387,254,24,235,29581,2195,27543,0,160,4.9,10,0,0,0,0,0,0,0,0,0,0,0,0
2012,4,25,12,0,,17,14.8,87,99080,0,0,383,245,16,231,29009,1051,28068,0,360,2.2,10,0,0,0,0,0,0,0,0,0,0,0,0
2012,4,25,13,0,,16.8,14.9,89,99000,0,0,382,229,12,218,26907,794,26263,0,110,1.5,10,0,0,0,0,0,0,0,0,0,0,0,0
2012,4,25,14,0,,16.3,14.6,90,98890,0,0,379,215,11,205,24682,742,24177,0,340,1.5,10,0,0,0,0,0,0,0,0,0,0,0,0
2012,4,25,15,0,,16.5,15,91,98850,0,0,381,205,13,194,22520,893,22062,0,320,0.9,10,0,0,0,0,0,0,0,0,0,0,0,0
2012,4,25,16,0,,16.7,15,90,98820,0,0,382,176,15,166,18317,945,18014,0,360,0.6,10,0,0,0,0,0,0,0,0,0,0,0,0
2012,4,25,17,0,,16.6,15.1,91,98840,0,0,382,137,18,128,12844,916,12740,0,290,0.5,10,0,0,0,0,0,0,0,0,0,0,0,0
2012,4,25,18,0,,16.2,15.2,94,98840,0,0,380,77,15,72,0,0,0,0,320,1.1,10,0,0,0,0,0,0,0,0,0,0,0,0
2012,4,25,19,0,,16.2,15.3,95,98890,0,0,380,25,1,23,0,0,0,0,270,1.2,10,0,0,0,0,0,0,0,0,0,0,0,0
2012,4,25,20,0,,14,13.2,95,99130,0,0,366,0,0,0,0,0,0,0,250,5.5,10,0,0,0,0,0,0,0,0,0,0,0,0
2012,4,25,21,0,,11.2,10.4,95,99370,0,0,349,0,0,0,0,0,0,0,250,5,10,0,0,0,0,0,0,0,0,0,0,0,0
2012,4,25,22,0,,10.7,9.7,94,99490,0,0,345,0,0,0,0,0,0,0,250,3.9,10,0,0,0,0,0,0,0,0,0,0,0,0
2012,4,25,23,0,,10,9.2,95,99530,0,0,341,0,0,0,0,0,0,0,250,3.9,10,0,0,0,0,0,0,0,0,0,0,0,0
2012,4,25,24,0,,10.1,9.1,94,99590,0,0,342,0,0,0,0,0,0,0,250,1.3,10,0,0,0,0,0,0,0,0,0,0,0,0
2012,4,26,1,0,,9.9,8.9,94,99630,0,0,340,0,0,0,0,0,0,0,290,1.8,10,0,0,0,0,0,0,0,0,0,0,0,0
2012,4,26,2,0,,9.9,8.4,91,99700,0,0,340,0,0,0,0,0,0,0,270,1.8,10,0,0,0,0,0,0,0,0,0,0,0,0
2012,4,26,3,0,,9.6,8.3,92,99790,0,0,338,0,0,0,0,0,0,0,270,1.5,10,0,0,0,0,0,0,0,0,0,0,0,0
2012,4,26,4,0,,9.3,7.2,87,99850,0,0,306,0,0,0,0,0,0,0,270,0.9,4,0,0,0,0,0,0,0,0,0,0,0,0
2012,4,26,5,0,,8.9,6.1,83,99880,0,0,297,0,0,0,0,0,0,0,320,1.7,2,0,0,0,0,0,0,0,0,0,0,0,0
2012,4,26,6,0,,8.5,5.7,83,99940,0,0,295,0,0,0,0,0,0,0,290,2.5,2,0,0,0,0,0,0,0,0,0,0,0,0
2012,4,26,7,0,,8.6,5.3,80,99980,0,0,286,86,47,39,8101,4680,5521,0,270,1.5,0,0,0,0,0,0,0,0,0,0,0,0,0
2012,4,26,8,0,,10.4,4,65,100000,0,0,291,275,594,77,54566,61228,10947,0,320,2.2,0,0,0,0,0,0,0,0,0,0,0,0,0
2012,4,26,9,0,,12.2,3.6,56,100030,0,0,298,470,676,115,73130,69524,15135,0,320,2.2,0,0,0,0,0,0,0,0,0,0,0,0,0
2012,4,26,10,0,,14.2,2.4,45,100100,0,0,306,668,771,135,88739,78508,17424,0,360,2.8,0,0,0,0,0,0,0,0,0,0,0,0,0
2012,4,26,11,0,,15,-1.5,32,100170,0,0,305,814,796,162,95283,81071,19884,0,20,5.5,0,0,0,0,0,0,0,0,0,0,0,0,0
2012,4,26,12,0,,16.1,-0.6,32,100200,0,0,311,861,705,227,92417,71190,28513,0,20,3.3,0,0,0,0,0,0,0,0,0,0,0,0,0
2012,4,26,13,0,,16.7,-2.4,27,100210,0,0,312,873,664,256,85150,66221,31284,0,320,3.4,0,0,0,0,0,0,0,0,0,0,0,0,0
2012,4,26,14,0,,17.5,-0.7,29,100210,0,0,317,839,652,252,75043,65199,30501,0,340,2,0,0,0,0,0,0,0,0,0,0,0,0,0
2012,4,26,15,0,,17.7,-2,26,100210,0,0,316,767,674,212,59637,65510,25852,0,270,3.5,0,0,0,0,0,0,0,0,0,0,0,0,0
2012,4,26,16,0,,17.3,-2.9,25,100190,0,0,314,637,670,169,39116,57979,20416,0,360,3.4,0,0,0,0,0,0,0,0,0,0,0,0,0
2012,4,26,17,0,,17,-2.1,27,100200,0,0,313,472,657,121,17261,32880,13421,0,20,3.5,0,0,0,0,0,0,0,0,0,0,0,0,0
2012,4,26,18,0,,16.1,-2.4,28,100210,0,0,309,285,609,78,0,0,0,0,320,2,0,0,0,0,0,0,0,0,0,0,0,0,0
2012,4,26,19,0,,14.9,-2.1,31,100210,0,0,304,106,74,32,0,0,0,0,290,2,0,0,0,0,0,0,0,0,0,0,0,0,0
2012,4,26,20,0,,13.9,-2.9,31,100250,0,0,299,0,0,0,0,0,0,0,290,1.4,0,0,0,0,0,0,0,0,0,0,0,0,0
2012,4,26,21,0,,13.2,-1.9,35,100380,0,0,297,0,0,0,0,0,0,0,270,0.7,0,0,0,0,0,0,0,0,0,0,0,0,0
2012,4,26,22,0,,12.2,-1.3,39,100430,0,0,293,0,0,0,0,0,0,0,0,0.2,0,0,0,0,0,0,0,0,0,0,0,0,0
2012,4,26,23,0,,10.2,0.7,52,100480,0,0,287,0,0,0,0,0,0,0,180,1.3,0,0,0,0,0,0,0,0,0,0,0,0,0
2012,4,26,24,0,,9.7,1,55,100500,0,0,285,0,0,0,0,0,0,0,160,1.1,0,0,0,0,0,0,0,0,0,0,0,0,0
2012,4,27,1,0,,9,0.9,57,100480,0,0,282,0,0,0,0,0,0,0,0,0.3,0,0,0,0,0,0,0,0,0,0,0,0,0
2012,4,27,2,0,,8.8,3.4,69,100510,0,0,284,0,0,0,0,0,0,0,0,0.4,0,0,0,0,0,0,0,0,0,0,0,0,0
2012,4,27,3,0,,8.1,2.7,69,100530,0,0,280,0,0,0,0,0,0,0,90,0.7,0,0,0,0,0,0,0,0,0,0,0,0,0
2012,4,27,4,0,,7.7,3.5,75,100540,0,0,280,0,0,0,0,0,0,0,0,0.4,0,0,0,0,0,0,0,0,0,0,0,0,0
2012,4,27,5,0,,7,2.8,75,100550,0,0,276,0,0,0,0,0,0,0,70,1,0,0,0,0,0,0,0,0,0,0,0,0,0
2012,4,27,6,0,,6.8,1,67,100560,0,0,274,0,0,0,0,0,0,0,0,0,0,0,0,0,0,0,0,0,0,0,0,0,0
2012,4,27,7,0,,7.6,3.6,76,100580,0,0,280,93,56,37,8356,5638,5230,0,0,0.1,0,0,0,0,0,0,0,0,0,0,0,0,0
2012,4,27,8,0,,10,3.9,66,100600,0,0,290,276,585,79,54321,60297,11206,0,180,0.6,0,0,0,0,0,0,0,0,0,0,0,0,0
2012,4,27,9,0,,13.7,1.3,43,100570,0,0,302,510,800,88,79936,81401,11841,0,360,0.6,0,0,0,0,0,0,0,0,0,0,0,0,0
2012,4,27,10,0,,17.3,-0.4,30,100570,0,0,316,723,906,94,96414,92257,12412,0,250,0.9,0,0,0,0,0,0,0,0,0,0,0,0,0
2012,4,27,11,0,,20,3.2,33,100540,0,0,333,864,904,121,101670,92262,15681,0,250,1.3,0,0,0,0,0,0,0,0,0,0,0,0,0
2012,4,27,12,0,,23.1,-2.5,18,100450,0,0,339,973,940,125,101891,95276,16188,0,200,2.1,0,0,0,0,0,0,0,0,0,0,0,0,0
2012,4,27,13,0,,24.3,-0.8,19,100350,0,0,347,981,891,152,93113,90362,19441,0,230,4.1,0,0,0,0,0,0,0,0,0,0,0,0,0
2012,4,27,14,0,,24.7,-2.8,16,100290,0,0,346,914,811,181,79369,81117,23795,0,160,4.3,0,0,0,0,0,0,0,0,0,0,0,0,0
2012,4,27,15,0,,24.2,-4.1,15,100270,0,0,342,791,727,191,60531,71204,23661,0,180,4.9,0,0,0,0,0,0,0,0,0,0,0,0,0
2012,4,27,16,0,,23.9,-4.3,15,100260,0,0,340,641,676,168,39346,58977,20188,0,180,4.1,0,0,0,0,0,0,0,0,0,0,0,0,0
2012,4,27,17,0,,22.5,-4.6,16,100280,0,0,334,482,684,116,17088,35295,12875,0,160,5.1,0,0,0,0,0,0,0,0,0,0,0,0,0
2012,4,27,18,0,,21.2,-5.6,16,100300,0,0,327,298,659,71,0,0,0,0,160,5.6,0,0,0,0,0,0,0,0,0,0,0,0,0
2012,4,27,19,0,,19.1,-4.4,20,100380,0,0,319,107,73,34,0,0,0,0,180,3.9,0,0,0,0,0,0,0,0,0,0,0,0,0
2012,4,27,20,0,,17.1,-4.8,22,100430,0,0,310,0,0,0,0,0,0,0,180,2.9,0,0,0,0,0,0,0,0,0,0,0,0,0
2012,4,27,21,0,,16.1,-4.5,24,100490,0,0,307,0,0,0,0,0,0,0,180,2.1,0,0,0,0,0,0,0,0,0,0,0,0,0
2012,4,27,22,0,,15.6,-4.3,25,100520,0,0,305,0,0,0,0,0,0,0,200,3.1,0,0,0,0,0,0,0,0,0,0,0,0,0
2012,4,27,23,0,,14.7,-1.8,32,100560,0,0,303,0,0,0,0,0,0,0,200,2.6,0,0,0,0,0,0,0,0,0,0,0,0,0
2012,4,27,24,0,,13.9,1.8,44,100570,0,0,304,0,0,0,0,0,0,0,200,1.6,0,0,0,0,0,0,0,0,0,0,0,0,0
2012,4,28,1,0,,12.5,2.8,52,100610,0,0,299,0,0,0,0,0,0,0,50,0.6,0,0,0,0,0,0,0,0,0,0,0,0,0
2012,4,28,2,0,,12.5,2,49,100570,0,0,298,0,0,0,0,0,0,0,70,0.9,0,0,0,0,0,0,0,0,0,0,0,0,0
2012,4,28,3,0,,11.4,2.9,56,100610,0,0,294,0,0,0,0,0,0,0,0,0.4,0,0,0,0,0,0,0,0,0,0,0,0,0
2012,4,28,4,0,,11.2,2.7,56,100610,0,0,293,0,0,0,0,0,0,0,50,0.5,0,0,0,0,0,0,0,0,0,0,0,0,0
2012,4,28,5,0,,10.3,4.4,67,100620,0,0,291,0,0,0,0,0,0,0,200,0.5,0,0,0,0,0,0,0,0,0,0,0,0,0
2012,4,28,6,0,,9.5,4,69,100660,0,0,288,0,0,0,0,0,0,0,230,0.8,0,0,0,0,0,0,0,0,0,0,0,0,0
2012,4,28,7,0,,10.5,3.9,64,100690,0,0,292,97,60,37,8598,5966,5274,0,0,0,0,0,0,0,0,0,0,0,0,0,0,0,0
2012,4,28,8,0,,13.9,5.5,57,100720,0,0,308,290,642,72,57178,65491,10180,0,0,0.3,0,0,0,0,0,0,0,0,0,0,0,0,0
2012,4,28,9,0,,16.7,5.3,47,100760,0,0,320,509,784,92,79685,80254,12365,0,360,0.7,0,0,0,0,0,0,0,0,0,0,0,0,0
2012,4,28,10,0,,20,2.7,32,100780,0,0,332,722,894,98,96266,91315,12931,0,20,1,0,0,0,0,0,0,0,0,0,0,0,0,0
2012,4,28,11,0,,22.7,1,24,100750,0,0,342,874,919,116,102444,93580,15047,0,230,2.4,0,0,0,0,0,0,0,0,0,0,0,0,0
2012,4,28,12,0,,24.8,-1.1,18,100680,0,0,349,964,917,135,101252,93016,17412,0,200,3.1,0,0,0,0,0,0,0,0,0,0,0,0,0
2012,4,28,13,0,,26.6,4.3,24,100630,0,0,366,954,830,180,91151,83683,22770,0,200,3.2,0,0,0,0,0,0,0,0,0,0,0,0,0
2012,4,28,14,0,,27.3,6.1,26,100600,0,0,372,903,782,194,78779,77275,25691,0,200,4.4,0,0,0,0,0,0,0,0,0,0,0,0,0
2012,4,28,15,0,,27.5,5.7,25,100560,0,0,372,793,725,193,60484,68883,24674,0,230,3.7,0,0,0,0,0,0,0,0,0,0,0,0,0
2012,4,28,16,0,,26.2,6.2,28,100560,0,0,366,630,642,180,39863,53945,22216,0,250,5.3,0,0,0,0,0,0,0,0,0,0,0,0,0
2012,4,28,17,0,,26.3,4.6,25,100610,0,0,364,467,626,130,18418,30880,14654,0,180,2.9,0,0,0,0,0,0,0,0,0,0,0,0,0
2012,4,28,18,0,,24.7,5.4,29,100580,0,0,358,281,567,85,0,0,0,0,200,3.3,0,0,0,0,0,0,0,0,0,0,0,0,0
2012,4,28,19,0,,21.4,7.5,41,100660,0,0,347,106,69,36,0,0,0,0,200,4.7,0,0,0,0,0,0,0,0,0,0,0,0,0
2012,4,28,20,0,,19.6,6.6,43,100740,0,0,339,0,0,0,0,0,0,0,230,2.5,1,0,0,0,0,0,0,0,0,0,0,0,0
2012,4,28,21,0,,18.4,6.8,47,100820,0,0,336,0,0,0,0,0,0,0,230,1.5,1,0,0,0,0,0,0,0,0,0,0,0,0
2012,4,28,22,0,,17.3,7.8,54,100860,0,0,337,0,0,0,0,0,0,0,230,1.6,2,0,0,0,0,0,0,0,0,0,0,0,0
2012,4,28,23,0,,16.8,7.6,55,100880,0,0,339,0,0,0,0,0,0,0,230,3,4,0,0,0,0,0,0,0,0,0,0,0,0
2012,4,28,24,0,,16.5,7.6,56,100860,0,0,341,0,0,0,0,0,0,0,160,1.6,5,0,0,0,0,0,0,0,0,0,0,0,0
2012,4,29,1,0,,15.4,8.1,62,100810,0,0,339,0,0,0,0,0,0,0,20,1.7,6,0,0,0,0,0,0,0,0,0,0,0,0
2012,4,29,2,0,,14.6,8,65,100750,0,0,339,0,0,0,0,0,0,0,50,2.4,7,0,0,0,0,0,0,0,0,0,0,0,0
2012,4,29,3,0,,15.2,8.1,63,100770,0,0,348,0,0,0,0,0,0,0,70,1.6,8,0,0,0,0,0,0,0,0,0,0,0,0
2012,4,29,4,0,,14.2,7.9,66,100730,0,0,333,0,0,0,0,0,0,0,20,2.3,6,0,0,0,0,0,0,0,0,0,0,0,0
2012,4,29,5,0,,13.7,8.5,71,100720,0,0,332,0,0,0,0,0,0,0,20,2.5,6,0,0,0,0,0,0,0,0,0,0,0,0
2012,4,29,6,0,,13.8,8.8,72,100770,0,0,332,0,0,0,0,0,0,0,90,1,6,0,0,0,0,0,0,0,0,0,0,0,0
2012,4,29,7,0,,15.3,9.4,68,100840,0,0,340,81,41,39,7965,3998,5726,0,70,0.5,6,0,0,0,0,0,0,0,0,0,0,0,0
2012,4,29,8,0,,17.1,10.4,65,100770,0,0,360,189,187,125,31112,18240,17976,0,50,2.3,8,0,0,0,0,0,0,0,0,0,0,0,0
2012,4,29,9,0,,17.8,10.8,64,100730,0,0,382,207,56,177,26266,5488,21651,0,20,2.2,10,0,0,0,0,0,0,0,0,0,0,0,0
2012,4,29,10,0,,18.3,11.1,63,100800,0,0,385,257,42,228,30227,3920,26642,0,50,1.2,10,0,0,0,0,0,0,0,0,0,0,0,0
2012,4,29,11,0,,18.9,11.9,64,100750,0,0,389,290,33,263,33447,3095,30551,0,50,1.7,10,0,0,0,0,0,0,0,0,0,0,0,0
2012,4,29,12,0,,19.7,12.6,64,100690,0,0,395,312,30,285,35611,2790,33091,0,50,1.5,10,0,0,0,0,0,0,0,0,0,0,0,0
2012,4,29,13,0,,20.2,14,68,100670,0,0,399,333,32,303,37490,3001,35033,0,180,3.3,10,0,0,0,0,0,0,0,0,0,0,0,0
2012,4,29,14,0,,20.5,13.4,64,100570,0,0,400,337,36,304,37264,3428,34902,0,160,3.7,10,0,0,0,0,0,0,0,0,0,0,0,0
2012,4,29,15,0,,19.7,13.8,69,100550,0,0,396,269,26,247,28734,2111,27632,0,180,3.5,10,0,0,0,0,0,0,0,0,0,0,0,0
2012,4,29,16,0,,19.3,13.9,71,100520,0,0,394,213,24,196,21631,1757,21052,0,140,2.6,10,0,0,0,0,0,0,0,0,0,0,0,0
2012,4,29,17,0,,19.4,14.2,72,100490,0,0,395,154,24,141,14279,1396,14105,0,140,2.5,10,0,0,0,0,0,0,0,0,0,0,0,0
2012,4,29,18,0,,19.4,13.9,71,100460,0,0,395,98,28,89,0,0,0,0,70,1,10,0,0,0,0,0,0,0,0,0,0,0,0
2012,4,29,19,0,,18.8,14.2,75,100470,0,0,392,33,3,30,0,0,0,0,360,1.6,10,0,0,0,0,0,0,0,0,0,0,0,0
2012,4,29,20,0,,18.2,14.2,78,100430,0,0,389,0,0,0,0,0,0,0,20,1,10,0,0,0,0,0,0,0,0,0,0,0,0
2012,4,29,21,0,,18.3,14.1,77,100470,0,0,389,0,0,0,0,0,0,0,360,1.4,10,0,0,0,0,0,0,0,0,0,0,0,0
2012,4,29,22,0,,18.1,13.9,77,100460,0,0,388,0,0,0,0,0,0,0,320,0.5,10,0,0,0,0,0,0,0,0,0,0,0,0
2012,4,29,23,0,,17.7,13.6,77,100470,0,0,385,0,0,0,0,0,0,0,20,1.2,10,0,0,0,0,0,0,0,0,0,0,0,0
2012,4,29,24,0,,17.1,13.8,81,100430,0,0,382,0,0,0,0,0,0,0,20,1,10,0,0,0,0,0,0,0,0,0,0,0,0
2012,4,30,1,0,,17.2,13.3,78,100330,0,0,382,0,0,0,0,0,0,0,290,0.8,10,0,0,0,0,0,0,0,0,0,0,0,0
2012,4,30,2,0,,17.9,12.7,72,100180,0,0,385,0,0,0,0,0,0,0,360,2.6,10,0,0,0,0,0,0,0,0,0,0,0,0
2012,4,30,3,0,,17.6,12.6,73,100250,0,0,383,0,0,0,0,0,0,0,360,2.1,10,0,0,0,0,0,0,0,0,0,0,0,0
2012,4,30,4,0,,16.9,12.8,77,100200,0,0,380,0,0,0,0,0,0,0,50,3.7,10,0,0,0,0,0,0,0,0,0,0,0,0
2012,4,30,5,0,,16.2,12.3,78,100160,0,0,376,0,0,0,0,0,0,0,50,2.8,10,0,0,0,0,0,0,0,0,0,0,0,0
2012,4,30,6,0,,16,11.3,74,100200,0,0,350,0,0,0,0,0,0,0,20,3.4,7,0,0,0,0,0,0,0,0,0,0,0,0
2012,4,30,7,0,,16.4,11.3,72,100210,0,0,342,94,50,44,9096,4735,6432,0,70,0.9,4,0,0,0,0,0,0,0,0,0,0,0,0
2012,4,30,8,0,,19.6,12.3,63,100240,0,0,356,290,615,78,56800,63476,10933,0,50,3.5,3,0,0,0,0,0,0,0,0,0,0,0,0
2012,4,30,9,0,,21.1,11.9,56,100260,0,0,376,376,310,210,53444,30005,28142,0,50,3.6,7,0,0,0,0,0,0,0,0,0,0,0,0
2012,4,30,10,0,,20.8,12.4,59,100270,0,0,375,485,242,315,59418,23299,38062,0,70,5.2,7,0,0,0,0,0,0,0,0,0,0,0,0
2012,4,30,11,0,,22.2,12.7,55,100260,0,0,383,564,203,395,64412,19511,46118,0,70,4.8,7,0,0,0,0,0,0,0,0,0,0,0,0
2012,4,30,12,0,,23.5,12.1,49,100230,0,0,389,641,211,450,70068,20221,51770,0,70,7.8,7,0,0,0,0,0,0,0,0,0,0,0,0
2012,4,30,13,0,,21.7,12.2,55,100210,0,0,380,601,158,453,64324,15088,51942,0,70,4.8,7,0,0,0,0,0,0,0,0,0,0,0,0
2012,4,30,14,0,,22.9,13,54,100140,0,0,387,578,157,436,60062,14652,49941,0,70,4.8,7,0,0,0,0,0,0,0,0,0,0,0,0
2012,4,30,15,0,,24.9,12.8,47,100030,0,0,393,608,252,399,57316,22590,45480,0,70,4,6,0,0,0,0,0,0,0,0,0,0,0,0
2012,4,30,16,0,,24.4,12.3,47,99960,0,0,390,539,332,305,43244,26461,34467,0,70,5.1,6,0,0,0,0,0,0,0,0,0,0,0,0
2012,4,30,17,0,,23.4,12,49,99970,0,0,378,432,496,163,21213,20532,18605,0,70,3.6,4,0,0,0,0,0,0,0,0,0,0,0,0
2012,4,30,18,0,,21,11.8,56,100050,0,0,368,228,314,118,0,0,0,0,70,3.9,5,0,0,0,0,0,0,0,0,0,0,0,0
2012,4,30,19,0,,19.7,12.2,62,100200,0,0,364,73,26,47,0,0,0,0,70,1.4,6,0,0,0,0,0,0,0,0,0,0,0,0
2012,4,30,20,0,,19.2,12.2,64,100270,0,0,364,4,0,3,0,0,0,0,70,2.3,6,0,0,0,0,0,0,0,0,0,0,0,0
2012,4,30,21,0,,18.1,12.5,70,100310,0,0,362,0,0,0,0,0,0,0,50,2.9,7,0,0,0,0,0,0,0,0,0,0,0,0
2012,4,30,22,0,,17.5,12.8,74,100260,0,0,365,0,0,0,0,0,0,0,50,3.7,8,0,0,0,0,0,0,0,0,0,0,0,0
2012,4,30,23,0,,17.8,12.6,72,100250,0,0,374,0,0,0,0,0,0,0,50,2.8,9,0,0,0,0,0,0,0,0,0,0,0,0
2012,4,30,24,0,,17,12.5,75,100180,0,0,380,0,0,0,0,0,0,0,50,4.3,10,0,0,0,0,0,0,0,0,0,0,0,0
2010,5,1,1,0,,9.3,1.6,59,100960,0,0,284,0,0,0,0,0,0,0,250,0.6,0,0,0,0,0,0,0,0,0,0,0,0,0
2010,5,1,2,0,,8.2,2.2,66,100960,0,0,280,0,0,0,0,0,0,0,110,0.7,0,0,0,0,0,0,0,0,0,0,0,0,0
2010,5,1,3,0,,7.7,2.5,70,100940,0,0,279,0,0,0,0,0,0,0,20,1.3,0,0,0,0,0,0,0,0,0,0,0,0,0
2010,5,1,4,0,,6.7,2.7,76,100950,0,0,275,0,0,0,0,0,0,0,250,1.7,0,0,0,0,0,0,0,0,0,0,0,0,0
2010,5,1,5,0,,6.1,2.9,80,100950,0,0,273,0,0,0,0,0,0,0,250,1,0,0,0,0,0,0,0,0,0,0,0,0,0
2010,5,1,6,0,,6.2,2.9,80,100990,0,0,273,7,1,5,723,106,684,0,20,1.4,0,0,0,0,0,0,0,0,0,0,0,0,0
2010,5,1,7,0,,7.2,3.2,76,101070,0,0,278,105,66,39,9295,6636,5552,0,250,0.9,0,0,0,0,0,0,0,0,0,0,0,0,0
2010,5,1,8,0,,9.5,4,69,101130,0,0,288,293,612,79,56066,62198,11051,0,70,1,0,0,0,0,0,0,0,0,0,0,0,0,0
2010,5,1,9,0,,11.2,3.2,58,101150,0,0,294,485,679,118,74356,69779,15442,0,230,1.1,0,0,0,0,0,0,0,0,0,0,0,0,0
2010,5,1,10,0,,14.3,1.5,42,101150,0,0,305,686,781,135,90275,79420,17406,0,270,1.1,0,0,0,0,0,0,0,0,0,0,0,0,0
2010,5,1,11,0,,16.6,0.6,34,101140,0,0,314,834,812,159,97218,82798,19515,0,230,2.1,0,0,0,0,0,0,0,0,0,0,0,0,0
2010,5,1,12,0,,17.8,2.1,35,101110,0,0,321,901,768,202,96582,77822,26097,0,200,2.3,0,0,0,0,0,0,0,0,0,0,0,0,0
2010,5,1,13,0,,18.3,1.2,32,101020,0,0,322,887,673,256,86302,66901,31340,0,160,2,0,0,0,0,0,0,0,0,0,0,0,0,0
2010,5,1,14,0,,20.4,2.2,30,100950,0,0,333,873,703,232,76790,69041,29038,0,250,2.4,0,0,0,0,0,0,0,0,0,0,0,0,0
2010,5,1,15,0,,20.8,0,25,100900,0,0,339,781,684,211,60711,66291,25914,0,270,2,1,0,0,0,0,0,0,0,0,0,0,0,0
2010,5,1,16,0,,20.8,2,29,100830,0,0,335,660,705,161,40172,60917,19901,0,270,3.7,0,0,0,0,0,0,0,0,0,0,0,0,0
2010,5,1,17,0,,20.6,1.4,28,100840,0,0,333,477,641,129,18668,33549,14366,0,270,2.8,0,0,0,0,0,0,0,0,0,0,0,0,0
2010,5,1,18,0,,19.5,1.4,30,100820,0,0,328,297,615,80,0,0,0,0,250,2.3,0,0,0,0,0,0,0,0,0,0,0,0,0
2010,5,1,19,0,,17.7,1.2,33,100820,0,0,320,115,79,36,0,0,0,0,250,1.9,0,0,0,0,0,0,0,0,0,0,0,0,0
2010,5,1,20,0,,16.2,0.2,34,100860,0,0,312,9,3,7,0,0,0,0,250,3,0,0,0,0,0,0,0,0,0,0,0,0,0
2010,5,1,21,0,,15,1.8,41,100920,0,0,308,0,0,0,0,0,0,0,230,2,0,0,0,0,0,0,0,0,0,0,0,0,0
2010,5,1,22,0,,14,3.1,48,100940,0,0,306,0,0,0,0,0,0,0,140,1.1,0,0,0,0,0,0,0,0,0,0,0,0,0
2010,5,1,23,0,,13.3,3.6,52,100930,0,0,303,0,0,0,0,0,0,0,180,1.4,0,0,0,0,0,0,0,0,0,0,0,0,0
2010,5,1,24,0,,13.1,3.4,52,100920,0,0,302,0,0,0,0,0,0,0,230,1.8,0,0,0,0,0,0,0,0,0,0,0,0,0
2010,5,2,1,0,,12.4,3.3,54,100950,0,0,299,0,0,0,0,0,0,0,160,0.9,0,0,0,0,0,0,0,0,0,0,0,0,0
2010,5,2,2,0,,11.5,3.2,57,100900,0,0,295,0,0,0,0,0,0,0,0,0,0,0,0,0,0,0,0,0,0,0,0,0,0
2010,5,2,3,0,,10.9,4.3,64,100900,0,0,294,0,0,0,0,0,0,0,0,0.2,0,0,0,0,0,0,0,0,0,0,0,0,0
2010,5,2,4,0,,9.8,5.5,75,100890,0,0,291,0,0,0,0,0,0,0,0,0.4,0,0,0,0,0,0,0,0,0,0,0,0,0
2010,5,2,5,0,,9.6,5.1,74,100900,0,0,289,0,0,0,0,0,0,0,0,0,0,0,0,0,0,0,0,0,0,0,0,0,0
2010,5,2,6,0,,9.9,4.4,69,100890,0,0,290,8,2,6,858,167,795,0,0,0.2,0,0,0,0,0,0,0,0,0,0,0,0,0
2010,5,2,7,0,,10.2,5.7,74,100920,0,0,292,106,65,41,9508,6484,5834,0,250,0.7,0,0,0,0,0,0,0,0,0,0,0,0,0
2010,5,2,8,0,,12.6,6.1,65,100920,0,0,303,296,617,79,56732,62898,11063,0,230,0.8,0,0,0,0,0,0,0,0,0,0,0,0,0
2010,5,2,9,0,,16.3,6.1,51,100910,0,0,319,499,717,110,76715,73369,14619,0,250,0.6,0,0,0,0,0,0,0,0,0,0,0,0,0
2010,5,2,10,0,,19.9,5.5,39,100890,0,0,335,731,891,101,97230,91334,13260,0,230,1.3,0,0,0,0,0,0,0,0,0,0,0,0,0
2010,5,2,11,0,,22.7,7.6,38,100880,0,0,351,887,926,116,104438,95198,14933,0,180,3.4,0,0,0,0,0,0,0,0,0,0,0,0,0
2010,5,2,12,0,,24.4,9.5,39,100800,0,0,361,953,875,155,101514,90022,19827,0,200,4.9,0,0,0,0,0,0,0,0,0,0,0,0,0
2010,5,2,13,0,,24.8,9.8,39,100740,0,0,364,909,716,236,88503,70725,30279,0,180,3.3,0,0,0,0,0,0,0,0,0,0,0,0,0
2010,5,2,14,0,,26.6,10.7,37,100660,0,0,374,871,696,235,77068,67482,30272,0,200,3.5,0,0,0,0,0,0,0,0,0,0,0,0,0
2010,5,2,15,0,,27,9.7,34,100590,0,0,375,777,671,217,60669,62453,27761,0,180,3,0,0,0,0,0,0,0,0,0,0,0,0,0
2010,5,2,16,0,,27.2,9.5,33,100530,0,0,375,653,681,170,40578,56687,21588,0,230,2.9,0,0,0,0,0,0,0,0,0,0,0,0,0
2010,5,2,17,0,,26.2,9.9,36,100520,0,0,371,476,632,131,19437,31255,15350,0,230,3.9,0,0,0,0,0,0,0,0,0,0,0,0,0
2010,5,2,18,0,,24.7,12.2,46,100510,0,0,366,286,554,89,0,0,0,0,230,4.4,0,0,0,0,0,0,0,0,0,0,0,0,0
2010,5,2,19,0,,22.4,11.4,50,100550,0,0,354,109,442,42,0,0,0,0,200,4.7,0,0,0,0,0,0,0,0,0,0,0,0,0
2010,5,2,20,0,,20.7,11.5,56,100620,0,0,346,9,2,7,0,0,0,0,180,4.5,0,0,0,0,0,0,0,0,0,0,0,0,0
2010,5,2,21,0,,19.2,11.4,61,100720,0,0,338,0,0,0,0,0,0,0,180,3.5,0,0,0,0,0,0,0,0,0,0,0,0,0
2010,5,2,22,0,,18.8,13.2,70,100780,0,0,348,0,0,0,0,0,0,0,160,3.2,2,0,0,0,0,0,0,0,0,0,0,0,0
2010,5,2,23,0,,19.1,14.5,75,100740,0,0,357,0,0,0,0,0,0,0,180,2.8,3,0,0,0,0,0,0,0,0,0,0,0,0
2010,5,2,24,0,,19.1,15.1,78,100750,0,0,362,0,0,0,0,0,0,0,180,3.5,5,0,0,0,0,0,0,0,0,0,0,0,0
2010,5,3,1,0,,19,15.6,81,100760,0,0,366,0,0,0,0,0,0,0,200,2.6,6,0,0,0,0,0,0,0,0,0,0,0,0
2010,5,3,2,0,,19.2,15.6,80,100740,0,0,371,0,0,0,0,0,0,0,200,1.7,7,0,0,0,0,0,0,0,0,0,0,0,0
2010,5,3,3,0,,19.2,15.6,80,100750,0,0,377,0,0,0,0,0,0,0,230,3.3,8,0,0,0,0,0,0,0,0,0,0,0,0
2010,5,3,4,0,,19,15.8,82,100740,0,0,376,0,0,0,0,0,0,0,230,2.8,8,0,0,0,0,0,0,0,0,0,0,0,0
2010,5,3,5,0,,18.8,16.2,85,100790,0,0,376,0,0,0,0,0,0,0,200,3.5,8,0,0,0,0,0,0,0,0,0,0,0,0
2010,5,3,6,0,,19.2,16.2,83,100770,0,0,386,1,0,1,185,0,185,0,200,4.2,9,0,0,0,0,0,0,0,0,0,0,0,0
2010,5,3,7,0,,19.3,15.9,81,100820,0,0,386,53,62,43,9685,5645,6472,0,230,2.3,9,0,0,0,0,0,0,0,0,0,0,0,0
2010,5,3,8,0,,19.8,16.4,81,100920,0,0,389,140,71,115,19622,6687,14752,0,250,2.8,9,0,0,0,0,0,0,0,0,0,0,0,0
2010,5,3,9,0,,20.1,16.9,82,100910,0,0,392,240,79,197,30760,7349,24526,0,200,7.1,9,0,0,0,0,0,0,0,0,0,0,0,0
2010,5,3,10,0,,21.5,16.4,73,100960,0,0,390,395,129,304,47699,12031,36616,0,200,5.3,8,0,0,0,0,0,0,0,0,0,0,0,0
2010,5,3,11,0,,22.4,16.6,70,100960,0,0,395,479,125,375,55569,11651,44595,0,200,5.8,8,0,0,0,0,0,0,0,0,0,0,0,0
2010,5,3,12,0,,23.9,16.1,62,100890,0,0,392,696,263,456,76276,24152,54320,0,230,6,6,0,0,0,0,0,0,0,0,0,0,0,0
2010,5,3,13,0,,25.1,15.9,57,100790,0,0,385,852,588,298,83867,54763,38691,0,230,5.3,2,0,0,0,0,0,0,0,0,0,0,0,0
2010,5,3,14,0,,25.8,15.7,54,100690,0,0,383,852,650,257,75757,60138,33945,0,230,6,1,0,0,0,0,0,0,0,0,0,0,0,0
2010,5,3,15,0,,25.5,14.9,52,100660,0,0,373,769,647,228,60704,58223,29909,0,230,7.4,0,0,0,0,0,0,0,0,0,0,0,0,0
2010,5,3,16,0,,25.5,13.9,49,100580,0,0,372,638,637,185,41211,51428,23869,0,230,7.1,0,0,0,0,0,0,0,0,0,0,0,0,0
2010,5,3,17,0,,24.3,14.3,54,100600,0,0,366,472,612,137,20293,29080,16418,0,230,7.8,0,0,0,0,0,0,0,0,0,0,0,0,0
2010,5,3,18,0,,22.9,15.2,62,100670,0,0,361,282,522,95,0,0,0,0,230,6.3,0,0,0,0,0,0,0,0,0,0,0,0,0
2010,5,3,19,0,,21.4,15.9,71,100690,0,0,354,110,430,44,0,0,0,0,200,5.7,0,0,0,0,0,0,0,0,0,0,0,0,0
2010,5,3,20,0,,20.8,15.5,72,100750,0,0,351,10,3,8,0,0,0,0,200,5,0,0,0,0,0,0,0,0,0,0,0,0,0
2010,5,3,21,0,,20.2,15.6,75,100800,0,0,348,0,0,0,0,0,0,0,200,5.9,0,0,0,0,0,0,0,0,0,0,0,0,0
2010,5,3,22,0,,19.2,15.6,80,100840,0,0,343,0,0,0,0,0,0,0,230,3.2,0,0,0,0,0,0,0,0,0,0,0,0,0
2010,5,3,23,0,,18.8,15.6,82,100860,0,0,341,0,0,0,0,0,0,0,250,1.2,0,0,0,0,0,0,0,0,0,0,0,0,0
2010,5,3,24,0,,18.5,15.7,84,100840,0,0,340,0,0,0,0,0,0,0,230,1.8,0,0,0,0,0,0,0,0,0,0,0,0,0
2010,5,4,1,0,,18.1,15.5,85,100810,0,0,348,0,0,0,0,0,0,0,230,1.3,2,0,0,0,0,0,0,0,0,0,0,0,0
2010,5,4,2,0,,17.7,15.5,87,100790,0,0,352,0,0,0,0,0,0,0,160,0.7,3,0,0,0,0,0,0,0,0,0,0,0,0
2010,5,4,3,0,,18.4,14.2,77,100760,0,0,358,0,0,0,0,0,0,0,160,1.5,5,0,0,0,0,0,0,0,0,0,0,0,0
2010,5,4,4,0,,18,14.2,79,100710,0,0,353,0,0,0,0,0,0,0,90,0.7,4,0,0,0,0,0,0,0,0,0,0,0,0
2010,5,4,5,0,,17.5,14.5,83,100690,0,0,351,0,0,0,0,0,0,0,70,1,4,0,0,0,0,0,0,0,0,0,0,0,0
2010,5,4,6,0,,17.2,14.6,85,100750,0,0,356,6,1,6,784,18,777,0,110,1.4,6,0,0,0,0,0,0,0,0,0,0,0,0
2010,5,4,7,0,,18,15.2,84,100800,0,0,365,74,157,50,16697,14523,8393,0,110,0.9,7,0,0,0,0,0,0,0,0,0,0,0,0
2010,5,4,8,0,,19.7,15.7,78,100820,0,0,380,172,123,128,25643,11380,17330,0,160,1.1,8,0,0,0,0,0,0,0,0,0,0,0,0
2010,5,4,9,0,,20.9,16.7,77,100780,0,0,381,349,227,225,46878,20901,29106,0,200,3.7,7,0,0,0,0,0,0,0,0,0,0,0,0
2010,5,4,10,0,,23.4,16.4,65,100760,0,0,383,613,568,208,80105,56235,28203,0,200,4,4,0,0,0,0,0,0,0,0,0,0,0,0
2010,5,4,11,0,,24.5,16.2,60,100750,0,0,386,742,582,255,86902,57171,32959,0,230,3.1,3,0,0,0,0,0,0,0,0,0,0,0,0
2010,5,4,12,0,,25.7,15.9,55,100690,0,0,398,744,321,450,80570,29589,53624,0,230,3.6,5,0,0,0,0,0,0,0,0,0,0,0,0
2010,5,4,13,0,,26,14.7,50,100630,0,0,406,648,190,469,68790,17675,54181,0,230,4.7,7,0,0,0,0,0,0,0,0,0,0,0,0
2010,5,4,14,0,,26.2,15.8,53,100580,0,0,409,609,177,447,62990,16020,51824,0,230,4.9,7,0,0,0,0,0,0,0,0,0,0,0,0
2010,5,4,15,0,,26.3,15,50,100500,0,0,397,676,422,322,58713,37262,38931,0,230,4.4,4,0,0,0,0,0,0,0,0,0,0,0,0
2010,5,4,16,0,,27,13.6,44,100420,0,0,396,612,563,211,40824,44507,25717,0,230,4.3,3,0,0,0,0,0,0,0,0,0,0,0,0
2010,5,4,17,0,,26.4,14.4,48,100390,0,0,397,437,488,168,22342,20310,19585,0,230,3.8,4,0,0,0,0,0,0,0,0,0,0,0,0
2010,5,4,18,0,,25.1,12.9,47,100380,0,0,385,290,553,91,0,0,0,0,200,5.1,3,0,0,0,0,0,0,0,0,0,0,0,0
2010,5,4,19,0,,23.6,13.1,52,100370,0,0,377,108,398,46,0,0,0,0,230,4.3,3,0,0,0,0,0,0,0,0,0,0,0,0
2010,5,4,20,0,,22.6,11.9,51,100420,0,0,371,11,3,8,0,0,0,0,230,2.5,3,0,0,0,0,0,0,0,0,0,0,0,0
2010,5,4,21,0,,21.2,12.5,58,100460,0,0,364,0,0,0,0,0,0,0,230,2.3,3,0,0,0,0,0,0,0,0,0,0,0,0
2010,5,4,22,0,,21.1,12.7,59,100480,0,0,364,0,0,0,0,0,0,0,200,1.5,3,0,0,0,0,0,0,0,0,0,0,0,0
2010,5,4,23,0,,20.1,14.4,70,100500,0,0,361,0,0,0,0,0,0,0,90,0.7,3,0,0,0,0,0,0,0,0,0,0,0,0
2010,5,4,24,0,,19.3,13.4,69,100510,0,0,356,0,0,0,0,0,0,0,20,1.1,3,0,0,0,0,0,0,0,0,0,0,0,0
2010,5,5,1,0,,18.8,13.4,71,100460,0,0,357,0,0,0,0,0,0,0,0,0.4,4,0,0,0,0,0,0,0,0,0,0,0,0
2010,5,5,2,0,,18.7,12.8,69,100390,0,0,360,0,0,0,0,0,0,0,160,1,6,0,0,0,0,0,0,0,0,0,0,0,0
2010,5,5,3,0,,18.2,12.8,71,100350,0,0,363,0,0,0,0,0,0,0,0,0.2,7,0,0,0,0,0,0,0,0,0,0,0,0
2010,5,5,4,0,,17.7,13.2,75,100320,0,0,361,0,0,0,0,0,0,0,50,0.5,7,0,0,0,0,0,0,0,0,0,0,0,0
2010,5,5,5,0,,17,12.7,76,100310,0,0,357,0,0,0,0,0,0,0,70,1.9,7,0,0,0,0,0,0,0,0,0,0,0,0
2010,5,5,6,0,,17.5,12.5,73,100310,0,0,364,4,0,4,580,6,577,0,110,0.8,8,0,0,0,0,0,0,0,0,0,0,0,0
2010,5,5,7,0,,18.7,13.3,71,100310,0,0,372,71,132,51,15530,12432,8392,0,270,1,8,0,0,0,0,0,0,0,0,0,0,0,0
2010,5,5,8,0,,19.8,13.4,67,100370,0,0,377,205,202,132,33359,19290,19226,0,180,4.4,8,0,0,0,0,0,0,0,0,0,0,0,0
2010,5,5,9,0,,20.5,13.2,63,100310,0,0,381,316,165,225,41775,15845,28273,0,180,3.9,8,0,0,0,0,0,0,0,0,0,0,0,0
2010,5,5,10,0,,21.2,13.8,63,100320,0,0,385,409,139,310,49150,13288,36863,0,180,4.6,8,0,0,0,0,0,0,0,0,0,0,0,0
2010,5,5,11,0,,22.5,13.8,58,100320,0,0,392,500,138,384,57476,13188,45011,0,160,4.8,8,0,0,0,0,0,0,0,0,0,0,0,0
2010,5,5,12,0,,23.5,14.7,58,100230,0,0,399,556,136,431,61902,12801,50225,0,180,5.7,8,0,0,0,0,0,0,0,0,0,0,0,0
2010,5,5,13,0,,24.2,15.1,57,100180,0,0,403,586,143,451,63380,13293,52370,0,180,5.9,8,0,0,0,0,0,0,0,0,0,0,0,0
2010,5,5,14,0,,23.8,14.2,55,100150,0,0,420,355,40,318,39164,3790,36515,0,180,4.8,10,0,0,0,0,0,0,0,0,0,0,0,0
2010,5,5,15,0,,23.4,14.6,58,100100,0,0,407,396,73,335,41596,6813,37966,0,160,6.2,9,0,0,0,0,0,0,0,0,0,0,0,0
2010,5,5,16,0,,22.9,14.4,59,100010,0,0,404,314,67,267,32007,5922,29984,0,160,6,9,0,0,0,0,0,0,0,0,0,0,0,0
2010,5,5,17,0,,22.4,15,63,100050,0,0,402,228,65,192,21808,4731,21154,0,180,5.2,9,0,0,0,0,0,0,0,0,0,0,0,0
2010,5,5,18,0,,22,15.3,66,100000,0,0,400,146,75,119,0,0,0,0,180,3.9,9,0,0,0,0,0,0,0,0,0,0,0,0
2010,5,5,19,0,,21.1,15.6,71,99970,0,0,399,56,64,46,0,0,0,0,160,4.6,9,0,0,0,0,0,0,0,0,0,0,0,0
2010,5,5,20,0,,20.7,16.1,75,99950,0,0,401,0,0,0,0,0,0,0,160,5.9,10,0,0,0,0,0,0,0,0,0,0,0,0
2010,5,5,21,0,,20.6,16.4,77,99900,0,0,405,0,0,0,0,0,0,0,160,5.6,10,0,0,0,0,0,0,0,0,0,0,0,0
2010,5,5,22,0,,20.7,16.7,78,99920,0,0,406,0,0,0,0,0,0,0,160,5.2,10,0,0,0,0,0,0,0,0,0,0,0,0
2010,5,5,23,0,,21,17.2,79,99890,0,0,408,0,0,0,0,0,0,0,160,5.2,10,0,0,0,0,0,0,0,0,0,0,0,0
2010,5,5,24,0,,20.9,17.8,83,99840,0,0,408,0,0,0,0,0,0,0,180,4.9,10,0,0,0,0,0,0,0,0,0,0,0,0
2010,5,6,1,0,,20.4,17.4,83,99800,0,0,405,0,0,0,0,0,0,0,180,4.4,10,0,0,0,0,0,0,0,0,0,0,0,0
2010,5,6,2,0,,19,17.8,93,99780,0,0,398,0,0,0,0,0,0,0,180,4.2,10,0,0,0,0,0,0,0,0,0,0,0,0
2010,5,6,3,0,,18.9,17.9,94,99740,0,0,398,0,0,0,0,0,0,0,180,3.4,10,0,0,0,0,0,0,0,0,0,0,0,0
2010,5,6,4,0,,18.7,17.7,94,99650,0,0,396,0,0,0,0,0,0,0,180,3.5,10,0,0,0,0,0,0,0,0,0,0,0,0
2010,5,6,5,0,,18.6,17.7,95,99660,0,0,396,0,0,0,0,0,0,0,200,2.7,10,0,0,0,0,0,0,0,0,0,0,0,0
2010,5,6,6,0,,18.7,18,96,99640,0,0,397,0,0,0,0,0,0,0,200,3.1,10,0,0,0,0,0,0,0,0,0,0,0,0
2010,5,6,7,0,,18.7,18,96,99720,0,0,397,36,18,33,5547,1615,4616,0,230,3,10,0,0,0,0,0,0,0,0,0,0,0,0
2010,5,6,8,0,,18.4,17.7,96,99720,0,0,395,101,26,92,12767,2329,11056,0,200,4.9,10,0,0,0,0,0,0,0,0,0,0,0,0
2010,5,6,9,0,,17.9,17.2,96,99760,0,0,391,141,17,131,17013,1514,15720,0,230,3.9,10,0,0,0,0,0,0,0,0,0,0,0,0
2010,5,6,10,0,,18.7,18.2,97,99730,0,0,397,188,16,177,22406,1437,21075,0,200,2.8,10,0,0,0,0,0,0,0,0,0,0,0,0
2010,5,6,11,0,,19.4,18.4,94,99740,0,0,401,254,21,236,29670,1919,27853,0,200,4,10,0,0,0,0,0,0,0,0,0,0,0,0
2010,5,6,12,0,,20.8,19,90,99680,0,0,409,296,24,274,34174,2179,32183,0,230,2.1,10,0,0,0,0,0,0,0,0,0,0,0,0
2010,5,6,13,0,,20.1,18.2,89,99700,0,0,404,290,21,270,33161,1465,31945,0,230,3.4,10,0,0,0,0,0,0,0,0,0,0,0,0
2010,5,6,14,0,,21.1,18,83,99650,0,0,410,310,28,284,34089,2091,32624,0,230,3.5,10,0,0,0,0,0,0,0,0,0,0,0,0
2010,5,6,15,0,,21.1,16.6,76,99690,0,0,397,358,55,312,38268,5053,35566,0,230,4,9,0,0,0,0,0,0,0,0,0,0,0,0
2010,5,6,16,0,,19.3,14.5,74,99760,0,0,384,286,51,249,29617,4488,28074,0,250,2.5,9,0,0,0,0,0,0,0,0,0,0,0,0
2010,5,6,17,0,,16.8,12.3,75,99820,0,0,368,171,29,155,15804,1963,15527,0,290,2.3,9,0,0,0,0,0,0,0,0,0,0,0,0
2010,5,6,18,0,,16.5,10.3,67,99800,0,0,357,148,76,121,0,0,0,0,270,1.9,8,0,0,0,0,0,0,0,0,0,0,0,0
2010,5,6,19,0,,14.4,9.8,74,99900,0,0,346,57,65,47,0,0,0,0,290,2.4,8,0,0,0,0,0,0,0,0,0,0,0,0
2010,5,6,20,0,,13.4,8.4,72,100010,0,0,339,4,0,4,0,0,0,0,320,1.7,8,0,0,0,0,0,0,0,0,0,0,0,0
2010,5,6,21,0,,12.4,7.2,71,100140,0,0,333,0,0,0,0,0,0,0,360,2.4,8,0,0,0,0,0,0,0,0,0,0,0,0
2010,5,6,22,0,,12,5.8,66,100160,0,0,330,0,0,0,0,0,0,0,340,0.8,8,0,0,0,0,0,0,0,0,0,0,0,0
2010,5,6,23,0,,11.6,5.6,67,100140,0,0,327,0,0,0,0,0,0,0,20,2.4,8,0,0,0,0,0,0,0,0,0,0,0,0
2010,5,6,24,0,,11,5.7,70,100170,0,0,325,0,0,0,0,0,0,0,20,1.5,8,0,0,0,0,0,0,0,0,0,0,0,0
2010,5,7,1,0,,10.2,5.7,74,100130,0,0,319,0,0,0,0,0,0,0,20,1.6,8,0,0,0,0,0,0,0,0,0,0,0,0
2010,5,7,2,0,,10.7,5.8,72,100110,0,0,320,0,0,0,0,0,0,0,20,1.3,7,0,0,0,0,0,0,0,0,0,0,0,0
2010,5,7,3,0,,11.1,5.8,70,100060,0,0,320,0,0,0,0,0,0,0,20,1.3,7,0,0,0,0,0,0,0,0,0,0,0,0
2010,5,7,4,0,,10.3,5.6,73,100090,0,0,305,0,0,0,0,0,0,0,360,1,3,0,0,0,0,0,0,0,0,0,0,0,0
2010,5,7,5,0,,10.1,6.2,77,100130,0,0,293,0,0,0,0,0,0,0,250,1.1,0,0,0,0,0,0,0,0,0,0,0,0,0
2010,5,7,6,0,,10,5.9,76,100200,0,0,301,14,5,9,1307,432,1138,0,250,1.2,2,0,0,0,0,0,0,0,0,0,0,0,0
2010,5,7,7,0,,10.8,6.9,77,100210,0,0,296,117,436,46,32989,44832,7044,0,20,0.9,0,0,0,0,0,0,0,0,0,0,0,0,0
2010,5,7,8,0,,13.2,6.9,66,100260,0,0,306,306,607,84,57942,62664,11779,0,360,0.7,0,0,0,0,0,0,0,0,0,0,0,0,0
2010,5,7,9,0,,15.8,5,49,100270,0,0,316,514,724,112,78072,73949,14790,0,360,0.8,0,0,0,0,0,0,0,0,0,0,0,0,0
2010,5,7,10,0,,18.2,7.5,50,100250,0,0,329,705,795,134,92927,81534,17272,0,200,2,0,0,0,0,0,0,0,0,0,0,0,0,0
2010,5,7,11,0,,19.6,3.2,34,100220,0,0,331,830,774,178,96217,78784,21515,0,360,2.8,0,0,0,0,0,0,0,0,0,0,0,0,0
2010,5,7,12,0,,20.8,3,31,100190,0,0,336,888,714,230,94755,71888,28960,0,340,2.1,0,0,0,0,0,0,0,0,0,0,0,0,0
2010,5,7,13,0,,21.6,4.6,33,100150,0,0,342,892,660,266,86886,65306,32594,0,360,2.8,0,0,0,0,0,0,0,0,0,0,0,0,0
2010,5,7,14,0,,22.9,4.3,30,100090,0,0,359,854,639,265,76653,63060,32372,0,320,2.2,2,0,0,0,0,0,0,0,0,0,0,0,0
2010,5,7,15,0,,22.7,3.7,29,100050,0,0,357,768,629,238,61342,60307,28978,0,270,2.4,2,0,0,0,0,0,0,0,0,0,0,0,0
2010,5,7,16,0,,23,2.4,26,100000,0,0,361,628,591,203,41911,51322,24155,0,340,2.8,3,0,0,0,0,0,0,0,0,0,0,0,0
2010,5,7,17,0,,22.8,2.2,26,100010,0,0,356,485,628,135,20332,35221,15289,0,290,2.5,2,0,0,0,0,0,0,0,0,0,0,0,0
2010,5,7,18,0,,21.9,2,27,100070,0,0,351,305,596,86,0,0,0,0,320,1.5,2,0,0,0,0,0,0,0,0,0,0,0,0
2010,5,7,19,0,,19.7,2.5,32,100110,0,0,339,125,509,41,0,0,0,0,320,1.9,1,0,0,0,0,0,0,0,0,0,0,0,0
2010,5,7,20,0,,17.4,2.1,36,100170,0,0,324,14,5,9,0,0,0,0,360,1.8,1,0,0,0,0,0,0,0,0,0,0,0,0
2010,5,7,21,0,,16.2,3.5,43,100210,0,0,316,0,0,0,0,0,0,0,20,1.7,0,0,0,0,0,0,0,0,0,0,0,0,0
2010,5,7,22,0,,16,4,45,100250,0,0,320,0,0,0,0,0,0,0,270,0.5,1,0,0,0,0,0,0,0,0,0,0,0,0
2010,5,7,23,0,,15.7,4.4,47,100320,0,0,322,0,0,0,0,0,0,0,290,1.3,1,0,0,0,0,0,0,0,0,0,0,0,0
2010,5,7,24,0,,14.3,4.8,53,100310,0,0,319,0,0,0,0,0,0,0,200,1,2,0,0,0,0,0,0,0,0,0,0,0,0
2010,5,8,1,0,,13.5,5.8,60,100300,0,0,317,0,0,0,0,0,0,0,230,1.4,2,0,0,0,0,0,0,0,0,0,0,0,0
2010,5,8,2,0,,12.8,6.8,67,100280,0,0,315,0,0,0,0,0,0,0,270,0.8,2,0,0,0,0,0,0,0,0,0,0,0,0
2010,5,8,3,0,,12.1,7.5,74,100250,0,0,312,0,0,0,0,0,0,0,250,0.9,2,0,0,0,0,0,0,0,0,0,0,0,0
2010,5,8,4,0,,11.5,7.2,75,100280,0,0,299,0,0,0,0,0,0,0,230,0.8,0,0,0,0,0,0,0,0,0,0,0,0,0
2010,5,8,5,0,,11,7.1,77,100300,0,0,297,0,0,0,0,0,0,0,230,0.6,0,0,0,0,0,0,0,0,0,0,0,0,0
2010,5,8,6,0,,10.4,6.7,78,100280,0,0,304,15,5,10,1357,431,1187,0,0,0.4,2,0,0,0,0,0,0,0,0,0,0,0,0
2010,5,8,7,0,,11.2,7.6,79,100310,0,0,312,112,368,51,29774,37809,7811,0,250,0.8,3,0,0,0,0,0,0,0,0,0,0,0,0
2010,5,8,8,0,,13.1,7.3,68,100340,0,0,316,299,560,92,55404,57724,12770,0,200,1.2,2,0,0,0,0,0,0,0,0,0,0,0,0
2010,5,8,9,0,,15.7,6.4,54,100380,0,0,336,442,485,172,65363,49070,23288,0,250,0.7,5,0,0,0,0,0,0,0,0,0,0,0,0
2010,5,8,10,0,,18.7,5.8,43,100360,0,0,344,685,738,154,89416,75660,19096,0,230,0.8,3,0,0,0,0,0,0,0,0,0,0,0,0
2010,5,8,11,0,,20.9,2.6,30,100300,0,0,347,849,812,163,98647,82925,19899,0,200,1.4,2,0,0,0,0,0,0,0,0,0,0,0,0
2010,5,8,12,0,,22.4,6.5,36,100220,0,0,360,899,734,222,95971,73687,28423,0,230,1.8,2,0,0,0,0,0,0,0,0,0,0,0,0
2010,5,8,13,0,,24.2,8.1,36,100150,0,0,359,921,718,238,89629,71230,30305,0,230,2.2,0,0,0,0,0,0,0,0,0,0,0,0,0
2010,5,8,14,0,,25.9,9.2,35,100120,0,0,369,896,727,225,79008,70979,29047,0,230,3.1,0,0,0,0,0,0,0,0,0,0,0,0,0
2010,5,8,15,0,,26.2,9,34,100050,0,0,370,794,685,215,62091,64250,27490,0,200,1.9,0,0,0,0,0,0,0,0,0,0,0,0,0
2010,5,8,16,0,,26.2,6.2,28,100050,0,0,385,603,521,228,41873,44569,26358,0,270,1.7,4,0,0,0,0,0,0,0,0,0,0,0,0
2010,5,8,17,0,,25.4,6.5,30,100030,0,0,384,418,406,192,23982,20446,21005,0,320,1.6,5,0,0,0,0,0,0,0,0,0,0,0,0
2010,5,8,18,0,,24.1,7.6,35,100040,0,0,387,215,216,136,0,0,0,0,320,2.3,7,0,0,0,0,0,0,0,0,0,0,0,0
2010,5,8,19,0,,23,3.9,29,100090,0,0,382,77,138,54,0,0,0,0,360,1.8,8,0,0,0,0,0,0,0,0,0,0,0,0
2010,5,8,20,0,,21.3,4.7,34,100140,0,0,374,7,1,6,0,0,0,0,20,1.3,8,0,0,0,0,0,0,0,0,0,0,0,0
2010,5,8,21,0,,20.9,4.8,35,100170,0,0,372,0,0,0,0,0,0,0,0,0.1,8,0,0,0,0,0,0,0,0,0,0,0,0
2010,5,8,22,0,,20.1,6.7,42,100190,0,0,371,0,0,0,0,0,0,0,20,1.1,8,0,0,0,0,0,0,0,0,0,0,0,0
2010,5,8,23,0,,19.4,10.9,58,100170,0,0,372,0,0,0,0,0,0,0,250,1.9,8,0,0,0,0,0,0,0,0,0,0,0,0
2010,5,8,24,0,,17.1,11.3,69,100170,0,0,361,0,0,0,0,0,0,0,200,2.1,8,0,0,0,0,0,0,0,0,0,0,0,0
2010,5,9,1,0,,16.5,11,70,100140,0,0,358,0,0,0,0,0,0,0,230,1.7,8,0,0,0,0,0,0,0,0,0,0,0,0
2010,5,9,2,0,,16,11.5,75,100150,0,0,356,0,0,0,0,0,0,0,230,1.6,8,0,0,0,0,0,0,0,0,0,0,0,0
2010,5,9,3,0,,15.7,11.2,75,100190,0,0,354,0,0,0,0,0,0,0,230,1.7,8,0,0,0,0,0,0,0,0,0,0,0,0
2010,5,9,4,0,,15.5,11,75,100170,0,0,353,0,0,0,0,0,0,0,230,0.5,8,0,0,0,0,0,0,0,0,0,0,0,0
2010,5,9,5,0,,15.1,11.4,79,100190,0,0,351,0,0,0,0,0,0,0,20,1,8,0,0,0,0,0,0,0,0,0,0,0,0
2010,5,9,6,0,,14.7,11.6,82,100200,0,0,350,6,0,6,812,13,807,0,230,1.6,8,0,0,0,0,0,0,0,0,0,0,0,0
2010,5,9,7,0,,15.3,11.6,79,100250,0,0,352,72,107,54,14646,10154,8726,0,250,0.8,8,0,0,0,0,0,0,0,0,0,0,0,0
2010,5,9,8,0,,16.1,11.2,73,100250,0,0,356,179,123,133,26345,12004,17457,0,230,1,8,0,0,0,0,0,0,0,0,0,0,0,0
2010,5,9,9,0,,18.5,10.8,61,100160,0,0,362,374,259,229,51600,25187,29962,0,50,3.8,7,0,0,0,0,0,0,0,0,0,0,0,0
2010,5,9,10,0,,21.1,9,46,100130,0,0,368,568,423,262,71929,41566,33235,0,50,2.3,6,0,0,0,0,0,0,0,0,0,0,0,0
2010,5,9,11,0,,22.7,7.2,37,100100,0,0,393,502,136,387,57265,13560,44368,0,200,1.7,9,0,0,0,0,0,0,0,0,0,0,0,0
2010,5,9,12,0,,24.6,5.8,30,100000,0,0,387,698,254,463,74750,25443,51391,0,70,1.2,7,0,0,0,0,0,0,0,0,0,0,0,0
2010,5,9,13,0,,26.2,9,34,99980,0,0,400,698,229,481,72835,22220,54295,0,180,2.1,7,0,0,0,0,0,0,0,0,0,0,0,0
2010,5,9,14,0,,25.8,5.8,28,99970,0,0,400,607,170,450,62006,16607,50289,0,200,4.5,8,0,0,0,0,0,0,0,0,0,0,0,0
2010,5,9,15,0,,25.5,6.1,29,100000,0,0,398,533,160,397,52797,15759,44281,0,230,5.3,8,0,0,0,0,0,0,0,0,0,0,0,0
2010,5,9,16,0,,25.2,5.3,28,99960,0,0,416,281,48,247,29067,4393,27529,0,180,3.8,10,0,0,0,0,0,0,0,0,0,0,0,0
2010,5,9,17,0,,24.5,6.2,31,99950,0,0,413,205,47,179,20100,3558,19574,0,180,2.7,10,0,0,0,0,0,0,0,0,0,0,0,0
2010,5,9,18,0,,23.2,8.8,40,99930,0,0,409,125,45,109,0,0,0,0,180,4.2,10,0,0,0,0,0,0,0,0,0,0,0,0
2010,5,9,19,0,,22,10.4,48,99970,0,0,405,49,36,43,0,0,0,0,200,4.1,10,0,0,0,0,0,0,0,0,0,0,0,0
2010,5,9,20,0,,21,9.8,49,99990,0,0,398,2,0,2,0,0,0,0,200,3.2,10,0,0,0,0,0,0,0,0,0,0,0,0
2010,5,9,21,0,,21.3,8.8,45,100040,0,0,399,0,0,0,0,0,0,0,320,0.6,10,0,0,0,0,0,0,0,0,0,0,0,0
2010,5,9,22,0,,20.3,10.1,52,100020,0,0,395,0,0,0,0,0,0,0,20,0.7,10,0,0,0,0,0,0,0,0,0,0,0,0
2010,5,9,23,0,,20.1,10.2,53,99980,0,0,394,0,0,0,0,0,0,0,20,0.7,10,0,0,0,0,0,0,0,0,0,0,0,0
2010,5,9,24,0,,19.8,9.9,53,100000,0,0,392,0,0,0,0,0,0,0,230,2.4,10,0,0,0,0,0,0,0,0,0,0,0,0
2010,5,10,1,0,,19.6,7,44,99950,0,0,387,0,0,0,0,0,0,0,200,2.6,10,0,0,0,0,0,0,0,0,0,0,0,0
2010,5,10,2,0,,18.8,8.1,50,99980,0,0,384,0,0,0,0,0,0,0,250,2.9,10,0,0,0,0,0,0,0,0,0,0,0,0
2010,5,10,3,0,,17.1,7.7,54,99990,0,0,375,0,0,0,0,0,0,0,290,2,10,0,0,0,0,0,0,0,0,0,0,0,0
2010,5,10,4,0,,16.9,7.7,55,99990,0,0,373,0,0,0,0,0,0,0,270,0.9,10,0,0,0,0,0,0,0,0,0,0,0,0
2010,5,10,5,0,,16.5,8.6,60,99990,0,0,373,0,0,0,0,0,0,0,20,2.6,10,0,0,0,0,0,0,0,0,0,0,0,0
2010,5,10,6,0,,16.4,6.2,51,99990,0,0,369,3,0,3,472,4,471,0,70,2.1,10,0,0,0,0,0,0,0,0,0,0,0,0
2010,5,10,7,0,,17.1,4.7,44,100040,0,0,371,56,50,47,9544,5004,6617,0,320,1.2,10,0,0,0,0,0,0,0,0,0,0,0,0
2010,5,10,8,0,,16.1,7.8,58,100080,0,0,369,112,33,100,14149,3069,11871,0,320,1.2,10,0,0,0,0,0,0,0,0,0,0,0,0
2010,5,10,9,0,,17.1,7.9,55,100050,0,0,375,191,38,170,23026,3631,19901,0,110,1.8,10,0,0,0,0,0,0,0,0,0,0,0,0
2010,5,10,10,0,,18.8,7.2,47,100050,0,0,365,410,133,313,48912,13356,36460,0,340,1.7,8,0,0,0,0,0,0,0,0,0,0,0,0
2010,5,10,11,0,,20.5,6,39,100010,0,0,356,731,530,281,84263,52766,34008,0,20,1.1,4,0,0,0,0,0,0,0,0,0,0,0,0
2010,5,10,12,0,,21.8,5.6,35,99960,0,0,359,849,617,277,90074,61364,33650,0,340,2.2,3,0,0,0,0,0,0,0,0,0,0,0,0
2010,5,10,13,0,,22.9,9.2,42,99930,0,0,360,874,610,292,85954,59474,36244,0,340,1.8,1,0,0,0,0,0,0,0,0,0,0,0,0
2010,5,10,14,0,,23,7.5,37,99870,0,0,367,807,524,321,74383,50871,38409,0,320,2.1,3,0,0,0,0,0,0,0,0,0,0,0,0
2010,5,10,15,0,,23.1,6.3,34,99820,0,0,369,708,476,304,59755,45655,34998,0,320,2.2,4,0,0,0,0,0,0,0,0,0,0,0,0
2010,5,10,16,0,,23.5,2.3,25,99790,0,0,366,609,528,227,42199,46503,25813,0,360,3.2,4,0,0,0,0,0,0,0,0,0,0,0,0
2010,5,10,17,0,,22.9,5.3,32,99830,0,0,364,470,563,154,21750,30073,17227,0,290,2.6,3,0,0,0,0,0,0,0,0,0,0,0,0
2010,5,10,18,0,,20.1,5.3,38,99880,0,0,347,291,505,102,0,0,0,0,290,3.3,2,0,0,0,0,0,0,0,0,0,0,0,0
2010,5,10,19,0,,18.8,3.7,37,100000,0,0,339,124,447,48,0,0,0,0,340,2,2,0,0,0,0,0,0,0,0,0,0,0,0
2010,5,10,20,0,,17.9,-0.4,29,100080,0,0,330,18,8,10,0,0,0,0,360,1.5,2,0,0,0,0,0,0,0,0,0,0,0,0
2010,5,10,21,0,,16.4,-0.7,31,100160,0,0,322,0,0,0,0,0,0,0,360,0.8,2,0,0,0,0,0,0,0,0,0,0,0,0
2010,5,10,22,0,,15.4,1.1,38,100210,0,0,320,0,0,0,0,0,0,0,50,2.8,2,0,0,0,0,0,0,0,0,0,0,0,0
2010,5,10,23,0,,14.8,0.5,38,100220,0,0,316,0,0,0,0,0,0,0,50,3.1,2,0,0,0,0,0,0,0,0,0,0,0,0
2010,5,10,24,0,,14.3,0.1,38,100260,0,0,317,0,0,0,0,0,0,0,20,2.3,3,0,0,0,0,0,0,0,0,0,0,0,0
2010,5,11,1,0,,14,-0.4,37,100290,0,0,308,0,0,0,0,0,0,0,0,0.4,1,0,0,0,0,0,0,0,0,0,0,0,0
2010,5,11,2,0,,13.4,0.3,41,100280,0,0,303,0,0,0,0,0,0,0,90,1,1,0,0,0,0,0,0,0,0,0,0,0,0
2010,5,11,3,0,,12.9,2.9,51,100290,0,0,301,0,0,0,0,0,0,0,270,0.9,0,0,0,0,0,0,0,0,0,0,0,0,0
2010,5,11,4,0,,12.1,3.5,56,100290,0,0,298,0,0,0,0,0,0,0,0,0.1,0,0,0,0,0,0,0,0,0,0,0,0,0
2010,5,11,5,0,,11.5,4.4,62,100320,0,0,296,0,0,0,0,0,0,0,230,0.8,0,0,0,0,0,0,0,0,0,0,0,0,0
2010,5,11,6,0,,10.9,4.7,66,100380,0,0,294,19,9,10,1770,856,1426,0,250,0.9,0,0,0,0,0,0,0,0,0,0,0,0,0
2010,5,11,7,0,,11.4,5.4,67,100430,0,0,297,129,472,47,34903,47661,6928,0,230,0.5,0,0,0,0,0,0,0,0,0,0,0,0,0
2010,5,11,8,0,,13.9,6.2,60,100470,0,0,309,312,593,89,57833,61146,12348,0,250,1,0,0,0,0,0,0,0,0,0,0,0,0,0
2010,5,11,9,0,,15.7,5.2,50,100480,0,0,315,513,694,121,77370,71477,15746,0,230,1.3,0,0,0,0,0,0,0,0,0,0,0,0,0
2010,5,11,10,0,,18.6,4.3,39,100500,0,0,328,706,777,142,92277,79770,17794,0,230,1.3,0,0,0,0,0,0,0,0,0,0,0,0,0
2010,5,11,11,0,,20.9,3.1,31,100470,0,0,337,855,815,163,99313,83248,19918,0,270,1.5,0,0,0,0,0,0,0,0,0,0,0,0,0
2010,5,11,12,0,,21.5,1.1,26,100400,0,0,348,915,757,212,97704,76691,27084,0,270,1.7,2,0,0,0,0,0,0,0,0,0,0,0,0
2010,5,11,13,0,,23.4,1.6,24,100330,0,0,358,947,763,218,91969,76663,27781,0,270,4.2,2,0,0,0,0,0,0,0,0,0,0,0,0
2010,5,11,14,0,,23.5,-0.7,20,100290,0,0,355,879,680,248,77829,66809,30477,0,230,4,2,0,0,0,0,0,0,0,0,0,0,0,0
2010,5,11,15,0,,21.6,-1,22,100270,0,0,368,524,151,396,52148,15198,43879,0,250,4.7,8,0,0,0,0,0,0,0,0,0,0,0,0
2010,5,11,16,0,,19.3,1.7,31,100330,0,0,354,424,145,319,40009,13864,35095,0,290,3,7,0,0,0,0,0,0,0,0,0,0,0,0
2010,5,11,17,0,,19.4,1.8,31,100340,0,0,328,452,501,170,22807,27893,18545,0,270,2.6,0,0,0,0,0,0,0,0,0,0,0,0,0
2010,5,11,18,0,,19.3,2.1,32,100340,0,0,328,312,596,89,0,0,0,0,250,2.9,0,0,0,0,0,0,0,0,0,0,0,0,0
2010,5,11,19,0,,17.5,6.3,48,100360,0,0,325,136,546,41,0,0,0,0,250,3.6,0,0,0,0,0,0,0,0,0,0,0,0,0
2010,5,11,20,0,,16.1,7.3,56,100410,0,0,320,19,8,10,0,0,0,0,270,1.4,0,0,0,0,0,0,0,0,0,0,0,0,0
2010,5,11,21,0,,15,7.5,61,100500,0,0,315,0,0,0,0,0,0,0,290,1.5,0,0,0,0,0,0,0,0,0,0,0,0,0
2010,5,11,22,0,,13.6,8,69,100530,0,0,309,0,0,0,0,0,0,0,250,1.1,0,0,0,0,0,0,0,0,0,0,0,0,0
2010,5,11,23,0,,13.7,7,64,100550,0,0,309,0,0,0,0,0,0,0,270,1.5,0,0,0,0,0,0,0,0,0,0,0,0,0
2010,5,11,24,0,,12.5,7.1,70,100580,0,0,304,0,0,0,0,0,0,0,20,0.8,0,0,0,0,0,0,0,0,0,0,0,0,0
2010,5,12,1,0,,12,7,72,100580,0,0,301,0,0,0,0,0,0,0,290,1.3,0,0,0,0,0,0,0,0,0,0,0,0,0
2010,5,12,2,0,,10.6,7.6,82,100540,0,0,296,0,0,0,0,0,0,0,200,1.4,0,0,0,0,0,0,0,0,0,0,0,0,0
2010,5,12,3,0,,10.9,7.7,81,100550,0,0,298,0,0,0,0,0,0,0,250,2.3,0,0,0,0,0,0,0,0,0,0,0,0,0
2010,5,12,4,0,,10.4,7.6,83,100580,0,0,295,0,0,0,0,0,0,0,290,1.5,0,0,0,0,0,0,0,0,0,0,0,0,0
2010,5,12,5,0,,9.7,7.4,86,100660,0,0,292,0,0,0,0,0,0,0,50,0.6,0,0,0,0,0,0,0,0,0,0,0,0,0
2010,5,12,6,0,,9.8,7.3,85,100730,0,0,293,19,8,11,1845,751,1541,0,0,0.4,0,0,0,0,0,0,0,0,0,0,0,0,0
2010,5,12,7,0,,10.9,7.3,79,100780,0,0,297,131,482,47,35686,48838,6929,0,20,0.9,0,0,0,0,0,0,0,0,0,0,0,0,0
2010,5,12,8,0,,13,7.8,71,100810,0,0,306,322,630,84,59727,64531,11618,0,20,3.1,0,0,0,0,0,0,0,0,0,0,0,0,0
2010,5,12,9,0,,14.9,7.6,62,100830,0,0,314,509,676,126,76498,69594,16397,0,360,2,0,0,0,0,0,0,0,0,0,0,0,0,0
2010,5,12,10,0,,16.8,7.4,54,100820,0,0,323,670,678,176,86274,69183,21585,0,110,1.3,0,0,0,0,0,0,0,0,0,0,0,0,0
2010,5,12,11,0,,18.2,7.5,50,100780,0,0,329,802,689,216,94115,69421,27817,0,230,2.3,0,0,0,0,0,0,0,0,0,0,0,0,0
2010,5,12,12,0,,19.6,6.6,43,100720,0,0,341,864,643,266,91717,63984,32715,0,160,1.3,1,0,0,0,0,0,0,0,0,0,0,0,0
2010,5,12,13,0,,21.9,5.7,35,100670,0,0,345,923,710,245,89817,70528,30666,0,20,2.7,0,0,0,0,0,0,0,0,0,0,0,0,0
2010,5,12,14,0,,21.2,4.2,33,100630,0,0,339,857,629,273,77250,62078,33152,0,290,2.3,0,0,0,0,0,0,0,0,0,0,0,0,0
2010,5,12,15,0,,21.5,6.1,37,100590,0,0,355,767,608,250,62102,57869,30512,0,340,2.5,2,0,0,0,0,0,0,0,0,0,0,0,0
2010,5,12,16,0,,20.5,6,39,100590,0,0,338,614,532,227,42668,46164,26209,0,340,3,0,0,0,0,0,0,0,0,0,0,0,0,0
2010,5,12,17,0,,19.4,5,39,100600,0,0,332,471,555,157,22276,30595,17529,0,320,3,0,0,0,0,0,0,0,0,0,0,0,0,0
2010,5,12,18,0,,17.4,4.6,43,100620,0,0,322,294,502,104,0,0,0,0,290,3.9,0,0,0,0,0,0,0,0,0,0,0,0,0
2010,5,12,19,0,,16.1,5.6,50,100670,0,0,318,127,437,50,0,0,0,0,340,2.4,0,0,0,0,0,0,0,0,0,0,0,0,0
2010,5,12,20,0,,14.9,5.3,53,100720,0,0,312,19,9,11,0,0,0,0,360,2.4,0,0,0,0,0,0,0,0,0,0,0,0,0
2010,5,12,21,0,,14.1,5.6,57,100800,0,0,309,0,0,0,0,0,0,0,360,1.7,0,0,0,0,0,0,0,0,0,0,0,0,0
2010,5,12,22,0,,13.4,6.4,63,100850,0,0,307,0,0,0,0,0,0,0,340,0.9,0,0,0,0,0,0,0,0,0,0,0,0,0
2010,5,12,23,0,,12.6,6.8,68,100860,0,0,304,0,0,0,0,0,0,0,20,1,0,0,0,0,0,0,0,0,0,0,0,0,0
2010,5,12,24,0,,11.9,7,72,100860,0,0,301,0,0,0,0,0,0,0,20,0.9,0,0,0,0,0,0,0,0,0,0,0,0,0
2010,5,13,1,0,,11.3,6.8,74,100820,0,0,298,0,0,0,0,0,0,0,20,2.4,0,0,0,0,0,0,0,0,0,0,0,0,0
2010,5,13,2,0,,11,6.5,74,100780,0,0,297,0,0,0,0,0,0,0,360,2,0,0,0,0,0,0,0,0,0,0,0,0,0
2010,5,13,3,0,,10.6,6.5,76,100780,0,0,295,0,0,0,0,0,0,0,20,1,0,0,0,0,0,0,0,0,0,0,0,0,0
2010,5,13,4,0,,10.3,6.9,80,100790,0,0,294,0,0,0,0,0,0,0,290,1,0,0,0,0,0,0,0,0,0,0,0,0,0
2010,5,13,5,0,,9.2,6.9,86,100800,0,0,290,0,0,0,0,0,0,0,0,0,0,0,0,0,0,0,0,0,0,0,0,0,0
2010,5,13,6,0,,9.6,7,84,100840,0,0,301,19,8,12,1907,706,1620,0,0,0.3,2,0,0,0,0,0,0,0,0,0,0,0,0
2010,5,13,7,0,,10.8,7.1,78,100880,0,0,306,126,417,52,33180,42849,7873,0,250,0.6,2,0,0,0,0,0,0,0,0,0,0,0,0
2010,5,13,8,0,,12.8,7.8,72,100900,0,0,316,312,576,93,57248,59427,12852,0,270,0.8,2,0,0,0,0,0,0,0,0,0,0,0,0
2010,5,13,9,0,,14.9,8.5,66,100930,0,0,326,510,675,127,76660,69557,16496,0,200,2.3,2,0,0,0,0,0,0,0,0,0,0,0,0
2010,5,13,10,0,,17.3,7.8,54,100920,0,0,340,666,666,181,85630,67816,22134,0,230,1.9,3,0,0,0,0,0,0,0,0,0,0,0,0
2010,5,13,11,0,,18.7,5.8,43,100890,0,0,344,792,661,228,92563,66594,28883,0,250,1.7,3,0,0,0,0,0,0,0,0,0,0,0,0
2010,5,13,12,0,,20.1,4.5,36,100800,0,0,352,830,566,304,88721,56511,36538,0,340,1.9,4,0,0,0,0,0,0,0,0,0,0,0,0
2010,5,13,13,0,,21.6,5.4,35,100710,0,0,354,893,643,278,87045,63416,33771,0,320,1.8,2,0,0,0,0,0,0,0,0,0,0,0,0
2010,5,13,14,0,,21.5,5.7,36,100650,0,0,358,825,555,309,75546,54340,36861,0,160,2.2,3,0,0,0,0,0,0,0,0,0,0,0,0
2010,5,13,15,0,,23.1,4.5,30,100580,0,0,364,777,628,242,62513,60232,29525,0,230,2.3,3,0,0,0,0,0,0,0,0,0,0,0,0
2010,5,13,16,0,,23.1,6.3,34,100570,0,0,369,614,528,229,42897,45724,26500,0,250,2.9,4,0,0,0,0,0,0,0,0,0,0,0,0
2010,5,13,17,0,,21.6,7,39,100580,0,0,356,481,583,151,22576,33559,17290,0,270,2.4,2,0,0,0,0,0,0,0,0,0,0,0,0
2010,5,13,18,0,,19.2,6.6,44,100630,0,0,333,291,483,108,0,0,0,0,290,2.1,0,0,0,0,0,0,0,0,0,0,0,0,0
2010,5,13,19,0,,18.2,5.4,43,100720,0,0,331,129,443,50,0,0,0,0,270,2,1,0,0,0,0,0,0,0,0,0,0,0,0
2010,5,13,20,0,,16.7,5.9,49,100800,0,0,328,20,9,11,0,0,0,0,250,2,1,0,0,0,0,0,0,0,0,0,0,0,0
2010,5,13,21,0,,16.3,6.1,51,100880,0,0,330,0,0,0,0,0,0,0,230,1.9,2,0,0,0,0,0,0,0,0,0,0,0,0
2010,5,13,22,0,,15.2,6.4,56,100950,0,0,322,0,0,0,0,0,0,0,180,1.2,1,0,0,0,0,0,0,0,0,0,0,0,0
2010,5,13,23,0,,14.9,7.4,61,100990,0,0,318,0,0,0,0,0,0,0,230,1.9,1,0,0,0,0,0,0,0,0,0,0,0,0
2010,5,13,24,0,,14.1,7.1,63,101000,0,0,310,0,0,0,0,0,0,0,160,1.3,0,0,0,0,0,0,0,0,0,0,0,0,0
2010,5,14,1,0,,14.1,8.2,68,101010,0,0,312,0,0,0,0,0,0,0,290,0.6,0,0,0,0,0,0,0,0,0,0,0,0,0
2010,5,14,2,0,,13.7,8.7,72,101010,0,0,310,0,0,0,0,0,0,0,250,0.8,0,0,0,0,0,0,0,0,0,0,0,0,0
2010,5,14,3,0,,13,8.4,74,101000,0,0,307,0,0,0,0,0,0,0,250,0.9,0,0,0,0,0,0,0,0,0,0,0,0,0
2010,5,14,4,0,,12.3,8.5,78,101030,0,0,304,0,0,0,0,0,0,0,250,0.7,0,0,0,0,0,0,0,0,0,0,0,0,0
2010,5,14,5,0,,11.9,8.5,80,101030,0,0,303,0,0,0,0,0,0,0,250,0.9,0,0,0,0,0,0,0,0,0,0,0,0,0
2010,5,14,6,0,,11.8,8.4,80,101070,0,0,302,21,10,11,1975,888,1612,0,20,0.8,0,0,0,0,0,0,0,0,0,0,0,0,0
2010,5,14,7,0,,13.1,8.7,75,101090,0,0,308,138,504,46,37239,51246,6884,0,0,0.4,0,0,0,0,0,0,0,0,0,0,0,0,0
2010,5,14,8,0,,15.3,9.4,68,101150,0,0,318,326,632,84,60322,64945,11707,0,20,1.5,0,0,0,0,0,0,0,0,0,0,0,0,0
2010,5,14,9,0,,17.3,10.8,66,101170,0,0,329,510,668,129,76562,68939,16841,0,70,1.1,0,0,0,0,0,0,0,0,0,0,0,0,0
2010,5,14,10,0,,19,10.2,57,101180,0,0,336,669,668,181,86158,68224,22195,0,200,1.5,0,0,0,0,0,0,0,0,0,0,0,0,0
2010,5,14,11,0,,21.2,10.3,50,101170,0,0,353,791,655,231,92391,65533,29648,0,250,1.2,1,0,0,0,0,0,0,0,0,0,0,0,0
2010,5,14,12,0,,21.9,9.7,46,101100,0,0,361,849,605,285,90117,59757,34863,0,140,1.6,2,0,0,0,0,0,0,0,0,0,0,0,0
2010,5,14,13,0,,21.9,9.4,45,101030,0,0,370,757,284,485,77942,27577,54738,0,230,2.2,5,0,0,0,0,0,0,0,0,0,0,0,0
2010,5,14,14,0,,23.9,8.7,38,100960,0,0,379,743,299,464,72724,28804,52174,0,250,1.8,5,0,0,0,0,0,0,0,0,0,0,0,0
2010,5,14,15,0,,23.6,7.2,35,100910,0,0,379,638,263,414,59739,24702,46167,0,230,3.4,6,0,0,0,0,0,0,0,0,0,0,0,0
2010,5,14,16,0,,24.8,6.9,32,100850,0,0,379,647,612,200,43587,52826,24536,0,200,3.5,4,0,0,0,0,0,0,0,0,0,0,0,0
2010,5,14,17,0,,22,11,50,100870,0,0,367,447,467,181,24518,24173,20654,0,250,3.7,3,0,0,0,0,0,0,0,0,0,0,0,0
2010,5,14,18,0,,20.6,11.5,56,100900,0,0,357,290,467,111,0,0,0,0,250,3.3,2,0,0,0,0,0,0,0,0,0,0,0,0
2010,5,14,19,0,,20,11.2,57,100980,0,0,360,111,332,51,0,0,0,0,270,1.7,4,0,0,0,0,0,0,0,0,0,0,0,0
2010,5,14,20,0,,18.9,8.2,50,101060,0,0,356,17,5,12,0,0,0,0,180,4.2,6,0,0,0,0,0,0,0,0,0,0,0,0
2010,5,14,21,0,,18.1,7.5,50,101120,0,0,361,0,0,0,0,0,0,0,200,3.6,8,0,0,0,0,0,0,0,0,0,0,0,0
2010,5,14,22,0,,17.5,6.3,48,101180,0,0,353,0,0,0,0,0,0,0,200,2.9,7,0,0,0,0,0,0,0,0,0,0,0,0
2010,5,14,23,0,,16.2,6,51,101180,0,0,343,0,0,0,0,0,0,0,200,1.6,7,0,0,0,0,0,0,0,0,0,0,0,0
2010,5,14,24,0,,15.7,6.4,54,101150,0,0,339,0,0,0,0,0,0,0,0,0.2,6,0,0,0,0,0,0,0,0,0,0,0,0
2010,5,15,1,0,,15,7.2,60,101130,0,0,335,0,0,0,0,0,0,0,20,2,6,0,0,0,0,0,0,0,0,0,0,0,0
2010,5,15,2,0,,14.7,7.2,61,101150,0,0,333,0,0,0,0,0,0,0,50,1.1,5,0,0,0,0,0,0,0,0,0,0,0,0
2010,5,15,3,0,,14.4,7.6,64,101130,0,0,331,0,0,0,0,0,0,0,140,0.9,5,0,0,0,0,0,0,0,0,0,0,0,0
2010,5,15,4,0,,13.7,7.6,67,101140,0,0,331,0,0,0,0,0,0,0,160,1.4,6,0,0,0,0,0,0,0,0,0,0,0,0
2010,5,15,5,0,,13.2,8.2,72,101100,0,0,326,0,0,0,0,0,0,0,0,0.4,5,0,0,0,0,0,0,0,0,0,0,0,0
2010,5,15,6,0,,13.2,8.2,72,101130,0,0,329,16,4,12,1633,343,1493,0,70,0.7,6,0,0,0,0,0,0,0,0,0,0,0,0
2010,5,15,7,0,,14.6,8,65,101120,0,0,345,85,134,60,17217,13032,9476,0,50,0.9,8,0,0,0,0,0,0,0,0,0,0,0,0
2010,5,15,8,0,,14.9,7.9,63,101090,0,0,346,201,153,142,29639,15337,18137,0,90,1.3,8,0,0,0,0,0,0,0,0,0,0,0,0
2010,5,15,9,0,,15.7,8.4,62,101150,0,0,350,308,135,231,39732,13483,28035,0,50,1.3,8,0,0,0,0,0,0,0,0,0,0,0,0
2010,5,15,10,0,,17.8,7.8,52,101170,0,0,360,424,140,321,50477,14042,37296,0,70,0.9,8,0,0,0,0,0,0,0,0,0,0,0,0
2010,5,15,11,0,,20.2,6.5,41,101140,0,0,365,603,220,415,67873,22066,46720,0,320,0.8,7,0,0,0,0,0,0,0,0,0,0,0,0
2010,5,15,12,0,,20.6,6.1,39,101120,0,0,366,670,218,467,72599,21684,52523,0,290,1.8,7,0,0,0,0,0,0,0,0,0,0,0,0
2010,5,15,13,0,,21.4,6.8,39,101010,0,0,377,606,149,463,64498,14737,52079,0,360,2.3,8,0,0,0,0,0,0,0,0,0,0,0,0
2010,5,15,14,0,,22,6.6,37,101010,0,0,374,632,184,460,64239,17971,51390,0,90,1.6,7,0,0,0,0,0,0,0,0,0,0,0,0
2010,5,15,15,0,,22.8,7.3,37,100930,0,0,385,512,138,393,51433,13537,43971,0,110,1.5,8,0,0,0,0,0,0,0,0,0,0,0,0
2010,5,15,16,0,,22.7,6.8,36,100870,0,0,384,413,131,317,39633,12337,35159,0,360,0.6,8,0,0,0,0,0,0,0,0,0,0,0,0
2010,5,15,17,0,,22.2,7.5,39,100860,0,0,383,312,141,232,27072,11302,25240,0,20,1.4,8,0,0,0,0,0,0,0,0,0,0,0,0
2010,5,15,18,0,,21.8,6.8,38,100860,0,0,380,202,155,142,0,0,0,0,20,2.3,8,0,0,0,0,0,0,0,0,0,0,0,0
2010,5,15,19,0,,20.7,9.2,48,100860,0,0,377,83,128,60,0,0,0,0,290,1.5,8,0,0,0,0,0,0,0,0,0,0,0,0
2010,5,15,20,0,,20.3,6.6,41,100920,0,0,371,14,3,11,0,0,0,0,180,3.7,8,0,0,0,0,0,0,0,0,0,0,0,0
2010,5,15,21,0,,19,8.6,51,101000,0,0,367,0,0,0,0,0,0,0,200,4.4,8,0,0,0,0,0,0,0,0,0,0,0,0
2010,5,15,22,0,,17.9,9.5,58,101060,0,0,354,0,0,0,0,0,0,0,230,2.3,6,0,0,0,0,0,0,0,0,0,0,0,0
2010,5,15,23,0,,17.2,10.5,65,101070,0,0,347,0,0,0,0,0,0,0,230,2.4,5,0,0,0,0,0,0,0,0,0,0,0,0
2010,5,15,24,0,,16.4,10.2,67,101070,0,0,338,0,0,0,0,0,0,0,200,3.1,3,0,0,0,0,0,0,0,0,0,0,0,0
2010,5,16,1,0,,16.4,9.5,64,101060,0,0,334,0,0,0,0,0,0,0,230,1.8,2,0,0,0,0,0,0,0,0,0,0,0,0
2010,5,16,2,0,,15.8,9.4,66,101020,0,0,327,0,0,0,0,0,0,0,180,1.1,1,0,0,0,0,0,0,0,0,0,0,0,0
2010,5,16,3,0,,14.9,10.2,74,101050,0,0,317,0,0,0,0,0,0,0,20,1.1,0,0,0,0,0,0,0,0,0,0,0,0,0
2010,5,16,4,0,,14.4,9.2,71,101080,0,0,314,0,0,0,0,0,0,0,0,0,0,0,0,0,0,0,0,0,0,0,0,0,0
2010,5,16,5,0,,13.8,9,73,101080,0,0,311,0,0,0,0,0,0,0,50,1.2,0,0,0,0,0,0,0,0,0,0,0,0,0
2010,5,16,6,0,,13.5,9.5,77,101100,0,0,317,23,11,12,2086,977,1684,0,0,0.3,1,0,0,0,0,0,0,0,0,0,0,0,0
2010,5,16,7,0,,14.6,10.2,75,101130,0,0,316,135,447,52,35348,46131,7874,0,0,0.3,0,0,0,0,0,0,0,0,0,0,0,0,0
2010,5,16,8,0,,17.2,10.5,65,101150,0,0,328,325,612,89,60030,63412,12386,0,250,0.6,0,0,0,0,0,0,0,0,0,0,0,0,0
2010,5,16,9,0,,19.5,10.7,57,101150,0,0,339,526,707,121,79336,73141,15793,0,250,1.1,0,0,0,0,0,0,0,0,0,0,0,0,0
2010,5,16,10,0,,22,9.1,44,101140,0,0,361,717,784,142,93957,80639,18171,0,320,1.4,2,0,0,0,0,0,0,0,0,0,0,0,0
2010,5,16,11,0,,24.4,9.1,38,101100,0,0,373,854,795,173,99292,81377,21195,0,20,3.5,2,0,0,0,0,0,0,0,0,0,0,0,0
2010,5,16,12,0,,24.9,7.9,34,101070,0,0,369,904,719,232,96328,71976,29604,0,360,1.8,1,0,0,0,0,0,0,0,0,0,0,0,0
2010,5,16,13,0,,25.1,7.6,33,100980,0,0,362,880,607,297,86749,59594,36448,0,20,1.5,0,0,0,0,0,0,0,0,0,0,0,0,0
2010,5,16,14,0,,27.6,8.4,30,100930,0,0,376,880,666,257,78660,64611,32368,0,250,2.1,0,0,0,0,0,0,0,0,0,0,0,0,0
2010,5,16,15,0,,27.4,7.7,29,100860,0,0,374,791,649,235,63314,61467,29326,0,200,2.8,0,0,0,0,0,0,0,0,0,0,0,0,0
2010,5,16,16,0,,27.5,8.8,31,100790,0,0,376,681,692,174,43838,59545,22125,0,320,2,0,0,0,0,0,0,0,0,0,0,0,0,0
2010,5,16,17,0,,27.8,7,27,100770,0,0,375,501,630,140,22635,37433,16480,0,250,1.4,0,0,0,0,0,0,0,0,0,0,0,0,0
2010,5,16,18,0,,24.8,9.5,38,100840,0,0,363,326,615,88,0,0,0,0,250,5.9,0,0,0,0,0,0,0,0,0,0,0,0,0
2010,5,16,19,0,,22.7,9.4,43,100920,0,0,358,132,426,53,0,0,0,0,290,1.6,1,0,0,0,0,0,0,0,0,0,0,0,0
2010,5,16,20,0,,21.4,8.9,45,100980,0,0,354,23,11,12,0,0,0,0,250,1.9,1,0,0,0,0,0,0,0,0,0,0,0,0
2010,5,16,21,0,,20.3,8.2,46,101060,0,0,351,0,0,0,0,0,0,0,250,2.1,2,0,0,0,0,0,0,0,0,0,0,0,0
2010,5,16,22,0,,19.1,9,52,101090,0,0,347,0,0,0,0,0,0,0,200,2.2,2,0,0,0,0,0,0,0,0,0,0,0,0
2010,5,16,23,0,,18.2,9.7,58,101070,0,0,345,0,0,0,0,0,0,0,180,0.9,3,0,0,0,0,0,0,0,0,0,0,0,0
2010,5,16,24,0,,17.5,8.3,55,101050,0,0,341,0,0,0,0,0,0,0,230,1.4,3,0,0,0,0,0,0,0,0,0,0,0,0
2010,5,17,1,0,,16.7,9.3,62,101030,0,0,335,0,0,0,0,0,0,0,0,0.3,2,0,0,0,0,0,0,0,0,0,0,0,0
2010,5,17,2,0,,16.2,9.3,64,100950,0,0,328,0,0,0,0,0,0,0,50,0.9,1,0,0,0,0,0,0,0,0,0,0,0,0
2010,5,17,3,0,,15.7,10.4,71,100920,0,0,321,0,0,0,0,0,0,0,230,1.2,0,0,0,0,0,0,0,0,0,0,0,0,0
2010,5,17,4,0,,14.1,10.3,78,100940,0,0,324,0,0,0,0,0,0,0,230,1.9,2,0,0,0,0,0,0,0,0,0,0,0,0
2010,5,17,5,0,,14.5,10.3,76,100920,0,0,329,0,0,0,0,0,0,0,50,0.8,3,0,0,0,0,0,0,0,0,0,0,0,0
2010,5,17,6,0,,14.4,10.2,76,100930,0,0,329,22,10,13,2148,890,1780,0,250,0.7,3,0,0,0,0,0,0,0,0,0,0,0,0
2010,5,17,7,0,,14.5,10.1,75,101010,0,0,322,139,476,50,36958,49089,7650,0,230,1,1,0,0,0,0,0,0,0,0,0,0,0,0
2010,5,17,8,0,,17.9,10.2,61,101000,0,0,342,326,611,90,60078,63263,12464,0,20,1.1,2,0,0,0,0,0,0,0,0,0,0,0,0
2010,5,17,9,0,,21.3,11,52,100970,0,0,363,522,691,125,78493,71475,16316,0,270,1,3,0,0,0,0,0,0,0,0,0,0,0,0
2010,5,17,10,0,,24,11.6,46,100920,0,0,380,700,735,159,91074,75695,19853,0,200,2.4,4,0,0,0,0,0,0,0,0,0,0,0,0
2010,5,17,11,0,,25.8,11.9,42,100860,0,0,390,805,679,222,94181,67840,29004,0,140,2.9,4,0,0,0,0,0,0,0,0,0,0,0,0
2010,5,17,12,0,,26.2,10.7,38,100830,0,0,397,765,323,462,81946,31361,52838,0,180,4.4,6,0,0,0,0,0,0,0,0,0,0,0,0
2010,5,17,13,0,,25.8,11.5,41,100780,0,0,407,578,130,453,62370,12425,51867,0,200,3.9,8,0,0,0,0,0,0,0,0,0,0,0,0
2010,5,17,14,0,,25.4,11.9,43,100750,0,0,406,527,111,424,55683,10696,48004,0,140,3.7,8,0,0,0,0,0,0,0,0,0,0,0,0
2010,5,17,15,0,,23.8,12.4,49,100700,0,0,418,291,29,266,31109,2433,29760,0,140,4.6,10,0,0,0,0,0,0,0,0,0,0,0,0
2010,5,17,16,0,,23.1,12.4,51,100680,0,0,413,241,29,219,24522,2351,23660,0,140,3.9,10,0,0,0,0,0,0,0,0,0,0,0,0
2010,5,17,17,0,,21.7,13.8,61,100680,0,0,407,160,21,147,15266,1250,15057,0,160,4.7,10,0,0,0,0,0,0,0,0,0,0,0,0
2010,5,17,18,0,,19.1,16.1,83,100660,0,0,396,76,9,72,0,0,0,0,160,4,10,0,0,0,0,0,0,0,0,0,0,0,0
2010,5,17,19,0,,18.6,17,91,100640,0,0,395,24,3,23,0,0,0,0,360,1.8,10,0,0,0,0,0,0,0,0,0,0,0,0
2010,5,17,20,0,,18.8,16.5,87,100620,0,0,395,2,0,2,0,0,0,0,160,2.9,10,0,0,0,0,0,0,0,0,0,0,0,0
2010,5,17,21,0,,18.7,16.3,86,100620,0,0,394,0,0,0,0,0,0,0,160,3.7,10,0,0,0,0,0,0,0,0,0,0,0,0
2010,5,17,22,0,,18.9,16.4,86,100600,0,0,395,0,0,0,0,0,0,0,160,3.9,10,0,0,0,0,0,0,0,0,0,0,0,0
2010,5,17,23,0,,19.1,16.3,84,100590,0,0,396,0,0,0,0,0,0,0,160,4.6,10,0,0,0,0,0,0,0,0,0,0,0,0
2010,5,17,24,0,,18.6,16.2,86,100550,0,0,394,0,0,0,0,0,0,0,180,2.8,10,0,0,0,0,0,0,0,0,0,0,0,0
2010,5,18,1,0,,18.9,15.9,83,100460,0,0,395,0,0,0,0,0,0,0,160,3.1,10,0,0,0,0,0,0,0,0,0,0,0,0
2010,5,18,2,0,,19,16.4,85,100400,0,0,396,0,0,0,0,0,0,0,180,3.3,10,0,0,0,0,0,0,0,0,0,0,0,0
2010,5,18,3,0,,19,16.9,88,100320,0,0,397,0,0,0,0,0,0,0,180,3.1,10,0,0,0,0,0,0,0,0,0,0,0,0
2010,5,18,4,0,,18.9,17.2,90,100250,0,0,397,0,0,0,0,0,0,0,180,3.7,10,0,0,0,0,0,0,0,0,0,0,0,0
2010,5,18,5,0,,18.9,17.7,93,100170,0,0,397,0,0,0,0,0,0,0,180,1.4,10,0,0,0,0,0,0,0,0,0,0,0,0
2010,5,18,6,0,,18.9,17.9,94,100110,0,0,398,3,0,3,428,0,428,0,180,1.3,10,0,0,0,0,0,0,0,0,0,0,0,0
2010,5,18,7,0,,18.8,17.9,95,100090,0,0,397,43,17,39,6339,1551,5411,0,200,2.3,10,0,0,0,0,0,0,0,0,0,0,0,0
2010,5,18,8,0,,18.9,18.4,97,100030,0,0,398,94,17,88,11763,1522,10616,0,160,1.7,10,0,0,0,0,0,0,0,0,0,0,0,0
2010,5,18,9,0,,19.4,18.5,95,100000,0,0,401,163,22,150,19701,1989,17968,0,180,3.5,10,0,0,0,0,0,0,0,0,0,0,0,0
2010,5,18,10,0,,19.5,19,97,99990,0,0,402,199,17,186,23676,1516,22248,0,180,2.2,10,0,0,0,0,0,0,0,0,0,0,0,0
2010,5,18,11,0,,19.9,19.2,96,99940,0,0,405,244,18,229,28675,1591,27145,0,160,2.5,10,0,0,0,0,0,0,0,0,0,0,0,0
2010,5,18,12,0,,20.2,19.3,95,99880,0,0,407,261,16,246,30769,1036,29807,0,160,3,10,0,0,0,0,0,0,0,0,0,0,0,0
2010,5,18,13,0,,20.3,19.4,95,99830,0,0,407,285,19,267,32766,1284,31680,0,180,2.6,10,0,0,0,0,0,0,0,0,0,0,0,0
2010,5,18,14,0,,20.5,19.8,96,99780,0,0,409,254,15,240,28711,1018,27979,0,160,2.3,10,0,0,0,0,0,0,0,0,0,0,0,0
2010,5,18,15,0,,21.2,20,93,99730,0,0,413,252,20,235,27230,1401,26451,0,180,2.9,10,0,0,0,0,0,0,0,0,0,0,0,0
2010,5,18,16,0,,21.2,20.3,95,99700,0,0,413,203,18,190,20998,1182,20562,0,200,2.4,10,0,0,0,0,0,0,0,0,0,0,0,0
2010,5,18,17,0,,21,20.3,96,99680,0,0,412,151,18,141,14495,874,14348,0,200,1.7,10,0,0,0,0,0,0,0,0,0,0,0,0
2010,5,18,18,0,,21.1,20.4,96,99680,0,0,413,93,17,87,0,0,0,0,230,0.8,10,0,0,0,0,0,0,0,0,0,0,0,0
2010,5,18,19,0,,20.6,19.9,96,99720,0,0,410,41,15,38,0,0,0,0,230,2.2,10,0,0,0,0,0,0,0,0,0,0,0,0
2010,5,18,20,0,,19.8,19.3,97,99750,0,0,404,3,0,3,0,0,0,0,230,3.4,10,0,0,0,0,0,0,0,0,0,0,0,0
2010,5,18,21,0,,19.3,18.8,97,99780,0,0,401,0,0,0,0,0,0,0,250,2.3,10,0,0,0,0,0,0,0,0,0,0,0,0
2010,5,18,22,0,,19.2,18.7,97,99790,0,0,400,0,0,0,0,0,0,0,230,1.6,10,0,0,0,0,0,0,0,0,0,0,0,0
2010,5,18,23,0,,19.3,18.9,98,99820,0,0,401,0,0,0,0,0,0,0,270,1.4,10,0,0,0,0,0,0,0,0,0,0,0,0
2010,5,18,24,0,,19.1,18.6,97,99820,0,0,400,0,0,0,0,0,0,0,250,2.1,10,0,0,0,0,0,0,0,0,0,0,0,0
2010,5,19,1,0,,18.9,18.5,98,99810,0,0,398,0,0,0,0,0,0,0,230,2.5,10,0,0,0,0,0,0,0,0,0,0,0,0
2010,5,19,2,0,,18.8,18.4,98,99780,0,0,398,0,0,0,0,0,0,0,200,2.3,10,0,0,0,0,0,0,0,0,0,0,0,0
2010,5,19,3,0,,18.3,17.9,98,99760,0,0,394,0,0,0,0,0,0,0,200,2.6,10,0,0,0,0,0,0,0,0,0,0,0,0
2010,5,19,4,0,,18.1,17.9,99,99780,0,0,393,0,0,0,0,0,0,0,230,2.2,10,0,0,0,0,0,0,0,0,0,0,0,0
2010,5,19,5,0,,17.8,17.6,99,99850,0,0,391,0,0,0,0,0,0,0,230,2.2,10,0,0,0,0,0,0,0,0,0,0,0,0
2010,5,19,6,0,,17.4,17,98,99810,0,0,388,2,0,2,288,0,288,0,200,1.3,10,0,0,0,0,0,0,0,0,0,0,0,0
2010,5,19,7,0,,17.4,17,98,99880,0,0,388,38,12,36,5068,1066,4428,0,270,2.5,10,0,0,0,0,0,0,0,0,0,0,0,0
2010,5,19,8,0,,17.3,16.8,97,99960,0,0,388,88,14,82,10896,1239,9960,0,270,1.4,10,0,0,0,0,0,0,0,0,0,0,0,0
2010,5,19,9,0,,17.9,17,95,99900,0,0,391,147,17,138,17786,1500,16478,0,20,1,10,0,0,0,0,0,0,0,0,0,0,0,0
2010,5,19,10,0,,19.5,16.1,81,99880,0,0,379,369,93,300,44471,8774,36198,0,20,0.9,8,0,0,0,0,0,0,0,0,0,0,0,0
2010,5,19,11,0,,21.7,16.6,73,99890,0,0,381,609,222,418,70181,20408,50533,0,230,2.3,6,0,0,0,0,0,0,0,0,0,0,0,0
2010,5,19,12,0,,23.2,17.4,70,99900,0,0,390,691,234,471,75294,21400,55384,0,250,2.1,6,0,0,0,0,0,0,0,0,0,0,0,0
2010,5,19,13,0,,23.6,16.6,65,99880,0,0,395,632,164,473,67926,15054,55163,0,230,2.4,7,0,0,0,0,0,0,0,0,0,0,0,0
2010,5,19,14,0,,25.3,18.2,65,99870,0,0,413,562,131,439,59086,12148,50329,0,230,3.9,8,0,0,0,0,0,0,0,0,0,0,0,0
2010,5,19,15,0,,24.3,16.5,62,99870,0,0,399,529,149,401,53216,13858,45483,0,270,2.7,7,0,0,0,0,0,0,0,0,0,0,0,0
2010,5,19,16,0,,23.5,17.2,68,99850,0,0,402,378,100,304,37632,8813,34367,0,250,4.3,8,0,0,0,0,0,0,0,0,0,0,0,0
2010,5,19,17,0,,23,16.9,69,99880,0,0,399,261,82,214,24832,6181,23774,0,250,3.6,8,0,0,0,0,0,0,0,0,0,0,0,0
2010,5,19,18,0,,22.6,17.2,72,99890,0,0,397,176,98,138,0,0,0,0,270,2.1,8,0,0,0,0,0,0,0,0,0,0,0,0
2010,5,19,19,0,,21.5,16.8,75,99960,0,0,384,96,168,64,0,0,0,0,250,2.6,7,0,0,0,0,0,0,0,0,0,0,0,0
2010,5,19,20,0,,20.9,16.7,77,100020,0,0,377,19,5,14,0,0,0,0,250,2.8,6,0,0,0,0,0,0,0,0,0,0,0,0
2010,5,19,21,0,,19.9,16.5,81,100110,0,0,368,0,0,0,0,0,0,0,250,2.3,5,0,0,0,0,0,0,0,0,0,0,0,0
2010,5,19,22,0,,19.2,16.7,86,100180,0,0,366,0,0,0,0,0,0,0,250,1.9,5,0,0,0,0,0,0,0,0,0,0,0,0
2010,5,19,23,0,,18.7,16.8,89,100180,0,0,365,0,0,0,0,0,0,0,200,2,6,0,0,0,0,0,0,0,0,0,0,0,0
2010,5,19,24,0,,18.5,16.4,88,100210,0,0,364,0,0,0,0,0,0,0,250,2.1,6,0,0,0,0,0,0,0,0,0,0,0,0
2010,5,20,1,0,,17.8,16.1,90,100230,0,0,363,0,0,0,0,0,0,0,200,2,7,0,0,0,0,0,0,0,0,0,0,0,0
2010,5,20,2,0,,18.1,16,88,100230,0,0,368,0,0,0,0,0,0,0,230,1.4,7,0,0,0,0,0,0,0,0,0,0,0,0
2010,5,20,3,0,,17.9,15.8,88,100210,0,0,371,0,0,0,0,0,0,0,230,1.1,8,0,0,0,0,0,0,0,0,0,0,0,0
2010,5,20,4,0,,17.5,15.8,90,100250,0,0,356,0,0,0,0,0,0,0,250,1.6,5,0,0,0,0,0,0,0,0,0,0,0,0
2010,5,20,5,0,,17.3,15.8,91,100280,0,0,358,0,0,0,0,0,0,0,20,0.7,6,0,0,0,0,0,0,0,0,0,0,0,0
2010,5,20,6,0,,16.9,15.5,92,100330,0,0,360,14,2,12,1591,194,1509,0,70,0.9,7,0,0,0,0,0,0,0,0,0,0,0,0
2010,5,20,7,0,,17.5,14.9,85,100400,0,0,367,82,102,62,14598,9449,8918,0,20,1.4,8,0,0,0,0,0,0,0,0,0,0,0,0
2010,5,20,8,0,,18.8,15,79,100460,0,0,364,247,265,143,39690,25017,20774,0,50,0.9,6,0,0,0,0,0,0,0,0,0,0,0,0
2010,5,20,9,0,,20.9,15.2,70,100470,0,0,372,439,415,199,62994,41205,27021,0,20,0.8,5,0,0,0,0,0,0,0,0,0,0,0,0
2010,5,20,10,0,,23.3,13.7,55,100460,0,0,386,555,302,332,67282,28686,40208,0,340,0.7,6,0,0,0,0,0,0,0,0,0,0,0,0
2010,5,20,11,0,,24.6,14.3,53,100440,0,0,380,795,649,236,92768,64351,30750,0,250,1.9,2,0,0,0,0,0,0,0,0,0,0,0,0
2010,5,20,12,0,,26.2,11.5,40,100420,0,0,373,880,658,263,93644,65049,33059,0,360,1,0,0,0,0,0,0,0,0,0,0,0,0,0
2010,5,20,13,0,,27.4,10.5,35,100380,0,0,378,909,658,274,88832,64521,34053,0,200,2.7,0,0,0,0,0,0,0,0,0,0,0,0,0
2010,5,20,14,0,,29.4,9.5,29,100350,0,0,387,909,720,234,80748,70249,30013,0,250,1.7,0,0,0,0,0,0,0,0,0,0,0,0,0
2010,5,20,15,0,,29.6,8.6,27,100300,0,0,387,811,684,222,64372,64630,28201,0,250,2.2,0,0,0,0,0,0,0,0,0,0,0,0,0
2010,5,20,16,0,,29.6,6.8,24,100270,0,0,384,683,682,179,44720,59606,22520,0,290,1.3,0,0,0,0,0,0,0,0,0,0,0,0,0
2010,5,20,17,0,,28.5,11.9,36,100280,0,0,385,503,614,147,24037,36034,17792,0,230,4.7,0,0,0,0,0,0,0,0,0,0,0,0,0
2010,5,20,18,0,,26.8,10.4,36,100370,0,0,375,316,539,103,0,0,0,0,270,2.3,0,0,0,0,0,0,0,0,0,0,0,0,0
2010,5,20,19,0,,24.3,12.2,47,100450,0,0,364,139,423,57,0,0,0,0,290,1.6,0,0,0,0,0,0,0,0,0,0,0,0,0
2010,5,20,20,0,,22.4,13.1,56,100510,0,0,356,24,11,14,0,0,0,0,270,1,0,0,0,0,0,0,0,0,0,0,0,0,0
2010,5,20,21,0,,21.4,11.9,55,100590,0,0,349,0,0,0,0,0,0,0,250,1.5,0,0,0,0,0,0,0,0,0,0,0,0,0
2010,5,20,22,0,,20.8,11.4,55,100630,0,0,351,0,0,0,0,0,0,0,0,0.2,1,0,0,0,0,0,0,0,0,0,0,0,0
2010,5,20,23,0,,20.3,11.7,58,100640,0,0,352,0,0,0,0,0,0,0,320,0.7,1,0,0,0,0,0,0,0,0,0,0,0,0
2010,5,20,24,0,,19.1,12.5,66,100640,0,0,350,0,0,0,0,0,0,0,270,0.5,2,0,0,0,0,0,0,0,0,0,0,0,0
2010,5,21,1,0,,18.2,13.2,73,100600,0,0,350,0,0,0,0,0,0,0,0,0.2,3,0,0,0,0,0,0,0,0,0,0,0,0
2010,5,21,2,0,,17.6,13.7,78,100630,0,0,351,0,0,0,0,0,0,0,250,0.6,4,0,0,0,0,0,0,0,0,0,0,0,0
2010,5,21,3,0,,17.5,13.8,79,100610,0,0,353,0,0,0,0,0,0,0,20,1.1,5,0,0,0,0,0,0,0,0,0,0,0,0
2010,5,21,4,0,,16.1,12.8,81,100630,0,0,345,0,0,0,0,0,0,0,20,2.2,5,0,0,0,0,0,0,0,0,0,0,0,0
2010,5,21,5,0,,16.7,12.6,77,100600,0,0,348,0,0,0,0,0,0,0,20,1.1,5,0,0,0,0,0,0,0,0,0,0,0,0
2010,5,21,6,0,,16.2,13.4,84,100630,0,0,341,25,11,14,2376,960,1973,0,200,1.2,3,0,0,0,0,0,0,0,0,0,0,0,0
2010,5,21,7,0,,17,13.8,82,100640,0,0,345,140,433,56,35477,44837,8472,0,20,1.1,3,0,0,0,0,0,0,0,0,0,0,0,0
2010,5,21,8,0,,20,13.4,66,100610,0,0,356,331,603,93,60371,62684,12910,0,20,2.1,2,0,0,0,0,0,0,0,0,0,0,0,0
2010,5,21,9,0,,23.9,13.4,52,100570,0,0,375,559,789,102,85234,82051,13526,0,50,2.5,2,0,0,0,0,0,0,0,0,0,0,0,0
2010,5,21,10,0,,26,12.4,43,100510,0,0,389,732,805,137,96402,83507,17511,0,20,2.5,3,0,0,0,0,0,0,0,0,0,0,0,0
2010,5,21,11,0,,28.1,11.6,36,100440,0,0,406,792,639,241,92200,63547,30900,0,50,2.5,5,0,0,0,0,0,0,0,0,0,0,0,0
2010,5,21,12,0,,29.8,8.2,26,100380,0,0,407,882,659,263,93720,65534,32616,0,360,2.1,4,0,0,0,0,0,0,0,0,0,0,0,0
2010,5,21,13,0,,30.9,8.5,25,100280,0,0,406,929,699,254,90640,69119,31877,0,360,1,2,0,0,0,0,0,0,0,0,0,0,0,0
2010,5,21,14,0,,31.5,8.4,24,100210,0,0,396,884,662,262,79290,64141,32878,0,290,0.8,0,0,0,0,0,0,0,0,0,0,0,0,0
2010,5,21,15,0,,31.6,7.2,22,100210,0,0,395,788,627,247,63940,59544,30518,0,270,1.2,0,0,0,0,0,0,0,0,0,0,0,0,0
2010,5,21,16,0,,31.6,8.5,24,100160,0,0,410,663,624,200,45089,53969,24887,0,230,2.9,2,0,0,0,0,0,0,0,0,0,0,0,0
2010,5,21,17,0,,30.4,9.2,27,100180,0,0,415,437,403,203,26849,22701,22866,0,230,2.5,5,0,0,0,0,0,0,0,0,0,0,0,0
2010,5,21,18,0,,28.2,10.3,33,100210,0,0,413,228,202,149,0,0,0,0,250,2.6,7,0,0,0,0,0,0,0,0,0,0,0,0
2010,5,21,19,0,,27,9.7,34,100230,0,0,407,107,214,65,0,0,0,0,250,3.4,7,0,0,0,0,0,0,0,0,0,0,0,0
2010,5,21,20,0,,25.2,13.4,48,100230,0,0,404,12,1,11,0,0,0,0,230,1.8,8,0,0,0,0,0,0,0,0,0,0,0,0
2010,5,21,21,0,,24.5,13.3,50,100230,0,0,402,0,0,0,0,0,0,0,200,0.7,8,0,0,0,0,0,0,0,0,0,0,0,0
2010,5,21,22,0,,23.5,13.6,54,100260,0,0,397,0,0,0,0,0,0,0,230,1.8,8,0,0,0,0,0,0,0,0,0,0,0,0
2010,5,21,23,0,,22.5,14.8,62,100170,0,0,393,0,0,0,0,0,0,0,200,1.1,8,0,0,0,0,0,0,0,0,0,0,0,0
2010,5,21,24,0,,22,14.8,64,100110,0,0,391,0,0,0,0,0,0,0,0,0.4,8,0,0,0,0,0,0,0,0,0,0,0,0
2010,5,22,1,0,,21.1,14.9,68,100090,0,0,391,0,0,0,0,0,0,0,20,1.2,9,0,0,0,0,0,0,0,0,0,0,0,0
2010,5,22,2,0,,20.9,14.5,67,100050,0,0,396,0,0,0,0,0,0,0,20,0.7,9,0,0,0,0,0,0,0,0,0,0,0,0
2010,5,22,3,0,,21,14.1,65,100030,0,0,404,0,0,0,0,0,0,0,0,0.3,10,0,0,0,0,0,0,0,0,0,0,0,0
2010,5,22,4,0,,20.5,15.6,74,100050,0,0,403,0,0,0,0,0,0,0,250,0.7,10,0,0,0,0,0,0,0,0,0,0,0,0
2010,5,22,5,0,,20,15.8,77,100010,0,0,401,0,0,0,0,0,0,0,20,2.1,10,0,0,0,0,0,0,0,0,0,0,0,0
2010,5,22,6,0,,20.1,13.3,65,100010,0,0,398,5,0,5,745,3,744,0,70,1.2,10,0,0,0,0,0,0,0,0,0,0,0,0
2010,5,22,7,0,,20,15.2,74,100050,0,0,400,51,25,46,7561,2337,6152,0,230,1.4,10,0,0,0,0,0,0,0,0,0,0,0,0
2010,5,22,8,0,,19.2,16.2,83,100050,0,0,397,106,23,97,13269,2077,11694,0,90,1.9,10,0,0,0,0,0,0,0,0,0,0,0,0
2010,5,22,9,0,,19.4,10.1,55,100030,0,0,390,197,37,176,23662,3483,20615,0,50,3.1,10,0,0,0,0,0,0,0,0,0,0,0,0
2010,5,22,10,0,,17.3,12.6,74,99980,0,0,382,201,17,189,23742,1614,22216,0,50,4.3,10,0,0,0,0,0,0,0,0,0,0,0,0
2010,5,22,11,0,,16.6,13.8,84,99960,0,0,380,221,13,209,26797,868,25959,0,50,4.4,10,0,0,0,0,0,0,0,0,0,0,0,0
2010,5,22,12,0,,16.9,13.2,79,99870,0,0,381,251,14,237,29923,986,29002,0,50,4.7,10,0,0,0,0,0,0,0,0,0,0,0,0
2010,5,22,13,0,,17.3,13.8,80,99790,0,0,384,327,27,301,37000,2563,34818,0,50,6.7,10,0,0,0,0,0,0,0,0,0,0,0,0
2010,5,22,14,0,,16.4,13.8,85,99690,0,0,379,305,25,282,34084,1938,32679,0,50,6.3,10,0,0,0,0,0,0,0,0,0,0,0,0
2010,5,22,15,0,,16,14.5,91,99610,0,0,378,262,22,244,28468,1681,27521,0,50,6.4,10,0,0,0,0,0,0,0,0,0,0,0,0
2010,5,22,16,0,,15.9,14.4,91,99490,0,0,377,220,22,203,22717,1639,22101,0,50,6.7,10,0,0,0,0,0,0,0,0,0,0,0,0
2010,5,22,17,0,,16.5,13.5,83,99330,0,0,379,186,31,168,17459,2125,17082,0,50,5.4,10,0,0,0,0,0,0,0,0,0,0,0,0
2010,5,22,18,0,,16.2,13.8,86,99250,0,0,378,120,32,107,0,0,0,0,50,5.1,10,0,0,0,0,0,0,0,0,0,0,0,0
2010,5,22,19,0,,15.5,14.3,93,99170,0,0,375,48,21,44,0,0,0,0,50,4.7,10,0,0,0,0,0,0,0,0,0,0,0,0
2010,5,22,20,0,,15.8,13.9,89,99130,0,0,376,6,0,6,0,0,0,0,50,5.6,10,0,0,0,0,0,0,0,0,0,0,0,0
2010,5,22,21,0,,15.6,14.2,92,99070,0,0,375,0,0,0,0,0,0,0,50,5.2,10,0,0,0,0,0,0,0,0,0,0,0,0
2010,5,22,22,0,,15.6,14.9,96,99030,0,0,376,0,0,0,0,0,0,0,50,4.7,10,0,0,0,0,0,0,0,0,0,0,0,0
2010,5,22,23,0,,16.2,15,93,98980,0,0,379,0,0,0,0,0,0,0,20,2.7,10,0,0,0,0,0,0,0,0,0,0,0,0
2010,5,22,24,0,,16,15.1,95,98920,0,0,379,0,0,0,0,0,0,0,50,2.5,10,0,0,0,0,0,0,0,0,0,0,0,0
2010,5,23,1,0,,16.4,15.4,94,98850,0,0,381,0,0,0,0,0,0,0,320,0.9,10,0,0,0,0,0,0,0,0,0,0,0,0
2010,5,23,2,0,,16.2,15.5,96,98790,0,0,380,0,0,0,0,0,0,0,20,2.7,10,0,0,0,0,0,0,0,0,0,0,0,0
2010,5,23,3,0,,16.4,15.7,96,98750,0,0,381,0,0,0,0,0,0,0,360,1.2,10,0,0,0,0,0,0,0,0,0,0,0,0
2010,5,23,4,0,,16.4,15.5,95,98720,0,0,381,0,0,0,0,0,0,0,20,0.9,10,0,0,0,0,0,0,0,0,0,0,0,0
2010,5,23,5,0,,16.1,15.4,96,98670,0,0,380,0,0,0,0,0,0,0,20,2.3,10,0,0,0,0,0,0,0,0,0,0,0,0
2010,5,23,6,0,,16.2,15.5,96,98670,0,0,380,3,0,3,457,0,457,0,0,0.2,10,0,0,0,0,0,0,0,0,0,0,0,0
2010,5,23,7,0,,16.4,15.9,97,98640,0,0,382,44,17,41,5895,1457,5015,0,20,1.6,10,0,0,0,0,0,0,0,0,0,0,0,0
2010,5,23,8,0,,17,16.1,95,98640,0,0,385,101,20,93,12562,1770,11219,0,0,0.4,10,0,0,0,0,0,0,0,0,0,0,0,0
2010,5,23,9,0,,17.1,16.4,96,98690,0,0,386,152,18,142,18342,1607,16935,0,20,0.6,10,0,0,0,0,0,0,0,0,0,0,0,0
2010,5,23,10,0,,17.5,16.8,96,98640,0,0,389,200,17,187,23692,1528,22246,0,360,1,10,0,0,0,0,0,0,0,0,0,0,0,0
2010,5,23,11,0,,17.7,16.7,94,98660,0,0,390,220,13,209,26635,825,25838,0,290,0.7,10,0,0,0,0,0,0,0,0,0,0,0,0
2010,5,23,12,0,,18.1,17.2,95,98610,0,0,392,251,14,238,29814,933,28942,0,360,0.7,10,0,0,0,0,0,0,0,0,0,0,0,0
2010,5,23,13,0,,18.6,17.6,94,98540,0,0,396,249,13,237,29166,853,28439,0,290,0.6,10,0,0,0,0,0,0,0,0,0,0,0,0
2010,5,23,14,0,,18.9,17,89,98470,0,0,396,278,19,260,31294,1392,30283,0,160,2.7,10,0,0,0,0,0,0,0,0,0,0,0,0
2010,5,23,15,0,,19.5,16.3,82,98430,0,0,399,286,27,263,30700,2173,29473,0,160,3.9,10,0,0,0,0,0,0,0,0,0,0,0,0
2010,5,23,16,0,,18.9,16.6,87,98420,0,0,396,229,24,211,23500,1821,22812,0,200,4.1,10,0,0,0,0,0,0,0,0,0,0,0,0
2010,5,23,17,0,,18.3,15.7,85,98450,0,0,391,177,27,161,16753,1692,16449,0,200,5.8,10,0,0,0,0,0,0,0,0,0,0,0,0
2010,5,23,18,0,,17.6,15,85,98440,0,0,387,103,21,95,0,0,0,0,200,4,10,0,0,0,0,0,0,0,0,0,0,0,0
2010,5,23,19,0,,16.4,14.4,88,98480,0,0,380,48,20,44,0,0,0,0,230,5.3,10,0,0,0,0,0,0,0,0,0,0,0,0
2010,5,23,20,0,,15.5,14.1,92,98530,0,0,375,5,0,5,0,0,0,0,200,5.5,10,0,0,0,0,0,0,0,0,0,0,0,0
2010,5,23,21,0,,14.7,14,96,98570,0,0,371,0,0,0,0,0,0,0,200,6.1,10,0,0,0,0,0,0,0,0,0,0,0,0
2010,5,23,22,0,,14.5,14,97,98610,0,0,370,0,0,0,0,0,0,0,200,5.3,10,0,0,0,0,0,0,0,0,0,0,0,0
2010,5,23,23,0,,14.4,13.7,96,98610,0,0,369,0,0,0,0,0,0,0,200,4.5,10,0,0,0,0,0,0,0,0,0,0,0,0
2010,5,23,24,0,,14.2,13.5,96,98580,0,0,367,0,0,0,0,0,0,0,230,5,10,0,0,0,0,0,0,0,0,0,0,0,0
2010,5,24,1,0,,14.2,13.5,96,98560,0,0,367,0,0,0,0,0,0,0,230,5.3,10,0,0,0,0,0,0,0,0,0,0,0,0
2010,5,24,2,0,,14,13.3,96,98520,0,0,366,0,0,0,0,0,0,0,200,4.6,10,0,0,0,0,0,0,0,0,0,0,0,0
2010,5,24,3,0,,14,13.3,96,98500,0,0,366,0,0,0,0,0,0,0,200,4,10,0,0,0,0,0,0,0,0,0,0,0,0
2010,5,24,4,0,,14,13.3,96,98530,0,0,366,0,0,0,0,0,0,0,230,3.2,10,0,0,0,0,0,0,0,0,0,0,0,0
2010,5,24,5,0,,14,13.3,96,98560,0,0,366,0,0,0,0,0,0,0,230,4.2,10,0,0,0,0,0,0,0,0,0,0,0,0
2010,5,24,6,0,,13.9,13.2,96,98610,0,0,365,6,0,6,799,3,798,0,230,3.9,10,0,0,0,0,0,0,0,0,0,0,0,0
2010,5,24,7,0,,14.1,13.4,96,98680,0,0,367,48,20,44,7004,1903,5852,0,230,4.3,10,0,0,0,0,0,0,0,0,0,0,0,0
2010,5,24,8,0,,14.1,13.4,96,98760,0,0,367,104,21,95,12853,1914,11398,0,230,4.3,10,0,0,0,0,0,0,0,0,0,0,0,0
2010,5,24,9,0,,14.5,13.7,95,98810,0,0,369,169,24,155,20273,2176,18366,0,230,4.2,10,0,0,0,0,0,0,0,0,0,0,0,0
2010,5,24,10,0,,14.7,14,96,98880,0,0,371,209,19,195,24637,1755,22975,0,250,3.9,10,0,0,0,0,0,0,0,0,0,0,0,0
2010,5,24,11,0,,15.2,14,93,98940,0,0,373,264,22,245,30666,2025,28707,0,250,4.1,10,0,0,0,0,0,0,0,0,0,0,0,0
2010,5,24,12,0,,15.2,13.3,89,99000,0,0,372,297,23,276,34113,2136,32115,0,250,5.3,10,0,0,0,0,0,0,0,0,0,0,0,0
2010,5,24,13,0,,15.2,13.7,91,99020,0,0,373,295,20,276,34109,1512,32819,0,250,5.2,10,0,0,0,0,0,0,0,0,0,0,0,0
2010,5,24,14,0,,16.3,13.5,84,99030,0,0,378,316,27,291,35227,2160,33656,0,270,4.9,10,0,0,0,0,0,0,0,0,0,0,0,0
2010,5,24,15,0,,15.9,13.1,84,99040,0,0,375,285,27,262,30718,2200,29473,0,250,4.5,10,0,0,0,0,0,0,0,0,0,0,0,0
2010,5,24,16,0,,15.7,13.3,86,99050,0,0,375,228,24,210,23553,1864,22845,0,250,4.4,10,0,0,0,0,0,0,0,0,0,0,0,0
2010,5,24,17,0,,16.1,13.2,83,99100,0,0,376,178,27,162,16918,1776,16595,0,250,4.4,10,0,0,0,0,0,0,0,0,0,0,0,0
2010,5,24,18,0,,16,13.1,83,99140,0,0,376,113,26,102,0,0,0,0,250,3.1,10,0,0,0,0,0,0,0,0,0,0,0,0
2010,5,24,19,0,,15.9,13.1,84,99180,0,0,372,55,29,49,0,0,0,0,250,3.1,10,0,0,0,0,0,0,0,0,0,0,0,0
2010,5,24,20,0,,16,12.9,82,99200,0,0,368,13,1,11,0,0,0,0,230,3.8,9,0,0,0,0,0,0,0,0,0,0,0,0
2010,5,24,21,0,,15.3,13.6,90,99220,0,0,363,0,0,0,0,0,0,0,200,3.7,9,0,0,0,0,0,0,0,0,0,0,0,0
2010,5,24,22,0,,15.3,13.3,88,99240,0,0,367,0,0,0,0,0,0,0,200,2.5,10,0,0,0,0,0,0,0,0,0,0,0,0
2010,5,24,23,0,,15.2,13.3,89,99230,0,0,372,0,0,0,0,0,0,0,230,3.5,10,0,0,0,0,0,0,0,0,0,0,0,0
2010,5,24,24,0,,14.7,13.5,93,99220,0,0,370,0,0,0,0,0,0,0,230,2.9,10,0,0,0,0,0,0,0,0,0,0,0,0
2010,5,25,1,0,,14.5,13.7,95,99170,0,0,369,0,0,0,0,0,0,0,230,2.8,10,0,0,0,0,0,0,0,0,0,0,0,0
2010,5,25,2,0,,14.5,14,97,99140,0,0,370,0,0,0,0,0,0,0,200,3.1,10,0,0,0,0,0,0,0,0,0,0,0,0
2010,5,25,3,0,,14.6,13.9,96,99100,0,0,370,0,0,0,0,0,0,0,200,3.7,10,0,0,0,0,0,0,0,0,0,0,0,0
2010,5,25,4,0,,14.8,13.6,93,99130,0,0,370,0,0,0,0,0,0,0,230,2.4,10,0,0,0,0,0,0,0,0,0,0,0,0
2010,5,25,5,0,,14.7,12.8,89,99150,0,0,369,0,0,0,0,0,0,0,250,3.3,10,0,0,0,0,0,0,0,0,0,0,0,0
2010,5,25,6,0,,14.1,13.1,94,99210,0,0,366,5,0,5,692,3,691,0,250,3.2,10,0,0,0,0,0,0,0,0,0,0,0,0
2010,5,25,7,0,,14.2,13,93,99270,0,0,367,48,20,44,7057,1920,5892,0,250,3.3,10,0,0,0,0,0,0,0,0,0,0,0,0
2010,5,25,8,0,,14.4,12.9,91,99330,0,0,368,108,24,99,13459,2161,11815,0,250,3,10,0,0,0,0,0,0,0,0,0,0,0,0
2010,5,25,9,0,,14.7,13.2,91,99380,0,0,369,166,22,153,19895,2063,18086,0,250,3.4,10,0,0,0,0,0,0,0,0,0,0,0,0
2010,5,25,10,0,,14.6,12.9,90,99420,0,0,368,213,20,198,25081,1862,23316,0,250,3.8,10,0,0,0,0,0,0,0,0,0,0,0,0
2010,5,25,11,0,,14.4,13.1,92,99490,0,0,368,244,18,229,28433,1632,26854,0,250,3.3,10,0,0,0,0,0,0,0,0,0,0,0,0
2010,5,25,12,0,,15.3,13.1,87,99470,0,0,372,296,22,275,33936,2101,31969,0,250,2.9,10,0,0,0,0,0,0,0,0,0,0,0,0
2010,5,25,13,0,,15.7,12.6,82,99500,0,0,374,305,22,283,34547,2095,32757,0,250,3.3,10,0,0,0,0,0,0,0,0,0,0,0,0
2010,5,25,14,0,,15.4,12.7,84,99510,0,0,372,292,22,271,32807,1681,31582,0,250,2.7,10,0,0,0,0,0,0,0,0,0,0,0,0
2010,5,25,15,0,,16.1,12.8,81,99500,0,0,376,272,24,252,29508,1897,28432,0,250,3,10,0,0,0,0,0,0,0,0,0,0,0,0
2010,5,25,16,0,,16.7,12.8,78,99510,0,0,379,225,23,208,23306,1776,22628,0,270,1.1,10,0,0,0,0,0,0,0,0,0,0,0,0
2010,5,25,17,0,,17.5,12.3,72,99510,0,0,372,257,74,214,24657,5866,23579,0,290,1.3,9,0,0,0,0,0,0,0,0,0,0,0,0
2010,5,25,18,0,,17.5,12.8,74,99520,0,0,359,232,198,152,0,0,0,0,50,0.8,7,0,0,0,0,0,0,0,0,0,0,0,0
2010,5,25,19,0,,16.9,12.8,77,99590,0,0,355,105,178,69,0,0,0,0,270,1.4,7,0,0,0,0,0,0,0,0,0,0,0,0
2010,5,25,20,0,,15.7,12.8,83,99650,0,0,348,21,5,16,0,0,0,0,270,1.8,6,0,0,0,0,0,0,0,0,0,0,0,0
2010,5,25,21,0,,14.4,12.4,88,99720,0,0,340,0,0,0,0,0,0,0,250,1.2,6,0,0,0,0,0,0,0,0,0,0,0,0
2010,5,25,22,0,,14.4,12.4,88,99840,0,0,342,0,0,0,0,0,0,0,250,1.4,7,0,0,0,0,0,0,0,0,0,0,0,0
2010,5,25,23,0,,14.1,12.4,90,99890,0,0,344,0,0,0,0,0,0,0,250,1.5,7,0,0,0,0,0,0,0,0,0,0,0,0
2010,5,25,24,0,,14,12.3,90,99930,0,0,347,0,0,0,0,0,0,0,230,1.3,8,0,0,0,0,0,0,0,0,0,0,0,0
2010,5,26,1,0,,14,12.3,90,99900,0,0,347,0,0,0,0,0,0,0,0,0.3,8,0,0,0,0,0,0,0,0,0,0,0,0
2010,5,26,2,0,,13.9,12.2,90,99980,0,0,347,0,0,0,0,0,0,0,90,0.8,8,0,0,0,0,0,0,0,0,0,0,0,0
2010,5,26,3,0,,14,12.3,90,99970,0,0,347,0,0,0,0,0,0,0,20,1.7,8,0,0,0,0,0,0,0,0,0,0,0,0
2010,5,26,4,0,,13.4,12.2,93,99910,0,0,344,0,0,0,0,0,0,0,50,2.4,8,0,0,0,0,0,0,0,0,0,0,0,0
2010,5,26,5,0,,13.3,12.1,93,99980,0,0,351,0,0,0,0,0,0,0,50,1.8,9,0,0,0,0,0,0,0,0,0,0,0,0
2010,5,26,6,0,,13.2,12.2,94,100060,0,0,351,9,1,9,1201,18,1194,0,20,1.2,9,0,0,0,0,0,0,0,0,0,0,0,0
2010,5,26,7,0,,13.7,12.5,93,100090,0,0,346,85,98,65,14786,9246,9171,0,50,0.5,8,0,0,0,0,0,0,0,0,0,0,0,0
2010,5,26,8,0,,14.2,12.5,90,100190,0,0,356,150,58,127,20151,5612,15878,0,50,1.6,9,0,0,0,0,0,0,0,0,0,0,0,0
2010,5,26,9,0,,15.6,12.8,84,100190,0,0,343,401,272,242,54731,26101,31820,0,20,0.9,5,0,0,0,0,0,0,0,0,0,0,0,0
2010,5,26,10,0,,18.4,13.6,74,100170,0,0,337,642,561,224,82302,55805,29371,0,250,1.3,0,0,0,0,0,0,0,0,0,0,0,0,0
2010,5,26,11,0,,20.3,13.9,67,100200,0,0,346,799,644,241,92950,63874,31077,0,270,2,0,0,0,0,0,0,0,0,0,0,0,0,0
2010,5,26,12,0,,22.7,14.2,59,100170,0,0,365,895,679,255,95343,66926,32632,0,250,1.6,1,0,0,0,0,0,0,0,0,0,0,0,0
2010,5,26,13,0,,22.9,13.9,57,100150,0,0,388,651,175,481,69401,16438,55335,0,360,1.8,7,0,0,0,0,0,0,0,0,0,0,0,0
2010,5,26,14,0,,24.3,13.5,51,100110,0,0,384,795,457,363,74584,42894,43265,0,340,1.5,4,0,0,0,0,0,0,0,0,0,0,0,0
2010,5,26,15,0,,24.3,12.8,49,100090,0,0,384,703,334,413,64382,30400,47083,0,360,2.5,4,0,0,0,0,0,0,0,0,0,0,0,0
2010,5,26,16,0,,24.2,12.1,47,100090,0,0,389,540,264,343,47135,22077,38671,0,320,2.9,6,0,0,0,0,0,0,0,0,0,0,0,0
2010,5,26,17,0,,22.4,13.4,57,100130,0,0,385,345,167,246,29581,13412,27090,0,50,5.6,7,0,0,0,0,0,0,0,0,0,0,0,0
2010,5,26,18,0,,22.7,13.4,56,100170,0,0,387,232,195,153,0,0,0,0,50,3.5,7,0,0,0,0,0,0,0,0,0,0,0,0
2010,5,26,19,0,,21.2,14.1,64,100230,0,0,380,105,168,70,0,0,0,0,20,3.6,7,0,0,0,0,0,0,0,0,0,0,0,0
2010,5,26,20,0,,20.2,14.5,70,100360,0,0,375,20,4,16,0,0,0,0,50,2.5,7,0,0,0,0,0,0,0,0,0,0,0,0
2010,5,26,21,0,,19.3,13,67,100430,0,0,368,0,0,0,0,0,0,0,160,3.4,7,0,0,0,0,0,0,0,0,0,0,0,0
2010,5,26,22,0,,18.7,12.8,69,100530,0,0,367,0,0,0,0,0,0,0,200,3.5,7,0,0,0,0,0,0,0,0,0,0,0,0
2010,5,26,23,0,,17.9,13.3,75,100600,0,0,365,0,0,0,0,0,0,0,180,2.8,8,0,0,0,0,0,0,0,0,0,0,0,0
2010,5,26,24,0,,17.6,13.3,76,100580,0,0,366,0,0,0,0,0,0,0,200,2,8,0,0,0,0,0,0,0,0,0,0,0,0
2010,5,27,1,0,,17.3,13.2,77,100630,0,0,362,0,0,0,0,0,0,0,200,2.5,8,0,0,0,0,0,0,0,0,0,0,0,0
2010,5,27,2,0,,16.8,13.1,79,100670,0,0,358,0,0,0,0,0,0,0,200,2.5,7,0,0,0,0,0,0,0,0,0,0,0,0
2010,5,27,3,0,,16.6,13.3,81,100700,0,0,355,0,0,0,0,0,0,0,230,1.5,7,0,0,0,0,0,0,0,0,0,0,0,0
2010,5,27,4,0,,16.4,12.7,79,100700,0,0,354,0,0,0,0,0,0,0,0,0.3,7,0,0,0,0,0,0,0,0,0,0,0,0
2010,5,27,5,0,,16.3,13.2,82,100720,0,0,377,0,0,0,0,0,0,0,50,1.9,10,0,0,0,0,0,0,0,0,0,0,0,0
2010,5,27,6,0,,16,13.4,85,100790,0,0,366,11,1,10,1413,32,1400,0,20,1.9,9,0,0,0,0,0,0,0,0,0,0,0,0
2010,5,27,7,0,,16.7,13.4,81,100850,0,0,369,71,57,59,11724,5378,8453,0,360,0.9,9,0,0,0,0,0,0,0,0,0,0,0,0
2010,5,27,8,0,,17.6,13.3,76,100880,0,0,366,198,125,147,28497,11993,19357,0,50,1.2,8,0,0,0,0,0,0,0,0,0,0,0,0
2010,5,27,9,0,,19,13.1,69,100900,0,0,373,309,124,236,39074,12051,28489,0,20,1,8,0,0,0,0,0,0,0,0,0,0,0,0
2010,5,27,10,0,,19.3,12.3,64,100890,0,0,363,513,229,343,61871,22132,40865,0,250,0.9,6,0,0,0,0,0,0,0,0,0,0,0,0
2010,5,27,11,0,,22.3,8.7,42,100890,0,0,365,791,624,250,91719,62340,31287,0,20,3.2,3,0,0,0,0,0,0,0,0,0,0,0,0
2010,5,27,12,0,,23.3,7.3,36,100840,0,0,372,847,572,307,90390,56491,37409,0,50,3.5,4,0,0,0,0,0,0,0,0,0,0,0,0
2010,5,27,13,0,,24.6,6.7,32,100790,0,0,377,878,580,315,87022,57146,38066,0,70,2.7,4,0,0,0,0,0,0,0,0,0,0,0,0
2010,5,27,14,0,,25.3,8.7,35,100740,0,0,387,787,340,466,76359,32998,52225,0,90,3,5,0,0,0,0,0,0,0,0,0,0,0,0
2010,5,27,15,0,,23.9,9,39,100670,0,0,380,658,268,425,61925,25088,47611,0,90,1.4,5,0,0,0,0,0,0,0,0,0,0,0,0
2010,5,27,16,0,,24,11.6,46,100660,0,0,383,543,267,343,47297,22448,38652,0,340,1.9,5,0,0,0,0,0,0,0,0,0,0,0,0
2010,5,27,17,0,,23.4,12,49,100660,0,0,381,409,279,244,30168,16562,27059,0,360,2.6,5,0,0,0,0,0,0,0,0,0,0,0,0
2010,5,27,18,0,,22,12.5,55,100630,0,0,371,294,398,132,0,0,0,0,320,2.2,4,0,0,0,0,0,0,0,0,0,0,0,0
2010,5,27,19,0,,21.6,11.6,53,100680,0,0,368,144,376,65,0,0,0,0,320,1.4,4,0,0,0,0,0,0,0,0,0,0,0,0
2010,5,27,20,0,,19.3,13.4,69,100810,0,0,359,29,13,16,0,0,0,0,200,3.6,4,0,0,0,0,0,0,0,0,0,0,0,0
2010,5,27,21,0,,18,13.6,76,100870,0,0,353,0,0,0,0,0,0,0,230,1.8,4,0,0,0,0,0,0,0,0,0,0,0,0
2010,5,27,22,0,,17.2,13.9,81,100910,0,0,352,0,0,0,0,0,0,0,200,2.8,5,0,0,0,0,0,0,0,0,0,0,0,0
2010,5,27,23,0,,16.9,13.6,81,101000,0,0,353,0,0,0,0,0,0,0,230,3.1,6,0,0,0,0,0,0,0,0,0,0,0,0
2010,5,27,24,0,,16.9,13.8,82,100960,0,0,357,0,0,0,0,0,0,0,200,2.6,7,0,0,0,0,0,0,0,0,0,0,0,0
2010,5,28,1,0,,16.5,13.5,83,100910,0,0,357,0,0,0,0,0,0,0,230,2.8,7,0,0,0,0,0,0,0,0,0,0,0,0
2010,5,28,2,0,,16.4,13.8,85,100880,0,0,359,0,0,0,0,0,0,0,230,2.1,8,0,0,0,0,0,0,0,0,0,0,0,0
2010,5,28,3,0,,16.1,13.7,86,100840,0,0,359,0,0,0,0,0,0,0,250,1.8,8,0,0,0,0,0,0,0,0,0,0,0,0
2010,5,28,4,0,,15.9,13.7,87,100830,0,0,358,0,0,0,0,0,0,0,250,1.7,8,0,0,0,0,0,0,0,0,0,0,0,0
2010,5,28,5,0,,16,13.4,85,100870,0,0,358,0,0,0,0,0,0,0,270,1.4,8,0,0,0,0,0,0,0,0,0,0,0,0
2010,5,28,6,0,,16.1,13.2,83,100910,0,0,376,6,0,6,827,4,825,0,320,0.7,10,0,0,0,0,0,0,0,0,0,0,0,0
2010,5,28,7,0,,16.3,13,81,100960,0,0,377,49,19,45,7082,1857,5951,0,340,0.7,10,0,0,0,0,0,0,0,0,0,0,0,0
2010,5,28,8,0,,16.7,13,79,100950,0,0,379,111,24,101,13759,2246,12046,0,360,0.7,10,0,0,0,0,0,0,0,0,0,0,0,0
2010,5,28,9,0,,17.4,13.3,77,100910,0,0,383,186,31,168,22365,2829,19878,0,50,3.1,10,0,0,0,0,0,0,0,0,0,0,0,0
2010,5,28,10,0,,18.6,13.4,72,100920,0,0,390,257,34,232,30190,3125,27222,0,50,2.5,10,0,0,0,0,0,0,0,0,0,0,0,0
2010,5,28,11,0,,18.8,12.7,68,100860,0,0,390,307,33,278,35366,3067,32391,0,70,1.8,10,0,0,0,0,0,0,0,0,0,0,0,0
2010,5,28,12,0,,19.3,13.4,69,100800,0,0,394,334,31,305,38072,2923,35328,0,20,1.3,10,0,0,0,0,0,0,0,0,0,0,0,0
2010,5,28,13,0,,19.1,13.4,70,100750,0,0,393,305,22,284,34637,2076,32857,0,20,1.7,10,0,0,0,0,0,0,0,0,0,0,0,0
2010,5,28,14,0,,19.3,13,67,100700,0,0,393,302,23,280,33867,1847,32514,0,20,1,10,0,0,0,0,0,0,0,0,0,0,0,0
2010,5,28,15,0,,19,13.1,69,100700,0,0,392,251,19,235,27485,1439,26662,0,320,1,10,0,0,0,0,0,0,0,0,0,0,0,0
2010,5,28,16,0,,19.2,13.5,70,100650,0,0,393,238,26,218,24456,2074,23654,0,20,1.1,10,0,0,0,0,0,0,0,0,0,0,0,0
2010,5,28,17,0,,19.2,12.6,66,100590,0,0,392,190,31,172,17962,2184,17547,0,50,1.9,10,0,0,0,0,0,0,0,0,0,0,0,0
2010,5,28,18,0,,18.6,13,70,100530,0,0,389,119,28,107,0,0,0,0,20,2.1,10,0,0,0,0,0,0,0,0,0,0,0,0
2010,5,28,19,0,,19,11.7,63,100520,0,0,386,59,31,53,0,0,0,0,140,1.3,10,0,0,0,0,0,0,0,0,0,0,0,0
2010,5,28,20,0,,18.4,11.9,66,100560,0,0,379,13,1,12,0,0,0,0,180,1.2,9,0,0,0,0,0,0,0,0,0,0,0,0
2010,5,28,21,0,,17.9,11.4,66,100590,0,0,373,0,0,0,0,0,0,0,360,0.8,9,0,0,0,0,0,0,0,0,0,0,0,0
2010,5,28,22,0,,17.8,13,74,100620,0,0,378,0,0,0,0,0,0,0,0,0.1,9,0,0,0,0,0,0,0,0,0,0,0,0
2010,5,28,23,0,,17.2,11.2,68,100620,0,0,376,0,0,0,0,0,0,0,70,0.8,10,0,0,0,0,0,0,0,0,0,0,0,0
2010,5,28,24,0,,16.9,12,73,100590,0,0,379,0,0,0,0,0,0,0,90,0.6,10,0,0,0,0,0,0,0,0,0,0,0,0
2010,5,29,1,0,,16.6,12.3,76,100550,0,0,374,0,0,0,0,0,0,0,20,0.8,10,0,0,0,0,0,0,0,0,0,0,0,0
2010,5,29,2,0,,15.9,13.3,85,100500,0,0,368,0,0,0,0,0,0,0,20,1.8,9,0,0,0,0,0,0,0,0,0,0,0,0
2010,5,29,3,0,,15.8,13,84,100480,0,0,364,0,0,0,0,0,0,0,20,1.4,9,0,0,0,0,0,0,0,0,0,0,0,0
2010,5,29,4,0,,15.4,12.3,82,100440,0,0,348,0,0,0,0,0,0,0,20,0.7,7,0,0,0,0,0,0,0,0,0,0,0,0
2010,5,29,5,0,,14.9,12.9,88,100400,0,0,337,0,0,0,0,0,0,0,0,0.4,4,0,0,0,0,0,0,0,0,0,0,0,0
2010,5,29,6,0,,14.4,12.7,90,100420,0,0,332,29,14,15,2671,1261,2130,0,70,1.4,3,0,0,0,0,0,0,0,0,0,0,0,0
2010,5,29,7,0,,15.5,12.4,82,100460,0,0,323,149,433,59,36164,44714,8914,0,160,0.5,0,0,0,0,0,0,0,0,0,0,0,0,0
2010,5,29,8,0,,17.9,13.1,74,100480,0,0,334,331,567,101,58835,58758,13989,0,20,1.3,0,0,0,0,0,0,0,0,0,0,0,0,0
2010,5,29,9,0,,20.1,12.3,61,100440,0,0,344,539,701,126,80313,72584,16476,0,50,3,0,0,0,0,0,0,0,0,0,0,0,0,0
2010,5,29,10,0,,22.1,11.4,51,100420,0,0,364,720,755,156,93346,77800,19416,0,70,3.4,2,0,0,0,0,0,0,0,0,0,0,0,0
2010,5,29,11,0,,23,12,50,100370,0,0,376,744,514,298,85754,49620,37588,0,20,1.3,4,0,0,0,0,0,0,0,0,0,0,0,0
2010,5,29,12,0,,24,8.4,37,100300,0,0,377,825,521,332,88142,51074,40160,0,50,2.4,4,0,0,0,0,0,0,0,0,0,0,0,0
2010,5,29,13,0,,25.2,7.3,32,100240,0,0,384,785,301,493,80189,29779,54619,0,320,1.6,5,0,0,0,0,0,0,0,0,0,0,0,0
2010,5,29,14,0,,26.2,8.6,33,100180,0,0,391,779,327,470,75969,31474,52873,0,50,1.5,5,0,0,0,0,0,0,0,0,0,0,0,0
2010,5,29,15,0,,25.2,6.8,31,100120,0,0,381,729,470,319,62661,45336,36664,0,360,2.5,4,0,0,0,0,0,0,0,0,0,0,0,0
2010,5,29,16,0,,26.1,10.2,37,100090,0,0,393,584,333,334,48578,28423,37536,0,250,2.7,5,0,0,0,0,0,0,0,0,0,0,0,0
2010,5,29,17,0,,24.3,13.2,50,100090,0,0,387,412,280,246,30576,16561,27404,0,270,2,5,0,0,0,0,0,0,0,0,0,0,0,0
2010,5,29,18,0,,23.2,12.7,52,100070,0,0,381,281,345,140,0,0,0,0,290,2.2,5,0,0,0,0,0,0,0,0,0,0,0,0
2010,5,29,19,0,,21.9,12.1,54,100130,0,0,372,131,314,64,0,0,0,0,250,3.7,5,0,0,0,0,0,0,0,0,0,0,0,0
2010,5,29,20,0,,20.5,12.4,60,100190,0,0,364,32,16,16,0,0,0,0,200,4.6,4,0,0,0,0,0,0,0,0,0,0,0,0
2010,5,29,21,0,,19.4,12.6,65,100280,0,0,358,0,0,0,0,0,0,0,200,5.5,4,0,0,0,0,0,0,0,0,0,0,0,0
2010,5,29,22,0,,18.3,12.2,68,100340,0,0,353,0,0,0,0,0,0,0,200,3.8,4,0,0,0,0,0,0,0,0,0,0,0,0
2010,5,29,23,0,,18.1,12.3,69,100380,0,0,353,0,0,0,0,0,0,0,230,2.7,5,0,0,0,0,0,0,0,0,0,0,0,0
2010,5,29,24,0,,17.8,11.8,68,100380,0,0,352,0,0,0,0,0,0,0,200,2.6,5,0,0,0,0,0,0,0,0,0,0,0,0
2010,5,30,1,0,,17.6,11.8,69,100350,0,0,351,0,0,0,0,0,0,0,250,2.2,5,0,0,0,0,0,0,0,0,0,0,0,0
2010,5,30,2,0,,17,12.9,77,100310,0,0,350,0,0,0,0,0,0,0,230,1.8,5,0,0,0,0,0,0,0,0,0,0,0,0
2010,5,30,3,0,,16.7,12.8,78,100320,0,0,348,0,0,0,0,0,0,0,250,0.9,5,0,0,0,0,0,0,0,0,0,0,0,0
2010,5,30,4,0,,16.6,13.3,81,100320,0,0,346,0,0,0,0,0,0,0,20,0.5,4,0,0,0,0,0,0,0,0,0,0,0,0
2010,5,30,5,0,,15.7,13.3,86,100330,0,0,325,0,0,0,0,0,0,0,0,0.2,0,0,0,0,0,0,0,0,0,0,0,0,0
2010,5,30,6,0,,15.6,12.5,82,100380,0,0,337,29,14,15,2713,1302,2155,0,180,0.7,3,0,0,0,0,0,0,0,0,0,0,0,0
2010,5,30,7,0,,16.7,13.4,81,100390,0,0,329,152,451,58,37228,46656,8767,0,230,0.6,0,0,0,0,0,0,0,0,0,0,0,0,0
2010,5,30,8,0,,17.6,13.9,79,100410,0,0,348,307,460,121,53304,46182,18033,0,290,0.7,3,0,0,0,0,0,0,0,0,0,0,0,0
2010,5,30,9,0,,19.8,14.3,71,100380,0,0,362,469,484,185,67849,48259,25382,0,160,0.7,4,0,0,0,0,0,0,0,0,0,0,0,0
2010,5,30,10,0,,20.4,13.3,64,100370,0,0,358,645,562,225,82593,55931,29416,0,180,1.4,2,0,0,0,0,0,0,0,0,0,0,0,0
2010,5,30,11,0,,22.6,13,55,100340,0,0,368,786,609,257,91144,60310,32564,0,20,1.8,2,0,0,0,0,0,0,0,0,0,0,0,0
2010,5,30,12,0,,23.9,11.8,47,100310,0,0,377,837,545,321,89272,52537,39876,0,50,2.5,3,0,0,0,0,0,0,0,0,0,0,0,0
2010,5,30,13,0,,24,11.6,46,100260,0,0,383,789,304,493,81173,29200,56072,0,360,3,5,0,0,0,0,0,0,0,0,0,0,0,0
2010,5,30,14,0,,25.4,12.5,45,100190,0,0,392,747,284,478,73975,26648,54388,0,270,1.3,5,0,0,0,0,0,0,0,0,0,0,0,0
2010,5,30,15,0,,24.7,11.9,45,100140,0,0,391,601,202,424,58774,18568,48100,0,200,1.8,6,0,0,0,0,0,0,0,0,0,0,0,0
2010,5,30,16,0,,24.7,12.2,46,100090,0,0,391,517,225,347,46603,18920,39222,0,230,1.3,6,0,0,0,0,0,0,0,0,0,0,0,0
2010,5,30,17,0,,24.4,13.5,51,100090,0,0,396,349,168,249,30126,13567,27503,0,270,2.3,7,0,0,0,0,0,0,0,0,0,0,0,0
2010,5,30,18,0,,22.8,13.5,56,100080,0,0,402,168,72,138,0,0,0,0,160,3.3,9,0,0,0,0,0,0,0,0,0,0,0,0
2010,5,30,19,0,,19.3,15.5,79,100180,0,0,386,63,36,56,0,0,0,0,200,3.9,9,0,0,0,0,0,0,0,0,0,0,0,0
2010,5,30,20,0,,19.3,12.7,66,100250,0,0,382,13,1,12,0,0,0,0,200,5.1,9,0,0,0,0,0,0,0,0,0,0,0,0
2010,5,30,21,0,,18.7,12.8,69,100340,0,0,379,0,0,0,0,0,0,0,200,4.8,9,0,0,0,0,0,0,0,0,0,0,0,0
2010,5,30,22,0,,18.4,12.6,69,100370,0,0,371,0,0,0,0,0,0,0,180,3.6,8,0,0,0,0,0,0,0,0,0,0,0,0
2010,5,30,23,0,,18.1,12.3,69,100380,0,0,365,0,0,0,0,0,0,0,200,3.5,8,0,0,0,0,0,0,0,0,0,0,0,0
2010,5,30,24,0,,17.5,13.4,77,100410,0,0,360,0,0,0,0,0,0,0,200,4.1,7,0,0,0,0,0,0,0,0,0,0,0,0
2010,5,31,1,0,,17.1,13.9,82,100440,0,0,360,0,0,0,0,0,0,0,230,1.8,7,0,0,0,0,0,0,0,0,0,0,0,0
2010,5,31,2,0,,17.2,13.9,81,100460,0,0,363,0,0,0,0,0,0,0,250,2.5,8,0,0,0,0,0,0,0,0,0,0,0,0
2010,5,31,3,0,,17.1,13.8,81,100450,0,0,364,0,0,0,0,0,0,0,270,0.6,8,0,0,0,0,0,0,0,0,0,0,0,0
2010,5,31,4,0,,16.9,13.6,81,100470,0,0,353,0,0,0,0,0,0,0,0,0.3,6,0,0,0,0,0,0,0,0,0,0,0,0
2010,5,31,5,0,,16.6,13.5,82,100450,0,0,361,0,0,0,0,0,0,0,160,1.2,8,0,0,0,0,0,0,0,0,0,0,0,0
2010,5,31,6,0,,16.4,13.4,83,100490,0,0,368,12,1,11,1493,36,1478,0,90,1,9,0,0,0,0,0,0,0,0,0,0,0,0
2010,5,31,7,0,,17.2,14,82,100530,0,0,365,94,120,69,17865,11263,10989,0,250,1.5,8,0,0,0,0,0,0,0,0,0,0,0,0
2010,5,31,8,0,,17,13.7,81,100570,0,0,354,251,248,151,39577,23659,21497,0,250,2.5,6,0,0,0,0,0,0,0,0,0,0,0,0
2010,5,31,9,0,,18.8,12,65,100570,0,0,355,455,436,198,64890,43599,26505,0,290,1.2,4,0,0,0,0,0,0,0,0,0,0,0,0
2010,5,31,10,0,,20.3,10.1,52,100560,0,0,360,615,483,253,77577,48085,31836,0,340,1.5,4,0,0,0,0,0,0,0,0,0,0,0,0
2010,5,31,11,0,,21.5,9.3,46,100520,0,0,365,741,504,303,85395,49353,37429,0,70,1.2,4,0,0,0,0,0,0,0,0,0,0,0,0
2010,5,31,12,0,,22.6,5.9,34,100480,0,0,363,877,632,279,92949,62842,33818,0,50,3.4,3,0,0,0,0,0,0,0,0,0,0,0,0
2010,5,31,13,0,,23.8,6.1,32,100440,0,0,370,899,619,297,88828,61181,36179,0,20,3.9,3,0,0,0,0,0,0,0,0,0,0,0,0
2010,5,31,14,0,,24.8,7.4,33,100390,0,0,376,862,595,298,78928,57961,36261,0,50,2.9,3,0,0,0,0,0,0,0,0,0,0,0,0
2010,5,31,15,0,,24.3,6.9,33,100350,0,0,376,741,494,309,63198,47698,35713,0,20,3.2,4,0,0,0,0,0,0,0,0,0,0,0,0
2010,5,31,16,0,,24.2,10.8,43,100320,0,0,383,564,293,343,48349,24929,38583,0,340,1.4,5,0,0,0,0,0,0,0,0,0,0,0,0
2010,5,31,17,0,,22.1,11.7,52,100350,0,0,374,402,253,251,30749,15474,27728,0,320,1.9,5,0,0,0,0,0,0,0,0,0,0,0,0
2010,5,31,18,0,,22.3,11,49,100360,0,0,368,309,439,127,12247,0,12247,0,320,1.4,3,0,0,0,0,0,0,0,0,0,0,0,0
2010,5,31,19,0,,20.7,10.4,52,100440,0,0,359,155,420,64,0,0,0,0,250,3.7,3,0,0,0,0,0,0,0,0,0,0,0,0
2010,5,31,20,0,,19.1,10.3,57,100510,0,0,351,35,14,21,0,0,0,0,230,3.5,3,0,0,0,0,0,0,0,0,0,0,0,0
2010,5,31,21,0,,17.7,13.6,77,100590,0,0,348,0,0,0,0,0,0,0,200,5.4,3,0,0,0,0,0,0,0,0,0,0,0,0
2010,5,31,22,0,,16.8,13.8,83,100640,0,0,346,0,0,0,0,0,0,0,200,5.1,4,0,0,0,0,0,0,0,0,0,0,0,0
2010,5,31,23,0,,16.4,13.4,83,100680,0,0,346,0,0,0,0,0,0,0,230,3.4,4,0,0,0,0,0,0,0,0,0,0,0,0
2010,5,31,24,0,,16.3,13,81,100700,0,0,346,0,0,0,0,0,0,0,230,3,5,0,0,0,0,0,0,0,0,0,0,0,0
2007,6,1,1,0,,18.7,12.9,65,100470,0,0,373,0,0,0,0,0,0,0,180,2.7,8,0,0,0,0,0,0,0,0,0,0,0,0
2007,6,1,2,0,,18.4,12.7,66,100420,0,0,374,0,0,0,0,0,0,0,180,2.4,9,0,0,0,0,0,0,0,0,0,0,0,0
2007,6,1,3,0,,18.4,12.6,68,100370,0,0,377,0,0,0,0,0,0,0,200,2.3,9,0,0,0,0,0,0,0,0,0,0,0,0
2007,6,1,4,0,,18.1,12.9,70,100390,0,0,379,0,0,0,0,0,0,0,110,0.6,9,0,0,0,0,0,0,0,0,0,0,0,0
2007,6,1,5,0,,17.6,13.3,75,100400,0,0,381,0,0,0,0,0,0,0,20,0.6,10,0,0,0,0,0,0,0,0,0,0,0,0
2007,6,1,6,0,,17.7,13.6,76,100420,0,0,385,7,0,7,948,7,944,0,340,0.7,10,0,0,0,0,0,0,0,0,0,0,0,0
2007,6,1,7,0,,17.7,13.7,76,100420,0,0,385,51,21,47,7452,2009,6225,0,290,0.6,10,0,0,0,0,0,0,0,0,0,0,0,0
2007,6,1,8,0,,18.2,13.8,76,100410,0,0,388,120,30,108,14947,2723,12866,0,270,1.3,10,0,0,0,0,0,0,0,0,0,0,0,0
2007,6,1,9,0,,19.1,13.9,71,100410,0,0,393,177,26,162,21241,2401,19127,0,180,0.7,10,0,0,0,0,0,0,0,0,0,0,0,0
2007,6,1,10,0,,19.1,13.7,72,100390,0,0,393,237,26,217,27852,2454,25516,0,50,0.9,10,0,0,0,0,0,0,0,0,0,0,0,0
2007,6,1,11,0,,19.9,13.5,68,100370,0,0,397,292,28,268,33804,2646,31231,0,50,1,10,0,0,0,0,0,0,0,0,0,0,0,0
2007,6,1,12,0,,19.6,13.3,66,100350,0,0,395,307,25,284,35199,2309,33025,0,180,1.7,10,0,0,0,0,0,0,0,0,0,0,0,0
2007,6,1,13,0,,20.5,13,62,100310,0,0,400,342,30,313,38585,2843,36137,0,110,1.6,10,0,0,0,0,0,0,0,0,0,0,0,0
2007,6,1,14,0,,20.9,12.7,59,100280,0,0,402,340,32,310,37749,3041,35508,0,90,1.8,10,0,0,0,0,0,0,0,0,0,0,0,0
2007,6,1,15,0,,20.4,12.4,59,100240,0,0,398,299,30,273,32167,2507,30720,0,160,1,10,0,0,0,0,0,0,0,0,0,0,0,0
2007,6,1,16,0,,20.1,12.6,61,100230,0,0,397,239,26,219,24664,2102,23839,0,160,2.5,10,0,0,0,0,0,0,0,0,0,0,0,0
2007,6,1,17,0,,20.2,12.9,62,100210,0,0,398,178,25,163,17113,1676,16784,0,200,2,10,0,0,0,0,0,0,0,0,0,0,0,0
2007,6,1,18,0,,19.6,13.1,65,100200,0,0,395,117,26,106,9235,5642,9227,0,180,1.8,10,0,0,0,0,0,0,0,0,0,0,0,0
2007,6,1,19,0,,19.3,13,66,100220,0,0,393,62,32,55,0,0,0,0,180,2.4,10,0,0,0,0,0,0,0,0,0,0,0,0
2007,6,1,20,0,,19.1,12.9,67,100230,0,0,392,8,0,8,0,0,0,0,160,1.2,10,0,0,0,0,0,0,0,0,0,0,0,0
2007,6,1,21,0,,18.8,12.8,67,100250,0,0,390,0,0,0,0,0,0,0,90,1,10,0,0,0,0,0,0,0,0,0,0,0,0
2007,6,1,22,0,,18.3,12.7,68,100230,0,0,383,0,0,0,0,0,0,0,180,1.7,10,0,0,0,0,0,0,0,0,0,0,0,0
2007,6,1,23,0,,17.9,12.6,69,100200,0,0,378,0,0,0,0,0,0,0,90,1.3,9,0,0,0,0,0,0,0,0,0,0,0,0
2007,6,1,24,0,,18,12.5,69,100180,0,0,375,0,0,0,0,0,0,0,90,0.8,9,0,0,0,0,0,0,0,0,0,0,0,0
2007,6,2,1,0,,18.1,12.4,69,100160,0,0,375,0,0,0,0,0,0,0,20,1.3,9,0,0,0,0,0,0,0,0,0,0,0,0
2007,6,2,2,0,,18,12.4,67,100140,0,0,375,0,0,0,0,0,0,0,20,1,9,0,0,0,0,0,0,0,0,0,0,0,0
2007,6,2,3,0,,17.8,12.3,69,100120,0,0,374,0,0,0,0,0,0,0,20,1,9,0,0,0,0,0,0,0,0,0,0,0,0
2007,6,2,4,0,,17.8,12.5,69,100120,0,0,374,0,0,0,0,0,0,0,20,2.1,9,0,0,0,0,0,0,0,0,0,0,0,0
2007,6,2,5,0,,17.4,12.7,72,100130,0,0,372,0,0,0,0,0,0,0,50,1.7,9,0,0,0,0,0,0,0,0,0,0,0,0
2007,6,2,6,0,,17.3,12.9,74,100130,0,0,372,13,1,12,1651,48,1630,0,20,1.9,9,0,0,0,0,0,0,0,0,0,0,0,0
2007,6,2,7,0,,18,12.7,70,100150,0,0,375,79,72,64,13211,6810,9048,0,50,3.3,9,0,0,0,0,0,0,0,0,0,0,0,0
2007,6,2,8,0,,18.8,12.6,68,100170,0,0,379,180,93,143,24635,9026,17731,0,50,3.3,9,0,0,0,0,0,0,0,0,0,0,0,0
2007,6,2,9,0,,20.2,12.4,60,100190,0,0,386,278,91,225,34976,8875,27157,0,70,2.6,9,0,0,0,0,0,0,0,0,0,0,0,0
2007,6,2,10,0,,20.7,13,59,100200,0,0,387,356,81,296,42640,7794,35221,0,70,2.6,9,0,0,0,0,0,0,0,0,0,0,0,0
2007,6,2,11,0,,22.5,13.6,57,100210,0,0,394,520,136,401,59520,12984,46889,0,70,2.2,8,0,0,0,0,0,0,0,0,0,0,0,0
2007,6,2,12,0,,23.3,14.2,56,100220,0,0,397,562,127,442,62639,11956,51375,0,70,2.5,8,0,0,0,0,0,0,0,0,0,0,0,0
2007,6,2,13,0,,22.1,14.4,62,100190,0,0,396,466,70,399,51399,6580,45727,0,70,4.1,9,0,0,0,0,0,0,0,0,0,0,0,0
2007,6,2,14,0,,22.6,14.5,61,100150,0,0,406,427,59,370,46475,5606,42338,0,70,3.8,9,0,0,0,0,0,0,0,0,0,0,0,0
2007,6,2,15,0,,22.7,14.7,60,100120,0,0,414,282,25,260,30414,2011,29251,0,70,2.5,10,0,0,0,0,0,0,0,0,0,0,0,0
2007,6,2,16,0,,22.6,14.7,61,100110,0,0,414,266,35,239,26930,2894,25788,0,70,3.7,10,0,0,0,0,0,0,0,0,0,0,0,0
2007,6,2,17,0,,21.3,14.8,66,100100,0,0,406,181,26,165,17311,1712,16972,0,70,4.2,10,0,0,0,0,0,0,0,0,0,0,0,0
2007,6,2,18,0,,21.2,14.8,66,100090,0,0,406,116,25,106,9242,5206,9225,0,90,2.6,10,0,0,0,0,0,0,0,0,0,0,0,0
2007,6,2,19,0,,20.8,14.9,68,100120,0,0,396,73,50,62,0,0,0,0,90,1.9,9,0,0,0,0,0,0,0,0,0,0,0,0
2007,6,2,20,0,,20.6,14.9,69,100150,0,0,389,16,2,14,0,0,0,0,50,2.5,9,0,0,0,0,0,0,0,0,0,0,0,0
2007,6,2,21,0,,20,15,72,100180,0,0,380,0,0,0,0,0,0,0,50,3.3,8,0,0,0,0,0,0,0,0,0,0,0,0
2007,6,2,22,0,,19.5,15.2,75,100210,0,0,378,0,0,0,0,0,0,0,50,2.3,8,0,0,0,0,0,0,0,0,0,0,0,0
2007,6,2,23,0,,19.5,15.4,75,100230,0,0,378,0,0,0,0,0,0,0,50,2.2,8,0,0,0,0,0,0,0,0,0,0,0,0
2007,6,2,24,0,,18.9,15.6,80,100260,0,0,375,0,0,0,0,0,0,0,20,2.5,8,0,0,0,0,0,0,0,0,0,0,0,0
2007,6,3,1,0,,18.5,15.4,81,100240,0,0,362,0,0,0,0,0,0,0,50,2.9,6,0,0,0,0,0,0,0,0,0,0,0,0
2007,6,3,2,0,,18,15.2,83,100230,0,0,353,0,0,0,0,0,0,0,70,2.3,3,0,0,0,0,0,0,0,0,0,0,0,0
2007,6,3,3,0,,17.5,15,84,100210,0,0,341,0,0,0,0,0,0,0,20,2.4,1,0,0,0,0,0,0,0,0,0,0,0,0
2007,6,3,4,0,,17.2,15,86,100240,0,0,349,0,0,0,0,0,0,0,50,2.7,3,0,0,0,0,0,0,0,0,0,0,0,0
2007,6,3,5,0,,16.9,15,87,100260,0,0,354,0,0,0,0,0,0,0,20,1.4,6,0,0,0,0,0,0,0,0,0,0,0,0
2007,6,3,6,0,,17.9,15,82,100290,0,0,370,18,3,15,1943,247,1836,0,50,2,8,0,0,0,0,0,0,0,0,0,0,0,0
2007,6,3,7,0,,18.9,15.1,78,100300,0,0,362,142,353,68,32769,35214,11231,0,70,3.2,5,0,0,0,0,0,0,0,0,0,0,0,0
2007,6,3,8,0,,21.1,15.2,68,100300,0,0,366,346,619,94,62341,64402,13063,0,50,2.9,3,0,0,0,0,0,0,0,0,0,0,0,0
2007,6,3,9,0,,23,15.3,61,100310,0,0,361,538,690,130,80155,71649,17006,0,50,3.3,0,0,0,0,0,0,0,0,0,0,0,0,0
2007,6,3,10,0,,24.4,15.1,54,100310,0,0,383,673,630,201,86892,62743,27138,0,50,2.6,3,0,0,0,0,0,0,0,0,0,0,0,0
2007,6,3,11,0,,25.1,14.8,51,100320,0,0,394,685,303,421,77666,28342,50081,0,90,1.7,5,0,0,0,0,0,0,0,0,0,0,0,0
2007,6,3,12,0,,24.3,14.6,54,100320,0,0,403,533,109,429,59754,10268,50072,0,50,2.3,8,0,0,0,0,0,0,0,0,0,0,0,0
2007,6,3,13,0,,25.1,14.5,52,100290,0,0,403,593,133,463,64307,12429,53581,0,200,1.4,7,0,0,0,0,0,0,0,0,0,0,0,0
2007,6,3,14,0,,26.2,14.4,47,100260,0,0,405,602,151,459,63060,13917,52774,0,70,1.5,7,0,0,0,0,0,0,0,0,0,0,0,0
2007,6,3,15,0,,26.3,14.3,47,100230,0,0,403,627,226,429,60881,20282,49121,0,50,2.4,6,0,0,0,0,0,0,0,0,0,0,0,0
2007,6,3,16,0,,25.8,14.7,50,100230,0,0,399,517,221,350,47129,18161,39939,0,70,2.2,6,0,0,0,0,0,0,0,0,0,0,0,0
2007,6,3,17,0,,26.5,15,49,100220,0,0,402,436,322,243,31211,19100,27393,0,250,1,5,0,0,0,0,0,0,0,0,0,0,0,0
2007,6,3,18,0,,26.8,15.4,49,100220,0,0,403,301,388,139,13899,0,13899,0,230,1.5,5,0,0,0,0,0,0,0,0,0,0,0,0
2007,6,3,19,0,,25.1,15.9,54,100270,0,0,395,150,351,72,0,0,0,0,180,2.2,5,0,0,0,0,0,0,0,0,0,0,0,0
2007,6,3,20,0,,23.9,16.3,57,100320,0,0,389,32,13,18,0,0,0,0,180,1.9,5,0,0,0,0,0,0,0,0,0,0,0,0
2007,6,3,21,0,,23.1,16.8,67,100370,0,0,385,0,0,0,0,0,0,0,250,1.4,5,0,0,0,0,0,0,0,0,0,0,0,0
2007,6,3,22,0,,22.1,16.5,71,100390,0,0,378,0,0,0,0,0,0,0,200,0.6,5,0,0,0,0,0,0,0,0,0,0,0,0
2007,6,3,23,0,,21.3,16.3,71,100400,0,0,373,0,0,0,0,0,0,0,140,0.6,4,0,0,0,0,0,0,0,0,0,0,0,0
2007,6,3,24,0,,21,16,72,100420,0,0,370,0,0,0,0,0,0,0,180,0.9,4,0,0,0,0,0,0,0,0,0,0,0,0
2007,6,4,1,0,,20.3,16.2,81,100430,0,0,366,0,0,0,0,0,0,0,250,1.6,4,0,0,0,0,0,0,0,0,0,0,0,0
2007,6,4,2,0,,19.3,16.5,82,100450,0,0,361,0,0,0,0,0,0,0,200,2.8,3,0,0,0,0,0,0,0,0,0,0,0,0
2007,6,4,3,0,,18.9,16.7,86,100460,0,0,358,0,0,0,0,0,0,0,200,1.6,3,0,0,0,0,0,0,0,0,0,0,0,0
2007,6,4,4,0,,18.3,16.7,90,100460,0,0,353,0,0,0,0,0,0,0,200,1.1,2,0,0,0,0,0,0,0,0,0,0,0,0
2007,6,4,5,0,,18,16.7,90,100450,0,0,349,0,0,0,0,0,0,0,0,0.1,2,0,0,0,0,0,0,0,0,0,0,0,0
2007,6,4,6,0,,18.2,16.7,90,100450,0,0,346,33,20,14,2977,1667,2257,0,20,1.3,1,0,0,0,0,0,0,0,0,0,0,0,0
2007,6,4,7,0,,19.4,16.6,83,100460,0,0,358,155,452,59,37716,46948,8986,0,50,0.9,2,0,0,0,0,0,0,0,0,0,0,0,0
2007,6,4,8,0,,21,16.5,75,100470,0,0,370,311,466,121,53824,46515,18221,0,20,0.7,4,0,0,0,0,0,0,0,0,0,0,0,0
2007,6,4,9,0,,22.9,16.4,66,100480,0,0,383,448,409,206,62363,38280,28614,0,110,0.5,5,0,0,0,0,0,0,0,0,0,0,0,0
2007,6,4,10,0,,24.4,16,60,100460,0,0,391,591,419,277,73971,39283,36547,0,20,1.1,5,0,0,0,0,0,0,0,0,0,0,0,0
2007,6,4,11,0,,25.5,15.7,54,100430,0,0,396,694,316,419,78766,29317,50218,0,20,1.8,5,0,0,0,0,0,0,0,0,0,0,0,0
2007,6,4,12,0,,25.1,15.3,54,100410,0,0,394,716,250,480,78262,23186,56387,0,360,1.9,5,0,0,0,0,0,0,0,0,0,0,0,0
2007,6,4,13,0,,26.8,15.3,47,100340,0,0,405,686,199,492,72779,18389,56895,0,360,1,6,0,0,0,0,0,0,0,0,0,0,0,0
2007,6,4,14,0,,27.3,15.2,47,100270,0,0,411,675,207,478,69043,18917,55041,0,20,2.1,6,0,0,0,0,0,0,0,0,0,0,0,0
2007,6,4,15,0,,27.3,15.2,47,100200,0,0,414,570,171,420,56881,16150,47496,0,230,1.3,7,0,0,0,0,0,0,0,0,0,0,0,0
2007,6,4,16,0,,27.4,15.9,44,100190,0,0,422,406,111,322,40264,9980,36298,0,290,1.3,8,0,0,0,0,0,0,0,0,0,0,0,0
2007,6,4,17,0,,26.7,16.6,54,100180,0,0,428,264,74,220,25693,5757,24533,0,230,3.6,9,0,0,0,0,0,0,0,0,0,0,0,0
2007,6,4,18,0,,25.2,17.3,61,100170,0,0,432,122,28,110,9660,5610,9621,0,230,4.3,10,0,0,0,0,0,0,0,0,0,0,0,0
2007,6,4,19,0,,23.6,16.8,63,100210,0,0,422,48,14,45,0,0,0,0,290,1.6,10,0,0,0,0,0,0,0,0,0,0,0,0
2007,6,4,20,0,,22.7,16.2,64,100250,0,0,416,7,0,7,0,0,0,0,270,1.5,10,0,0,0,0,0,0,0,0,0,0,0,0
2007,6,4,21,0,,22.2,15.7,66,100290,0,0,413,0,0,0,0,0,0,0,250,1.7,10,0,0,0,0,0,0,0,0,0,0,0,0
2007,6,4,22,0,,21.9,16,70,100290,0,0,404,0,0,0,0,0,0,0,250,1.1,9,0,0,0,0,0,0,0,0,0,0,0,0
2007,6,4,23,0,,21,16.3,74,100290,0,0,393,0,0,0,0,0,0,0,230,1.7,9,0,0,0,0,0,0,0,0,0,0,0,0
2007,6,4,24,0,,20.8,16.6,76,100290,0,0,387,0,0,0,0,0,0,0,250,1.4,8,0,0,0,0,0,0,0,0,0,0,0,0
2007,6,5,1,0,,20.4,16.7,80,100280,0,0,385,0,0,0,0,0,0,0,200,1.2,8,0,0,0,0,0,0,0,0,0,0,0,0
2007,6,5,2,0,,20,16.9,83,100260,0,0,383,0,0,0,0,0,0,0,270,0.8,8,0,0,0,0,0,0,0,0,0,0,0,0
2007,6,5,3,0,,20,17,82,100250,0,0,383,0,0,0,0,0,0,0,250,1,8,0,0,0,0,0,0,0,0,0,0,0,0
2007,6,5,4,0,,19.7,17.1,85,100250,0,0,377,0,0,0,0,0,0,0,200,1,7,0,0,0,0,0,0,0,0,0,0,0,0
2007,6,5,5,0,,19.5,17.3,86,100240,0,0,373,0,0,0,0,0,0,0,250,0.5,7,0,0,0,0,0,0,0,0,0,0,0,0
2007,6,5,6,0,,19.1,17.4,89,100240,0,0,369,23,6,17,2348,518,2124,0,0,0.4,6,0,0,0,0,0,0,0,0,0,0,0,0
2007,6,5,7,0,,20.1,17.4,85,100240,0,0,376,105,158,71,20465,14446,11621,0,0,0.2,7,0,0,0,0,0,0,0,0,0,0,0,0
2007,6,5,8,0,,22.2,17.3,74,100240,0,0,391,242,216,154,37861,20036,22522,0,230,1.2,7,0,0,0,0,0,0,0,0,0,0,0,0
2007,6,5,9,0,,22.9,17.3,70,100240,0,0,399,330,145,244,43111,13258,31419,0,230,1.7,8,0,0,0,0,0,0,0,0,0,0,0,0
2007,6,5,10,0,,24.1,17.1,65,100210,0,0,399,484,189,343,58981,17219,42571,0,250,2,7,0,0,0,0,0,0,0,0,0,0,0,0
2007,6,5,11,0,,24.5,17,64,100170,0,0,396,594,197,423,67689,18186,49972,0,250,1.5,6,0,0,0,0,0,0,0,0,0,0,0,0
2007,6,5,12,0,,25.8,16.8,57,100140,0,0,399,730,264,480,79847,23993,57196,0,250,2.9,5,0,0,0,0,0,0,0,0,0,0,0,0
2007,6,5,13,0,,27.2,16.7,54,100100,0,0,407,785,296,496,82095,26826,58902,0,230,3.8,5,0,0,0,0,0,0,0,0,0,0,0,0
2007,6,5,14,0,,27.6,16.7,51,100070,0,0,409,769,306,478,75853,27523,55453,0,230,3.5,5,0,0,0,0,0,0,0,0,0,0,0,0
2007,6,5,15,0,,27.5,16.6,51,100030,0,0,409,690,300,427,64731,26324,49402,0,250,3.6,5,0,0,0,0,0,0,0,0,0,0,0,0
2007,6,5,16,0,,27.6,16.8,52,100020,0,0,412,521,223,352,47705,17922,40557,0,250,3.1,6,0,0,0,0,0,0,0,0,0,0,0,0
2007,6,5,17,0,,26.4,17,55,100000,0,0,408,402,242,255,31839,14002,28994,0,250,4.6,6,0,0,0,0,0,0,0,0,0,0,0,0
2007,6,5,18,0,,25.3,17.2,60,99990,0,0,405,228,162,160,16987,11620,16886,0,270,2.8,7,0,0,0,0,0,0,0,0,0,0,0,0
2007,6,5,19,0,,24.5,17.6,65,100040,0,0,398,127,227,75,0,0,0,0,270,3.3,6,0,0,0,0,0,0,0,0,0,0,0,0
2007,6,5,20,0,,23.2,18,71,100080,0,0,389,29,10,19,0,0,0,0,270,3.9,6,0,0,0,0,0,0,0,0,0,0,0,0
2007,6,5,21,0,,22,18.4,79,100130,0,0,381,0,0,0,0,0,0,0,250,3.1,5,0,0,0,0,0,0,0,0,0,0,0,0
2007,6,5,22,0,,21.1,18.2,82,100150,0,0,381,0,0,0,0,0,0,0,230,2.7,6,0,0,0,0,0,0,0,0,0,0,0,0
2007,6,5,23,0,,21.4,18.1,81,100180,0,0,389,0,0,0,0,0,0,0,250,1.7,8,0,0,0,0,0,0,0,0,0,0,0,0
2007,6,5,24,0,,21.5,17.9,79,100200,0,0,400,0,0,0,0,0,0,0,270,2.3,9,0,0,0,0,0,0,0,0,0,0,0,0
2007,6,6,1,0,,21,18,82,100190,0,0,401,0,0,0,0,0,0,0,250,2.4,9,0,0,0,0,0,0,0,0,0,0,0,0
2007,6,6,2,0,,20.5,18,84,100190,0,0,402,0,0,0,0,0,0,0,270,2.7,10,0,0,0,0,0,0,0,0,0,0,0,0
2007,6,6,3,0,,20.2,18.1,87,100180,0,0,405,0,0,0,0,0,0,0,270,0.5,10,0,0,0,0,0,0,0,0,0,0,0,0
2007,6,6,4,0,,20.1,18,83,100210,0,0,400,0,0,0,0,0,0,0,270,0.7,10,0,0,0,0,0,0,0,0,0,0,0,0
2007,6,6,5,0,,20,17.8,84,100230,0,0,396,0,0,0,0,0,0,0,270,1.2,9,0,0,0,0,0,0,0,0,0,0,0,0
2007,6,6,6,0,,19.8,17.7,87,100260,0,0,391,13,1,12,1603,36,1588,0,250,1.8,9,0,0,0,0,0,0,0,0,0,0,0,0
2007,6,6,7,0,,20.1,17.5,84,100270,0,0,380,106,159,72,20550,14486,11680,0,230,1,7,0,0,0,0,0,0,0,0,0,0,0,0
2007,6,6,8,0,,21.1,17.4,77,100290,0,0,377,252,244,152,39607,22562,22331,0,200,1.4,6,0,0,0,0,0,0,0,0,0,0,0,0
2007,6,6,9,0,,22.3,17.2,72,100300,0,0,378,442,390,212,61413,36238,29450,0,20,0.5,4,0,0,0,0,0,0,0,0,0,0,0,0
2007,6,6,10,0,,23.3,16.7,67,100280,0,0,386,563,298,340,68154,27396,42039,0,230,1.5,5,0,0,0,0,0,0,0,0,0,0,0,0
2007,6,6,11,0,,24.8,16.1,58,100250,0,0,397,641,246,427,73349,22685,51241,0,250,2.5,6,0,0,0,0,0,0,0,0,0,0,0,0
2007,6,6,12,0,,25.4,15.6,54,100230,0,0,404,630,172,467,69487,16002,54372,0,250,2,7,0,0,0,0,0,0,0,0,0,0,0,0
2007,6,6,13,0,,26.2,15.7,52,100180,0,0,409,634,159,479,68241,14638,55573,0,290,1.7,7,0,0,0,0,0,0,0,0,0,0,0,0
2007,6,6,14,0,,26.4,15.9,54,100140,0,0,410,618,161,465,64715,14690,53812,0,270,2.9,7,0,0,0,0,0,0,0,0,0,0,0,0
2007,6,6,15,0,,27.1,16,50,100090,0,0,414,561,163,418,56305,15280,47389,0,250,1.8,7,0,0,0,0,0,0,0,0,0,0,0,0
2007,6,6,16,0,,26.7,16.4,56,100090,0,0,414,458,153,342,44004,13849,38462,0,320,1.5,7,0,0,0,0,0,0,0,0,0,0,0,0
2007,6,6,17,0,,25.9,16.9,57,100080,0,0,412,309,112,241,28655,8877,26837,0,250,2.5,8,0,0,0,0,0,0,0,0,0,0,0,0
2007,6,6,18,0,,25.7,17.3,59,100080,0,0,414,201,111,154,16390,7694,16310,0,270,2.5,8,0,0,0,0,0,0,0,0,0,0,0,0
2007,6,6,19,0,,24,16.9,62,100170,0,0,404,99,107,75,0,0,0,0,250,3.6,8,0,0,0,0,0,0,0,0,0,0,0,0
2007,6,6,20,0,,22.5,16.6,64,100260,0,0,396,20,3,17,0,0,0,0,320,2.1,8,0,0,0,0,0,0,0,0,0,0,0,0
2007,6,6,21,0,,21.3,16.2,72,100350,0,0,389,0,0,0,0,0,0,0,360,1.2,8,0,0,0,0,0,0,0,0,0,0,0,0
2007,6,6,22,0,,21.4,16.3,72,100320,0,0,378,0,0,0,0,0,0,0,0,0.3,6,0,0,0,0,0,0,0,0,0,0,0,0
2007,6,6,23,0,,20.4,16.5,78,100300,0,0,366,0,0,0,0,0,0,0,230,2.2,3,0,0,0,0,0,0,0,0,0,0,0,0
2007,6,6,24,0,,19.6,16.6,82,100270,0,0,353,0,0,0,0,0,0,0,200,2,1,0,0,0,0,0,0,0,0,0,0,0,0
2007,6,7,1,0,,19.3,16.6,83,100220,0,0,361,0,0,0,0,0,0,0,230,0.8,3,0,0,0,0,0,0,0,0,0,0,0,0
2007,6,7,2,0,,19.1,16.5,85,100160,0,0,366,0,0,0,0,0,0,0,200,2.9,6,0,0,0,0,0,0,0,0,0,0,0,0
2007,6,7,3,0,,19.3,16.5,83,100110,0,0,379,0,0,0,0,0,0,0,180,2.1,8,0,0,0,0,0,0,0,0,0,0,0,0
2007,6,7,4,0,,18.9,16.5,85,100150,0,0,382,0,0,0,0,0,0,0,230,1.8,9,0,0,0,0,0,0,0,0,0,0,0,0
2007,6,7,5,0,,18.7,16.6,87,100180,0,0,387,0,0,0,0,0,0,0,200,2,9,0,0,0,0,0,0,0,0,0,0,0,0
2007,6,7,6,0,,19,16.6,85,100220,0,0,396,7,0,7,920,7,917,0,230,1.2,10,0,0,0,0,0,0,0,0,0,0,0,0
2007,6,7,7,0,,19.8,16.5,80,100230,0,0,384,97,124,71,18430,11401,11447,0,230,1.6,8,0,0,0,0,0,0,0,0,0,0,0,0
2007,6,7,8,0,,20.1,16.5,80,100250,0,0,375,227,176,155,33177,16253,20730,0,180,2,7,0,0,0,0,0,0,0,0,0,0,0,0
2007,6,7,9,0,,21.7,16.4,71,100260,0,0,377,425,313,240,58218,29242,32421,0,250,1,5,0,0,0,0,0,0,0,0,0,0,0,0
2007,6,7,10,0,,23.1,16.1,64,100250,0,0,385,566,301,339,68381,27900,41778,0,180,1,5,0,0,0,0,0,0,0,0,0,0,0,0
2007,6,7,11,0,,24.7,15.9,58,100240,0,0,395,639,244,427,73083,22520,51126,0,270,1.5,6,0,0,0,0,0,0,0,0,0,0,0,0
2007,6,7,12,0,,25.4,15.6,54,100230,0,0,399,697,230,479,75880,21319,55729,0,340,1.5,6,0,0,0,0,0,0,0,0,0,0,0,0
2007,6,7,13,0,,26.3,15.2,50,100160,0,0,399,787,297,496,81884,27466,58096,0,200,4.8,5,0,0,0,0,0,0,0,0,0,0,0,0
2007,6,7,14,0,,28,14.8,46,100090,0,0,404,847,551,321,78656,51283,40544,0,200,3.7,3,0,0,0,0,0,0,0,0,0,0,0,0
2007,6,7,15,0,,29.2,14.4,40,100020,0,0,405,813,645,245,66424,58960,31948,0,250,2.4,2,0,0,0,0,0,0,0,0,0,0,0,0
2007,6,7,16,0,,26.5,14.3,53,100010,0,0,397,608,434,278,47830,35962,33388,0,320,3.3,4,0,0,0,0,0,0,0,0,0,0,0,0
2007,6,7,17,0,,24.3,14.2,51,100010,0,0,392,382,204,258,31924,16690,28482,0,250,4.6,6,0,0,0,0,0,0,0,0,0,0,0,0
2007,6,7,18,0,,24.1,14.1,53,100000,0,0,401,169,67,140,14882,4513,14828,0,360,1.2,8,0,0,0,0,0,0,0,0,0,0,0,0
2007,6,7,19,0,,22.7,14.8,65,100020,0,0,390,111,147,78,0,0,0,0,200,2,7,0,0,0,0,0,0,0,0,0,0,0,0
2007,6,7,20,0,,22,15.6,69,100050,0,0,384,26,7,20,0,0,0,0,230,1.4,7,0,0,0,0,0,0,0,0,0,0,0,0
2007,6,7,21,0,,21.6,16.3,71,100070,0,0,380,0,0,0,0,0,0,0,200,1.5,6,0,0,0,0,0,0,0,0,0,0,0,0
2007,6,7,22,0,,21.1,16.3,71,100120,0,0,377,0,0,0,0,0,0,0,0,0.2,6,0,0,0,0,0,0,0,0,0,0,0,0
2007,6,7,23,0,,20.7,16.2,74,100160,0,0,375,0,0,0,0,0,0,0,250,1.6,6,0,0,0,0,0,0,0,0,0,0,0,0
2007,6,7,24,0,,20.4,16.2,76,100210,0,0,374,0,0,0,0,0,0,0,230,1,6,0,0,0,0,0,0,0,0,0,0,0,0
2007,6,8,1,0,,20.5,16.3,75,100200,0,0,374,0,0,0,0,0,0,0,180,0.9,6,0,0,0,0,0,0,0,0,0,0,0,0
2007,6,8,2,0,,20.5,16.3,75,100200,0,0,374,0,0,0,0,0,0,0,250,0.9,6,0,0,0,0,0,0,0,0,0,0,0,0
2007,6,8,3,0,,19.6,16.4,81,100190,0,0,370,0,0,0,0,0,0,0,290,0.9,6,0,0,0,0,0,0,0,0,0,0,0,0
2007,6,8,4,0,,18.7,16.5,87,100200,0,0,365,0,0,0,0,0,0,0,250,1.3,6,0,0,0,0,0,0,0,0,0,0,0,0
2007,6,8,5,0,,18.9,16.6,86,100210,0,0,367,0,0,0,0,0,0,0,230,0.8,6,0,0,0,0,0,0,0,0,0,0,0,0
2007,6,8,6,0,,18.4,16.7,89,100220,0,0,364,24,7,17,2413,563,2169,0,270,1,6,0,0,0,0,0,0,0,0,0,0,0,0
2007,6,8,7,0,,19.4,16.4,84,100220,0,0,364,143,345,69,32517,34279,11520,0,0,0,4,0,0,0,0,0,0,0,0,0,0,0,0
2007,6,8,8,0,,20.9,16.1,78,100230,0,0,366,321,505,114,56132,50590,17385,0,270,1.6,3,0,0,0,0,0,0,0,0,0,0,0,0
2007,6,8,9,0,,22.3,15.8,66,100230,0,0,365,514,613,151,75339,63352,19444,0,230,1.6,1,0,0,0,0,0,0,0,0,0,0,0,0
2007,6,8,10,0,,23.2,15.6,62,100190,0,0,376,646,557,228,82533,55039,30041,0,270,0.9,2,0,0,0,0,0,0,0,0,0,0,0,0
2007,6,8,11,0,,25.2,15.5,54,100150,0,0,391,713,434,335,82157,40726,42435,0,230,0.8,4,0,0,0,0,0,0,0,0,0,0,0,0
2007,6,8,12,0,,25.7,15.3,52,100110,0,0,397,742,277,479,80698,25692,56401,0,230,2.2,5,0,0,0,0,0,0,0,0,0,0,0,0
2007,6,8,13,0,,25.6,15.4,51,100040,0,0,395,787,297,497,81944,27376,58214,0,250,1.9,4,0,0,0,0,0,0,0,0,0,0,0,0
2007,6,8,14,0,,27.1,15.6,48,99980,0,0,401,775,311,478,76284,28376,55170,0,290,1.4,4,0,0,0,0,0,0,0,0,0,0,0,0
2007,6,8,15,0,,27.9,15.7,47,99910,0,0,403,745,487,316,64069,43374,38657,0,270,2.3,3,0,0,0,0,0,0,0,0,0,0,0,0
2007,6,8,16,0,,28.2,16.4,45,99920,0,0,412,606,426,281,48228,34285,34414,0,250,3,5,0,0,0,0,0,0,0,0,0,0,0,0
2007,6,8,17,0,,26.2,17.1,59,99940,0,0,410,359,169,256,31270,13497,28466,0,270,3.9,7,0,0,0,0,0,0,0,0,0,0,0,0
2007,6,8,18,0,,23.4,17.8,70,99950,0,0,411,135,35,120,10568,6747,10476,0,290,2.2,9,0,0,0,0,0,0,0,0,0,0,0,0
2007,6,8,19,0,,22.2,17.4,70,100000,0,0,407,64,29,57,0,0,0,0,250,3.6,9,0,0,0,0,0,0,0,0,0,0,0,0
2007,6,8,20,0,,21.1,17.1,75,100040,0,0,404,6,0,6,0,0,0,0,270,2.6,10,0,0,0,0,0,0,0,0,0,0,0,0
2007,6,8,21,0,,20.9,16.7,76,100090,0,0,407,0,0,0,0,0,0,0,290,1.3,10,0,0,0,0,0,0,0,0,0,0,0,0
2007,6,8,22,0,,20.8,17,75,100130,0,0,407,0,0,0,0,0,0,0,270,1.6,10,0,0,0,0,0,0,0,0,0,0,0,0
2007,6,8,23,0,,20.5,17.4,77,100160,0,0,405,0,0,0,0,0,0,0,290,1.4,10,0,0,0,0,0,0,0,0,0,0,0,0
2007,6,8,24,0,,19.4,17.7,89,100200,0,0,400,0,0,0,0,0,0,0,50,1,10,0,0,0,0,0,0,0,0,0,0,0,0
2007,6,9,1,0,,19.8,17.8,86,100160,0,0,398,0,0,0,0,0,0,0,320,0.6,10,0,0,0,0,0,0,0,0,0,0,0,0
2007,6,9,2,0,,19.6,17.8,86,100120,0,0,394,0,0,0,0,0,0,0,20,0.6,9,0,0,0,0,0,0,0,0,0,0,0,0
2007,6,9,3,0,,19.4,17.9,90,100080,0,0,389,0,0,0,0,0,0,0,250,1.7,9,0,0,0,0,0,0,0,0,0,0,0,0
2007,6,9,4,0,,19.4,17.7,89,100100,0,0,381,0,0,0,0,0,0,0,250,1.3,8,0,0,0,0,0,0,0,0,0,0,0,0
2007,6,9,5,0,,19.1,17.4,88,100120,0,0,373,0,0,0,0,0,0,0,20,0.7,7,0,0,0,0,0,0,0,0,0,0,0,0
2007,6,9,6,0,,19.1,17.2,88,100140,0,0,368,24,7,18,2434,578,2184,0,50,0.7,6,0,0,0,0,0,0,0,0,0,0,0,0
2007,6,9,7,0,,19.9,16.9,85,100170,0,0,371,124,256,69,27106,25464,11508,0,70,0.9,6,0,0,0,0,0,0,0,0,0,0,0,0
2007,6,9,8,0,,21.5,16.7,76,100200,0,0,378,293,385,135,49387,38319,20038,0,20,1.7,5,0,0,0,0,0,0,0,0,0,0,0,0
2007,6,9,9,0,,22.4,16.4,68,100230,0,0,381,434,335,235,59616,31357,31948,0,160,0.7,5,0,0,0,0,0,0,0,0,0,0,0,0
2007,6,9,10,0,,22.2,15.4,66,100210,0,0,377,583,332,333,71973,31231,42181,0,230,1.4,4,0,0,0,0,0,0,0,0,0,0,0,0
2007,6,9,11,0,,24,14.5,56,100200,0,0,383,694,314,420,78609,29541,49787,0,320,1.3,4,0,0,0,0,0,0,0,0,0,0,0,0
2007,6,9,12,0,,26.1,13.5,45,100180,0,0,391,844,552,319,89930,52559,40197,0,340,1.9,3,0,0,0,0,0,0,0,0,0,0,0,0
2007,6,9,13,0,,26.4,12.2,36,100140,0,0,388,910,631,293,89312,61451,36000,0,340,1.9,2,0,0,0,0,0,0,0,0,0,0,0,0
2007,6,9,14,0,,26.4,10.8,34,100090,0,0,384,869,597,299,79726,57184,37123,0,360,2.5,2,0,0,0,0,0,0,0,0,0,0,0,0
2007,6,9,15,0,,26.9,9.5,33,100050,0,0,381,774,554,286,65546,52133,34946,0,20,2.8,1,0,0,0,0,0,0,0,0,0,0,0,0
2007,6,9,16,0,,27.2,10.4,35,100050,0,0,386,679,608,214,48255,53131,26780,0,20,3,1,0,0,0,0,0,0,0,0,0,0,0,0
2007,6,9,17,0,,26.9,11.3,37,100060,0,0,387,526,603,159,27744,39811,19418,0,20,4.1,2,0,0,0,0,0,0,0,0,0,0,0,0
2007,6,9,18,0,,25.9,12.2,42,100060,0,0,384,356,588,105,9939,0,9939,0,50,3.2,2,0,0,0,0,0,0,0,0,0,0,0,0
2007,6,9,19,0,,22.6,13.1,63,100150,0,0,367,167,430,68,0,0,0,0,200,3.8,2,0,0,0,0,0,0,0,0,0,0,0,0
2007,6,9,20,0,,21.2,14,67,100230,0,0,359,39,23,17,0,0,0,0,200,3.3,1,0,0,0,0,0,0,0,0,0,0,0,0
2007,6,9,21,0,,20.1,14.9,71,100320,0,0,353,0,0,0,0,0,0,0,180,2.2,1,0,0,0,0,0,0,0,0,0,0,0,0
2007,6,9,22,0,,19.4,14.7,72,100350,0,0,350,0,0,0,0,0,0,0,230,3.5,1,0,0,0,0,0,0,0,0,0,0,0,0
2007,6,9,23,0,,18.9,14.5,74,100390,0,0,347,0,0,0,0,0,0,0,200,1.5,1,0,0,0,0,0,0,0,0,0,0,0,0
2007,6,9,24,0,,18.4,14.3,76,100420,0,0,344,0,0,0,0,0,0,0,180,0.9,1,0,0,0,0,0,0,0,0,0,0,0,0
2007,6,10,1,0,,18.3,14.3,78,100390,0,0,344,0,0,0,0,0,0,0,250,1,1,0,0,0,0,0,0,0,0,0,0,0,0
2007,6,10,2,0,,17.4,14.2,81,100360,0,0,340,0,0,0,0,0,0,0,180,0.7,1,0,0,0,0,0,0,0,0,0,0,0,0
2007,6,10,3,0,,17.1,14.2,82,100330,0,0,338,0,0,0,0,0,0,0,160,0.7,1,0,0,0,0,0,0,0,0,0,0,0,0
2007,6,10,4,0,,16.8,14.5,86,100360,0,0,335,0,0,0,0,0,0,0,250,1,1,0,0,0,0,0,0,0,0,0,0,0,0
2007,6,10,5,0,,16.6,14.7,88,100380,0,0,333,0,0,0,0,0,0,0,250,0.8,0,0,0,0,0,0,0,0,0,0,0,0,0
2007,6,10,6,0,,16.8,15,88,100410,0,0,331,34,20,14,3052,1725,2306,0,250,0.8,0,0,0,0,0,0,0,0,0,0,0,0,0
2007,6,10,7,0,,17.3,14.9,87,100420,0,0,334,158,462,59,38276,47929,8921,0,250,0.8,0,0,0,0,0,0,0,0,0,0,0,0,0
2007,6,10,8,0,,18.6,14.8,81,100430,0,0,339,322,509,114,56348,51098,17213,0,250,1.2,0,0,0,0,0,0,0,0,0,0,0,0,0
2007,6,10,9,0,,20.4,14.7,69,100440,0,0,348,511,604,154,74555,62180,19689,0,230,1.3,0,0,0,0,0,0,0,0,0,0,0,0,0
2007,6,10,10,0,,23,13.8,60,100400,0,0,362,687,663,190,89063,66339,25774,0,250,1.6,0,0,0,0,0,0,0,0,0,0,0,0,0
2007,6,10,11,0,,24.5,12.9,46,100350,0,0,371,826,692,222,96357,69016,29000,0,320,1.5,1,0,0,0,0,0,0,0,0,0,0,0,0
2007,6,10,12,0,,25.6,12,42,100310,0,0,378,895,663,265,95200,65456,33233,0,70,2.2,1,0,0,0,0,0,0,0,0,0,0,0,0
2007,6,10,13,0,,26,12,44,100240,0,0,383,883,573,322,87641,54883,39989,0,200,1.5,2,0,0,0,0,0,0,0,0,0,0,0,0
2007,6,10,14,0,,26.8,12.1,39,100180,0,0,390,834,519,338,78007,49190,41316,0,50,1.2,2,0,0,0,0,0,0,0,0,0,0,0,0
2007,6,10,15,0,,27.5,12.1,38,100110,0,0,397,763,526,299,64526,48771,35846,0,140,1.5,3,0,0,0,0,0,0,0,0,0,0,0,0
2007,6,10,16,0,,28.5,13.4,34,100130,0,0,407,629,481,262,47886,40430,31494,0,290,1.5,4,0,0,0,0,0,0,0,0,0,0,0,0
2007,6,10,17,0,,25.9,14.8,56,100150,0,0,398,450,338,245,31997,20843,27609,0,230,4.8,5,0,0,0,0,0,0,0,0,0,0,0,0
2007,6,10,18,0,,25,16.1,57,100170,0,0,398,258,222,163,16791,0,16791,0,250,2.7,6,0,0,0,0,0,0,0,0,0,0,0,0
2007,6,10,19,0,,23.7,15.9,60,100240,0,0,385,151,303,80,0,0,0,0,250,2.4,4,0,0,0,0,0,0,0,0,0,0,0,0
2007,6,10,20,0,,22.4,15.7,60,100300,0,0,373,40,22,17,0,0,0,0,250,3,3,0,0,0,0,0,0,0,0,0,0,0,0
2007,6,10,21,0,,21.5,15.5,68,100370,0,0,361,0,0,0,0,0,0,0,250,1.7,1,0,0,0,0,0,0,0,0,0,0,0,0
2007,6,10,22,0,,20.7,15.3,70,100390,0,0,355,0,0,0,0,0,0,0,200,3,1,0,0,0,0,0,0,0,0,0,0,0,0
2007,6,10,23,0,,20,15.2,72,100420,0,0,349,0,0,0,0,0,0,0,200,2.9,0,0,0,0,0,0,0,0,0,0,0,0,0
2007,6,10,24,0,,19.5,15,74,100440,0,0,344,0,0,0,0,0,0,0,200,3.5,0,0,0,0,0,0,0,0,0,0,0,0,0
2007,6,11,1,0,,18.9,14.7,75,100420,0,0,341,0,0,0,0,0,0,0,200,2,0,0,0,0,0,0,0,0,0,0,0,0,0
2007,6,11,2,0,,18.7,14.4,74,100390,0,0,339,0,0,0,0,0,0,0,200,1.2,0,0,0,0,0,0,0,0,0,0,0,0,0
2007,6,11,3,0,,18.2,14.1,76,100370,0,0,337,0,0,0,0,0,0,0,160,1,0,0,0,0,0,0,0,0,0,0,0,0,0
2007,6,11,4,0,,18.1,14.4,77,100390,0,0,343,0,0,0,0,0,0,0,20,0.8,1,0,0,0,0,0,0,0,0,0,0,0,0
2007,6,11,5,0,,17.7,14.6,80,100410,0,0,346,0,0,0,0,0,0,0,0,0.3,2,0,0,0,0,0,0,0,0,0,0,0,0
2007,6,11,6,0,,17.4,14.9,84,100430,0,0,349,32,16,16,2900,1437,2279,0,270,0.7,3,0,0,0,0,0,0,0,0,0,0,0,0
2007,6,11,7,0,,18.5,14.9,79,100420,0,0,355,150,393,65,34934,39264,10890,0,0,0.4,3,0,0,0,0,0,0,0,0,0,0,0,0
2007,6,11,8,0,,20.5,14.8,67,100420,0,0,365,313,471,120,54219,47252,18034,0,70,0.9,4,0,0,0,0,0,0,0,0,0,0,0,0
2007,6,11,9,0,,22.5,14.8,61,100410,0,0,377,497,560,165,72682,55991,23278,0,50,1.4,4,0,0,0,0,0,0,0,0,0,0,0,0
2007,6,11,10,0,,24.1,14.8,58,100390,0,0,387,608,459,264,76133,43460,34667,0,230,2,5,0,0,0,0,0,0,0,0,0,0,0,0
2007,6,11,11,0,,25.5,14.7,51,100360,0,0,396,707,334,416,80020,31254,49508,0,270,1.2,5,0,0,0,0,0,0,0,0,0,0,0,0
2007,6,11,12,0,,27.5,14.7,45,100340,0,0,410,733,266,480,79764,24764,56308,0,270,1.2,6,0,0,0,0,0,0,0,0,0,0,0,0
2007,6,11,13,0,,28.7,15.3,47,100290,0,0,420,694,204,495,73623,18813,57277,0,270,1.5,7,0,0,0,0,0,0,0,0,0,0,0,0
2007,6,11,14,0,,29.2,15.9,43,100240,0,0,428,657,189,476,67947,17167,55127,0,290,1.5,7,0,0,0,0,0,0,0,0,0,0,0,0
2007,6,11,15,0,,28.4,16.5,48,100190,0,0,429,478,103,387,49636,9570,43999,0,290,1.6,8,0,0,0,0,0,0,0,0,0,0,0,0
2007,6,11,16,0,,28.3,16.2,48,100190,0,0,423,463,154,345,44511,14001,38817,0,270,1.9,7,0,0,0,0,0,0,0,0,0,0,0,0
2007,6,11,17,0,,27.2,16,50,100200,0,0,413,339,142,253,30509,11409,28092,0,340,1.8,7,0,0,0,0,0,0,0,0,0,0,0,0
2007,6,11,18,0,,27.1,15.7,49,100200,0,0,409,271,255,161,16628,0,16628,0,320,0.7,6,0,0,0,0,0,0,0,0,0,0,0,0
2007,6,11,19,0,,25.9,15.4,50,100230,0,0,405,125,190,80,0,0,0,0,290,1.1,7,0,0,0,0,0,0,0,0,0,0,0,0
2007,6,11,20,0,,24.8,15.2,53,100250,0,0,402,29,8,21,0,0,0,0,290,0.8,7,0,0,0,0,0,0,0,0,0,0,0,0
2007,6,11,21,0,,23.7,14.9,57,100280,0,0,400,0,0,0,0,0,0,0,0,0.4,8,0,0,0,0,0,0,0,0,0,0,0,0
2007,6,11,22,0,,23,15,59,100310,0,0,392,0,0,0,0,0,0,0,250,2,7,0,0,0,0,0,0,0,0,0,0,0,0
2007,6,11,23,0,,22.4,15.1,62,100340,0,0,385,0,0,0,0,0,0,0,200,2.4,7,0,0,0,0,0,0,0,0,0,0,0,0
2007,6,11,24,0,,21.6,15.2,66,100370,0,0,379,0,0,0,0,0,0,0,200,1.9,6,0,0,0,0,0,0,0,0,0,0,0,0
2007,6,12,1,0,,21.4,15.3,67,100360,0,0,378,0,0,0,0,0,0,0,230,1.4,6,0,0,0,0,0,0,0,0,0,0,0,0
2007,6,12,2,0,,21.4,15.5,68,100360,0,0,378,0,0,0,0,0,0,0,250,0.8,6,0,0,0,0,0,0,0,0,0,0,0,0
2007,6,12,3,0,,20.6,15.6,72,100350,0,0,374,0,0,0,0,0,0,0,230,1.1,6,0,0,0,0,0,0,0,0,0,0,0,0
2007,6,12,4,0,,20.1,16,75,100350,0,0,370,0,0,0,0,0,0,0,20,1,5,0,0,0,0,0,0,0,0,0,0,0,0
2007,6,12,5,0,,19.5,16.3,81,100350,0,0,365,0,0,0,0,0,0,0,50,1.4,5,0,0,0,0,0,0,0,0,0,0,0,0
2007,6,12,6,0,,19.9,16.7,81,100350,0,0,366,31,15,17,2932,1285,2376,0,50,0.6,4,0,0,0,0,0,0,0,0,0,0,0,0
2007,6,12,7,0,,20.3,16.2,81,100370,0,0,368,149,384,66,34501,38281,11064,0,250,1.5,4,0,0,0,0,0,0,0,0,0,0,0,0
2007,6,12,8,0,,21.8,15.6,68,100380,0,0,376,293,383,136,49203,38153,19991,0,230,1.8,5,0,0,0,0,0,0,0,0,0,0,0,0
2007,6,12,9,0,,22.8,15.1,61,100400,0,0,381,442,387,212,61366,36654,29025,0,250,1.6,5,0,0,0,0,0,0,0,0,0,0,0,0
2007,6,12,10,0,,24.2,14.6,58,100370,0,0,389,592,418,278,73987,39570,36228,0,160,1.4,5,0,0,0,0,0,0,0,0,0,0,0,0
2007,6,12,11,0,,26.3,14.2,55,100340,0,0,401,661,269,426,75131,25326,50401,0,70,1.8,6,0,0,0,0,0,0,0,0,0,0,0,0
2007,6,12,12,0,,27.5,13.7,42,100310,0,0,409,743,278,480,80550,26132,55788,0,140,1.3,6,0,0,0,0,0,0,0,0,0,0,0,0
2007,6,12,13,0,,29,13.6,33,100260,0,0,417,763,268,500,79258,25117,57419,0,180,2.3,6,0,0,0,0,0,0,0,0,0,0,0,0
2007,6,12,14,0,,29.9,13.6,31,100210,0,0,422,749,277,484,74571,25700,55358,0,180,2.9,6,0,0,0,0,0,0,0,0,0,0,0,0
2007,6,12,15,0,,29.5,13.5,37,100160,0,0,419,652,246,435,62724,22230,49606,0,250,2.6,6,0,0,0,0,0,0,0,0,0,0,0,0
2007,6,12,16,0,,29.3,14.5,40,100150,0,0,417,589,315,347,50377,26153,39712,0,200,3.2,5,0,0,0,0,0,0,0,0,0,0,0,0
2007,6,12,17,0,,29.1,15.5,40,100140,0,0,415,445,320,250,32448,19551,28282,0,230,3.4,5,0,0,0,0,0,0,0,0,0,0,0,0
2007,6,12,18,0,,27.3,16.5,51,100130,0,0,404,318,418,138,14469,0,14469,0,200,4.3,4,0,0,0,0,0,0,0,0,0,0,0,0
2007,6,12,19,0,,25.5,16.1,56,100190,0,0,396,150,340,70,0,0,0,0,200,4,5,0,0,0,0,0,0,0,0,0,0,0,0
2007,6,12,20,0,,24.5,15.6,58,100250,0,0,392,36,15,21,0,0,0,0,180,3.1,5,0,0,0,0,0,0,0,0,0,0,0,0
2007,6,12,21,0,,23.7,15.2,58,100310,0,0,390,0,0,0,0,0,0,0,180,2.8,6,0,0,0,0,0,0,0,0,0,0,0,0
2007,6,12,22,0,,23.2,15.3,61,100310,0,0,390,0,0,0,0,0,0,0,200,2,7,0,0,0,0,0,0,0,0,0,0,0,0
2007,6,12,23,0,,23.2,15.5,60,100310,0,0,394,0,0,0,0,0,0,0,160,2.4,7,0,0,0,0,0,0,0,0,0,0,0,0
2007,6,12,24,0,,23.1,15.6,62,100310,0,0,398,0,0,0,0,0,0,0,20,2,8,0,0,0,0,0,0,0,0,0,0,0,0
2007,6,13,1,0,,22.5,15.7,65,100250,0,0,385,0,0,0,0,0,0,0,20,2.1,6,0,0,0,0,0,0,0,0,0,0,0,0
2007,6,13,2,0,,21.8,15.7,68,100180,0,0,376,0,0,0,0,0,0,0,50,1.9,5,0,0,0,0,0,0,0,0,0,0,0,0
2007,6,13,3,0,,21.3,15.8,70,100120,0,0,369,0,0,0,0,0,0,0,20,1.1,3,0,0,0,0,0,0,0,0,0,0,0,0
2007,6,13,4,0,,20.6,16.1,73,100090,0,0,370,0,0,0,0,0,0,0,20,1.8,5,0,0,0,0,0,0,0,0,0,0,0,0
2007,6,13,5,0,,20.4,16.3,76,100060,0,0,375,0,0,0,0,0,0,0,50,1.9,6,0,0,0,0,0,0,0,0,0,0,0,0
2007,6,13,6,0,,20.8,16.6,76,100030,0,0,387,19,3,16,2071,278,1951,0,50,1.9,8,0,0,0,0,0,0,0,0,0,0,0,0
2007,6,13,7,0,,21.3,16.7,74,100020,0,0,395,83,76,66,13829,6904,9604,0,50,3.2,9,0,0,0,0,0,0,0,0,0,0,0,0
2007,6,13,8,0,,21.8,16.9,71,100000,0,0,404,175,83,141,23796,7758,17856,0,50,3.8,9,0,0,0,0,0,0,0,0,0,0,0,0
2007,6,13,9,0,,22.3,17,71,99990,0,0,415,202,37,180,24314,3354,21354,0,50,2.9,10,0,0,0,0,0,0,0,0,0,0,0,0
2007,6,13,10,0,,23,17,65,99970,0,0,419,263,35,237,30903,3155,27893,0,50,3.2,10,0,0,0,0,0,0,0,0,0,0,0,0
2007,6,13,11,0,,22.9,16.9,66,99940,0,0,418,303,31,276,35147,2830,32383,0,70,3.4,10,0,0,0,0,0,0,0,0,0,0,0,0
2007,6,13,12,0,,24.2,16.9,63,99920,0,0,426,358,37,323,40824,3377,37622,0,50,2.9,10,0,0,0,0,0,0,0,0,0,0,0,0
2007,6,13,13,0,,24.8,16.5,62,99850,0,0,429,370,37,334,41650,3369,38719,0,20,2.4,10,0,0,0,0,0,0,0,0,0,0,0,0
2007,6,13,14,0,,25.5,16.2,56,99790,0,0,432,374,41,335,41392,3765,38574,0,20,2.1,10,0,0,0,0,0,0,0,0,0,0,0,0
2007,6,13,15,0,,25.9,15.8,53,99720,0,0,434,332,38,298,36271,3523,34189,0,70,2,10,0,0,0,0,0,0,0,0,0,0,0,0
2007,6,13,16,0,,24.7,15.8,52,99730,0,0,427,239,25,220,24743,1923,23957,0,90,1.2,10,0,0,0,0,0,0,0,0,0,0,0,0
2007,6,13,17,0,,22.5,15.9,64,99730,0,0,415,161,18,150,15920,1030,15699,0,70,2.1,10,0,0,0,0,0,0,0,0,0,0,0,0
2007,6,13,18,0,,21.4,15.9,70,99740,0,0,409,97,14,91,8382,1364,8354,0,70,2.7,10,0,0,0,0,0,0,0,0,0,0,0,0
2007,6,13,19,0,,20.2,16.2,78,99750,0,0,402,45,10,42,0,0,0,0,70,3.1,10,0,0,0,0,0,0,0,0,0,0,0,0
2007,6,13,20,0,,18.7,16.5,84,99760,0,0,395,6,0,6,0,0,0,0,70,2.2,10,0,0,0,0,0,0,0,0,0,0,0,0
2007,6,13,21,0,,19,16.8,86,99770,0,0,397,0,0,0,0,0,0,0,70,1.3,10,0,0,0,0,0,0,0,0,0,0,0,0
2007,6,13,22,0,,18.6,16.9,89,99770,0,0,395,0,0,0,0,0,0,0,90,1.7,10,0,0,0,0,0,0,0,0,0,0,0,0
2007,6,13,23,0,,17.7,17.1,92,99780,0,0,390,0,0,0,0,0,0,0,50,2.9,10,0,0,0,0,0,0,0,0,0,0,0,0
2007,6,13,24,0,,18.2,17.2,93,99780,0,0,393,0,0,0,0,0,0,0,50,2,10,0,0,0,0,0,0,0,0,0,0,0,0
2007,6,14,1,0,,17.9,17.1,95,99750,0,0,391,0,0,0,0,0,0,0,50,1.9,10,0,0,0,0,0,0,0,0,0,0,0,0
2007,6,14,2,0,,17.5,17.1,95,99720,0,0,389,0,0,0,0,0,0,0,70,1.6,10,0,0,0,0,0,0,0,0,0,0,0,0
2007,6,14,3,0,,17.6,17,95,99690,0,0,389,0,0,0,0,0,0,0,50,1,10,0,0,0,0,0,0,0,0,0,0,0,0
2007,6,14,4,0,,17.6,17.1,96,99670,0,0,390,0,0,0,0,0,0,0,50,2.8,10,0,0,0,0,0,0,0,0,0,0,0,0
2007,6,14,5,0,,17.6,17.3,96,99650,0,0,390,0,0,0,0,0,0,0,50,3.3,10,0,0,0,0,0,0,0,0,0,0,0,0
2007,6,14,6,0,,17.9,17.4,96,99630,0,0,392,6,0,6,878,3,876,0,50,2.3,10,0,0,0,0,0,0,0,0,0,0,0,0
2007,6,14,7,0,,18.1,17.6,95,99650,0,0,393,51,19,47,7440,1777,6353,0,50,1.7,10,0,0,0,0,0,0,0,0,0,0,0,0
2007,6,14,8,0,,18.6,17.9,92,99660,0,0,396,103,19,95,12755,1665,11481,0,50,2.1,10,0,0,0,0,0,0,0,0,0,0,0,0
2007,6,14,9,0,,19.3,18.1,92,99680,0,0,400,173,24,159,20843,2151,18946,0,20,1.7,10,0,0,0,0,0,0,0,0,0,0,0,0
2007,6,14,10,0,,20.1,18.1,89,99690,0,0,404,230,24,212,27225,2164,25160,0,50,2.9,10,0,0,0,0,0,0,0,0,0,0,0,0
2007,6,14,11,0,,20.5,18.1,88,99690,0,0,406,284,26,261,33065,2337,30782,0,50,2.5,10,0,0,0,0,0,0,0,0,0,0,0,0
2007,6,14,12,0,,21.1,18.1,82,99700,0,0,410,314,26,290,36198,2337,33982,0,50,3.3,10,0,0,0,0,0,0,0,0,0,0,0,0
2007,6,14,13,0,,21.7,18.2,80,99700,0,0,413,323,25,298,36829,2287,34838,0,70,3.3,10,0,0,0,0,0,0,0,0,0,0,0,0
2007,6,14,14,0,,21.8,18.3,80,99710,0,0,414,295,21,275,33089,1556,31924,0,20,2,10,0,0,0,0,0,0,0,0,0,0,0,0
2007,6,14,15,0,,22.1,18.4,79,99710,0,0,416,280,24,259,30212,1810,29141,0,20,2.2,10,0,0,0,0,0,0,0,0,0,0,0,0
2007,6,14,16,0,,22.2,18,73,99720,0,0,416,235,24,217,24357,1770,23632,0,50,2.1,10,0,0,0,0,0,0,0,0,0,0,0,0
2007,6,14,17,0,,22.1,17.6,73,99740,0,0,415,188,27,172,18063,1762,17683,0,20,1.8,10,0,0,0,0,0,0,0,0,0,0,0,0
2007,6,14,18,0,,21.9,17.2,74,99750,0,0,413,117,23,107,9718,2939,9654,0,50,1.3,10,0,0,0,0,0,0,0,0,0,0,0,0
2007,6,14,19,0,,21.7,17.6,72,99780,0,0,408,59,22,54,0,0,0,0,70,1.1,10,0,0,0,0,0,0,0,0,0,0,0,0
2007,6,14,20,0,,21.3,18.1,75,99810,0,0,403,17,2,15,0,0,0,0,110,0.8,9,0,0,0,0,0,0,0,0,0,0,0,0
2007,6,14,21,0,,21.3,18.5,83,99840,0,0,400,0,0,0,0,0,0,0,0,0.2,9,0,0,0,0,0,0,0,0,0,0,0,0
2007,6,14,22,0,,20.9,18.6,88,99880,0,0,390,0,0,0,0,0,0,0,270,0.5,8,0,0,0,0,0,0,0,0,0,0,0,0
2007,6,14,23,0,,20.7,18.7,87,99930,0,0,383,0,0,0,0,0,0,0,0,0,7,0,0,0,0,0,0,0,0,0,0,0,0
2007,6,14,24,0,,20.3,18.8,90,99970,0,0,376,0,0,0,0,0,0,0,0,0.3,6,0,0,0,0,0,0,0,0,0,0,0,0
2007,6,15,1,0,,19.8,18.1,89,99940,0,0,373,0,0,0,0,0,0,0,70,0.8,6,0,0,0,0,0,0,0,0,0,0,0,0
2007,6,15,2,0,,19.5,17.3,85,99910,0,0,370,0,0,0,0,0,0,0,70,0.8,6,0,0,0,0,0,0,0,0,0,0,0,0
2007,6,15,3,0,,18.6,16.6,87,99880,0,0,365,0,0,0,0,0,0,0,50,1.8,6,0,0,0,0,0,0,0,0,0,0,0,0
2007,6,15,4,0,,18.7,16.6,85,99900,0,0,372,0,0,0,0,0,0,0,50,1.6,7,0,0,0,0,0,0,0,0,0,0,0,0
2007,6,15,5,0,,19,16.6,88,99930,0,0,382,0,0,0,0,0,0,0,200,0.7,9,0,0,0,0,0,0,0,0,0,0,0,0
2007,6,15,6,0,,19,16.6,85,99950,0,0,396,8,0,8,1105,10,1100,0,20,1.5,10,0,0,0,0,0,0,0,0,0,0,0,0
2007,6,15,7,0,,19.3,16.4,82,99990,0,0,398,59,30,53,8773,2773,7077,0,50,2.4,10,0,0,0,0,0,0,0,0,0,0,0,0
2007,6,15,8,0,,20.1,16.2,79,100030,0,0,402,118,28,107,14656,2478,12760,0,50,1,10,0,0,0,0,0,0,0,0,0,0,0,0
2007,6,15,9,0,,20.8,16,73,100070,0,0,405,187,30,169,22432,2713,20039,0,50,1.1,10,0,0,0,0,0,0,0,0,0,0,0,0
2007,6,15,10,0,,21.4,16,72,100090,0,0,409,272,38,243,31875,3493,28542,0,70,3.2,10,0,0,0,0,0,0,0,0,0,0,0,0
2007,6,15,11,0,,22.2,16.1,67,100110,0,0,413,319,36,288,36890,3295,33671,0,50,3.2,10,0,0,0,0,0,0,0,0,0,0,0,0
2007,6,15,12,0,,22.8,16.1,65,100130,0,0,417,348,34,316,39754,3157,36759,0,50,2.6,10,0,0,0,0,0,0,0,0,0,0,0,0
2007,6,15,13,0,,24.1,15.8,58,100100,0,0,416,470,70,401,51856,6528,46168,0,20,3.6,9,0,0,0,0,0,0,0,0,0,0,0,0
2007,6,15,14,0,,24.4,15.6,59,100070,0,0,410,466,74,396,50481,6943,45274,0,50,3.6,9,0,0,0,0,0,0,0,0,0,0,0,0
2007,6,15,15,0,,24.8,15.3,55,100040,0,0,407,526,133,409,53722,12561,46275,0,50,4.7,8,0,0,0,0,0,0,0,0,0,0,0,0
2007,6,15,16,0,,24.8,15.1,55,100030,0,0,406,432,126,336,42481,11519,37747,0,50,3.5,8,0,0,0,0,0,0,0,0,0,0,0,0
2007,6,15,17,0,,24.1,14.9,55,100030,0,0,402,307,105,243,28804,8513,26960,0,50,2.2,8,0,0,0,0,0,0,0,0,0,0,0,0
2007,6,15,18,0,,23.8,14.7,56,100020,0,0,400,216,125,162,17328,8513,17133,0,70,2.6,8,0,0,0,0,0,0,0,0,0,0,0,0
2007,6,15,19,0,,23.4,14.6,58,100050,0,0,398,112,129,81,0,0,0,0,50,2.4,8,0,0,0,0,0,0,0,0,0,0,0,0
2007,6,15,20,0,,22.8,14.4,58,100090,0,0,395,28,7,21,0,0,0,0,50,3.3,8,0,0,0,0,0,0,0,0,0,0,0,0
2007,6,15,21,0,,22.5,14.3,59,100120,0,0,393,0,0,0,0,0,0,0,50,1.6,8,0,0,0,0,0,0,0,0,0,0,0,0
2007,6,15,22,0,,21.6,14.2,63,100130,0,0,388,0,0,0,0,0,0,0,50,3.7,8,0,0,0,0,0,0,0,0,0,0,0,0
2007,6,15,23,0,,21.6,14.2,62,100150,0,0,388,0,0,0,0,0,0,0,50,3.9,8,0,0,0,0,0,0,0,0,0,0,0,0
2007,6,15,24,0,,21.5,14.1,62,100160,0,0,387,0,0,0,0,0,0,0,50,2.3,8,0,0,0,0,0,0,0,0,0,0,0,0
2007,6,16,1,0,,21,12.7,61,100150,0,0,377,0,0,0,0,0,0,0,50,3.2,7,0,0,0,0,0,0,0,0,0,0,0,0
2007,6,16,2,0,,20.5,11.2,55,100150,0,0,368,0,0,0,0,0,0,0,50,3.2,6,0,0,0,0,0,0,0,0,0,0,0,0
2007,6,16,3,0,,19.4,9.8,53,100140,0,0,358,0,0,0,0,0,0,0,50,2.5,5,0,0,0,0,0,0,0,0,0,0,0,0
2007,6,16,4,0,,18.8,8.7,48,100180,0,0,355,0,0,0,0,0,0,0,50,4.8,6,0,0,0,0,0,0,0,0,0,0,0,0
2007,6,16,5,0,,19,7.7,42,100220,0,0,357,0,0,0,0,0,0,0,50,3.6,6,0,0,0,0,0,0,0,0,0,0,0,0
2007,6,16,6,0,,19.2,6.6,43,100260,0,0,360,28,10,18,2837,972,2418,0,50,2.3,7,0,0,0,0,0,0,0,0,0,0,0,0
2007,6,16,7,0,,19.8,6.5,39,100280,0,0,361,139,307,73,30581,31071,11594,0,50,4.4,7,0,0,0,0,0,0,0,0,0,0,0,0
2007,6,16,8,0,,22.3,6.4,34,100300,0,0,373,316,484,118,54897,49261,17225,0,50,3.6,6,0,0,0,0,0,0,0,0,0,0,0,0
2007,6,16,9,0,,22.7,6.3,34,100320,0,0,373,462,453,194,65814,45621,25585,0,50,3.5,6,0,0,0,0,0,0,0,0,0,0,0,0
2007,6,16,10,0,,25.7,5.9,25,100290,0,0,386,671,623,204,86556,62960,26476,0,50,4.2,5,0,0,0,0,0,0,0,0,0,0,0,0
2007,6,16,11,0,,27.3,5.4,21,100270,0,0,392,777,582,270,89617,58165,32778,0,50,4.2,5,0,0,0,0,0,0,0,0,0,0,0,0
2007,6,16,12,0,,28.5,5,22,100240,0,0,395,916,707,244,97678,70929,30361,0,50,5.1,4,0,0,0,0,0,0,0,0,0,0,0,0
2007,6,16,13,0,,29.5,5.1,20,100170,0,0,404,877,558,330,87384,55332,39148,0,50,5.5,5,0,0,0,0,0,0,0,0,0,0,0,0
2007,6,16,14,0,,28.3,5.2,22,100110,0,0,401,735,260,486,73142,25585,53939,0,50,3.4,6,0,0,0,0,0,0,0,0,0,0,0,0
2007,6,16,15,0,,28.9,5.3,22,100040,0,0,409,596,188,430,58436,18050,47720,0,50,1.9,7,0,0,0,0,0,0,0,0,0,0,0,0
2007,6,16,16,0,,30.2,5.1,22,100040,0,0,420,478,166,350,45426,16055,38812,0,50,4.1,8,0,0,0,0,0,0,0,0,0,0,0,0
2007,6,16,17,0,,30.9,5,21,100030,0,0,429,403,227,263,31971,15675,28561,0,50,3.2,8,0,0,0,0,0,0,0,0,0,0,0,0
2007,6,16,18,0,,28.3,4.8,22,100030,0,0,421,225,139,164,17413,10149,17171,0,50,5.3,9,0,0,0,0,0,0,0,0,0,0,0,0
2007,6,16,19,0,,25.5,6.2,33,100110,0,0,399,118,148,82,0,0,0,0,230,4.3,8,0,0,0,0,0,0,0,0,0,0,0,0
2007,6,16,20,0,,23.8,7.7,37,100190,0,0,385,28,7,21,0,0,0,0,230,2.8,7,0,0,0,0,0,0,0,0,0,0,0,0
2007,6,16,21,0,,23.2,9.1,40,100270,0,0,379,0,0,0,0,0,0,0,200,4.1,6,0,0,0,0,0,0,0,0,0,0,0,0
2007,6,16,22,0,,19.5,10.6,71,100280,0,0,365,0,0,0,0,0,0,0,200,2.2,7,0,0,0,0,0,0,0,0,0,0,0,0
2007,6,16,23,0,,17.5,12,83,100290,0,0,360,0,0,0,0,0,0,0,200,1.3,7,0,0,0,0,0,0,0,0,0,0,0,0
2007,6,16,24,0,,17.8,13.5,75,100300,0,0,367,0,0,0,0,0,0,0,140,1.4,8,0,0,0,0,0,0,0,0,0,0,0,0
2007,6,17,1,0,,19,13.7,67,100280,0,0,374,0,0,0,0,0,0,0,360,0.6,8,0,0,0,0,0,0,0,0,0,0,0,0
2007,6,17,2,0,,18.8,14,74,100250,0,0,373,0,0,0,0,0,0,0,0,0.4,8,0,0,0,0,0,0,0,0,0,0,0,0
2007,6,17,3,0,,18.7,14.2,74,100230,0,0,373,0,0,0,0,0,0,0,20,0.5,8,0,0,0,0,0,0,0,0,0,0,0,0
2007,6,17,4,0,,18.8,14,74,100260,0,0,378,0,0,0,0,0,0,0,0,0.4,9,0,0,0,0,0,0,0,0,0,0,0,0
2007,6,17,5,0,,18.6,13.9,73,100280,0,0,383,0,0,0,0,0,0,0,200,1.2,9,0,0,0,0,0,0,0,0,0,0,0,0
2007,6,17,6,0,,19.1,13.7,70,100310,0,0,393,9,0,8,1173,14,1167,0,20,0.5,10,0,0,0,0,0,0,0,0,0,0,0,0
2007,6,17,7,0,,19.2,13.8,68,100340,0,0,386,83,79,66,13949,7414,9422,0,250,1.5,9,0,0,0,0,0,0,0,0,0,0,0,0
2007,6,17,8,0,,19.4,14,68,100370,0,0,381,169,76,138,22901,7336,17293,0,230,2.2,9,0,0,0,0,0,0,0,0,0,0,0,0
2007,6,17,9,0,,20.4,14.1,66,100400,0,0,381,301,113,234,37983,10820,28444,0,200,0.7,8,0,0,0,0,0,0,0,0,0,0,0,0
2007,6,17,10,0,,21.7,12.9,55,100370,0,0,382,469,172,340,55861,16576,40044,0,160,0.9,7,0,0,0,0,0,0,0,0,0,0,0,0
2007,6,17,11,0,,24.3,11.7,40,100340,0,0,391,612,214,425,69355,20696,49129,0,110,1.1,7,0,0,0,0,0,0,0,0,0,0,0,0
2007,6,17,12,0,,25.2,10.5,39,100310,0,0,392,733,266,481,79041,25855,54495,0,20,1.3,6,0,0,0,0,0,0,0,0,0,0,0,0
2007,6,17,13,0,,27.1,12.3,37,100260,0,0,407,721,227,500,75741,21493,56993,0,250,1.9,7,0,0,0,0,0,0,0,0,0,0,0,0
2007,6,17,14,0,,26.2,14.1,47,100220,0,0,408,625,163,468,65143,15112,53791,0,180,2.5,7,0,0,0,0,0,0,0,0,0,0,0,0
2007,6,17,15,0,,26.3,15.9,52,100170,0,0,416,490,109,393,50748,10209,44679,0,70,2.4,8,0,0,0,0,0,0,0,0,0,0,0,0
2007,6,17,16,0,,25.5,16,57,100180,0,0,417,316,53,275,33199,4758,31235,0,180,3,9,0,0,0,0,0,0,0,0,0,0,0,0
2007,6,17,17,0,,25,16.2,56,100200,0,0,421,258,64,218,25521,5076,24411,0,200,3.2,9,0,0,0,0,0,0,0,0,0,0,0,0
2007,6,17,18,0,,24.4,16.3,60,100210,0,0,426,129,29,116,10569,4081,10468,0,230,2.5,10,0,0,0,0,0,0,0,0,0,0,0,0
2007,6,17,19,0,,23.7,16.3,61,100240,0,0,422,66,28,59,0,0,0,0,230,2.7,10,0,0,0,0,0,0,0,0,0,0,0,0
2007,6,17,20,0,,23,16.2,65,100270,0,0,418,12,1,11,0,0,0,0,250,1.7,10,0,0,0,0,0,0,0,0,0,0,0,0
2007,6,17,21,0,,22.2,16.2,68,100300,0,0,413,0,0,0,0,0,0,0,0,0.4,10,0,0,0,0,0,0,0,0,0,0,0,0
2007,6,17,22,0,,22.5,16.1,67,100330,0,0,411,0,0,0,0,0,0,0,0,0.4,10,0,0,0,0,0,0,0,0,0,0,0,0
2007,6,17,23,0,,22.2,16.1,68,100370,0,0,405,0,0,0,0,0,0,0,320,0.5,9,0,0,0,0,0,0,0,0,0,0,0,0
2007,6,17,24,0,,22,16,68,100400,0,0,401,0,0,0,0,0,0,0,340,0.5,9,0,0,0,0,0,0,0,0,0,0,0,0
2007,6,18,1,0,,21.3,16.2,73,100380,0,0,387,0,0,0,0,0,0,0,250,1.3,8,0,0,0,0,0,0,0,0,0,0,0,0
2007,6,18,2,0,,21,16.5,76,100350,0,0,378,0,0,0,0,0,0,0,160,0.9,6,0,0,0,0,0,0,0,0,0,0,0,0
2007,6,18,3,0,,20.7,16.7,77,100330,0,0,372,0,0,0,0,0,0,0,160,1.1,5,0,0,0,0,0,0,0,0,0,0,0,0
2007,6,18,4,0,,19.6,16.9,83,100350,0,0,364,0,0,0,0,0,0,0,50,1.3,4,0,0,0,0,0,0,0,0,0,0,0,0
2007,6,18,5,0,,19.4,17.1,84,100360,0,0,359,0,0,0,0,0,0,0,90,0.8,2,0,0,0,0,0,0,0,0,0,0,0,0
2007,6,18,6,0,,19.3,17.3,87,100380,0,0,352,33,19,15,2835,1615,2141,0,0,0,1,0,0,0,0,0,0,0,0,0,0,0,0
2007,6,18,7,0,,20.6,16.9,80,100400,0,0,367,153,423,62,36192,43869,9423,0,0,0.4,3,0,0,0,0,0,0,0,0,0,0,0,0
2007,6,18,8,0,,22.6,16.6,70,100430,0,0,382,295,397,133,49884,39448,19744,0,0,0.3,5,0,0,0,0,0,0,0,0,0,0,0,0
2007,6,18,9,0,,23.2,16.2,64,100450,0,0,393,383,226,249,50191,20936,31739,0,180,1.5,7,0,0,0,0,0,0,0,0,0,0,0,0
2007,6,18,10,0,,23.7,16.2,64,100440,0,0,395,470,174,340,56188,16271,40664,0,290,0.7,7,0,0,0,0,0,0,0,0,0,0,0,0
2007,6,18,11,0,,24.6,16.1,59,100440,0,0,400,537,148,408,61671,13798,48185,0,20,1.6,7,0,0,0,0,0,0,0,0,0,0,0,0
2007,6,18,12,0,,25.6,16.1,55,100430,0,0,406,600,150,458,66705,13852,53551,0,230,1.5,7,0,0,0,0,0,0,0,0,0,0,0,0
2007,6,18,13,0,,25.9,15.9,51,100380,0,0,405,628,153,478,67827,14094,55527,0,250,1.5,7,0,0,0,0,0,0,0,0,0,0,0,0
2007,6,18,14,0,,27,15.7,51,100320,0,0,410,694,219,484,70879,19974,55861,0,270,1.4,6,0,0,0,0,0,0,0,0,0,0,0,0
2007,6,18,15,0,,28,15.5,46,100270,0,0,414,632,221,436,61878,19679,50164,0,250,1.2,6,0,0,0,0,0,0,0,0,0,0,0,0
2007,6,18,16,0,,27.7,15.7,43,100270,0,0,415,496,183,355,46823,16779,39882,0,180,2.4,7,0,0,0,0,0,0,0,0,0,0,0,0
2007,6,18,17,0,,27.8,15.9,47,100270,0,0,420,383,194,264,32735,15773,29274,0,230,2.8,7,0,0,0,0,0,0,0,0,0,0,0,0
2007,6,18,18,0,,26.6,16.1,52,100270,0,0,418,226,139,165,17812,9341,17571,0,250,3.5,8,0,0,0,0,0,0,0,0,0,0,0,0
2007,6,18,19,0,,24.4,15.8,53,100310,0,0,405,107,107,80,0,0,0,0,250,2.9,8,0,0,0,0,0,0,0,0,0,0,0,0
2007,6,18,20,0,,23.8,15.6,58,100360,0,0,401,24,4,20,0,0,0,0,230,2.2,8,0,0,0,0,0,0,0,0,0,0,0,0
2007,6,18,21,0,,23.6,15.3,59,100400,0,0,400,0,0,0,0,0,0,0,230,1.4,8,0,0,0,0,0,0,0,0,0,0,0,0
2007,6,18,22,0,,22.4,15.6,63,100420,0,0,382,0,0,0,0,0,0,0,0,0.4,6,0,0,0,0,0,0,0,0,0,0,0,0
2007,6,18,23,0,,22.3,15.9,69,100450,0,0,375,0,0,0,0,0,0,0,180,0.9,3,0,0,0,0,0,0,0,0,0,0,0,0
2007,6,18,24,0,,21.3,16.2,72,100470,0,0,361,0,0,0,0,0,0,0,250,1.4,1,0,0,0,0,0,0,0,0,0,0,0,0
2007,6,19,1,0,,21.2,16.5,75,100480,0,0,358,0,0,0,0,0,0,0,250,0.5,1,0,0,0,0,0,0,0,0,0,0,0,0
2007,6,19,2,0,,20.8,16.8,80,100500,0,0,355,0,0,0,0,0,0,0,160,0.8,0,0,0,0,0,0,0,0,0,0,0,0,0
2007,6,19,3,0,,19.7,17.1,84,100510,0,0,347,0,0,0,0,0,0,0,230,1.7,0,0,0,0,0,0,0,0,0,0,0,0,0
2007,6,19,4,0,,19.2,17.1,85,100530,0,0,347,0,0,0,0,0,0,0,200,1.1,0,0,0,0,0,0,0,0,0,0,0,0,0
2007,6,19,5,0,,18.9,17.1,88,100540,0,0,348,0,0,0,0,0,0,0,0,0.2,1,0,0,0,0,0,0,0,0,0,0,0,0
2007,6,19,6,0,,19.1,17.1,87,100560,0,0,351,34,19,14,3054,1631,2353,0,20,1,1,0,0,0,0,0,0,0,0,0,0,0,0
2007,6,19,7,0,,20.1,17.2,83,100560,0,0,354,154,435,61,36801,45162,9265,0,0,0.1,1,0,0,0,0,0,0,0,0,0,0,0,0
2007,6,19,8,0,,21.6,17.2,73,100560,0,0,359,333,563,103,59144,58628,14373,0,20,1.4,0,0,0,0,0,0,0,0,0,0,0,0,0
2007,6,19,9,0,,23.7,17.3,67,100560,0,0,367,526,655,139,78124,68017,18196,0,50,2.3,0,0,0,0,0,0,0,0,0,0,0,0,0
2007,6,19,10,0,,26.2,16.6,57,100530,0,0,386,696,690,179,90161,71168,22266,0,50,1.5,1,0,0,0,0,0,0,0,0,0,0,0,0
2007,6,19,11,0,,28,16,54,100500,0,0,400,818,677,228,95585,66962,30130,0,50,1.9,2,0,0,0,0,0,0,0,0,0,0,0,0
2007,6,19,12,0,,29.3,15.3,42,100470,0,0,411,868,604,294,92551,58876,36625,0,50,1.2,3,0,0,0,0,0,0,0,0,0,0,0,0
2007,6,19,13,0,,29.7,14.2,33,100410,0,0,409,886,576,321,88081,54291,40677,0,110,1.4,2,0,0,0,0,0,0,0,0,0,0,0,0
2007,6,19,14,0,,31.8,13.1,29,100350,0,0,416,892,637,281,81212,60091,35998,0,20,1.4,2,0,0,0,0,0,0,0,0,0,0,0,0
2007,6,19,15,0,,32,12,29,100290,0,0,412,820,643,249,67525,59880,31837,0,320,1.5,1,0,0,0,0,0,0,0,0,0,0,0,0
2007,6,19,16,0,,32.6,14,29,100300,0,0,425,716,684,189,49278,58600,24989,0,200,3.3,2,0,0,0,0,0,0,0,0,0,0,0,0
2007,6,19,17,0,,30.6,16.1,45,100300,0,0,421,479,435,210,31047,25880,25346,0,200,3.7,4,0,0,0,0,0,0,0,0,0,0,0,0
2007,6,19,18,0,,28.1,18.1,54,100310,0,0,414,291,300,160,16935,0,16935,0,230,4.8,5,0,0,0,0,0,0,0,0,0,0,0,0
2007,6,19,19,0,,26.5,17.6,58,100380,0,0,405,146,275,79,0,0,0,0,200,4.8,5,0,0,0,0,0,0,0,0,0,0,0,0
2007,6,19,20,0,,24.5,17.2,62,100450,0,0,395,32,9,22,0,0,0,0,250,3.5,6,0,0,0,0,0,0,0,0,0,0,0,0
2007,6,19,21,0,,23.2,16.7,66,100520,0,0,389,0,0,0,0,0,0,0,230,1.8,6,0,0,0,0,0,0,0,0,0,0,0,0
2007,6,19,22,0,,22.6,16.9,70,100530,0,0,382,0,0,0,0,0,0,0,320,0.6,5,0,0,0,0,0,0,0,0,0,0,0,0
2007,6,19,23,0,,22.1,17,73,100550,0,0,377,0,0,0,0,0,0,0,250,0.9,4,0,0,0,0,0,0,0,0,0,0,0,0
2007,6,19,24,0,,21.9,17.2,74,100560,0,0,373,0,0,0,0,0,0,0,270,0.8,3,0,0,0,0,0,0,0,0,0,0,0,0
2007,6,20,1,0,,21.2,17.2,76,100540,0,0,375,0,0,0,0,0,0,0,230,1.8,5,0,0,0,0,0,0,0,0,0,0,0,0
2007,6,20,2,0,,21.6,17.2,74,100510,0,0,382,0,0,0,0,0,0,0,0,0.4,6,0,0,0,0,0,0,0,0,0,0,0,0
2007,6,20,3,0,,21.6,17.2,75,100490,0,0,392,0,0,0,0,0,0,0,50,1.5,8,0,0,0,0,0,0,0,0,0,0,0,0
2007,6,20,4,0,,21.3,17.3,78,100490,0,0,382,0,0,0,0,0,0,0,250,0.7,7,0,0,0,0,0,0,0,0,0,0,0,0
2007,6,20,5,0,,21,17.4,81,100490,0,0,376,0,0,0,0,0,0,0,50,1.1,5,0,0,0,0,0,0,0,0,0,0,0,0
2007,6,20,6,0,,20.5,17.5,82,100490,0,0,370,31,14,17,2888,1236,2357,0,20,1.6,4,0,0,0,0,0,0,0,0,0,0,0,0
2007,6,20,7,0,,20.9,17.4,81,100480,0,0,370,152,418,63,35914,43439,9451,0,50,1.3,3,0,0,0,0,0,0,0,0,0,0,0,0
2007,6,20,8,0,,23.3,17.4,69,100480,0,0,380,319,502,114,55714,50063,17506,0,20,0.9,3,0,0,0,0,0,0,0,0,0,0,0,0
2007,6,20,9,0,,24.6,17.3,63,100470,0,0,384,505,591,156,74400,58872,22547,0,20,1.2,2,0,0,0,0,0,0,0,0,0,0,0,0
2007,6,20,10,0,,25,17.7,65,100450,0,0,394,604,453,265,75641,41866,35707,0,250,1.3,4,0,0,0,0,0,0,0,0,0,0,0,0
2007,6,20,11,0,,25.9,18,62,100420,0,0,408,553,161,413,63533,14658,49205,0,230,1.5,7,0,0,0,0,0,0,0,0,0,0,0,0
2007,6,20,12,0,,27.5,18.4,57,100400,0,0,435,479,81,402,53711,7418,46663,0,200,2.6,9,0,0,0,0,0,0,0,0,0,0,0,0
2007,6,20,13,0,,28.1,18.1,54,100350,0,0,429,586,127,462,64392,11371,54460,0,200,2.4,8,0,0,0,0,0,0,0,0,0,0,0,0
2007,6,20,14,0,,29.5,17.8,49,100300,0,0,430,657,188,478,68410,16662,55864,0,200,3.8,7,0,0,0,0,0,0,0,0,0,0,0,0
2007,6,20,15,0,,29.5,17.5,48,100250,0,0,425,634,223,436,62359,19376,50798,0,200,2.6,6,0,0,0,0,0,0,0,0,0,0,0,0
2007,6,20,16,0,,28.7,17.8,51,100230,0,0,422,537,230,360,49392,18456,41728,0,230,3.8,6,0,0,0,0,0,0,0,0,0,0,0,0
2007,6,20,17,0,,28.5,18,53,100220,0,0,423,364,166,262,32143,13251,29214,0,230,3.1,7,0,0,0,0,0,0,0,0,0,0,0,0
2007,6,20,18,0,,27.4,18.3,57,100200,0,0,419,245,173,169,18351,11363,18040,0,200,3.8,7,0,0,0,0,0,0,0,0,0,0,0,0
2007,6,20,19,0,,26.5,18.6,62,100240,0,0,412,131,194,84,0,0,0,0,230,3.5,7,0,0,0,0,0,0,0,0,0,0,0,0
2007,6,20,20,0,,25.5,18.9,67,100270,0,0,405,36,14,22,0,0,0,0,230,4.6,6,0,0,0,0,0,0,0,0,0,0,0,0
2007,6,20,21,0,,24.7,19.2,71,100310,0,0,400,0,0,0,0,0,0,0,200,4.1,6,0,0,0,0,0,0,0,0,0,0,0,0
2007,6,20,22,0,,24,19.3,75,100300,0,0,396,0,0,0,0,0,0,0,200,3.3,6,0,0,0,0,0,0,0,0,0,0,0,0
2007,6,20,23,0,,23.8,19.3,76,100300,0,0,395,0,0,0,0,0,0,0,200,2,6,0,0,0,0,0,0,0,0,0,0,0,0
2007,6,20,24,0,,23.5,19.4,77,100290,0,0,394,0,0,0,0,0,0,0,200,3.1,6,0,0,0,0,0,0,0,0,0,0,0,0
2007,6,21,1,0,,23.8,19.4,76,100250,0,0,398,0,0,0,0,0,0,0,230,2.4,7,0,0,0,0,0,0,0,0,0,0,0,0
2007,6,21,2,0,,23.8,19.5,77,100220,0,0,402,0,0,0,0,0,0,0,200,0.9,7,0,0,0,0,0,0,0,0,0,0,0,0
2007,6,21,3,0,,23.2,19.5,79,100180,0,0,403,0,0,0,0,0,0,0,70,1.6,8,0,0,0,0,0,0,0,0,0,0,0,0
2007,6,21,4,0,,23.2,19.6,80,100170,0,0,409,0,0,0,0,0,0,0,50,1.1,9,0,0,0,0,0,0,0,0,0,0,0,0
2007,6,21,5,0,,23.5,19.7,78,100150,0,0,417,0,0,0,0,0,0,0,200,1.4,9,0,0,0,0,0,0,0,0,0,0,0,0
2007,6,21,6,0,,23.5,19.8,79,100140,0,0,426,8,0,8,1088,9,1084,0,180,1.9,10,0,0,0,0,0,0,0,0,0,0,0,0
2007,6,21,7,0,,23.7,19.9,79,100120,0,0,427,57,27,51,8416,2414,6947,0,180,1.7,10,0,0,0,0,0,0,0,0,0,0,0,0
2007,6,21,8,0,,24.1,19.9,77,100100,0,0,429,115,26,104,14281,2254,12562,0,160,1.1,10,0,0,0,0,0,0,0,0,0,0,0,0
2007,6,21,9,0,,24.8,20,74,100080,0,0,433,189,31,171,22856,2757,20428,0,180,1.3,10,0,0,0,0,0,0,0,0,0,0,0,0
2007,6,21,10,0,,25.7,19.9,73,100050,0,0,439,249,30,227,29469,2677,26916,0,180,1.8,10,0,0,0,0,0,0,0,0,0,0,0,0
2007,6,21,11,0,,26.4,19.9,67,100020,0,0,443,326,38,293,37790,3372,34494,0,160,2.2,10,0,0,0,0,0,0,0,0,0,0,0,0
2007,6,21,12,0,,26.3,19.8,67,99990,0,0,442,331,30,303,38105,2649,35588,0,180,3.2,10,0,0,0,0,0,0,0,0,0,0,0,0
2007,6,21,13,0,,26.7,19.8,67,99910,0,0,444,340,29,312,38816,2602,36542,0,160,2.8,10,0,0,0,0,0,0,0,0,0,0,0,0
2007,6,21,14,0,,26.4,19.8,66,99840,0,0,443,329,28,301,37050,2532,35142,0,200,4,10,0,0,0,0,0,0,0,0,0,0,0,0
2007,6,21,15,0,,26.5,19.8,66,99760,0,0,443,316,33,287,33623,2588,32077,0,200,4.4,10,0,0,0,0,0,0,0,0,0,0,0,0
2007,6,21,16,0,,26.1,20.2,69,99680,0,0,441,248,27,227,25440,1984,24615,0,180,3.8,10,0,0,0,0,0,0,0,0,0,0,0,0
2007,6,21,17,0,,25.6,20.7,72,99600,0,0,439,184,25,168,17713,1478,17386,0,180,3.9,10,0,0,0,0,0,0,0,0,0,0,0,0
2007,6,21,18,0,,24,21.1,83,99520,0,0,430,100,14,94,8672,1138,8640,0,180,2.7,10,0,0,0,0,0,0,0,0,0,0,0,0
2007,6,21,19,0,,23.4,21.5,88,99500,0,0,427,52,14,49,0,0,0,0,180,3.9,10,0,0,0,0,0,0,0,0,0,0,0,0
2007,6,21,20,0,,23.1,21.9,93,99480,0,0,426,10,0,10,0,0,0,0,200,3.4,10,0,0,0,0,0,0,0,0,0,0,0,0
2007,6,21,21,0,,23.2,22.3,94,99460,0,0,427,0,0,0,0,0,0,0,200,3.8,10,0,0,0,0,0,0,0,0,0,0,0,0
2007,6,21,22,0,,22.9,22.2,96,99470,0,0,426,0,0,0,0,0,0,0,200,3.8,10,0,0,0,0,0,0,0,0,0,0,0,0
2007,6,21,23,0,,22.8,22.2,97,99470,0,0,425,0,0,0,0,0,0,0,200,3.5,10,0,0,0,0,0,0,0,0,0,0,0,0
2007,6,21,24,0,,22.5,22.1,97,99480,0,0,423,0,0,0,0,0,0,0,230,4.3,10,0,0,0,0,0,0,0,0,0,0,0,0
2007,6,22,1,0,,22.3,21.9,98,99450,0,0,422,0,0,0,0,0,0,0,230,2.7,10,0,0,0,0,0,0,0,0,0,0,0,0
2007,6,22,2,0,,22.1,21.7,97,99420,0,0,420,0,0,0,0,0,0,0,250,1.6,10,0,0,0,0,0,0,0,0,0,0,0,0
2007,6,22,3,0,,21.9,21.5,97,99390,0,0,419,0,0,0,0,0,0,0,230,1.9,10,0,0,0,0,0,0,0,0,0,0,0,0
2007,6,22,4,0,,21.7,21.4,98,99410,0,0,418,0,0,0,0,0,0,0,230,2.5,10,0,0,0,0,0,0,0,0,0,0,0,0
2007,6,22,5,0,,21.7,21.3,98,99440,0,0,418,0,0,0,0,0,0,0,230,2.5,10,0,0,0,0,0,0,0,0,0,0,0,0
2007,6,22,6,0,,21.6,21.2,97,99460,0,0,417,7,0,7,928,5,925,0,230,2.6,10,0,0,0,0,0,0,0,0,0,0,0,0
2007,6,22,7,0,,21.8,21.3,98,99470,0,0,418,45,15,42,5993,1232,5244,0,230,1.6,10,0,0,0,0,0,0,0,0,0,0,0,0
2007,6,22,8,0,,21.8,21.5,97,99490,0,0,418,95,16,89,11870,1321,10864,0,230,1.8,10,0,0,0,0,0,0,0,0,0,0,0,0
2007,6,22,9,0,,22,21.6,97,99500,0,0,420,160,20,148,19373,1683,17892,0,230,2.8,10,0,0,0,0,0,0,0,0,0,0,0,0
2007,6,22,10,0,,21.8,21.6,97,99510,0,0,419,190,14,179,22741,1223,21575,0,230,2.4,10,0,0,0,0,0,0,0,0,0,0,0,0
2007,6,22,11,0,,22,21.5,96,99520,0,0,420,227,14,215,27231,805,26444,0,250,1.1,10,0,0,0,0,0,0,0,0,0,0,0,0
2007,6,22,12,0,,22.2,21.5,95,99530,0,0,421,243,13,231,28825,750,28112,0,200,1.4,10,0,0,0,0,0,0,0,0,0,0,0,0
2007,6,22,13,0,,22.7,21.5,92,99530,0,0,423,274,16,258,31654,1017,30765,0,200,0.8,10,0,0,0,0,0,0,0,0,0,0,0,0
2007,6,22,14,0,,22.6,21.6,93,99540,0,0,423,252,14,239,28668,884,28002,0,230,0.5,10,0,0,0,0,0,0,0,0,0,0,0,0
2007,6,22,15,0,,22.3,21.6,95,99540,0,0,421,226,13,215,25025,854,24515,0,230,1.6,10,0,0,0,0,0,0,0,0,0,0,0,0
2007,6,22,16,0,,22.2,21.6,97,99560,0,0,421,189,13,179,20071,775,19749,0,250,1.4,10,0,0,0,0,0,0,0,0,0,0,0,0
2007,6,22,17,0,,22.2,21.6,96,99570,0,0,421,140,12,133,14121,517,14006,0,0,0.1,10,0,0,0,0,0,0,0,0,0,0,0,0
2007,6,22,18,0,,22.2,21.6,96,99590,0,0,421,101,14,95,8750,1156,8716,0,0,0.2,10,0,0,0,0,0,0,0,0,0,0,0,0
2007,6,22,19,0,,22.2,21.4,97,99670,0,0,421,55,16,51,0,0,0,0,200,0.9,10,0,0,0,0,0,0,0,0,0,0,0,0
2007,6,22,20,0,,21.6,21.2,96,99740,0,0,417,10,0,10,0,0,0,0,180,2.2,10,0,0,0,0,0,0,0,0,0,0,0,0
2007,6,22,21,0,,21.5,21,96,99820,0,0,416,0,0,0,0,0,0,0,230,0.8,10,0,0,0,0,0,0,0,0,0,0,0,0
2007,6,22,22,0,,21.6,20.8,95,99860,0,0,416,0,0,0,0,0,0,0,0,0.4,10,0,0,0,0,0,0,0,0,0,0,0,0
2007,6,22,23,0,,21.1,20.5,95,99910,0,0,413,0,0,0,0,0,0,0,230,1.5,10,0,0,0,0,0,0,0,0,0,0,0,0
2007,6,22,24,0,,20.7,20.3,97,99950,0,0,411,0,0,0,0,0,0,0,230,2.4,10,0,0,0,0,0,0,0,0,0,0,0,0
2007,6,23,1,0,,20.7,20.2,98,99940,0,0,411,0,0,0,0,0,0,0,230,1.6,10,0,0,0,0,0,0,0,0,0,0,0,0
2007,6,23,2,0,,20.4,20.2,97,99940,0,0,409,0,0,0,0,0,0,0,200,2.4,10,0,0,0,0,0,0,0,0,0,0,0,0
2007,6,23,3,0,,20.5,20.1,97,99930,0,0,409,0,0,0,0,0,0,0,230,1.1,10,0,0,0,0,0,0,0,0,0,0,0,0
2007,6,23,4,0,,20.6,20.1,96,99940,0,0,410,0,0,0,0,0,0,0,230,1.3,10,0,0,0,0,0,0,0,0,0,0,0,0
2007,6,23,5,0,,20.4,20,97,99950,0,0,409,0,0,0,0,0,0,0,230,1,10,0,0,0,0,0,0,0,0,0,0,0,0
2007,6,23,6,0,,20.4,20,97,99960,0,0,409,6,0,6,809,3,807,0,200,0.9,10,0,0,0,0,0,0,0,0,0,0,0,0
2007,6,23,7,0,,20.7,20.1,96,99990,0,0,410,43,13,41,5672,1088,5011,0,0,0.3,10,0,0,0,0,0,0,0,0,0,0,0,0
2007,6,23,8,0,,21.3,20.2,91,100010,0,0,414,98,17,91,12118,1436,11025,0,0,0.1,10,0,0,0,0,0,0,0,0,0,0,0,0
2007,6,23,9,0,,21.5,20.3,92,100040,0,0,415,159,19,147,19189,1683,17708,0,270,0.7,10,0,0,0,0,0,0,0,0,0,0,0,0
2007,6,23,10,0,,21.9,20.3,90,100030,0,0,417,207,18,194,24670,1595,23149,0,250,1,10,0,0,0,0,0,0,0,0,0,0,0,0
2007,6,23,11,0,,22.7,20.3,86,100030,0,0,422,250,18,234,29380,1611,27805,0,0,0.1,10,0,0,0,0,0,0,0,0,0,0,0,0
2007,6,23,12,0,,23,20.3,84,100020,0,0,423,283,19,265,32969,1715,31339,0,180,2.1,10,0,0,0,0,0,0,0,0,0,0,0,0
2007,6,23,13,0,,23,20.6,84,99980,0,0,424,288,18,270,33166,1217,32102,0,160,1.4,10,0,0,0,0,0,0,0,0,0,0,0,0
2007,6,23,14,0,,22.8,20.8,86,99950,0,0,423,258,15,244,29299,966,28571,0,180,2.3,10,0,0,0,0,0,0,0,0,0,0,0,0
2007,6,23,15,0,,23.3,21.1,87,99910,0,0,426,252,17,236,27494,1211,26769,0,180,1.5,10,0,0,0,0,0,0,0,0,0,0,0,0
2007,6,23,16,0,,21.6,21.1,92,99870,0,0,417,191,13,181,20317,814,19977,0,200,3.1,10,0,0,0,0,0,0,0,0,0,0,0,0
2007,6,23,17,0,,21.6,21.1,93,99820,0,0,417,139,11,132,14055,508,13942,0,160,1,10,0,0,0,0,0,0,0,0,0,0,0,0
2007,6,23,18,0,,21.8,21.1,95,99780,0,0,418,89,10,85,7914,614,7896,0,70,0.7,10,0,0,0,0,0,0,0,0,0,0,0,0
2007,6,23,19,0,,21.7,20.7,93,99760,0,0,417,54,15,50,0,0,0,0,320,0.6,10,0,0,0,0,0,0,0,0,0,0,0,0
2007,6,23,20,0,,21.2,20.2,92,99750,0,0,413,11,1,11,0,0,0,0,200,3.1,10,0,0,0,0,0,0,0,0,0,0,0,0
2007,6,23,21,0,,21,19.8,92,99730,0,0,412,0,0,0,0,0,0,0,200,2.6,10,0,0,0,0,0,0,0,0,0,0,0,0
2007,6,23,22,0,,21.1,19.8,92,99690,0,0,412,0,0,0,0,0,0,0,180,2.7,10,0,0,0,0,0,0,0,0,0,0,0,0
2007,6,23,23,0,,21.4,19.8,90,99660,0,0,414,0,0,0,0,0,0,0,180,3.4,10,0,0,0,0,0,0,0,0,0,0,0,0
2007,6,23,24,0,,21.6,19.8,89,99620,0,0,415,0,0,0,0,0,0,0,180,2.9,10,0,0,0,0,0,0,0,0,0,0,0,0
2007,6,24,1,0,,21.5,20.2,93,99520,0,0,415,0,0,0,0,0,0,0,160,2.5,10,0,0,0,0,0,0,0,0,0,0,0,0
2007,6,24,2,0,,21.9,20.7,92,99420,0,0,418,0,0,0,0,0,0,0,180,3.1,10,0,0,0,0,0,0,0,0,0,0,0,0
2007,6,24,3,0,,22.5,21.1,91,99320,0,0,422,0,0,0,0,0,0,0,230,1.6,10,0,0,0,0,0,0,0,0,0,0,0,0
2007,6,24,4,0,,22.1,21.6,96,99290,0,0,420,0,0,0,0,0,0,0,200,2.3,10,0,0,0,0,0,0,0,0,0,0,0,0
2007,6,24,5,0,,23.1,22.1,95,99270,0,0,427,0,0,0,0,0,0,0,200,4.6,10,0,0,0,0,0,0,0,0,0,0,0,0
2007,6,24,6,0,,23,22.6,97,99240,0,0,427,6,0,6,846,2,845,0,230,2.6,10,0,0,0,0,0,0,0,0,0,0,0,0
2007,6,24,7,0,,23.1,22.4,97,99250,0,0,423,55,25,49,8145,2134,6851,0,200,3.3,10,0,0,0,0,0,0,0,0,0,0,0,0
2007,6,24,8,0,,23.3,22.1,96,99250,0,0,420,152,58,128,20723,5023,16900,0,200,3.9,9,0,0,0,0,0,0,0,0,0,0,0,0
2007,6,24,9,0,,24.1,21.9,87,99260,0,0,420,233,56,200,29919,4912,25600,0,230,3.7,9,0,0,0,0,0,0,0,0,0,0,0,0
2007,6,24,10,0,,22.5,21.6,91,99240,0,0,414,290,46,255,34178,4015,30352,0,200,5.5,9,0,0,0,0,0,0,0,0,0,0,0,0
2007,6,24,11,0,,22.2,21.4,92,99230,0,0,416,223,13,211,26750,764,26004,0,200,3.7,10,0,0,0,0,0,0,0,0,0,0,0,0
2007,6,24,12,0,,22,21.1,94,99210,0,0,419,253,14,240,29953,865,29130,0,200,4.5,10,0,0,0,0,0,0,0,0,0,0,0,0
2007,6,24,13,0,,22.4,21,92,99220,0,0,421,273,16,257,31565,1014,30678,0,200,4.8,10,0,0,0,0,0,0,0,0,0,0,0,0
2007,6,24,14,0,,22.7,20.8,92,99240,0,0,423,285,19,267,32033,1329,31029,0,230,3,10,0,0,0,0,0,0,0,0,0,0,0,0
2007,6,24,15,0,,21.8,20.7,93,99250,0,0,417,235,14,222,25876,971,25295,0,250,3.4,10,0,0,0,0,0,0,0,0,0,0,0,0
2007,6,24,16,0,,22,20.3,88,99270,0,0,418,211,17,198,22153,1151,21672,0,270,1.6,10,0,0,0,0,0,0,0,0,0,0,0,0
2007,6,24,17,0,,22.3,19.8,84,99280,0,0,419,162,17,151,15972,924,15765,0,270,1.3,10,0,0,0,0,0,0,0,0,0,0,0,0
2007,6,24,18,0,,22.3,19.4,83,99300,0,0,418,121,24,111,10160,2648,10081,0,270,1.6,10,0,0,0,0,0,0,0,0,0,0,0,0
2007,6,24,19,0,,22.2,19.3,84,99350,0,0,418,65,25,59,0,0,0,0,250,2.3,10,0,0,0,0,0,0,0,0,0,0,0,0
2007,6,24,20,0,,21.8,19.2,85,99390,0,0,415,12,1,11,0,0,0,0,250,2.1,10,0,0,0,0,0,0,0,0,0,0,0,0
2007,6,24,21,0,,21.2,19.1,87,99440,0,0,412,0,0,0,0,0,0,0,230,3.1,10,0,0,0,0,0,0,0,0,0,0,0,0
2007,6,24,22,0,,21.2,19.2,85,99470,0,0,412,0,0,0,0,0,0,0,250,1.9,10,0,0,0,0,0,0,0,0,0,0,0,0
2007,6,24,23,0,,21.1,19.2,87,99510,0,0,411,0,0,0,0,0,0,0,200,1.9,10,0,0,0,0,0,0,0,0,0,0,0,0
2007,6,24,24,0,,21,19.3,89,99540,0,0,411,0,0,0,0,0,0,0,230,2.3,10,0,0,0,0,0,0,0,0,0,0,0,0
2007,6,25,1,0,,20.8,19.1,89,99510,0,0,409,0,0,0,0,0,0,0,230,2.1,10,0,0,0,0,0,0,0,0,0,0,0,0
2007,6,25,2,0,,20.6,18.8,90,99470,0,0,408,0,0,0,0,0,0,0,200,2,10,0,0,0,0,0,0,0,0,0,0,0,0
2007,6,25,3,0,,20.5,18.6,88,99440,0,0,407,0,0,0,0,0,0,0,200,2,10,0,0,0,0,0,0,0,0,0,0,0,0
2007,6,25,4,0,,19.7,18.8,95,99450,0,0,403,0,0,0,0,0,0,0,230,1.2,10,0,0,0,0,0,0,0,0,0,0,0,0
2007,6,25,5,0,,19.6,19.1,97,99450,0,0,403,0,0,0,0,0,0,0,0,0.1,10,0,0,0,0,0,0,0,0,0,0,0,0
2007,6,25,6,0,,19.6,19.3,97,99460,0,0,403,4,0,4,538,0,538,0,0,0.4,10,0,0,0,0,0,0,0,0,0,0,0,0
2007,6,25,7,0,,19.9,19.4,96,99480,0,0,405,46,15,42,6018,1302,5229,0,0,0,10,0,0,0,0,0,0,0,0,0,0,0,0
2007,6,25,8,0,,20,19.4,95,99500,0,0,406,98,17,91,12185,1491,11051,0,0,0.3,10,0,0,0,0,0,0,0,0,0,0,0,0
2007,6,25,9,0,,20.9,19.5,91,99520,0,0,411,165,22,153,19973,1919,18286,0,0,0.4,10,0,0,0,0,0,0,0,0,0,0,0,0
2007,6,25,10,0,,21.7,19.8,90,99490,0,0,415,208,19,194,24772,1640,23210,0,0,0,10,0,0,0,0,0,0,0,0,0,0,0,0
2007,6,25,11,0,,22.4,20.1,85,99460,0,0,420,262,21,243,30698,1846,28893,0,0,0.2,10,0,0,0,0,0,0,0,0,0,0,0,0
2007,6,25,12,0,,22.9,20.4,85,99430,0,0,423,273,18,256,31798,1544,30330,0,0,0,10,0,0,0,0,0,0,0,0,0,0,0,0
2007,6,25,13,0,,22.9,20.6,86,99410,0,0,423,282,17,265,32603,1148,31598,0,230,1.1,10,0,0,0,0,0,0,0,0,0,0,0,0
2007,6,25,14,0,,23.2,20.7,86,99380,0,0,425,268,16,253,30320,1090,29497,0,0,0,10,0,0,0,0,0,0,0,0,0,0,0,0
2007,6,25,15,0,,23.4,20.9,85,99360,0,0,427,240,15,226,26357,1039,25735,0,0,0,10,0,0,0,0,0,0,0,0,0,0,0,0
2007,6,25,16,0,,23.3,21.1,87,99340,0,0,426,207,16,195,21831,1072,21383,0,0,0.1,10,0,0,0,0,0,0,0,0,0,0,0,0
2007,6,25,17,0,,23.4,21.2,88,99330,0,0,427,167,19,155,16347,1001,16122,0,230,1.3,10,0,0,0,0,0,0,0,0,0,0,0,0
2007,6,25,18,0,,23.2,21.4,89,99310,0,0,426,116,21,107,9778,2076,9715,0,230,1.4,10,0,0,0,0,0,0,0,0,0,0,0,0
2007,6,25,19,0,,23.3,21.4,88,99330,0,0,427,56,16,52,0,0,0,0,0,0.1,10,0,0,0,0,0,0,0,0,0,0,0,0
2007,6,25,20,0,,23.3,21.3,87,99340,0,0,427,11,1,11,0,0,0,0,0,0,10,0,0,0,0,0,0,0,0,0,0,0,0
2007,6,25,21,0,,23.1,21.3,89,99360,0,0,425,0,0,0,0,0,0,0,20,0.6,10,0,0,0,0,0,0,0,0,0,0,0,0
2007,6,25,22,0,,23.1,21.3,90,99390,0,0,425,0,0,0,0,0,0,0,0,0.4,10,0,0,0,0,0,0,0,0,0,0,0,0
2007,6,25,23,0,,22.9,21.2,90,99410,0,0,424,0,0,0,0,0,0,0,0,0.4,10,0,0,0,0,0,0,0,0,0,0,0,0
2007,6,25,24,0,,22.8,21.2,90,99440,0,0,424,0,0,0,0,0,0,0,0,0,10,0,0,0,0,0,0,0,0,0,0,0,0
2007,6,26,1,0,,22.6,21.1,91,99470,0,0,422,0,0,0,0,0,0,0,250,0.9,10,0,0,0,0,0,0,0,0,0,0,0,0
2007,6,26,2,0,,22.3,21.1,93,99500,0,0,421,0,0,0,0,0,0,0,200,1.1,10,0,0,0,0,0,0,0,0,0,0,0,0
2007,6,26,3,0,,22.1,21,93,99530,0,0,419,0,0,0,0,0,0,0,230,1.3,10,0,0,0,0,0,0,0,0,0,0,0,0
2007,6,26,4,0,,22.2,20.9,94,99540,0,0,420,0,0,0,0,0,0,0,230,2,10,0,0,0,0,0,0,0,0,0,0,0,0
2007,6,26,5,0,,21.7,20.8,95,99540,0,0,417,0,0,0,0,0,0,0,230,2,10,0,0,0,0,0,0,0,0,0,0,0,0
2007,6,26,6,0,,21.6,20.7,94,99550,0,0,416,6,0,6,794,3,793,0,200,2.4,10,0,0,0,0,0,0,0,0,0,0,0,0
2007,6,26,7,0,,21.7,20.7,93,99620,0,0,417,44,14,41,5827,1198,5102,0,230,1.7,10,0,0,0,0,0,0,0,0,0,0,0,0
2007,6,26,8,0,,21.9,20.8,92,99700,0,0,418,98,17,91,12222,1479,11099,0,230,1.4,10,0,0,0,0,0,0,0,0,0,0,0,0
2007,6,26,9,0,,22.8,20.8,88,99770,0,0,423,161,20,149,19455,1753,17915,0,270,1.1,10,0,0,0,0,0,0,0,0,0,0,0,0
2007,6,26,10,0,,24.6,20.5,79,99770,0,0,421,317,59,273,37247,5243,32252,0,290,0.6,9,0,0,0,0,0,0,0,0,0,0,0,0
2007,6,26,11,0,,25.7,20.3,71,99770,0,0,418,476,108,383,55809,9533,46492,0,340,0.7,8,0,0,0,0,0,0,0,0,0,0,0,0
2007,6,26,12,0,,26.7,20,66,99770,0,0,417,593,145,455,66628,12834,54424,0,0,0.2,7,0,0,0,0,0,0,0,0,0,0,0,0
2007,6,26,13,0,,27.1,19.9,61,99750,0,0,417,608,140,471,66837,12325,56049,0,290,0.8,7,0,0,0,0,0,0,0,0,0,0,0,0
2007,6,26,14,0,,28.8,19.9,61,99720,0,0,425,672,199,481,69964,17251,56931,0,250,0.7,6,0,0,0,0,0,0,0,0,0,0,0,0
2007,6,26,15,0,,28.7,19.8,58,99700,0,0,423,614,202,435,61524,17026,51313,0,230,1.1,6,0,0,0,0,0,0,0,0,0,0,0,0
2007,6,26,16,0,,29.5,20.3,55,99690,0,0,430,545,237,361,50260,18323,42590,0,230,2.5,6,0,0,0,0,0,0,0,0,0,0,0,0
2007,6,26,17,0,,29.5,20.9,55,99690,0,0,432,367,167,264,32563,12981,29651,0,270,1.5,7,0,0,0,0,0,0,0,0,0,0,0,0
2007,6,26,18,0,,28.3,21.4,66,99680,0,0,428,249,177,171,18763,11099,18426,0,250,2.5,7,0,0,0,0,0,0,0,0,0,0,0,0
2007,6,26,19,0,,27.3,21.4,71,99750,0,0,424,124,154,85,0,0,0,0,270,1.9,7,0,0,0,0,0,0,0,0,0,0,0,0
2007,6,26,20,0,,26,21.3,77,99830,0,0,419,23,3,19,0,0,0,0,270,1.1,8,0,0,0,0,0,0,0,0,0,0,0,0
2007,6,26,21,0,,25.3,21.3,78,99900,0,0,417,0,0,0,0,0,0,0,250,1.5,8,0,0,0,0,0,0,0,0,0,0,0,0
2007,6,26,22,0,,24.2,21.3,84,99930,0,0,406,0,0,0,0,0,0,0,200,2.5,7,0,0,0,0,0,0,0,0,0,0,0,0
2007,6,26,23,0,,23.7,21.3,86,99960,0,0,400,0,0,0,0,0,0,0,230,1.9,7,0,0,0,0,0,0,0,0,0,0,0,0
2007,6,26,24,0,,23.3,21.3,88,99990,0,0,395,0,0,0,0,0,0,0,200,2.7,6,0,0,0,0,0,0,0,0,0,0,0,0
2007,6,27,1,0,,22.8,21.2,90,99980,0,0,388,0,0,0,0,0,0,0,230,1.2,5,0,0,0,0,0,0,0,0,0,0,0,0
2007,6,27,2,0,,22.6,21.1,90,99970,0,0,383,0,0,0,0,0,0,0,0,0.1,3,0,0,0,0,0,0,0,0,0,0,0,0
2007,6,27,3,0,,22.1,21,93,99960,0,0,375,0,0,0,0,0,0,0,50,1.1,2,0,0,0,0,0,0,0,0,0,0,0,0
2007,6,27,4,0,,21.9,21.1,94,99960,0,0,379,0,0,0,0,0,0,0,50,1.2,3,0,0,0,0,0,0,0,0,0,0,0,0
2007,6,27,5,0,,21.6,21.1,95,99950,0,0,382,0,0,0,0,0,0,0,200,0.8,5,0,0,0,0,0,0,0,0,0,0,0,0
2007,6,27,6,0,,21.7,21.2,96,99950,0,0,387,22,6,16,2265,463,2069,0,0,0.3,6,0,0,0,0,0,0,0,0,0,0,0,0
2007,6,27,7,0,,22.4,21.2,93,99970,0,0,388,126,300,63,28755,29423,10977,0,200,1.2,5,0,0,0,0,0,0,0,0,0,0,0,0
2007,6,27,8,0,,22.5,21.3,91,100000,0,0,386,259,281,146,41278,24894,22380,0,230,0.9,5,0,0,0,0,0,0,0,0,0,0,0,0
2007,6,27,9,0,,24.3,21.3,83,100020,0,0,394,429,336,231,59365,29856,33157,0,0,0.2,4,0,0,0,0,0,0,0,0,0,0,0,0
2007,6,27,10,0,,25.4,20.7,74,100010,0,0,402,541,269,340,66036,23199,43947,0,160,0.8,5,0,0,0,0,0,0,0,0,0,0,0,0
2007,6,27,11,0,,28.4,20,62,100010,0,0,422,659,271,424,76071,23500,53109,0,230,2.1,6,0,0,0,0,0,0,0,0,0,0,0,0
2007,6,27,12,0,,29.2,19.4,55,100000,0,0,430,669,204,475,73752,18086,56553,0,180,3,7,0,0,0,0,0,0,0,0,0,0,0,0
2007,6,27,13,0,,28.8,19,55,99990,0,0,434,581,124,460,64197,11009,54559,0,180,3.3,8,0,0,0,0,0,0,0,0,0,0,0,0
2007,6,27,14,0,,28.6,18.7,55,99970,0,0,442,419,55,367,46168,5010,42382,0,140,1.9,9,0,0,0,0,0,0,0,0,0,0,0,0
2007,6,27,15,0,,28.7,18.3,53,99960,0,0,455,301,29,276,32318,2240,30973,0,160,2.4,10,0,0,0,0,0,0,0,0,0,0,0,0
2007,6,27,16,0,,28.2,18.7,58,99930,0,0,452,254,29,232,26100,2190,25182,0,160,2,10,0,0,0,0,0,0,0,0,0,0,0,0
2007,6,27,17,0,,27.8,19,58,99910,0,0,450,201,31,182,19152,2079,18685,0,180,2.8,10,0,0,0,0,0,0,0,0,0,0,0,0
2007,6,27,18,0,,27.5,19.4,61,99880,0,0,449,134,31,121,10991,3930,10871,0,160,2.2,10,0,0,0,0,0,0,0,0,0,0,0,0
2007,6,27,19,0,,26.9,19,68,99890,0,0,429,89,59,74,0,0,0,0,180,1.5,9,0,0,0,0,0,0,0,0,0,0,0,0
2007,6,27,20,0,,26.4,18.7,66,99910,0,0,415,33,10,23,0,0,0,0,140,0.8,7,0,0,0,0,0,0,0,0,0,0,0,0
2007,6,27,21,0,,26,18.3,62,99920,0,0,406,0,0,0,0,0,0,0,200,1.6,6,0,0,0,0,0,0,0,0,0,0,0,0
2007,6,27,22,0,,25.8,19.3,62,99950,0,0,413,0,0,0,0,0,0,0,200,2.8,7,0,0,0,0,0,0,0,0,0,0,0,0
2007,6,27,23,0,,25.4,20.2,74,99970,0,0,422,0,0,0,0,0,0,0,200,2.6,9,0,0,0,0,0,0,0,0,0,0,0,0
2007,6,27,24,0,,25.2,21.2,78,100000,0,0,437,0,0,0,0,0,0,0,200,1.9,10,0,0,0,0,0,0,0,0,0,0,0,0
2007,6,28,1,0,,25,21.5,81,99920,0,0,432,0,0,0,0,0,0,0,180,3.7,10,0,0,0,0,0,0,0,0,0,0,0,0
2007,6,28,2,0,,25.1,21.7,82,99840,0,0,429,0,0,0,0,0,0,0,180,2.8,9,0,0,0,0,0,0,0,0,0,0,0,0
2007,6,28,3,0,,25.2,22,82,99760,0,0,426,0,0,0,0,0,0,0,180,3.7,9,0,0,0,0,0,0,0,0,0,0,0,0
2007,6,28,4,0,,25.4,22.1,81,99780,0,0,431,0,0,0,0,0,0,0,180,2.7,9,0,0,0,0,0,0,0,0,0,0,0,0
2007,6,28,5,0,,25.3,22.1,81,99800,0,0,435,0,0,0,0,0,0,0,160,2.8,10,0,0,0,0,0,0,0,0,0,0,0,0
2007,6,28,6,0,,25.6,22.2,81,99820,0,0,441,8,0,8,1070,8,1067,0,180,2.4,10,0,0,0,0,0,0,0,0,0,0,0,0
2007,6,28,7,0,,25.5,22.4,82,99810,0,0,441,54,26,49,8111,2202,6783,0,180,3.3,10,0,0,0,0,0,0,0,0,0,0,0,0
2007,6,28,8,0,,26,22.7,82,99790,0,0,444,115,28,104,14448,2317,12691,0,180,1.6,10,0,0,0,0,0,0,0,0,0,0,0,0
2007,6,28,9,0,,25.9,22.9,83,99780,0,0,444,176,26,160,21327,2220,19379,0,200,3,10,0,0,0,0,0,0,0,0,0,0,0,0
2007,6,28,10,0,,27.2,23.1,79,99740,0,0,452,247,30,225,29353,2554,26922,0,200,3.3,10,0,0,0,0,0,0,0,0,0,0,0,0
2007,6,28,11,0,,27,23.2,80,99710,0,0,451,285,27,262,33499,2268,31283,0,200,3.8,10,0,0,0,0,0,0,0,0,0,0,0,0
2007,6,28,12,0,,27.7,23.4,77,99670,0,0,455,327,29,299,37939,2470,35590,0,180,3.6,10,0,0,0,0,0,0,0,0,0,0,0,0
2007,6,28,13,0,,27.5,23.5,77,99670,0,0,454,323,25,298,37218,2147,35338,0,200,4.3,10,0,0,0,0,0,0,0,0,0,0,0,0
2007,6,28,14,0,,27.1,23.5,80,99670,0,0,452,295,21,275,32870,1401,31811,0,180,3.5,10,0,0,0,0,0,0,0,0,0,0,0,0
2007,6,28,15,0,,26.9,23.6,82,99670,0,0,451,243,16,229,26558,1019,25946,0,200,3,10,0,0,0,0,0,0,0,0,0,0,0,0
2007,6,28,16,0,,25.5,23.8,90,99620,0,0,443,194,14,184,20564,810,20225,0,230,4.6,10,0,0,0,0,0,0,0,0,0,0,0,0
2007,6,28,17,0,,24.8,23.9,95,99570,0,0,439,147,13,139,14681,572,14553,0,200,3.4,10,0,0,0,0,0,0,0,0,0,0,0,0
2007,6,28,18,0,,25.4,24.1,92,99520,0,0,443,105,16,98,9015,1229,8977,0,160,2.3,10,0,0,0,0,0,0,0,0,0,0,0,0
2007,6,28,19,0,,25.8,23.7,89,99590,0,0,444,62,21,56,0,0,0,0,180,2.5,10,0,0,0,0,0,0,0,0,0,0,0,0
2007,6,28,20,0,,25.8,23.2,89,99670,0,0,444,14,1,13,0,0,0,0,250,3,10,0,0,0,0,0,0,0,0,0,0,0,0
2007,6,28,21,0,,24.5,22.8,90,99740,0,0,436,0,0,0,0,0,0,0,230,4.2,10,0,0,0,0,0,0,0,0,0,0,0,0
2007,6,28,22,0,,24.2,22.6,91,99750,0,0,434,0,0,0,0,0,0,0,200,3.2,10,0,0,0,0,0,0,0,0,0,0,0,0
2007,6,28,23,0,,24,22.4,90,99760,0,0,432,0,0,0,0,0,0,0,200,2.9,10,0,0,0,0,0,0,0,0,0,0,0,0
2007,6,28,24,0,,24,22.2,89,99770,0,0,432,0,0,0,0,0,0,0,230,2.6,10,0,0,0,0,0,0,0,0,0,0,0,0
2007,6,29,1,0,,23.8,22.2,89,99760,0,0,431,0,0,0,0,0,0,0,200,3.6,10,0,0,0,0,0,0,0,0,0,0,0,0
2007,6,29,2,0,,23.4,22.3,93,99750,0,0,428,0,0,0,0,0,0,0,230,3.7,10,0,0,0,0,0,0,0,0,0,0,0,0
2007,6,29,3,0,,23.6,22.3,92,99740,0,0,430,0,0,0,0,0,0,0,230,2.7,10,0,0,0,0,0,0,0,0,0,0,0,0
2007,6,29,4,0,,23.3,22.3,93,99720,0,0,428,0,0,0,0,0,0,0,230,3.1,10,0,0,0,0,0,0,0,0,0,0,0,0
2007,6,29,5,0,,23.3,22.4,94,99710,0,0,428,0,0,0,0,0,0,0,200,3.8,10,0,0,0,0,0,0,0,0,0,0,0,0
2007,6,29,6,0,,23.5,22.4,93,99690,0,0,429,6,0,6,819,2,818,0,200,2.7,10,0,0,0,0,0,0,0,0,0,0,0,0
2007,6,29,7,0,,23.2,22.4,96,99720,0,0,428,48,19,44,7138,1586,6183,0,230,2.7,10,0,0,0,0,0,0,0,0,0,0,0,0
2007,6,29,8,0,,23.1,22.4,97,99740,0,0,427,100,18,92,12455,1551,11280,0,230,2.1,10,0,0,0,0,0,0,0,0,0,0,0,0
2007,6,29,9,0,,23.5,22.4,93,99770,0,0,429,152,18,142,18459,1488,17155,0,250,2.4,10,0,0,0,0,0,0,0,0,0,0,0,0
2007,6,29,10,0,,24.6,21.4,86,99770,0,0,419,298,51,260,35091,4407,30898,0,250,2,9,0,0,0,0,0,0,0,0,0,0,0,0
2007,6,29,11,0,,25.2,20.5,81,99770,0,0,411,505,127,395,58870,11220,47911,0,290,1.3,7,0,0,0,0,0,0,0,0,0,0,0,0
2007,6,29,12,0,,26.5,19.5,65,99770,0,0,410,673,208,475,74126,18487,56547,0,270,2.7,6,0,0,0,0,0,0,0,0,0,0,0,0
2007,6,29,13,0,,28.2,19.6,61,99760,0,0,417,766,271,500,80057,23773,59239,0,250,2.3,5,0,0,0,0,0,0,0,0,0,0,0,0
2007,6,29,14,0,,28.7,19.8,57,99750,0,0,418,750,275,486,75453,23804,57452,0,290,1.4,5,0,0,0,0,0,0,0,0,0,0,0,0
2007,6,29,15,0,,28.9,19.9,58,99740,0,0,417,709,310,433,66817,26129,51124,0,270,2.5,4,0,0,0,0,0,0,0,0,0,0,0,0
2007,6,29,16,0,,29,19.5,58,99730,0,0,415,625,446,280,49937,34578,35434,0,270,2.9,3,0,0,0,0,0,0,0,0,0,0,0,0
2007,6,29,17,0,,29,19.1,57,99720,0,0,412,489,452,208,31605,25664,25828,0,270,2.1,3,0,0,0,0,0,0,0,0,0,0,0,0
2007,6,29,18,0,,27.6,18.7,58,99710,0,0,401,344,485,129,14392,0,14392,0,320,2.2,2,0,0,0,0,0,0,0,0,0,0,0,0
2007,6,29,19,0,,26.3,18.5,63,99740,0,0,396,177,411,75,0,0,0,0,250,1.2,2,0,0,0,0,0,0,0,0,0,0,0,0
2007,6,29,20,0,,25,18.3,65,99760,0,0,390,43,23,20,0,0,0,0,340,1,3,0,0,0,0,0,0,0,0,0,0,0,0
2007,6,29,21,0,,24,18.1,69,99790,0,0,385,0,0,0,0,0,0,0,360,0.7,3,0,0,0,0,0,0,0,0,0,0,0,0
2007,6,29,22,0,,23.1,18.5,76,99850,0,0,381,0,0,0,0,0,0,0,20,1,3,0,0,0,0,0,0,0,0,0,0,0,0
2007,6,29,23,0,,22.8,18.9,79,99910,0,0,380,0,0,0,0,0,0,0,290,0.5,3,0,0,0,0,0,0,0,0,0,0,0,0
2007,6,29,24,0,,22.4,19.3,82,99970,0,0,379,0,0,0,0,0,0,0,290,0.7,3,0,0,0,0,0,0,0,0,0,0,0,0
2007,6,30,1,0,,21.7,19.3,85,99960,0,0,375,0,0,0,0,0,0,0,0,0.3,3,0,0,0,0,0,0,0,0,0,0,0,0
2007,6,30,2,0,,21.4,19.2,86,99950,0,0,373,0,0,0,0,0,0,0,0,0,3,0,0,0,0,0,0,0,0,0,0,0,0
2007,6,30,3,0,,20.8,19.2,90,99940,0,0,370,0,0,0,0,0,0,0,0,0.4,3,0,0,0,0,0,0,0,0,0,0,0,0
2007,6,30,4,0,,20.7,19.3,92,99970,0,0,373,0,0,0,0,0,0,0,250,1.1,4,0,0,0,0,0,0,0,0,0,0,0,0
2007,6,30,5,0,,20.6,19.5,94,100010,0,0,375,0,0,0,0,0,0,0,250,0.9,5,0,0,0,0,0,0,0,0,0,0,0,0
2007,6,30,6,0,,20.5,19.6,94,100040,0,0,378,22,6,16,2194,463,1999,0,0,0.1,6,0,0,0,0,0,0,0,0,0,0,0,0
2007,6,30,7,0,,21.1,19.6,91,100050,0,0,379,125,309,62,28944,30480,10609,0,230,0.7,5,0,0,0,0,0,0,0,0,0,0,0,0
2007,6,30,8,0,,22.2,19.7,87,100070,0,0,383,264,307,141,42368,27743,21367,0,340,0.6,5,0,0,0,0,0,0,0,0,0,0,0,0
2007,6,30,9,0,,23.8,19.7,77,100080,0,0,389,440,406,203,61427,36761,29218,0,290,0.7,4,0,0,0,0,0,0,0,0,0,0,0,0
2007,6,30,10,0,,25.5,19.5,70,100050,0,0,398,594,441,266,74635,40021,36571,0,290,0.6,4,0,0,0,0,0,0,0,0,0,0,0,0
2007,6,30,11,0,,27.1,19.4,63,100030,0,0,407,719,460,321,83280,41620,42636,0,50,0.8,4,0,0,0,0,0,0,0,0,0,0,0,0
2007,6,30,12,0,,28.4,19.2,57,100000,0,0,414,787,337,468,85584,29548,57488,0,270,1.5,4,0,0,0,0,0,0,0,0,0,0,0,0
2007,6,30,13,0,,29.8,19.3,55,99940,0,0,422,830,458,381,85061,41145,49028,0,160,1.6,4,0,0,0,0,0,0,0,0,0,0,0,0
2007,6,30,14,0,,31,19.3,48,99890,0,0,429,816,471,364,76809,40744,45992,0,200,2.8,4,0,0,0,0,0,0,0,0,0,0,0,0
2007,6,30,15,0,,31.3,19.4,49,99830,0,0,430,741,460,332,65396,38719,42135,0,180,2.9,4,0,0,0,0,0,0,0,0,0,0,0,0
2007,6,30,16,0,,31.2,19.5,50,99820,0,0,432,587,298,356,51657,23269,41893,0,160,3.1,5,0,0,0,0,0,0,0,0,0,0,0,0
2007,6,30,17,0,,29.3,19.6,57,99810,0,0,424,442,290,261,34135,17058,30293,0,180,4.7,5,0,0,0,0,0,0,0,0,0,0,0,0
2007,6,30,18,0,,27.8,19.7,61,99800,0,0,418,269,222,171,18259,0,18259,0,180,4.9,6,0,0,0,0,0,0,0,0,0,0,0,0
2007,6,30,19,0,,26.7,20.1,65,99810,0,0,419,122,146,85,0,0,0,0,180,4.4,7,0,0,0,0,0,0,0,0,0,0,0,0
2007,6,30,20,0,,25.8,20.5,67,99830,0,0,425,17,1,15,0,0,0,0,180,2.8,9,0,0,0,0,0,0,0,0,0,0,0,0
2007,6,30,21,0,,22.9,20.9,88,99840,0,0,424,0,0,0,0,0,0,0,160,3.3,10,0,0,0,0,0,0,0,0,0,0,0,0
2007,6,30,22,0,,23.3,20.3,81,99790,0,0,425,0,0,0,0,0,0,0,180,2.1,10,0,0,0,0,0,0,0,0,0,0,0,0
2007,6,30,23,0,,23,19.7,78,99750,0,0,423,0,0,0,0,0,0,0,160,5.2,10,0,0,0,0,0,0,0,0,0,0,0,0
2007,6,30,24,0,,22,19.1,83,99700,0,0,416,0,0,0,0,0,0,0,110,3.9,10,0,0,0,0,0,0,0,0,0,0,0,0
2012,7,1,1,0,,21.3,19.7,91,99740,0,0,396,0,0,0,0,0,0,0,250,1.6,8,0,0,0,0,0,0,0,0,0,0,0,0
2012,7,1,2,0,,21.1,19.3,90,99740,0,0,397,0,0,0,0,0,0,0,270,0.8,9,0,0,0,0,0,0,0,0,0,0,0,0
2012,7,1,3,0,,21.1,19.2,89,99750,0,0,400,0,0,0,0,0,0,0,250,1.3,9,0,0,0,0,0,0,0,0,0,0,0,0
2012,7,1,4,0,,21,19.1,89,99770,0,0,391,0,0,0,0,0,0,0,0,0.4,8,0,0,0,0,0,0,0,0,0,0,0,0
2012,7,1,5,0,,20.9,18.8,88,99820,0,0,390,0,0,0,0,0,0,0,270,0.9,8,0,0,0,0,0,0,0,0,0,0,0,0
2012,7,1,6,0,,20.7,18.8,89,99870,0,0,383,18,4,15,1972,295,1848,0,270,1.1,7,0,0,0,0,0,0,0,0,0,0,0,0
2012,7,1,7,0,,21.6,18.9,85,99890,0,0,402,68,53,58,10628,4754,7777,0,270,0.6,9,0,0,0,0,0,0,0,0,0,0,0,0
2012,7,1,8,0,,22.8,19.5,82,99850,0,0,410,160,70,132,21818,6367,17008,0,50,2,9,0,0,0,0,0,0,0,0,0,0,0,0
2012,7,1,9,0,,22.9,19,79,99890,0,0,421,193,35,173,23279,3062,20599,0,250,2.2,10,0,0,0,0,0,0,0,0,0,0,0,0
2012,7,1,10,0,,23.1,19.2,79,99850,0,0,423,229,25,211,27172,2205,25077,0,230,0.7,10,0,0,0,0,0,0,0,0,0,0,0,0
2012,7,1,11,0,,24.6,19.6,74,99880,0,0,420,368,54,321,42420,4827,37708,0,20,1.5,9,0,0,0,0,0,0,0,0,0,0,0,0
2012,7,1,12,0,,25.1,18.5,67,99800,0,0,421,425,60,369,48100,5414,42953,0,200,1.4,9,0,0,0,0,0,0,0,0,0,0,0,0
2012,7,1,13,0,,25.8,19.1,67,99830,0,0,426,440,59,382,49059,5322,44397,0,250,1.5,9,0,0,0,0,0,0,0,0,0,0,0,0
2012,7,1,14,0,,27,19,62,99790,0,0,445,356,35,322,39810,3182,37403,0,20,1.1,10,0,0,0,0,0,0,0,0,0,0,0,0
2012,7,1,15,0,,26.5,19.1,64,99730,0,0,442,307,30,280,32846,2363,31425,0,290,0.7,10,0,0,0,0,0,0,0,0,0,0,0,0
2012,7,1,16,0,,26.9,20,66,99670,0,0,446,254,29,232,26069,2151,25166,0,250,1.7,10,0,0,0,0,0,0,0,0,0,0,0,0
2012,7,1,17,0,,24.6,20.5,78,99670,0,0,433,151,14,143,15105,708,14946,0,230,2.8,10,0,0,0,0,0,0,0,0,0,0,0,0
2012,7,1,18,0,,23.7,20.4,82,99660,0,0,428,110,18,102,9396,1630,9346,0,200,3.8,10,0,0,0,0,0,0,0,0,0,0,0,0
2012,7,1,19,0,,23.3,20,82,99680,0,0,425,52,13,49,0,0,0,0,200,3,10,0,0,0,0,0,0,0,0,0,0,0,0
2012,7,1,20,0,,22.7,20,85,99720,0,0,421,12,1,11,0,0,0,0,230,2.4,10,0,0,0,0,0,0,0,0,0,0,0,0
2012,7,1,21,0,,22.2,19.9,87,99750,0,0,418,0,0,0,0,0,0,0,200,1.4,10,0,0,0,0,0,0,0,0,0,0,0,0
2012,7,1,22,0,,22,19.9,88,99780,0,0,409,0,0,0,0,0,0,0,200,1.7,9,0,0,0,0,0,0,0,0,0,0,0,0
2012,7,1,23,0,,21.9,19.8,88,99810,0,0,402,0,0,0,0,0,0,0,230,2,9,0,0,0,0,0,0,0,0,0,0,0,0
2012,7,1,24,0,,21.6,19.5,88,99800,0,0,395,0,0,0,0,0,0,0,230,1.4,8,0,0,0,0,0,0,0,0,0,0,0,0
2012,7,2,1,0,,21.3,19.5,90,99770,0,0,393,0,0,0,0,0,0,0,230,1.2,8,0,0,0,0,0,0,0,0,0,0,0,0
2012,7,2,2,0,,20.9,19.1,90,99730,0,0,390,0,0,0,0,0,0,0,200,0.8,8,0,0,0,0,0,0,0,0,0,0,0,0
2012,7,2,3,0,,20.7,19.1,91,99710,0,0,389,0,0,0,0,0,0,0,250,1.2,8,0,0,0,0,0,0,0,0,0,0,0,0
2012,7,2,4,0,,20.6,19,91,99700,0,0,389,0,0,0,0,0,0,0,290,0.7,8,0,0,0,0,0,0,0,0,0,0,0,0
2012,7,2,5,0,,20.5,18.9,91,99730,0,0,388,0,0,0,0,0,0,0,230,0.7,8,0,0,0,0,0,0,0,0,0,0,0,0
2012,7,2,6,0,,21,19.1,89,99740,0,0,391,16,2,13,1760,196,1679,0,20,1,8,0,0,0,0,0,0,0,0,0,0,0,0
2012,7,2,7,0,,20.9,18.8,88,99740,0,0,390,88,110,66,15466,9600,9718,0,20,1.4,8,0,0,0,0,0,0,0,0,0,0,0,0
2012,7,2,8,0,,22.1,19,83,99700,0,0,405,159,70,131,21638,6328,16862,0,50,1.4,9,0,0,0,0,0,0,0,0,0,0,0,0
2012,7,2,9,0,,23.1,19,78,99690,0,0,396,339,168,242,44763,14921,31716,0,50,1.8,7,0,0,0,0,0,0,0,0,0,0,0,0
2012,7,2,10,0,,24.7,17.9,66,99670,0,0,403,470,180,336,57643,16287,42172,0,70,1.9,7,0,0,0,0,0,0,0,0,0,0,0,0
2012,7,2,11,0,,25.8,17.9,62,99650,0,0,416,486,115,386,56520,10530,46244,0,20,1.8,8,0,0,0,0,0,0,0,0,0,0,0,0
2012,7,2,12,0,,26.6,18.1,60,99590,0,0,442,372,41,333,42412,3761,38837,0,250,1.8,10,0,0,0,0,0,0,0,0,0,0,0,0
2012,7,2,13,0,,27.6,18.5,58,99540,0,0,427,562,114,451,61146,10452,51993,0,270,1.2,8,0,0,0,0,0,0,0,0,0,0,0,0
2012,7,2,14,0,,27,19.3,63,99370,0,0,446,341,31,311,38315,2817,36184,0,250,1.5,10,0,0,0,0,0,0,0,0,0,0,0,0
2012,7,2,15,0,,27.5,19.3,61,99400,0,0,449,324,35,293,35719,3115,33846,0,230,3.3,10,0,0,0,0,0,0,0,0,0,0,0,0
2012,7,2,16,0,,27.4,19.7,63,99410,0,0,449,248,27,228,25530,1989,24695,0,230,3.2,10,0,0,0,0,0,0,0,0,0,0,0,0
2012,7,2,17,0,,26.4,19.2,65,99420,0,0,442,205,33,185,19473,2234,18970,0,230,3.7,10,0,0,0,0,0,0,0,0,0,0,0,0
2012,7,2,18,0,,25.8,18.9,66,99390,0,0,438,125,25,114,10402,2927,10314,0,200,3.4,10,0,0,0,0,0,0,0,0,0,0,0,0
2012,7,2,19,0,,25.3,19.4,70,99320,0,0,436,67,27,61,0,0,0,0,200,2.9,10,0,0,0,0,0,0,0,0,0,0,0,0
2012,7,2,20,0,,24.7,19.7,74,99210,0,0,432,11,0,11,0,0,0,0,180,1.4,10,0,0,0,0,0,0,0,0,0,0,0,0
2012,7,2,21,0,,24.7,19.7,74,99310,0,0,432,0,0,0,0,0,0,0,250,2,10,0,0,0,0,0,0,0,0,0,0,0,0
2012,7,2,22,0,,24.6,20,76,99440,0,0,432,0,0,0,0,0,0,0,250,2.7,10,0,0,0,0,0,0,0,0,0,0,0,0
2012,7,2,23,0,,24.2,20.3,79,99440,0,0,430,0,0,0,0,0,0,0,230,3,10,0,0,0,0,0,0,0,0,0,0,0,0
2012,7,2,24,0,,23.6,20.7,84,99420,0,0,427,0,0,0,0,0,0,0,250,1.5,10,0,0,0,0,0,0,0,0,0,0,0,0
2012,7,3,1,0,,23.5,20.4,83,99360,0,0,426,0,0,0,0,0,0,0,250,2.6,10,0,0,0,0,0,0,0,0,0,0,0,0
2012,7,3,2,0,,23.2,20.5,85,99320,0,0,425,0,0,0,0,0,0,0,250,1.8,10,0,0,0,0,0,0,0,0,0,0,0,0
2012,7,3,3,0,,22.7,20.2,86,99260,0,0,422,0,0,0,0,0,0,0,160,0.5,10,0,0,0,0,0,0,0,0,0,0,0,0
2012,7,3,4,0,,22.3,20.2,88,99230,0,0,419,0,0,0,0,0,0,0,230,2.5,10,0,0,0,0,0,0,0,0,0,0,0,0
2012,7,3,5,0,,22.2,20.1,88,99260,0,0,419,0,0,0,0,0,0,0,230,1.9,10,0,0,0,0,0,0,0,0,0,0,0,0
2012,7,3,6,0,,22.1,20.1,89,99320,0,0,418,6,0,6,806,3,805,0,200,2.6,10,0,0,0,0,0,0,0,0,0,0,0,0
2012,7,3,7,0,,22.4,20.1,87,99310,0,0,393,100,164,67,19942,14493,11280,0,180,1.7,7,0,0,0,0,0,0,0,0,0,0,0,0
2012,7,3,8,0,,23.9,19.6,77,99320,0,0,401,224,188,149,33091,16536,20627,0,230,1.3,7,0,0,0,0,0,0,0,0,0,0,0,0
2012,7,3,9,0,,24.9,19.9,74,99310,0,0,413,306,126,233,39045,11317,29157,0,200,2.1,8,0,0,0,0,0,0,0,0,0,0,0,0
2012,7,3,10,0,,25.2,19.7,72,99310,0,0,403,510,230,340,62554,20215,43362,0,250,3.1,6,0,0,0,0,0,0,0,0,0,0,0,0
2012,7,3,11,0,,26.7,20.2,68,99310,0,0,417,553,165,410,63794,14577,49573,0,200,3.6,7,0,0,0,0,0,0,0,0,0,0,0,0
2012,7,3,12,0,,27.1,20.4,67,99310,0,0,426,542,115,433,61788,10120,52170,0,200,4.7,8,0,0,0,0,0,0,0,0,0,0,0,0
2012,7,3,13,0,,27.1,20.4,67,99300,0,0,435,472,71,402,52405,6387,46811,0,230,4.2,9,0,0,0,0,0,0,0,0,0,0,0,0
2012,7,3,14,0,,28.8,19.7,58,99280,0,0,435,559,120,444,59430,10942,51151,0,230,3.9,8,0,0,0,0,0,0,0,0,0,0,0,0
2012,7,3,15,0,,27.7,21.2,68,99260,0,0,431,478,100,388,50082,8957,44700,0,200,4.8,8,0,0,0,0,0,0,0,0,0,0,0,0
2012,7,3,16,0,,27.1,21.6,72,99290,0,0,449,265,32,240,26874,2388,25872,0,230,5.9,10,0,0,0,0,0,0,0,0,0,0,0,0
2012,7,3,17,0,,25.2,21.2,79,99300,0,0,437,157,15,147,15549,792,15370,0,230,5.7,10,0,0,0,0,0,0,0,0,0,0,0,0
2012,7,3,18,0,,24.5,21.4,83,99300,0,0,434,107,16,100,9151,1423,9109,0,230,4.6,10,0,0,0,0,0,0,0,0,0,0,0,0
2012,7,3,19,0,,24.5,21.4,83,99330,0,0,425,80,44,69,0,0,0,0,200,3.7,9,0,0,0,0,0,0,0,0,0,0,0,0
2012,7,3,20,0,,24.7,21,80,99330,0,0,419,20,2,18,0,0,0,0,200,2.6,9,0,0,0,0,0,0,0,0,0,0,0,0
2012,7,3,21,0,,24.6,21.1,81,99370,0,0,413,0,0,0,0,0,0,0,200,2.4,8,0,0,0,0,0,0,0,0,0,0,0,0
2012,7,3,22,0,,24.4,21.1,82,99460,0,0,407,0,0,0,0,0,0,0,200,3.5,7,0,0,0,0,0,0,0,0,0,0,0,0
2012,7,3,23,0,,24,20.9,83,99480,0,0,401,0,0,0,0,0,0,0,200,2.4,7,0,0,0,0,0,0,0,0,0,0,0,0
2012,7,3,24,0,,23.8,20.9,84,99480,0,0,397,0,0,0,0,0,0,0,230,0.9,6,0,0,0,0,0,0,0,0,0,0,0,0
2012,7,4,1,0,,23.5,21.2,87,99520,0,0,403,0,0,0,0,0,0,0,250,2.2,7,0,0,0,0,0,0,0,0,0,0,0,0
2012,7,4,2,0,,22.9,21.1,90,99510,0,0,409,0,0,0,0,0,0,0,200,3.9,9,0,0,0,0,0,0,0,0,0,0,0,0
2012,7,4,3,0,,22.9,21.1,90,99480,0,0,424,0,0,0,0,0,0,0,250,0.8,10,0,0,0,0,0,0,0,0,0,0,0,0
2012,7,4,4,0,,22.7,20.7,89,99510,0,0,422,0,0,0,0,0,0,0,200,2.9,10,0,0,0,0,0,0,0,0,0,0,0,0
2012,7,4,5,0,,22.6,20.5,88,99560,0,0,421,0,0,0,0,0,0,0,230,2.7,10,0,0,0,0,0,0,0,0,0,0,0,0
2012,7,4,6,0,,22.6,20.5,88,99590,0,0,421,6,0,6,833,5,831,0,200,2.5,10,0,0,0,0,0,0,0,0,0,0,0,0
2012,7,4,7,0,,23.3,20.6,85,99610,0,0,426,49,22,45,7308,1908,6170,0,230,1.1,10,0,0,0,0,0,0,0,0,0,0,0,0
2012,7,4,8,0,,23.9,20.6,82,99670,0,0,429,114,28,103,14286,2427,12459,0,180,1.7,10,0,0,0,0,0,0,0,0,0,0,0,0
2012,7,4,9,0,,25.1,20.7,77,99670,0,0,436,196,37,175,23732,3209,20931,0,200,3.2,10,0,0,0,0,0,0,0,0,0,0,0,0
2012,7,4,10,0,,25.3,20.7,76,99660,0,0,437,247,31,225,29290,2699,26729,0,200,1.6,10,0,0,0,0,0,0,0,0,0,0,0,0
2012,7,4,11,0,,25,21.3,80,99710,0,0,436,275,24,254,32252,2130,30175,0,200,2.8,10,0,0,0,0,0,0,0,0,0,0,0,0
2012,7,4,12,0,,25.1,21.6,81,99700,0,0,437,275,18,258,32117,1576,30619,0,230,2.6,10,0,0,0,0,0,0,0,0,0,0,0,0
2012,7,4,13,0,,25.4,21.6,80,99700,0,0,439,303,21,282,34938,1854,33314,0,200,3.8,10,0,0,0,0,0,0,0,0,0,0,0,0
2012,7,4,14,0,,26.2,21.8,77,99700,0,0,444,315,25,291,34866,1785,33516,0,230,2.6,10,0,0,0,0,0,0,0,0,0,0,0,0
2012,7,4,15,0,,27,22.3,76,99690,0,0,450,315,32,286,33382,2436,31918,0,200,2.7,10,0,0,0,0,0,0,0,0,0,0,0,0
2012,7,4,16,0,,27.2,22.1,74,99680,0,0,451,277,36,249,27919,2757,26762,0,200,4.3,10,0,0,0,0,0,0,0,0,0,0,0,0
2012,7,4,17,0,,26.7,22.3,77,99680,0,0,448,203,32,183,19180,2022,18726,0,230,4,10,0,0,0,0,0,0,0,0,0,0,0,0
2012,7,4,18,0,,25.2,21.6,81,99730,0,0,438,112,19,104,9532,1819,9478,0,230,4.2,10,0,0,0,0,0,0,0,0,0,0,0,0
2012,7,4,19,0,,25.1,21.3,80,99780,0,0,433,59,18,54,0,0,0,0,200,2.9,10,0,0,0,0,0,0,0,0,0,0,0,0
2012,7,4,20,0,,25,21.3,80,99740,0,0,428,18,2,16,0,0,0,0,180,1.1,9,0,0,0,0,0,0,0,0,0,0,0,0
2012,7,4,21,0,,25,21,79,99820,0,0,424,0,0,0,0,0,0,0,200,1.9,9,0,0,0,0,0,0,0,0,0,0,0,0
2012,7,4,22,0,,24.9,21.2,80,99860,0,0,427,0,0,0,0,0,0,0,160,0.9,9,0,0,0,0,0,0,0,0,0,0,0,0
2012,7,4,23,0,,24.8,20.6,78,99850,0,0,430,0,0,0,0,0,0,0,180,1.2,10,0,0,0,0,0,0,0,0,0,0,0,0
2012,7,4,24,0,,24.8,20.9,79,99880,0,0,435,0,0,0,0,0,0,0,200,1.7,10,0,0,0,0,0,0,0,0,0,0,0,0
2012,7,5,1,0,,23.4,21.4,89,99870,0,0,427,0,0,0,0,0,0,0,200,2.6,10,0,0,0,0,0,0,0,0,0,0,0,0
2012,7,5,2,0,,23.2,21.6,91,99890,0,0,426,0,0,0,0,0,0,0,200,2.1,10,0,0,0,0,0,0,0,0,0,0,0,0
2012,7,5,3,0,,23.3,21.7,91,99830,0,0,427,0,0,0,0,0,0,0,140,0.9,10,0,0,0,0,0,0,0,0,0,0,0,0
2012,7,5,4,0,,23.3,21.7,91,99840,0,0,427,0,0,0,0,0,0,0,0,0.2,10,0,0,0,0,0,0,0,0,0,0,0,0
2012,7,5,5,0,,23.3,21.9,92,99850,0,0,427,0,0,0,0,0,0,0,20,1.8,10,0,0,0,0,0,0,0,0,0,0,0,0
2012,7,5,6,0,,23,21.9,94,99850,0,0,426,4,0,4,522,0,522,0,90,1.1,10,0,0,0,0,0,0,0,0,0,0,0,0
2012,7,5,7,0,,23.1,22.2,95,99760,0,0,427,46,18,42,6810,1539,5894,0,50,1.3,10,0,0,0,0,0,0,0,0,0,0,0,0
2012,7,5,8,0,,22.2,21.3,95,99970,0,0,420,88,14,83,10955,1160,10082,0,320,1.4,10,0,0,0,0,0,0,0,0,0,0,0,0
2012,7,5,9,0,,22.7,21.8,95,99840,0,0,424,144,16,135,17535,1335,16371,0,140,1.3,10,0,0,0,0,0,0,0,0,0,0,0,0
2012,7,5,10,0,,22.7,21.6,94,99950,0,0,424,196,16,184,23436,1398,22111,0,230,3.3,10,0,0,0,0,0,0,0,0,0,0,0,0
2012,7,5,11,0,,23.3,22.2,94,99950,0,0,428,229,15,216,27157,1263,25926,0,0,0.4,10,0,0,0,0,0,0,0,0,0,0,0,0
2012,7,5,12,0,,24.1,23,94,99910,0,0,434,260,16,246,30600,920,29725,0,140,1.8,10,0,0,0,0,0,0,0,0,0,0,0,0
2012,7,5,13,0,,24.7,23.1,91,99890,0,0,437,289,19,271,33143,1181,32109,0,50,1.8,10,0,0,0,0,0,0,0,0,0,0,0,0
2012,7,5,14,0,,24.8,23,90,99830,0,0,438,298,22,277,33177,1466,32068,0,70,2.7,10,0,0,0,0,0,0,0,0,0,0,0,0
2012,7,5,15,0,,27.5,22.8,76,99840,0,0,453,345,41,308,38032,3578,35883,0,180,3.1,10,0,0,0,0,0,0,0,0,0,0,0,0
2012,7,5,16,0,,26.3,23.1,83,99790,0,0,447,251,28,230,25650,1958,24829,0,200,3.1,10,0,0,0,0,0,0,0,0,0,0,0,0
2012,7,5,17,0,,25,23.7,93,99810,0,0,440,161,17,150,15787,807,15606,0,200,1.7,10,0,0,0,0,0,0,0,0,0,0,0,0
2012,7,5,18,0,,25.1,24,94,99780,0,0,441,85,8,81,7540,433,7528,0,160,1.7,10,0,0,0,0,0,0,0,0,0,0,0,0
2012,7,5,19,0,,25,23.9,94,99790,0,0,440,50,12,47,0,0,0,0,110,0.9,10,0,0,0,0,0,0,0,0,0,0,0,0
2012,7,5,20,0,,24.8,23.7,94,99780,0,0,439,11,0,10,0,0,0,0,160,0.7,10,0,0,0,0,0,0,0,0,0,0,0,0
2012,7,5,21,0,,24.8,23.9,95,99740,0,0,439,0,0,0,0,0,0,0,0,0.3,10,0,0,0,0,0,0,0,0,0,0,0,0
2012,7,5,22,0,,25.4,24.1,93,99760,0,0,443,0,0,0,0,0,0,0,200,1.1,10,0,0,0,0,0,0,0,0,0,0,0,0
2012,7,5,23,0,,25.1,23.5,91,99740,0,0,440,0,0,0,0,0,0,0,200,2.7,10,0,0,0,0,0,0,0,0,0,0,0,0
2012,7,5,24,0,,25.1,23.5,91,99660,0,0,440,0,0,0,0,0,0,0,230,2.5,10,0,0,0,0,0,0,0,0,0,0,0,0
2012,7,6,1,0,,25.3,23.5,90,99590,0,0,441,0,0,0,0,0,0,0,230,2.9,10,0,0,0,0,0,0,0,0,0,0,0,0
2012,7,6,2,0,,25.5,23.3,88,99520,0,0,442,0,0,0,0,0,0,0,200,5.2,10,0,0,0,0,0,0,0,0,0,0,0,0
2012,7,6,3,0,,25.3,22.7,86,99430,0,0,440,0,0,0,0,0,0,0,200,7,10,0,0,0,0,0,0,0,0,0,0,0,0
2012,7,6,4,0,,25.5,22.7,85,99400,0,0,441,0,0,0,0,0,0,0,200,7.8,10,0,0,0,0,0,0,0,0,0,0,0,0
2012,7,6,5,0,,25.5,22.7,85,99350,0,0,441,0,0,0,0,0,0,0,200,6.8,10,0,0,0,0,0,0,0,0,0,0,0,0
2012,7,6,6,0,,25.5,22.5,84,99340,0,0,441,8,0,7,1002,7,999,0,200,5.9,10,0,0,0,0,0,0,0,0,0,0,0,0
2012,7,6,7,0,,25.6,22.6,84,99260,0,0,442,60,41,52,9317,3472,7253,0,200,7.5,10,0,0,0,0,0,0,0,0,0,0,0,0
2012,7,6,8,0,,25,22.8,88,99310,0,0,438,113,28,102,14234,2370,12454,0,200,5.6,10,0,0,0,0,0,0,0,0,0,0,0,0
2012,7,6,9,0,,24,22.7,93,99360,0,0,433,147,17,137,17853,1397,16635,0,230,5,10,0,0,0,0,0,0,0,0,0,0,0,0
2012,7,6,10,0,,24.3,23.2,94,99310,0,0,435,204,18,191,24489,1548,23022,0,200,4.9,10,0,0,0,0,0,0,0,0,0,0,0,0
2012,7,6,11,0,,24.8,23.5,93,99230,0,0,438,249,19,233,29438,1566,27913,0,200,4.2,10,0,0,0,0,0,0,0,0,0,0,0,0
2012,7,6,12,0,,24.1,22.8,93,99230,0,0,433,269,17,253,31615,1474,30216,0,200,4.7,10,0,0,0,0,0,0,0,0,0,0,0,0
2012,7,6,13,0,,24.1,23,94,99240,0,0,434,268,15,253,30994,935,30176,0,200,4.6,10,0,0,0,0,0,0,0,0,0,0,0,0
2012,7,6,14,0,,23.4,22.1,93,99180,0,0,428,259,15,245,29369,956,28646,0,200,5.3,10,0,0,0,0,0,0,0,0,0,0,0,0
2012,7,6,15,0,,23.5,22.4,94,99130,0,0,429,245,16,231,26827,1086,26175,0,200,4.7,10,0,0,0,0,0,0,0,0,0,0,0,0
2012,7,6,16,0,,24.1,22.5,91,99080,0,0,433,227,21,211,23501,1401,22915,0,200,4.4,10,0,0,0,0,0,0,0,0,0,0,0,0
2012,7,6,17,0,,24.4,22.8,91,99040,0,0,435,196,29,178,18632,1766,18237,0,230,5.2,10,0,0,0,0,0,0,0,0,0,0,0,0
2012,7,6,18,0,,23.8,22.5,93,99000,0,0,431,125,26,114,10345,3024,10259,0,250,3.8,10,0,0,0,0,0,0,0,0,0,0,0,0
2012,7,6,19,0,,23.8,22.5,93,99030,0,0,419,89,59,74,0,0,0,0,230,3.4,9,0,0,0,0,0,0,0,0,0,0,0,0
2012,7,6,20,0,,23.5,21.5,89,99060,0,0,422,12,1,11,0,0,0,0,250,3.8,10,0,0,0,0,0,0,0,0,0,0,0,0
2012,7,6,21,0,,22.6,20.6,89,99170,0,0,422,0,0,0,0,0,0,0,250,3.3,10,0,0,0,0,0,0,0,0,0,0,0,0
2012,7,6,22,0,,22.3,20.7,91,99220,0,0,420,0,0,0,0,0,0,0,250,2.8,10,0,0,0,0,0,0,0,0,0,0,0,0
2012,7,6,23,0,,22.3,20.3,89,99220,0,0,420,0,0,0,0,0,0,0,250,3.5,10,0,0,0,0,0,0,0,0,0,0,0,0
2012,7,6,24,0,,22.2,20.4,90,99230,0,0,419,0,0,0,0,0,0,0,250,2.6,10,0,0,0,0,0,0,0,0,0,0,0,0
2012,7,7,1,0,,21.4,19.8,91,99270,0,0,414,0,0,0,0,0,0,0,250,3.6,10,0,0,0,0,0,0,0,0,0,0,0,0
2012,7,7,2,0,,21.1,19.7,92,99330,0,0,412,0,0,0,0,0,0,0,250,3.3,10,0,0,0,0,0,0,0,0,0,0,0,0
2012,7,7,3,0,,21.1,19.2,89,99340,0,0,411,0,0,0,0,0,0,0,250,2.4,10,0,0,0,0,0,0,0,0,0,0,0,0
2012,7,7,4,0,,21,19.1,89,99370,0,0,411,0,0,0,0,0,0,0,270,2.2,10,0,0,0,0,0,0,0,0,0,0,0,0
2012,7,7,5,0,,20.9,19.1,90,99420,0,0,410,0,0,0,0,0,0,0,250,1.6,10,0,0,0,0,0,0,0,0,0,0,0,0
2012,7,7,6,0,,20.7,18.9,90,99470,0,0,409,4,0,4,565,3,564,0,250,1.6,10,0,0,0,0,0,0,0,0,0,0,0,0
2012,7,7,7,0,,21.1,19.2,89,99460,0,0,392,82,98,62,14348,8520,9294,0,290,2.1,8,0,0,0,0,0,0,0,0,0,0,0,0
2012,7,7,8,0,,22.1,19.4,85,99510,0,0,397,183,110,140,26753,9688,19486,0,320,0.8,8,0,0,0,0,0,0,0,0,0,0,0,0
2012,7,7,9,0,,23.2,19.5,80,99560,0,0,403,294,115,227,37430,10351,28415,0,340,0.5,8,0,0,0,0,0,0,0,0,0,0,0,0
2012,7,7,10,0,,24.1,19.3,75,99600,0,0,408,385,105,307,46648,9497,37652,0,270,1,8,0,0,0,0,0,0,0,0,0,0,0,0
2012,7,7,11,0,,25,19.3,71,99610,0,0,413,458,99,372,53685,8908,45009,0,50,1,8,0,0,0,0,0,0,0,0,0,0,0,0
2012,7,7,12,0,,26,18.9,65,99590,0,0,411,593,148,453,66471,13283,53860,0,20,1.6,7,0,0,0,0,0,0,0,0,0,0,0,0
2012,7,7,13,0,,28.2,20.7,64,99550,0,0,418,763,271,499,79911,23390,59445,0,70,1.5,5,0,0,0,0,0,0,0,0,0,0,0,0
2012,7,7,14,0,,29.3,19.8,57,99540,0,0,423,755,281,485,75716,24349,57311,0,360,1,5,0,0,0,0,0,0,0,0,0,0,0,0
2012,7,7,15,0,,28.8,18.8,55,99550,0,0,427,575,168,426,57856,15396,48615,0,250,1.6,7,0,0,0,0,0,0,0,0,0,0,0,0
2012,7,7,16,0,,30.3,18,48,99530,0,0,423,630,457,276,49635,36250,34462,0,320,1.4,4,0,0,0,0,0,0,0,0,0,0,0,0
2012,7,7,17,0,,30.3,18.3,49,99490,0,0,423,485,440,211,31622,25212,25992,0,320,1.2,4,0,0,0,0,0,0,0,0,0,0,0,0
2012,7,7,18,0,,28.9,19.8,58,99460,0,0,417,329,424,141,15651,0,15651,0,320,1.3,4,0,0,0,0,0,0,0,0,0,0,0,0
2012,7,7,19,0,,27.9,20.1,63,99480,0,0,415,154,308,78,0,0,0,0,360,1.6,5,0,0,0,0,0,0,0,0,0,0,0,0
2012,7,7,20,0,,26.3,19.6,67,99570,0,0,409,34,11,23,0,0,0,0,230,2.5,6,0,0,0,0,0,0,0,0,0,0,0,0
2012,7,7,21,0,,24.1,20.4,80,99670,0,0,403,0,0,0,0,0,0,0,230,5.3,7,0,0,0,0,0,0,0,0,0,0,0,0
2012,7,7,22,0,,23.5,20,81,99750,0,0,401,0,0,0,0,0,0,0,200,5,7,0,0,0,0,0,0,0,0,0,0,0,0
2012,7,7,23,0,,23.3,19.6,80,99770,0,0,401,0,0,0,0,0,0,0,230,3.9,8,0,0,0,0,0,0,0,0,0,0,0,0
2012,7,7,24,0,,23,19.7,82,99780,0,0,402,0,0,0,0,0,0,0,230,3.3,8,0,0,0,0,0,0,0,0,0,0,0,0
2012,7,8,1,0,,22.6,19.5,83,99800,0,0,400,0,0,0,0,0,0,0,230,3,8,0,0,0,0,0,0,0,0,0,0,0,0
2012,7,8,2,0,,22.6,19.3,82,99790,0,0,400,0,0,0,0,0,0,0,250,1.4,8,0,0,0,0,0,0,0,0,0,0,0,0
2012,7,8,3,0,,22.6,19.3,82,99800,0,0,400,0,0,0,0,0,0,0,250,1.2,8,0,0,0,0,0,0,0,0,0,0,0,0
2012,7,8,4,0,,22.3,18.8,81,99820,0,0,397,0,0,0,0,0,0,0,250,0.9,8,0,0,0,0,0,0,0,0,0,0,0,0
2012,7,8,5,0,,21.9,18.8,83,99830,0,0,389,0,0,0,0,0,0,0,0,0.2,7,0,0,0,0,0,0,0,0,0,0,0,0
2012,7,8,6,0,,21.3,19,87,99830,0,0,376,22,8,15,2073,611,1823,0,0,0.2,4,0,0,0,0,0,0,0,0,0,0,0,0
2012,7,8,7,0,,22.2,18.9,82,99870,0,0,377,134,381,60,32514,37546,10288,0,0,0.4,3,0,0,0,0,0,0,0,0,0,0,0,0
2012,7,8,8,0,,23.3,19,77,99880,0,0,383,293,450,117,51423,44580,18029,0,0,0.4,3,0,0,0,0,0,0,0,0,0,0,0,0
2012,7,8,9,0,,24.7,18.8,70,99860,0,0,396,418,334,226,58110,30506,31568,0,70,0.6,5,0,0,0,0,0,0,0,0,0,0,0,0
2012,7,8,10,0,,25,18.9,69,99900,0,0,412,395,113,311,47750,10275,38023,0,270,0.8,8,0,0,0,0,0,0,0,0,0,0,0,0
2012,7,8,11,0,,25.8,19.6,69,99930,0,0,411,527,146,401,61015,13044,48316,0,250,2.6,7,0,0,0,0,0,0,0,0,0,0,0,0
2012,7,8,12,0,,28.1,20.6,64,99880,0,0,414,767,315,470,84210,26993,58593,0,200,1.5,4,0,0,0,0,0,0,0,0,0,0,0,0
2012,7,8,13,0,,29,20.1,59,99820,0,0,421,752,260,499,79038,22625,59248,0,270,1.1,5,0,0,0,0,0,0,0,0,0,0,0,0
2012,7,8,14,0,,30.2,20.1,55,99760,0,0,428,765,294,483,76366,25271,57271,0,250,1.8,5,0,0,0,0,0,0,0,0,0,0,0,0
2012,7,8,15,0,,31,19,49,99720,0,0,431,694,291,435,66004,24749,51158,0,250,2.3,5,0,0,0,0,0,0,0,0,0,0,0,0
2012,7,8,16,0,,30.5,18.2,48,99710,0,0,424,625,447,279,49705,35331,34933,0,200,2.5,4,0,0,0,0,0,0,0,0,0,0,0,0
2012,7,8,17,0,,31.2,19.2,49,99700,0,0,433,470,396,224,31427,23579,26176,0,250,2.9,5,0,0,0,0,0,0,0,0,0,0,0,0
2012,7,8,18,0,,27,20.5,68,99760,0,0,414,259,200,171,18275,0,18275,0,250,4.6,6,0,0,0,0,0,0,0,0,0,0,0,0
2012,7,8,19,0,,26.6,20.2,68,99780,0,0,408,147,264,81,0,0,0,0,250,2.3,5,0,0,0,0,0,0,0,0,0,0,0,0
2012,7,8,20,0,,25.9,20.2,71,99850,0,0,401,39,17,22,0,0,0,0,270,2.2,4,0,0,0,0,0,0,0,0,0,0,0,0
2012,7,8,21,0,,24.9,19.9,74,99890,0,0,392,0,0,0,0,0,0,0,340,0.5,3,0,0,0,0,0,0,0,0,0,0,0,0
2012,7,8,22,0,,24.6,19.8,75,99910,0,0,387,0,0,0,0,0,0,0,250,1.8,2,0,0,0,0,0,0,0,0,0,0,0,0
2012,7,8,23,0,,23.9,19.6,77,99940,0,0,378,0,0,0,0,0,0,0,270,0.8,1,0,0,0,0,0,0,0,0,0,0,0,0
2012,7,8,24,0,,23.1,19.6,81,99930,0,0,367,0,0,0,0,0,0,0,0,0.4,0,0,0,0,0,0,0,0,0,0,0,0,0
2012,7,9,1,0,,22.7,19.8,84,99890,0,0,374,0,0,0,0,0,0,0,0,0.3,1,0,0,0,0,0,0,0,0,0,0,0,0
2012,7,9,2,0,,22.5,19.8,85,99870,0,0,379,0,0,0,0,0,0,0,0,0.3,3,0,0,0,0,0,0,0,0,0,0,0,0
2012,7,9,3,0,,22,19.9,88,99840,0,0,380,0,0,0,0,0,0,0,250,1.7,4,0,0,0,0,0,0,0,0,0,0,0,0
2012,7,9,4,0,,21.6,19.8,90,99860,0,0,384,0,0,0,0,0,0,0,250,1.5,6,0,0,0,0,0,0,0,0,0,0,0,0
2012,7,9,5,0,,21.4,19.8,91,99860,0,0,383,0,0,0,0,0,0,0,230,1.5,6,0,0,0,0,0,0,0,0,0,0,0,0
2012,7,9,6,0,,21.4,19.8,91,99880,0,0,383,18,4,14,1855,339,1717,0,0,0.2,6,0,0,0,0,0,0,0,0,0,0,0,0
2012,7,9,7,0,,22.5,20.4,88,99880,0,0,401,83,107,62,14721,9098,9347,0,50,0.6,8,0,0,0,0,0,0,0,0,0,0,0,0
2012,7,9,8,0,,23.1,20.4,85,99920,0,0,397,215,179,145,31904,15447,20348,0,20,1.1,7,0,0,0,0,0,0,0,0,0,0,0,0
2012,7,9,9,0,,25.4,21.4,79,99930,0,0,418,302,126,230,38688,11089,29049,0,230,0.5,8,0,0,0,0,0,0,0,0,0,0,0,0
2012,7,9,10,0,,25.8,20.3,72,99930,0,0,419,390,110,309,47354,9792,38091,0,290,1.1,8,0,0,0,0,0,0,0,0,0,0,0,0
2012,7,9,11,0,,26.8,20.6,69,99890,0,0,425,471,108,378,55339,9506,46089,0,200,1.1,8,0,0,0,0,0,0,0,0,0,0,0,0
2012,7,9,12,0,,29,21.2,63,99810,0,0,438,523,106,423,60056,9155,51371,0,20,0.6,8,0,0,0,0,0,0,0,0,0,0,0,0
2012,7,9,13,0,,28.9,20.6,61,99810,0,0,437,557,112,448,60780,10093,51955,0,270,1.6,8,0,0,0,0,0,0,0,0,0,0,0,0
2012,7,9,14,0,,30.3,20.8,57,99780,0,0,445,577,131,451,61026,11834,52089,0,230,2.4,8,0,0,0,0,0,0,0,0,0,0,0,0
2012,7,9,15,0,,29.5,20,57,99740,0,0,433,543,143,416,55388,12970,47613,0,200,2.7,7,0,0,0,0,0,0,0,0,0,0,0,0
2012,7,9,16,0,,29.7,19.9,56,99730,0,0,434,472,156,351,45613,13791,39853,0,200,2.7,7,0,0,0,0,0,0,0,0,0,0,0,0
2012,7,9,17,0,,30.1,20.9,58,99730,0,0,432,401,216,267,33742,16809,30010,0,230,2,6,0,0,0,0,0,0,0,0,0,0,0,0
2012,7,9,18,0,,29.8,18.8,52,99700,0,0,428,302,326,158,16805,0,16805,0,200,3,6,0,0,0,0,0,0,0,0,0,0,0,0
2012,7,9,19,0,,28.5,16,47,99720,0,0,417,158,345,73,0,0,0,0,160,2.7,6,0,0,0,0,0,0,0,0,0,0,0,0
2012,7,9,20,0,,27.5,17.9,56,99790,0,0,414,38,16,22,0,0,0,0,230,2.7,6,0,0,0,0,0,0,0,0,0,0,0,0
2012,7,9,21,0,,26.5,21,72,99850,0,0,412,0,0,0,0,0,0,0,250,2,6,0,0,0,0,0,0,0,0,0,0,0,0
2012,7,9,22,0,,25.4,19.9,72,99870,0,0,403,0,0,0,0,0,0,0,160,1.6,6,0,0,0,0,0,0,0,0,0,0,0,0
2012,7,9,23,0,,24.6,19.2,72,99850,0,0,397,0,0,0,0,0,0,0,140,1.1,5,0,0,0,0,0,0,0,0,0,0,0,0
2012,7,9,24,0,,24.2,19,73,99830,0,0,394,0,0,0,0,0,0,0,140,1.1,5,0,0,0,0,0,0,0,0,0,0,0,0
2012,7,10,1,0,,23.4,18.9,76,99790,0,0,391,0,0,0,0,0,0,0,90,1.2,6,0,0,0,0,0,0,0,0,0,0,0,0
2012,7,10,2,0,,23.2,18.7,76,99770,0,0,393,0,0,0,0,0,0,0,140,0.9,6,0,0,0,0,0,0,0,0,0,0,0,0
2012,7,10,3,0,,22.7,18.4,77,99730,0,0,393,0,0,0,0,0,0,0,110,1.4,7,0,0,0,0,0,0,0,0,0,0,0,0
2012,7,10,4,0,,22.4,18.5,79,99690,0,0,383,0,0,0,0,0,0,0,160,0.5,5,0,0,0,0,0,0,0,0,0,0,0,0
2012,7,10,5,0,,21.9,19.6,87,99740,0,0,386,0,0,0,0,0,0,0,250,1.7,6,0,0,0,0,0,0,0,0,0,0,0,0
2012,7,10,6,0,,21.9,19.6,87,99710,0,0,405,7,0,7,977,8,974,0,20,1.4,9,0,0,0,0,0,0,0,0,0,0,0,0
2012,7,10,7,0,,22.9,19.6,82,99750,0,0,422,47,22,43,7019,1944,5873,0,0,0.4,10,0,0,0,0,0,0,0,0,0,0,0,0
2012,7,10,8,0,,23.6,19.7,79,99710,0,0,426,118,33,105,14888,2904,12719,0,20,1.9,10,0,0,0,0,0,0,0,0,0,0,0,0
2012,7,10,9,0,,24.7,19.3,72,99700,0,0,432,194,37,173,23460,3282,20610,0,320,0.9,10,0,0,0,0,0,0,0,0,0,0,0,0
2012,7,10,10,0,,27.2,18.2,58,99660,0,0,445,309,59,266,36313,5270,31330,0,180,2.7,10,0,0,0,0,0,0,0,0,0,0,0,0
2012,7,10,11,0,,27.5,17.6,55,99630,0,0,446,372,57,323,42841,5197,37786,0,180,2.7,10,0,0,0,0,0,0,0,0,0,0,0,0
2012,7,10,12,0,,26.9,16.7,54,99580,0,0,442,361,39,325,41230,3570,37845,0,110,2.3,10,0,0,0,0,0,0,0,0,0,0,0,0
2012,7,10,13,0,,26.6,16.8,55,99530,0,0,440,324,26,299,36844,2355,34787,0,180,2.2,10,0,0,0,0,0,0,0,0,0,0,0,0
2012,7,10,14,0,,25.8,17.1,59,99500,0,0,435,288,20,269,32417,1451,31322,0,180,3.3,10,0,0,0,0,0,0,0,0,0,0,0,0
2012,7,10,15,0,,22.9,19,79,99500,0,0,421,202,9,194,22700,621,22328,0,160,2.7,10,0,0,0,0,0,0,0,0,0,0,0,0
2012,7,10,16,0,,21.2,20,93,99460,0,0,413,129,4,125,14356,222,14263,0,110,3.3,10,0,0,0,0,0,0,0,0,0,0,0,0
2012,7,10,17,0,,22.7,20.4,87,99410,0,0,422,134,10,128,13603,448,13504,0,340,1.4,10,0,0,0,0,0,0,0,0,0,0,0,0
2012,7,10,18,0,,22.8,20.7,88,99340,0,0,423,116,21,107,9695,2395,9635,0,320,1.3,10,0,0,0,0,0,0,0,0,0,0,0,0
2012,7,10,19,0,,23.5,20.8,85,99270,0,0,427,76,40,66,0,0,0,0,140,3.4,10,0,0,0,0,0,0,0,0,0,0,0,0
2012,7,10,20,0,,23.5,20.8,85,99280,0,0,427,12,1,12,0,0,0,0,140,0.9,10,0,0,0,0,0,0,0,0,0,0,0,0
2012,7,10,21,0,,24.1,21,83,99260,0,0,431,0,0,0,0,0,0,0,320,1.4,10,0,0,0,0,0,0,0,0,0,0,0,0
2012,7,10,22,0,,23.3,21.5,90,99260,0,0,427,0,0,0,0,0,0,0,160,3.6,10,0,0,0,0,0,0,0,0,0,0,0,0
2012,7,10,23,0,,23.4,22,92,99190,0,0,428,0,0,0,0,0,0,0,140,3.3,10,0,0,0,0,0,0,0,0,0,0,0,0
2012,7,10,24,0,,23.6,22.2,92,99110,0,0,430,0,0,0,0,0,0,0,200,3.7,10,0,0,0,0,0,0,0,0,0,0,0,0
2012,7,11,1,0,,23.7,21.9,90,99020,0,0,430,0,0,0,0,0,0,0,180,4.5,10,0,0,0,0,0,0,0,0,0,0,0,0
2012,7,11,2,0,,24,22.4,91,99020,0,0,432,0,0,0,0,0,0,0,180,4.7,10,0,0,0,0,0,0,0,0,0,0,0,0
2012,7,11,3,0,,24,22.7,93,98920,0,0,433,0,0,0,0,0,0,0,160,3.4,10,0,0,0,0,0,0,0,0,0,0,0,0
2012,7,11,4,0,,24.3,23,93,98850,0,0,435,0,0,0,0,0,0,0,160,4.5,10,0,0,0,0,0,0,0,0,0,0,0,0
2012,7,11,5,0,,24.3,23.2,94,98820,0,0,435,0,0,0,0,0,0,0,180,3.3,10,0,0,0,0,0,0,0,0,0,0,0,0
2012,7,11,6,0,,24.6,23.3,93,98830,0,0,437,5,0,5,642,2,641,0,200,3.4,10,0,0,0,0,0,0,0,0,0,0,0,0
2012,7,11,7,0,,24.4,23.3,94,98830,0,0,436,47,23,43,7126,1890,6014,0,200,3.8,10,0,0,0,0,0,0,0,0,0,0,0,0
2012,7,11,8,0,,24.1,23,94,98860,0,0,434,101,22,93,12668,1798,11327,0,200,4.4,10,0,0,0,0,0,0,0,0,0,0,0,0
2012,7,11,9,0,,24.2,23.3,95,98900,0,0,435,162,23,149,19734,1900,18086,0,200,4.1,10,0,0,0,0,0,0,0,0,0,0,0,0
2012,7,11,10,0,,24.5,23.6,95,98890,0,0,437,204,19,190,24446,1564,22968,0,200,4.1,10,0,0,0,0,0,0,0,0,0,0,0,0
2012,7,11,11,0,,24.8,23.9,95,98870,0,0,439,255,20,238,30215,1709,28554,0,200,3.2,10,0,0,0,0,0,0,0,0,0,0,0,0
2012,7,11,12,0,,25.2,24.1,94,98900,0,0,441,262,16,247,30665,919,29795,0,230,2.9,10,0,0,0,0,0,0,0,0,0,0,0,0
2012,7,11,13,0,,25.1,24,94,98870,0,0,441,271,16,256,31256,952,30424,0,230,2.9,10,0,0,0,0,0,0,0,0,0,0,0,0
2012,7,11,14,0,,25.1,24.2,95,98850,0,0,441,248,13,235,28074,789,27479,0,230,2.3,10,0,0,0,0,0,0,0,0,0,0,0,0
2012,7,11,15,0,,24.6,23.7,95,98840,0,0,437,241,15,227,26294,994,25699,0,230,3.9,10,0,0,0,0,0,0,0,0,0,0,0,0
2012,7,11,16,0,,24.7,24,96,98800,0,0,438,182,11,173,19356,643,19089,0,200,1.4,10,0,0,0,0,0,0,0,0,0,0,0,0
2012,7,11,17,0,,25.4,24.1,93,98830,0,0,443,174,21,161,16808,1091,16568,0,250,2.4,10,0,0,0,0,0,0,0,0,0,0,0,0
2012,7,11,18,0,,25.3,23.7,91,98880,0,0,441,127,27,115,10296,3492,10213,0,230,2.3,10,0,0,0,0,0,0,0,0,0,0,0,0
2012,7,11,19,0,,25.4,23.2,88,98950,0,0,429,92,67,75,0,0,0,0,250,2.5,9,0,0,0,0,0,0,0,0,0,0,0,0
2012,7,11,20,0,,24.8,22.8,89,99000,0,0,416,24,4,20,0,0,0,0,250,1.6,8,0,0,0,0,0,0,0,0,0,0,0,0
2012,7,11,21,0,,24.4,22.8,91,99070,0,0,408,0,0,0,0,0,0,0,250,2.1,7,0,0,0,0,0,0,0,0,0,0,0,0
2012,7,11,22,0,,24.1,22.5,91,99160,0,0,406,0,0,0,0,0,0,0,250,1.7,7,0,0,0,0,0,0,0,0,0,0,0,0
2012,7,11,23,0,,23.6,22.2,92,99170,0,0,402,0,0,0,0,0,0,0,230,1.6,7,0,0,0,0,0,0,0,0,0,0,0,0
2012,7,11,24,0,,23.4,22.3,94,99200,0,0,402,0,0,0,0,0,0,0,230,1.9,7,0,0,0,0,0,0,0,0,0,0,0,0
2012,7,12,1,0,,23.2,22.1,94,99200,0,0,400,0,0,0,0,0,0,0,200,2,7,0,0,0,0,0,0,0,0,0,0,0,0
2012,7,12,2,0,,23.1,22,94,99200,0,0,400,0,0,0,0,0,0,0,230,1.2,7,0,0,0,0,0,0,0,0,0,0,0,0
2012,7,12,3,0,,22.6,21.7,95,99200,0,0,397,0,0,0,0,0,0,0,200,1.3,7,0,0,0,0,0,0,0,0,0,0,0,0
2012,7,12,4,0,,22.5,21.6,95,99210,0,0,396,0,0,0,0,0,0,0,200,2.1,7,0,0,0,0,0,0,0,0,0,0,0,0
2012,7,12,5,0,,22.4,21.5,95,99220,0,0,402,0,0,0,0,0,0,0,200,2.2,8,0,0,0,0,0,0,0,0,0,0,0,0
2012,7,12,6,0,,22.1,21,94,99250,0,0,399,11,1,10,1383,34,1370,0,200,2.5,8,0,0,0,0,0,0,0,0,0,0,0,0
2012,7,12,7,0,,22.6,21.2,92,99320,0,0,402,75,87,58,13199,7278,8928,0,270,0.5,8,0,0,0,0,0,0,0,0,0,0,0,0
2012,7,12,8,0,,23.2,20.7,86,99320,0,0,425,104,24,95,13010,2033,11496,0,0,0.3,10,0,0,0,0,0,0,0,0,0,0,0,0
2012,7,12,9,0,,24.5,21.4,83,99340,0,0,434,180,31,163,21840,2643,19549,0,230,1.4,10,0,0,0,0,0,0,0,0,0,0,0,0
2012,7,12,10,0,,25.2,21.6,81,99360,0,0,438,244,31,222,28966,2671,26444,0,200,3,10,0,0,0,0,0,0,0,0,0,0,0,0
2012,7,12,11,0,,25.5,21.1,77,99310,0,0,427,363,54,317,41973,4723,37385,0,20,0.5,9,0,0,0,0,0,0,0,0,0,0,0,0
2012,7,12,12,0,,27.4,21.6,71,99300,0,0,439,424,61,368,48203,5330,43153,0,50,1.3,9,0,0,0,0,0,0,0,0,0,0,0,0
2012,7,12,13,0,,27.9,22.6,73,99280,0,0,456,335,28,307,38395,2442,36263,0,180,0.7,10,0,0,0,0,0,0,0,0,0,0,0,0
2012,7,12,14,0,,28.7,22.2,68,99310,0,0,460,349,34,317,39383,2950,37159,0,290,0.5,10,0,0,0,0,0,0,0,0,0,0,0,0
2012,7,12,15,0,,28.7,22.6,70,99320,0,0,460,307,30,280,32612,2253,31264,0,20,2.4,10,0,0,0,0,0,0,0,0,0,0,0,0
2012,7,12,16,0,,29.3,23.2,70,99260,0,0,465,256,29,233,26011,2094,25141,0,20,0.9,10,0,0,0,0,0,0,0,0,0,0,0,0
2012,7,12,17,0,,29.5,23.2,69,99200,0,0,466,194,29,177,18430,1710,18054,0,200,1.6,10,0,0,0,0,0,0,0,0,0,0,0,0
2012,7,12,18,0,,28.7,23.8,75,99230,0,0,462,132,30,119,10581,4258,10483,0,200,2.6,10,0,0,0,0,0,0,0,0,0,0,0,0
2012,7,12,19,0,,28.3,24,78,99230,0,0,460,63,24,57,0,0,0,0,230,2.4,10,0,0,0,0,0,0,0,0,0,0,0,0
2012,7,12,20,0,,27.9,24.3,81,99270,0,0,458,11,1,11,0,0,0,0,200,2.4,10,0,0,0,0,0,0,0,0,0,0,0,0
2012,7,12,21,0,,27.5,23.9,81,99330,0,0,455,0,0,0,0,0,0,0,200,1.7,10,0,0,0,0,0,0,0,0,0,0,0,0
2012,7,12,22,0,,26.3,24.3,89,99330,0,0,448,0,0,0,0,0,0,0,140,1.3,10,0,0,0,0,0,0,0,0,0,0,0,0
2012,7,12,23,0,,26,24.4,91,99300,0,0,447,0,0,0,0,0,0,0,180,1.8,10,0,0,0,0,0,0,0,0,0,0,0,0
2012,7,12,24,0,,26.2,24,88,99220,0,0,447,0,0,0,0,0,0,0,230,1.9,10,0,0,0,0,0,0,0,0,0,0,0,0
2012,7,13,1,0,,26.1,23.9,88,99260,0,0,446,0,0,0,0,0,0,0,180,1.1,10,0,0,0,0,0,0,0,0,0,0,0,0
2012,7,13,2,0,,26.2,23.8,87,99270,0,0,447,0,0,0,0,0,0,0,230,0.8,10,0,0,0,0,0,0,0,0,0,0,0,0
2012,7,13,3,0,,25.8,24,90,99260,0,0,445,0,0,0,0,0,0,0,250,1.6,10,0,0,0,0,0,0,0,0,0,0,0,0
2012,7,13,4,0,,25.3,23.3,89,99320,0,0,441,0,0,0,0,0,0,0,20,3.5,10,0,0,0,0,0,0,0,0,0,0,0,0
2012,7,13,5,0,,23.7,21.5,88,99220,0,0,429,0,0,0,0,0,0,0,50,2.7,10,0,0,0,0,0,0,0,0,0,0,0,0
2012,7,13,6,0,,23.2,21,88,99250,0,0,426,2,0,2,342,0,342,0,50,3.1,10,0,0,0,0,0,0,0,0,0,0,0,0
2012,7,13,7,0,,24.1,21.6,86,99260,0,0,432,35,10,33,4604,849,4107,0,0,0.2,10,0,0,0,0,0,0,0,0,0,0,0,0
2012,7,13,8,0,,25.7,22.1,81,99300,0,0,442,110,28,99,13866,2399,12082,0,0,0.4,10,0,0,0,0,0,0,0,0,0,0,0,0
2012,7,13,9,0,,26.2,22.6,81,99340,0,0,445,184,33,166,22392,2801,19967,0,0,0.4,10,0,0,0,0,0,0,0,0,0,0,0,0
2012,7,13,10,0,,27.1,22.9,78,99360,0,0,451,256,35,230,30399,3014,27555,0,320,0.8,10,0,0,0,0,0,0,0,0,0,0,0,0
2012,7,13,11,0,,28.7,23.5,74,99360,0,0,462,305,33,276,35725,2841,32966,0,270,0.9,10,0,0,0,0,0,0,0,0,0,0,0,0
2012,7,13,12,0,,29.1,24.2,75,99320,0,0,465,342,34,310,39633,2851,36933,0,230,3.8,10,0,0,0,0,0,0,0,0,0,0,0,0
2012,7,13,13,0,,28.8,23.6,74,99250,0,0,462,351,32,320,40215,2756,37810,0,200,4.8,10,0,0,0,0,0,0,0,0,0,0,0,0
2012,7,13,14,0,,29.8,23.9,71,99180,0,0,456,436,62,377,48178,5329,44164,0,200,4.6,9,0,0,0,0,0,0,0,0,0,0,0,0
2012,7,13,15,0,,31,23.3,64,99110,0,0,463,409,67,350,44137,5747,40705,0,200,2.1,9,0,0,0,0,0,0,0,0,0,0,0,0
2012,7,13,16,0,,30.3,23.4,67,99100,0,0,472,285,39,254,28423,2971,27190,0,200,3.6,10,0,0,0,0,0,0,0,0,0,0,0,0
2012,7,13,17,0,,29.6,23.7,71,99090,0,0,468,186,25,170,17757,1437,17443,0,200,2.7,10,0,0,0,0,0,0,0,0,0,0,0,0
2012,7,13,18,0,,29,23.4,72,99110,0,0,451,162,54,139,15160,2988,15095,0,180,4.1,9,0,0,0,0,0,0,0,0,0,0,0,0
2012,7,13,19,0,,27.9,23,75,99140,0,0,444,80,47,68,0,0,0,0,180,3.2,9,0,0,0,0,0,0,0,0,0,0,0,0
2012,7,13,20,0,,26.6,22,76,99190,0,0,435,16,1,15,0,0,0,0,50,1.7,9,0,0,0,0,0,0,0,0,0,0,0,0
2012,7,13,21,0,,25.7,22.5,83,99260,0,0,430,0,0,0,0,0,0,0,70,2.5,9,0,0,0,0,0,0,0,0,0,0,0,0
2012,7,13,22,0,,25.3,22.3,84,99290,0,0,431,0,0,0,0,0,0,0,50,2.6,9,0,0,0,0,0,0,0,0,0,0,0,0
2012,7,13,23,0,,25.1,22.5,86,99270,0,0,434,0,0,0,0,0,0,0,50,3.3,10,0,0,0,0,0,0,0,0,0,0,0,0
2012,7,13,24,0,,24.9,22.1,85,99260,0,0,437,0,0,0,0,0,0,0,50,2,10,0,0,0,0,0,0,0,0,0,0,0,0
2012,7,14,1,0,,24.8,22.2,86,99250,0,0,436,0,0,0,0,0,0,0,0,0.1,10,0,0,0,0,0,0,0,0,0,0,0,0
2012,7,14,2,0,,24.7,22.5,88,99240,0,0,436,0,0,0,0,0,0,0,20,1,10,0,0,0,0,0,0,0,0,0,0,0,0
2012,7,14,3,0,,24.5,22.5,89,99220,0,0,435,0,0,0,0,0,0,0,20,1,10,0,0,0,0,0,0,0,0,0,0,0,0
2012,7,14,4,0,,24.5,22.5,89,99240,0,0,435,0,0,0,0,0,0,0,0,0.3,10,0,0,0,0,0,0,0,0,0,0,0,0
2012,7,14,5,0,,24.5,22.5,89,99250,0,0,435,0,0,0,0,0,0,0,0,0.3,10,0,0,0,0,0,0,0,0,0,0,0,0
2012,7,14,6,0,,24.6,22.6,89,99250,0,0,436,2,0,2,327,0,327,0,0,0,10,0,0,0,0,0,0,0,0,0,0,0,0
2012,7,14,7,0,,24.9,22.7,88,99300,0,0,438,43,19,39,6489,1609,5549,0,360,0.5,10,0,0,0,0,0,0,0,0,0,0,0,0
2012,7,14,8,0,,25.1,22.7,87,99350,0,0,439,98,21,90,12320,1738,11029,0,250,0.7,10,0,0,0,0,0,0,0,0,0,0,0,0
2012,7,14,9,0,,25.4,22.8,86,99400,0,0,441,173,28,157,21026,2358,18987,0,200,2.8,10,0,0,0,0,0,0,0,0,0,0,0,0
2012,7,14,10,0,,26.2,22.4,80,99390,0,0,445,217,23,201,25923,1928,24106,0,180,0.7,10,0,0,0,0,0,0,0,0,0,0,0,0
2012,7,14,11,0,,26.3,22.5,80,99400,0,0,446,265,23,246,31232,1960,29330,0,180,1.4,10,0,0,0,0,0,0,0,0,0,0,0,0
2012,7,14,12,0,,26.1,23.3,85,99380,0,0,446,269,17,253,31587,1482,30185,0,180,1.2,10,0,0,0,0,0,0,0,0,0,0,0,0
2012,7,14,13,0,,25.7,23.1,86,99390,0,0,443,259,14,246,30037,850,29296,0,200,2.1,10,0,0,0,0,0,0,0,0,0,0,0,0
2012,7,14,14,0,,25.1,22.9,88,99370,0,0,439,243,12,231,27648,773,27065,0,180,1.9,10,0,0,0,0,0,0,0,0,0,0,0,0
2012,7,14,15,0,,25.4,23.2,88,99350,0,0,441,226,13,215,24948,834,24451,0,200,1,10,0,0,0,0,0,0,0,0,0,0,0,0
2012,7,14,16,0,,24.6,23.2,92,99350,0,0,437,187,12,177,19801,721,19503,0,180,1.3,10,0,0,0,0,0,0,0,0,0,0,0,0
2012,7,14,17,0,,24.2,23.1,94,99290,0,0,434,152,14,143,15011,674,14864,0,70,1,10,0,0,0,0,0,0,0,0,0,0,0,0
2012,7,14,18,0,,24,23.1,95,99250,0,0,433,95,12,90,8175,1098,8153,0,50,2.2,10,0,0,0,0,0,0,0,0,0,0,0,0
2012,7,14,19,0,,23.6,22.7,95,99260,0,0,430,52,14,49,0,0,0,0,20,2,10,0,0,0,0,0,0,0,0,0,0,0,0
2012,7,14,20,0,,23.4,22.5,95,99270,0,0,429,9,0,9,0,0,0,0,20,2.4,10,0,0,0,0,0,0,0,0,0,0,0,0
2012,7,14,21,0,,23.5,22.6,95,99340,0,0,430,0,0,0,0,0,0,0,0,0.4,10,0,0,0,0,0,0,0,0,0,0,0,0
2012,7,14,22,0,,23.4,22.7,96,99210,0,0,429,0,0,0,0,0,0,0,50,2.9,10,0,0,0,0,0,0,0,0,0,0,0,0
2012,7,14,23,0,,23.5,22.6,95,99140,0,0,430,0,0,0,0,0,0,0,50,2.8,10,0,0,0,0,0,0,0,0,0,0,0,0
2012,7,14,24,0,,23.2,22.3,95,99210,0,0,427,0,0,0,0,0,0,0,360,2.6,10,0,0,0,0,0,0,0,0,0,0,0,0
2012,7,15,1,0,,23.5,22.8,96,99180,0,0,430,0,0,0,0,0,0,0,90,1.6,10,0,0,0,0,0,0,0,0,0,0,0,0
2012,7,15,2,0,,24.6,23.9,96,99130,0,0,438,0,0,0,0,0,0,0,180,2.8,10,0,0,0,0,0,0,0,0,0,0,0,0
2012,7,15,3,0,,25.1,24,94,99110,0,0,441,0,0,0,0,0,0,0,200,2.7,10,0,0,0,0,0,0,0,0,0,0,0,0
2012,7,15,4,0,,24.8,23.5,93,99100,0,0,438,0,0,0,0,0,0,0,200,5,10,0,0,0,0,0,0,0,0,0,0,0,0
2012,7,15,5,0,,24.7,23.8,95,99090,0,0,438,0,0,0,0,0,0,0,200,3,10,0,0,0,0,0,0,0,0,0,0,0,0
2012,7,15,6,0,,24.7,23.8,95,99150,0,0,438,2,0,2,327,0,327,0,230,2.5,10,0,0,0,0,0,0,0,0,0,0,0,0
2012,7,15,7,0,,24.7,23.8,95,99170,0,0,438,42,18,38,6329,1489,5460,0,200,3.5,10,0,0,0,0,0,0,0,0,0,0,0,0
2012,7,15,8,0,,25,23.7,93,99180,0,0,440,100,22,92,12587,1830,11230,0,180,2.1,10,0,0,0,0,0,0,0,0,0,0,0,0
2012,7,15,9,0,,24.8,23,90,99230,0,0,438,164,24,150,19951,2036,18192,0,200,3,10,0,0,0,0,0,0,0,0,0,0,0,0
2012,7,15,10,0,,25.4,23.6,90,99260,0,0,442,218,23,202,26129,1939,24303,0,200,2.4,10,0,0,0,0,0,0,0,0,0,0,0,0
2012,7,15,11,0,,26.2,23.6,86,99280,0,0,434,356,51,312,41316,4378,37071,0,230,4.2,9,0,0,0,0,0,0,0,0,0,0,0,0
2012,7,15,12,0,,26.1,22.7,82,99300,0,0,433,418,58,363,47545,5069,42751,0,230,6,9,0,0,0,0,0,0,0,0,0,0,0,0
2012,7,15,13,0,,27.1,22.7,77,99250,0,0,429,530,99,434,58239,8702,50656,0,230,5,8,0,0,0,0,0,0,0,0,0,0,0,0
2012,7,15,14,0,,26.6,22.6,79,99310,0,0,435,389,46,346,43411,3981,40417,0,230,2.9,9,0,0,0,0,0,0,0,0,0,0,0,0
2012,7,15,15,0,,26.3,22.7,81,99390,0,0,446,275,23,255,29595,1585,28651,0,200,4.7,10,0,0,0,0,0,0,0,0,0,0,0,0
2012,7,15,16,0,,25.1,22.7,87,99430,0,0,439,191,13,181,20181,788,19855,0,250,3.4,10,0,0,0,0,0,0,0,0,0,0,0,0
2012,7,15,17,0,,25.3,21.9,82,99400,0,0,439,172,20,159,16671,1126,16428,0,250,3.1,10,0,0,0,0,0,0,0,0,0,0,0,0
2012,7,15,18,0,,24.5,21.2,82,99460,0,0,433,109,18,101,9090,2170,9049,0,250,2.8,10,0,0,0,0,0,0,0,0,0,0,0,0
2012,7,15,19,0,,24.2,20.7,81,99560,0,0,431,64,26,58,0,0,0,0,250,2.4,10,0,0,0,0,0,0,0,0,0,0,0,0
2012,7,15,20,0,,23.8,20.5,82,99630,0,0,428,10,0,10,0,0,0,0,250,2.6,10,0,0,0,0,0,0,0,0,0,0,0,0
2012,7,15,21,0,,23.4,20.1,82,99720,0,0,425,0,0,0,0,0,0,0,270,1,10,0,0,0,0,0,0,0,0,0,0,0,0
2012,7,15,22,0,,23,19.7,82,99780,0,0,423,0,0,0,0,0,0,0,270,1.2,10,0,0,0,0,0,0,0,0,0,0,0,0
2012,7,15,23,0,,22.6,19.5,83,99790,0,0,420,0,0,0,0,0,0,0,270,1.1,10,0,0,0,0,0,0,0,0,0,0,0,0
2012,7,15,24,0,,22.5,19.2,82,99800,0,0,419,0,0,0,0,0,0,0,290,1.1,10,0,0,0,0,0,0,0,0,0,0,0,0
2012,7,16,1,0,,22.2,18.9,82,99820,0,0,417,0,0,0,0,0,0,0,290,0.6,10,0,0,0,0,0,0,0,0,0,0,0,0
2012,7,16,2,0,,21.8,19.1,85,99860,0,0,415,0,0,0,0,0,0,0,290,0.9,10,0,0,0,0,0,0,0,0,0,0,0,0
2012,7,16,3,0,,21.8,19.3,86,99880,0,0,415,0,0,0,0,0,0,0,50,0.5,10,0,0,0,0,0,0,0,0,0,0,0,0
2012,7,16,4,0,,21.7,19.4,87,99910,0,0,415,0,0,0,0,0,0,0,0,0.4,10,0,0,0,0,0,0,0,0,0,0,0,0
2012,7,16,5,0,,21.8,19.7,88,99970,0,0,416,0,0,0,0,0,0,0,20,1,10,0,0,0,0,0,0,0,0,0,0,0,0
2012,7,16,6,0,,21.8,19.5,87,99980,0,0,416,3,0,3,398,0,398,0,20,1.6,10,0,0,0,0,0,0,0,0,0,0,0,0
2012,7,16,7,0,,22.1,19.2,84,100040,0,0,417,49,29,43,7451,2586,5947,0,20,3,10,0,0,0,0,0,0,0,0,0,0,0,0
2012,7,16,8,0,,22.8,19.3,81,100110,0,0,421,109,29,98,13696,2493,11850,0,20,1.7,10,0,0,0,0,0,0,0,0,0,0,0,0
2012,7,16,9,0,,23.3,19.2,78,100110,0,0,424,187,35,167,22615,3098,19941,0,20,2.9,10,0,0,0,0,0,0,0,0,0,0,0,0
2012,7,16,10,0,,25.1,19.9,73,100100,0,0,423,331,73,278,40566,6520,34431,0,50,3.1,9,0,0,0,0,0,0,0,0,0,0,0,0
2012,7,16,11,0,,25.2,19.5,71,100110,0,0,408,514,141,394,59679,12571,47499,0,50,1.5,7,0,0,0,0,0,0,0,0,0,0,0,0
2012,7,16,12,0,,26.6,19.9,67,100150,0,0,432,450,72,383,50777,6446,44686,0,50,2.3,9,0,0,0,0,0,0,0,0,0,0,0,0
2012,7,16,13,0,,26.9,20.2,67,100150,0,0,434,426,55,373,47709,4935,43411,0,70,1.4,9,0,0,0,0,0,0,0,0,0,0,0,0
2012,7,16,14,0,,26.9,20.4,68,100130,0,0,446,321,27,295,36314,2400,34511,0,20,1.1,10,0,0,0,0,0,0,0,0,0,0,0,0
2012,7,16,15,0,,27.5,20.5,66,100120,0,0,450,292,27,269,31312,2011,30116,0,50,0.8,10,0,0,0,0,0,0,0,0,0,0,0,0
2012,7,16,16,0,,27.4,20.7,67,100120,0,0,450,238,24,219,24509,1737,23794,0,340,0.5,10,0,0,0,0,0,0,0,0,0,0,0,0
2012,7,16,17,0,,26.6,21.1,72,100120,0,0,446,180,24,166,17372,1386,17074,0,50,0.8,10,0,0,0,0,0,0,0,0,0,0,0,0
2012,7,16,18,0,,25.6,21.2,77,100130,0,0,440,109,18,101,9070,2291,9031,0,20,2,10,0,0,0,0,0,0,0,0,0,0,0,0
2012,7,16,19,0,,25.1,21.3,80,100160,0,0,437,54,16,50,0,0,0,0,70,1.9,10,0,0,0,0,0,0,0,0,0,0,0,0
2012,7,16,20,0,,25,21.3,80,100230,0,0,436,11,0,10,0,0,0,0,200,2.5,10,0,0,0,0,0,0,0,0,0,0,0,0
2012,7,16,21,0,,25.1,21.3,80,100310,0,0,437,0,0,0,0,0,0,0,180,2.7,10,0,0,0,0,0,0,0,0,0,0,0,0
2012,7,16,22,0,,24.8,21.3,81,100370,0,0,431,0,0,0,0,0,0,0,180,2.7,10,0,0,0,0,0,0,0,0,0,0,0,0
2012,7,16,23,0,,24.5,21,81,100340,0,0,425,0,0,0,0,0,0,0,180,1,9,0,0,0,0,0,0,0,0,0,0,0,0
2012,7,16,24,0,,24.5,21,81,100330,0,0,421,0,0,0,0,0,0,0,180,1,9,0,0,0,0,0,0,0,0,0,0,0,0
2012,7,17,1,0,,24.2,21.8,87,100310,0,0,424,0,0,0,0,0,0,0,360,1.5,9,0,0,0,0,0,0,0,0,0,0,0,0
2012,7,17,2,0,,24,21.6,87,100300,0,0,427,0,0,0,0,0,0,0,0,0.2,10,0,0,0,0,0,0,0,0,0,0,0,0
2012,7,17,3,0,,23.9,21.4,86,100330,0,0,430,0,0,0,0,0,0,0,250,1.6,10,0,0,0,0,0,0,0,0,0,0,0,0
2012,7,17,4,0,,23.3,21.3,89,100320,0,0,427,0,0,0,0,0,0,0,250,0.7,10,0,0,0,0,0,0,0,0,0,0,0,0
2012,7,17,5,0,,22.5,21.4,94,100260,0,0,422,0,0,0,0,0,0,0,50,3.2,10,0,0,0,0,0,0,0,0,0,0,0,0
2012,7,17,6,0,,22.2,21.1,94,100250,0,0,420,1,0,1,111,0,111,0,50,2.2,10,0,0,0,0,0,0,0,0,0,0,0,0
2012,7,17,7,0,,22.3,21.1,93,100330,0,0,421,38,14,35,5036,1197,4342,0,50,3.1,10,0,0,0,0,0,0,0,0,0,0,0,0
2012,7,17,8,0,,22.4,21.3,94,100410,0,0,421,88,16,82,11001,1348,10005,0,20,1.4,10,0,0,0,0,0,0,0,0,0,0,0,0
2012,7,17,9,0,,22.6,21.5,94,100450,0,0,423,150,19,140,18274,1650,16851,0,50,1.7,10,0,0,0,0,0,0,0,0,0,0,0,0
2012,7,17,10,0,,22.9,21.8,94,100400,0,0,425,201,19,188,24043,1593,22546,0,20,3.3,10,0,0,0,0,0,0,0,0,0,0,0,0
2012,7,17,11,0,,23.3,22.2,94,100370,0,0,428,239,17,225,28309,1488,26869,0,50,2.3,10,0,0,0,0,0,0,0,0,0,0,0,0
2012,7,17,12,0,,23.3,22.2,94,100390,0,0,428,250,14,237,29545,856,28736,0,140,1.3,10,0,0,0,0,0,0,0,0,0,0,0,0
2012,7,17,13,0,,23.5,22.6,95,100290,0,0,430,280,18,263,32190,1106,31228,0,50,3.7,10,0,0,0,0,0,0,0,0,0,0,0,0
2012,7,17,14,0,,23.7,22.4,93,100270,0,0,430,260,15,246,29418,986,28678,0,70,1.4,10,0,0,0,0,0,0,0,0,0,0,0,0
2012,7,17,15,0,,24.3,23,93,100300,0,0,435,251,18,236,27325,1181,26624,0,20,1.3,10,0,0,0,0,0,0,0,0,0,0,0,0
2012,7,17,16,0,,25,23,89,100280,0,0,439,242,25,222,24749,1763,24025,0,50,2.9,10,0,0,0,0,0,0,0,0,0,0,0,0
2012,7,17,17,0,,25.9,23.3,86,100240,0,0,444,202,33,182,18965,2034,18530,0,50,2.4,10,0,0,0,0,0,0,0,0,0,0,0,0
2012,7,17,18,0,,26,23.6,87,100230,0,0,433,176,70,146,15893,4112,15828,0,50,3.2,9,0,0,0,0,0,0,0,0,0,0,0,0
2012,7,17,19,0,,25.1,23.1,89,100220,0,0,427,83,56,70,0,0,0,0,50,3.1,9,0,0,0,0,0,0,0,0,0,0,0,0
2012,7,17,20,0,,24.4,22.8,91,100260,0,0,423,15,1,14,0,0,0,0,20,2.1,9,0,0,0,0,0,0,0,0,0,0,0,0
2012,7,17,21,0,,24.6,22.8,90,100290,0,0,424,0,0,0,0,0,0,0,20,1.1,9,0,0,0,0,0,0,0,0,0,0,0,0
2012,7,17,22,0,,24.8,22.6,88,100270,0,0,425,0,0,0,0,0,0,0,50,3,9,0,0,0,0,0,0,0,0,0,0,0,0
2012,7,17,23,0,,24.6,22.2,87,100250,0,0,423,0,0,0,0,0,0,0,50,2.9,9,0,0,0,0,0,0,0,0,0,0,0,0
2012,7,17,24,0,,24.5,22.3,88,100200,0,0,423,0,0,0,0,0,0,0,50,3.7,9,0,0,0,0,0,0,0,0,0,0,0,0
2012,7,18,1,0,,25,22.2,85,100200,0,0,417,0,0,0,0,0,0,0,340,0.8,8,0,0,0,0,0,0,0,0,0,0,0,0
2012,7,18,2,0,,23.9,22.3,91,100210,0,0,404,0,0,0,0,0,0,0,110,0.7,7,0,0,0,0,0,0,0,0,0,0,0,0
2012,7,18,3,0,,25.1,22.1,84,100130,0,0,406,0,0,0,0,0,0,0,50,3.8,6,0,0,0,0,0,0,0,0,0,0,0,0
2012,7,18,4,0,,24.7,22.1,86,100140,0,0,424,0,0,0,0,0,0,0,20,2.9,9,0,0,0,0,0,0,0,0,0,0,0,0
2012,7,18,5,0,,24.8,22,85,100120,0,0,424,0,0,0,0,0,0,0,50,3.2,9,0,0,0,0,0,0,0,0,0,0,0,0
2012,7,18,6,0,,24.4,22,87,100060,0,0,422,6,0,6,855,7,852,0,50,4.1,9,0,0,0,0,0,0,0,0,0,0,0,0
2012,7,18,7,0,,25.4,22.6,85,100060,0,0,419,78,119,57,15910,10183,10018,0,70,1.6,8,0,0,0,0,0,0,0,0,0,0,0,0
2012,7,18,8,0,,27,22.6,77,100040,0,0,422,220,217,138,35601,18883,21666,0,90,2,7,0,0,0,0,0,0,0,0,0,0,0,0
2012,7,18,9,0,,28.3,22.9,73,100040,0,0,436,321,161,230,43221,13252,31812,0,70,3.7,8,0,0,0,0,0,0,0,0,0,0,0,0
2012,7,18,10,0,,29,23.2,71,100050,0,0,450,341,80,283,42158,6738,35830,0,70,2.9,9,0,0,0,0,0,0,0,0,0,0,0,0
2012,7,18,11,0,,27.8,22.7,74,100010,0,0,455,281,27,258,33057,2343,30790,0,50,3.6,10,0,0,0,0,0,0,0,0,0,0,0,0
2012,7,18,12,0,,27.5,23.5,79,100010,0,0,454,264,17,249,30925,981,29999,0,70,1.4,10,0,0,0,0,0,0,0,0,0,0,0,0
2012,7,18,13,0,,27.4,23.4,79,99960,0,0,454,250,13,238,29054,756,28397,0,20,1.3,10,0,0,0,0,0,0,0,0,0,0,0,0
2012,7,18,14,0,,27.4,24,82,99910,0,0,454,267,16,251,29977,1030,29205,0,50,2.8,10,0,0,0,0,0,0,0,0,0,0,0,0
2012,7,18,15,0,,28.5,23.4,74,99840,0,0,460,296,28,271,31451,1990,30271,0,70,4.6,10,0,0,0,0,0,0,0,0,0,0,0,0
2012,7,18,16,0,,29.7,23.6,70,99790,0,0,468,282,39,252,28075,2904,26886,0,70,3.6,10,0,0,0,0,0,0,0,0,0,0,0,0
2012,7,18,17,0,,27.9,23.2,76,99760,0,0,456,202,33,182,18965,2061,18528,0,70,4.5,10,0,0,0,0,0,0,0,0,0,0,0,0
2012,7,18,18,0,,27.7,23.5,78,99720,0,0,456,130,30,117,10241,5197,10168,0,50,4.2,10,0,0,0,0,0,0,0,0,0,0,0,0
2012,7,18,19,0,,27.5,23.3,78,99610,0,0,454,65,28,58,0,0,0,0,50,5,10,0,0,0,0,0,0,0,0,0,0,0,0
2012,7,18,20,0,,25.8,23.2,86,99580,0,0,444,10,0,10,0,0,0,0,50,5.2,10,0,0,0,0,0,0,0,0,0,0,0,0
2012,7,18,21,0,,25.6,23.4,88,99540,0,0,443,0,0,0,0,0,0,0,70,3,10,0,0,0,0,0,0,0,0,0,0,0,0
2012,7,18,22,0,,25.8,23.6,88,99390,0,0,444,0,0,0,0,0,0,0,70,3.2,10,0,0,0,0,0,0,0,0,0,0,0,0
2012,7,18,23,0,,25.7,23.3,87,99170,0,0,443,0,0,0,0,0,0,0,90,4,10,0,0,0,0,0,0,0,0,0,0,0,0
2012,7,18,24,0,,25.4,23.4,89,99030,0,0,442,0,0,0,0,0,0,0,110,5.8,10,0,0,0,0,0,0,0,0,0,0,0,0
2012,7,19,1,0,,25.3,23.7,91,98930,0,0,441,0,0,0,0,0,0,0,140,6.1,10,0,0,0,0,0,0,0,0,0,0,0,0
2012,7,19,2,0,,25.6,22.6,84,98910,0,0,442,0,0,0,0,0,0,0,160,8.9,10,0,0,0,0,0,0,0,0,0,0,0,0
2012,7,19,3,0,,25.9,22.5,82,99070,0,0,443,0,0,0,0,0,0,0,180,8.7,10,0,0,0,0,0,0,0,0,0,0,0,0
2012,7,19,4,0,,24.8,22.8,89,99290,0,0,437,0,0,0,0,0,0,0,200,9.3,10,0,0,0,0,0,0,0,0,0,0,0,0
2012,7,19,5,0,,24.2,22.8,92,99510,0,0,434,0,0,0,0,0,0,0,200,10.3,10,0,0,0,0,0,0,0,0,0,0,0,0
2012,7,19,6,0,,23.8,22.7,94,99680,0,0,431,2,0,2,256,0,256,0,200,6.6,10,0,0,0,0,0,0,0,0,0,0,0,0
2012,7,19,7,0,,23.8,22.9,95,99810,0,0,432,42,21,38,6384,1733,5384,0,200,6.3,10,0,0,0,0,0,0,0,0,0,0,0,0
2012,7,19,8,0,,24,23.1,95,99900,0,0,433,103,25,93,12976,2112,11420,0,200,6.2,10,0,0,0,0,0,0,0,0,0,0,0,0
2012,7,19,9,0,,24.5,23.4,94,99930,0,0,436,160,23,147,19509,1956,17827,0,200,4,10,0,0,0,0,0,0,0,0,0,0,0,0
2012,7,19,10,0,,25.3,23.5,90,99960,0,0,441,244,32,221,29003,2690,26478,0,200,5.1,10,0,0,0,0,0,0,0,0,0,0,0,0
2012,7,19,11,0,,26.6,24.2,87,99970,0,0,437,365,56,318,42413,4751,37822,0,230,2.6,9,0,0,0,0,0,0,0,0,0,0,0,0
2012,7,19,12,0,,27.2,24,83,99970,0,0,453,319,28,293,37151,2407,34882,0,230,2.8,10,0,0,0,0,0,0,0,0,0,0,0,0
2012,7,19,13,0,,28.8,23.6,74,99950,0,0,450,459,68,393,51250,5841,46177,0,230,2.9,9,0,0,0,0,0,0,0,0,0,0,0,0
2012,7,19,14,0,,29.7,24.3,73,99910,0,0,446,533,108,430,57234,9314,50260,0,200,4.3,8,0,0,0,0,0,0,0,0,0,0,0,0
2012,7,19,15,0,,29.3,23.4,71,99860,0,0,436,542,146,414,55335,12704,47818,0,200,2.6,7,0,0,0,0,0,0,0,0,0,0,0,0
2012,7,19,16,0,,29,23.2,71,99840,0,0,441,380,88,312,38964,7422,35934,0,200,3,8,0,0,0,0,0,0,0,0,0,0,0,0
2012,7,19,17,0,,29,23.2,71,99840,0,0,441,296,94,238,28454,6920,26997,0,230,3.1,8,0,0,0,0,0,0,0,0,0,0,0,0
2012,7,19,18,0,,28.7,23.1,72,99840,0,0,439,205,108,158,17107,6929,17022,0,270,2,8,0,0,0,0,0,0,0,0,0,0,0,0
2012,7,19,19,0,,27.7,23.2,77,99880,0,0,433,105,111,79,0,0,0,0,250,2.9,8,0,0,0,0,0,0,0,0,0,0,0,0
2012,7,19,20,0,,27,23,79,99920,0,0,429,22,4,19,0,0,0,0,270,1.3,8,0,0,0,0,0,0,0,0,0,0,0,0
2012,7,19,21,0,,26.4,22,77,99990,0,0,424,0,0,0,0,0,0,0,270,0.8,8,0,0,0,0,0,0,0,0,0,0,0,0
2012,7,19,22,0,,26.1,21.9,78,100030,0,0,428,0,0,0,0,0,0,0,230,1.8,9,0,0,0,0,0,0,0,0,0,0,0,0
2012,7,19,23,0,,26,22,79,100060,0,0,435,0,0,0,0,0,0,0,0,0.4,9,0,0,0,0,0,0,0,0,0,0,0,0
2012,7,19,24,0,,25.6,22,81,100070,0,0,441,0,0,0,0,0,0,0,230,1.7,10,0,0,0,0,0,0,0,0,0,0,0,0
2012,7,20,1,0,,24.5,22.9,91,100080,0,0,436,0,0,0,0,0,0,0,200,2,10,0,0,0,0,0,0,0,0,0,0,0,0
2012,7,20,2,0,,24.4,23.1,93,100080,0,0,435,0,0,0,0,0,0,0,230,1.2,10,0,0,0,0,0,0,0,0,0,0,0,0
2012,7,20,3,0,,24,22.9,94,100070,0,0,433,0,0,0,0,0,0,0,230,1.7,10,0,0,0,0,0,0,0,0,0,0,0,0
2012,7,20,4,0,,23.8,22.7,94,100070,0,0,431,0,0,0,0,0,0,0,230,1.1,10,0,0,0,0,0,0,0,0,0,0,0,0
2012,7,20,5,0,,23.7,22.8,95,100100,0,0,431,0,0,0,0,0,0,0,200,0.7,10,0,0,0,0,0,0,0,0,0,0,0,0
2012,7,20,6,0,,23.8,22.9,95,100150,0,0,420,4,0,4,573,2,573,0,200,0.9,9,0,0,0,0,0,0,0,0,0,0,0,0
2012,7,20,7,0,,24.3,23.4,95,100160,0,0,423,54,44,46,8578,3652,6476,0,0,0.3,9,0,0,0,0,0,0,0,0,0,0,0,0
2012,7,20,8,0,,24.6,23.3,93,100190,0,0,437,92,19,85,11550,1555,10406,0,270,1,10,0,0,0,0,0,0,0,0,0,0,0,0
2012,7,20,9,0,,25.1,23.8,93,100210,0,0,440,152,20,141,18558,1702,17096,0,270,1,10,0,0,0,0,0,0,0,0,0,0,0,0
2012,7,20,10,0,,26.5,23.5,84,100220,0,0,448,218,24,201,26087,1993,24219,0,0,0.2,10,0,0,0,0,0,0,0,0,0,0,0,0
2012,7,20,11,0,,27.7,23.2,77,100220,0,0,443,379,62,326,43801,5338,38646,0,340,0.8,9,0,0,0,0,0,0,0,0,0,0,0,0
2012,7,20,12,0,,27.8,22.9,75,100180,0,0,433,489,91,404,54895,7893,47461,0,20,1,8,0,0,0,0,0,0,0,0,0,0,0,0
2012,7,20,13,0,,29.3,22.5,67,100150,0,0,435,589,134,460,65592,11239,55841,0,0,0.2,7,0,0,0,0,0,0,0,0,0,0,0,0
2012,7,20,14,0,,29.5,22.7,67,100110,0,0,431,634,174,469,67385,14406,56613,0,360,1.7,6,0,0,0,0,0,0,0,0,0,0,0,0
2012,7,20,15,0,,31,22,59,100060,0,0,435,675,274,433,64960,22196,51852,0,200,0.8,5,0,0,0,0,0,0,0,0,0,0,0,0
2012,7,20,16,0,,31.8,22.2,57,100010,0,0,437,604,410,290,49754,29514,37747,0,270,1.3,4,0,0,0,0,0,0,0,0,0,0,0,0
2012,7,20,17,0,,30.2,22.3,63,100000,0,0,431,431,283,257,33362,14732,30284,0,270,1.6,5,0,0,0,0,0,0,0,0,0,0,0,0
2012,7,20,18,0,,30.2,22.6,64,99990,0,0,431,290,309,156,16724,0,16724,0,270,1.9,5,0,0,0,0,0,0,0,0,0,0,0,0
2012,7,20,19,0,,29.2,23.1,70,100020,0,0,425,146,316,72,0,0,0,0,270,1.5,5,0,0,0,0,0,0,0,0,0,0,0,0
2012,7,20,20,0,,27.4,23,77,100070,0,0,414,37,17,20,0,0,0,0,250,2.5,4,0,0,0,0,0,0,0,0,0,0,0,0
2012,7,20,21,0,,26.4,22.8,81,100140,0,0,407,0,0,0,0,0,0,0,0,0.3,4,0,0,0,0,0,0,0,0,0,0,0,0
2012,7,20,22,0,,26,22.6,82,100190,0,0,406,0,0,0,0,0,0,0,250,1.2,4,0,0,0,0,0,0,0,0,0,0,0,0
2012,7,20,23,0,,25.8,22.6,83,100210,0,0,406,0,0,0,0,0,0,0,230,1.3,5,0,0,0,0,0,0,0,0,0,0,0,0
2012,7,20,24,0,,26,22.6,82,100200,0,0,408,0,0,0,0,0,0,0,250,0.7,5,0,0,0,0,0,0,0,0,0,0,0,0
2012,7,21,1,0,,25.3,22.7,86,100200,0,0,403,0,0,0,0,0,0,0,250,1.5,5,0,0,0,0,0,0,0,0,0,0,0,0
2012,7,21,2,0,,24.8,22.8,89,100230,0,0,399,0,0,0,0,0,0,0,250,0.7,4,0,0,0,0,0,0,0,0,0,0,0,0
2012,7,21,3,0,,24.4,23,92,100230,0,0,397,0,0,0,0,0,0,0,0,0.3,4,0,0,0,0,0,0,0,0,0,0,0,0
2012,7,21,4,0,,24.3,22.9,92,100230,0,0,407,0,0,0,0,0,0,0,0,0.1,7,0,0,0,0,0,0,0,0,0,0,0,0
2012,7,21,5,0,,24,22.7,93,100240,0,0,397,0,0,0,0,0,0,0,0,0.1,5,0,0,0,0,0,0,0,0,0,0,0,0
2012,7,21,6,0,,24.2,22.6,91,100250,0,0,398,14,4,10,1439,277,1331,0,0,0.4,5,0,0,0,0,0,0,0,0,0,0,0,0
2012,7,21,7,0,,24.3,22.7,91,100280,0,0,413,66,83,52,12023,6679,8187,0,0,0.2,8,0,0,0,0,0,0,0,0,0,0,0,0
2012,7,21,8,0,,24.8,22.8,89,100280,0,0,425,135,56,114,18675,4765,15177,0,0,0.4,9,0,0,0,0,0,0,0,0,0,0,0,0
2012,7,21,9,0,,26.9,22.9,79,100290,0,0,428,284,117,219,36557,9967,28007,0,20,1.9,8,0,0,0,0,0,0,0,0,0,0,0,0
2012,7,21,10,0,,27.3,23.1,78,100290,0,0,419,478,210,327,59838,17218,43714,0,20,2.3,6,0,0,0,0,0,0,0,0,0,0,0,0
2012,7,21,11,0,,27.7,23,76,100260,0,0,421,566,188,406,65426,15881,50103,0,20,1.4,6,0,0,0,0,0,0,0,0,0,0,0,0
2012,7,21,12,0,,30,23.4,68,100230,0,0,435,642,193,463,71741,15993,56690,0,20,0.7,6,0,0,0,0,0,0,0,0,0,0,0,0
2012,7,21,13,0,,30.5,22.6,63,100200,0,0,437,681,200,487,73525,16760,59000,0,180,0.9,6,0,0,0,0,0,0,0,0,0,0,0,0
2012,7,21,14,0,,32.3,21.4,53,100160,0,0,446,710,241,481,72637,20257,57511,0,250,1.7,6,0,0,0,0,0,0,0,0,0,0,0,0
2012,7,21,15,0,,32.9,21,50,100110,0,0,442,713,328,424,66432,26991,50524,0,320,0.8,4,0,0,0,0,0,0,0,0,0,0,0,0
2012,7,21,16,0,,32.5,21.3,52,100080,0,0,443,594,324,346,51010,24303,41158,0,250,3.2,5,0,0,0,0,0,0,0,0,0,0,0,0
2012,7,21,17,0,,32.1,22.2,56,100080,0,0,446,416,254,260,33290,13095,30576,0,250,3.9,6,0,0,0,0,0,0,0,0,0,0,0,0
2012,7,21,18,0,,29.1,23,70,100090,0,0,434,216,128,161,17333,8605,17260,0,180,3.8,7,0,0,0,0,0,0,0,0,0,0,0,0
2012,7,21,19,0,,28.7,22.9,71,100120,0,0,432,116,154,80,0,0,0,0,180,4.6,7,0,0,0,0,0,0,0,0,0,0,0,0
2012,7,21,20,0,,27.9,23,75,100150,0,0,427,24,5,19,0,0,0,0,200,2.9,7,0,0,0,0,0,0,0,0,0,0,0,0
2012,7,21,21,0,,27.7,22.8,75,100190,0,0,426,0,0,0,0,0,0,0,180,1.8,7,0,0,0,0,0,0,0,0,0,0,0,0
2012,7,21,22,0,,27.4,23,77,100210,0,0,427,0,0,0,0,0,0,0,160,2,7,0,0,0,0,0,0,0,0,0,0,0,0
2012,7,21,23,0,,27.1,22.9,78,100250,0,0,427,0,0,0,0,0,0,0,160,2.1,8,0,0,0,0,0,0,0,0,0,0,0,0
2012,7,21,24,0,,26.8,22.8,79,100240,0,0,428,0,0,0,0,0,0,0,180,2.6,8,0,0,0,0,0,0,0,0,0,0,0,0
2012,7,22,1,0,,26.6,22.8,80,100210,0,0,422,0,0,0,0,0,0,0,180,2.7,7,0,0,0,0,0,0,0,0,0,0,0,0
2012,7,22,2,0,,26.4,22.6,80,100180,0,0,417,0,0,0,0,0,0,0,180,2.4,7,0,0,0,0,0,0,0,0,0,0,0,0
2012,7,22,3,0,,25.9,22.5,82,100150,0,0,411,0,0,0,0,0,0,0,180,1.8,6,0,0,0,0,0,0,0,0,0,0,0,0
2012,7,22,4,0,,25.9,22.3,81,100140,0,0,404,0,0,0,0,0,0,0,180,1.7,4,0,0,0,0,0,0,0,0,0,0,0,0
2012,7,22,5,0,,25.7,22.3,82,100150,0,0,409,0,0,0,0,0,0,0,200,2,6,0,0,0,0,0,0,0,0,0,0,0,0
2012,7,22,6,0,,25.5,22.5,84,100150,0,0,420,7,1,6,880,11,876,0,140,1,8,0,0,0,0,0,0,0,0,0,0,0,0
2012,7,22,7,0,,26.4,22.6,80,100120,0,0,425,74,119,54,15370,10129,9569,0,140,1.9,8,0,0,0,0,0,0,0,0,0,0,0,0
2012,7,22,8,0,,27,23,79,100120,0,0,429,185,140,134,27829,11427,19454,0,160,2.7,8,0,0,0,0,0,0,0,0,0,0,0,0
2012,7,22,9,0,,27.6,22.9,76,100180,0,0,442,252,85,205,32563,7230,26369,0,160,3.8,9,0,0,0,0,0,0,0,0,0,0,0,0
2012,7,22,10,0,,28.7,23.3,73,100220,0,0,432,439,165,320,53228,13899,40226,0,180,3.1,7,0,0,0,0,0,0,0,0,0,0,0,0
2012,7,22,11,0,,29.8,23,67,100200,0,0,445,485,123,381,57238,10389,47223,0,180,4.3,8,0,0,0,0,0,0,0,0,0,0,0,0
2012,7,22,12,0,,29.9,23.5,69,100170,0,0,447,526,111,422,60814,9253,52115,0,160,4.2,8,0,0,0,0,0,0,0,0,0,0,0,0
2012,7,22,13,0,,30,23.4,68,100150,0,0,435,656,181,481,71570,14908,58664,0,160,3.5,6,0,0,0,0,0,0,0,0,0,0,0,0
2012,7,22,14,0,,31,23.3,64,100120,0,0,434,739,273,480,74729,22235,58151,0,140,3.7,4,0,0,0,0,0,0,0,0,0,0,0,0
2012,7,22,15,0,,31.7,22.6,59,100110,0,0,444,618,212,431,61856,16984,51868,0,160,3.4,6,0,0,0,0,0,0,0,0,0,0,0,0
2012,7,22,16,0,,31.6,22.3,58,100090,0,0,443,536,235,356,49502,17272,42527,0,180,3.6,6,0,0,0,0,0,0,0,0,0,0,0,0
2012,7,22,17,0,,31.9,22.6,58,100030,0,0,438,476,443,205,30818,20860,26532,0,200,4.1,4,0,0,0,0,0,0,0,0,0,0,0,0
2012,7,22,18,0,,30.7,22.5,62,100000,0,0,427,331,478,126,14077,0,14077,0,160,4,3,0,0,0,0,0,0,0,0,0,0,0,0
2012,7,22,19,0,,29.4,22.6,67,100050,0,0,416,173,470,64,0,0,0,0,180,3.9,2,0,0,0,0,0,0,0,0,0,0,0,0
2012,7,22,20,0,,28.1,22.7,73,100100,0,0,404,41,18,22,0,0,0,0,160,3.3,1,0,0,0,0,0,0,0,0,0,0,0,0
2012,7,22,21,0,,27.5,22.4,74,100150,0,0,392,0,0,0,0,0,0,0,160,3.4,0,0,0,0,0,0,0,0,0,0,0,0,0
2012,7,22,22,0,,27.1,22.4,76,100200,0,0,400,0,0,0,0,0,0,0,180,3.1,1,0,0,0,0,0,0,0,0,0,0,0,0
2012,7,22,23,0,,26.9,22.3,76,100200,0,0,405,0,0,0,0,0,0,0,160,3.3,3,0,0,0,0,0,0,0,0,0,0,0,0
2012,7,22,24,0,,26.6,22.2,77,100150,0,0,407,0,0,0,0,0,0,0,160,2.7,4,0,0,0,0,0,0,0,0,0,0,0,0
2012,7,23,1,0,,26.4,22,77,100200,0,0,409,0,0,0,0,0,0,0,180,2.8,5,0,0,0,0,0,0,0,0,0,0,0,0
2012,7,23,2,0,,26.4,22,77,100150,0,0,413,0,0,0,0,0,0,0,180,1.2,6,0,0,0,0,0,0,0,0,0,0,0,0
2012,7,23,3,0,,26.4,22,77,100130,0,0,418,0,0,0,0,0,0,0,160,1.1,7,0,0,0,0,0,0,0,0,0,0,0,0
2012,7,23,4,0,,26.1,22.1,79,100110,0,0,416,0,0,0,0,0,0,0,180,1.7,7,0,0,0,0,0,0,0,0,0,0,0,0
2012,7,23,5,0,,26.4,22.2,78,100140,0,0,413,0,0,0,0,0,0,0,180,2.1,6,0,0,0,0,0,0,0,0,0,0,0,0
2012,7,23,6,0,,26.2,22.4,80,100160,0,0,412,11,2,9,1237,177,1169,0,160,2,6,0,0,0,0,0,0,0,0,0,0,0,0
2012,7,23,7,0,,26.6,22.6,79,100210,0,0,426,75,127,54,15670,10790,9507,0,200,3.2,8,0,0,0,0,0,0,0,0,0,0,0,0
2012,7,23,8,0,,27.3,22.6,76,100240,0,0,430,177,125,131,26580,10298,19045,0,180,2.5,8,0,0,0,0,0,0,0,0,0,0,0,0
2012,7,23,9,0,,29,23.2,71,100280,0,0,441,300,139,223,40744,11397,30993,0,180,3.3,8,0,0,0,0,0,0,0,0,0,0,0,0
2012,7,23,10,0,,29.5,22.9,68,100290,0,0,453,356,92,289,43834,7856,36492,0,200,5.3,9,0,0,0,0,0,0,0,0,0,0,0,0
2012,7,23,11,0,,31.5,23.8,64,100280,0,0,457,519,149,393,60803,12314,48945,0,200,4.1,8,0,0,0,0,0,0,0,0,0,0,0,0
2012,7,23,12,0,,31.8,23,60,100250,0,0,450,619,174,456,69508,14559,55833,0,200,4.8,7,0,0,0,0,0,0,0,0,0,0,0,0
2012,7,23,13,0,,32.3,22.9,58,100200,0,0,460,579,129,455,64783,10699,55533,0,230,4.9,8,0,0,0,0,0,0,0,0,0,0,0,0
2012,7,23,14,0,,32.2,22.8,58,100170,0,0,460,526,105,426,56408,9225,49541,0,230,4.1,8,0,0,0,0,0,0,0,0,0,0,0,0
2012,7,23,15,0,,31.5,22.5,59,100160,0,0,455,477,104,386,49882,9090,44549,0,200,4.8,8,0,0,0,0,0,0,0,0,0,0,0,0
2012,7,23,16,0,,30.7,23.6,66,100160,0,0,461,310,51,271,33026,4231,31324,0,230,4.5,9,0,0,0,0,0,0,0,0,0,0,0,0
2012,7,23,17,0,,30.3,23.4,67,100130,0,0,459,244,56,209,24651,4031,23830,0,230,3.6,9,0,0,0,0,0,0,0,0,0,0,0,0
2012,7,23,18,0,,29.5,22.9,68,100120,0,0,453,156,52,133,14366,3155,14352,0,230,2.2,9,0,0,0,0,0,0,0,0,0,0,0,0
2012,7,23,19,0,,29.2,22.6,68,100220,0,0,444,107,127,77,0,0,0,0,230,3.1,8,0,0,0,0,0,0,0,0,0,0,0,0
2012,7,23,20,0,,28.4,22.6,71,100270,0,0,434,21,4,18,0,0,0,0,230,3,8,0,0,0,0,0,0,0,0,0,0,0,0
2012,7,23,21,0,,28,22.9,74,100360,0,0,428,0,0,0,0,0,0,0,200,3.2,7,0,0,0,0,0,0,0,0,0,0,0,0
2012,7,23,22,0,,27.5,23.3,78,100420,0,0,424,0,0,0,0,0,0,0,200,2.8,7,0,0,0,0,0,0,0,0,0,0,0,0
2012,7,23,23,0,,27.3,23.1,78,100450,0,0,421,0,0,0,0,0,0,0,180,3.2,6,0,0,0,0,0,0,0,0,0,0,0,0
2012,7,23,24,0,,26.6,22.2,77,100430,0,0,414,0,0,0,0,0,0,0,160,1.5,6,0,0,0,0,0,0,0,0,0,0,0,0
2012,7,24,1,0,,26.2,20.9,73,100410,0,0,409,0,0,0,0,0,0,0,200,1.8,6,0,0,0,0,0,0,0,0,0,0,0,0
2012,7,24,2,0,,25.9,20.9,74,100470,0,0,406,0,0,0,0,0,0,0,160,1.1,5,0,0,0,0,0,0,0,0,0,0,0,0
2012,7,24,3,0,,25.5,21.3,78,100500,0,0,403,0,0,0,0,0,0,0,20,1.2,5,0,0,0,0,0,0,0,0,0,0,0,0
2012,7,24,4,0,,24.6,21.1,81,100490,0,0,376,0,0,0,0,0,0,0,90,0.6,0,0,0,0,0,0,0,0,0,0,0,0,0
2012,7,24,5,0,,24.4,20.7,80,100520,0,0,374,0,0,0,0,0,0,0,160,1.5,0,0,0,0,0,0,0,0,0,0,0,0,0
2012,7,24,6,0,,24.3,21,82,100580,0,0,394,13,3,9,1304,267,1201,0,0,0.3,4,0,0,0,0,0,0,0,0,0,0,0,0
2012,7,24,7,0,,25.1,21.6,81,100610,0,0,395,114,398,49,31439,41667,7703,0,70,1.3,3,0,0,0,0,0,0,0,0,0,0,0,0
2012,7,24,8,0,,27.1,21.6,72,100630,0,0,397,298,576,88,56976,60528,12769,0,20,0.9,1,0,0,0,0,0,0,0,0,0,0,0,0
2012,7,24,9,0,,29.3,22.5,67,100620,0,0,410,483,634,133,74747,66513,17914,0,0,0.4,1,0,0,0,0,0,0,0,0,0,0,0,0
2012,7,24,10,0,,31,22.5,61,100600,0,0,419,657,672,175,87834,70085,22411,0,340,1.2,1,0,0,0,0,0,0,0,0,0,0,0,0
2012,7,24,11,0,,31,22,59,100610,0,0,424,745,568,265,87820,54564,35328,0,230,2,2,0,0,0,0,0,0,0,0,0,0,0,0
2012,7,24,12,0,,32.9,22,53,100580,0,0,443,772,439,364,84805,38155,49008,0,250,2.4,4,0,0,0,0,0,0,0,0,0,0,0,0
2012,7,24,13,0,,32.8,23.4,58,100530,0,0,444,760,280,490,79579,22961,59751,0,250,1.9,4,0,0,0,0,0,0,0,0,0,0,0,0
2012,7,24,14,0,,32.3,21.7,54,100490,0,0,439,734,270,478,74159,22589,57371,0,320,1.1,4,0,0,0,0,0,0,0,0,0,0,0,0
2012,7,24,15,0,,32.1,22.2,56,100470,0,0,439,658,258,431,63914,20770,51759,0,20,2.3,4,0,0,0,0,0,0,0,0,0,0,0,0
2012,7,24,16,0,,32.1,21.9,55,100460,0,0,438,575,296,349,50388,21858,41633,0,20,2.3,4,0,0,0,0,0,0,0,0,0,0,0,0
2012,7,24,17,0,,31.3,22.8,61,100440,0,0,454,306,107,241,28817,7817,27241,0,20,3.5,8,0,0,0,0,0,0,0,0,0,0,0,0
2012,7,24,18,0,,30.8,23.9,67,100430,0,0,453,197,102,154,16492,6857,16478,0,230,2.6,8,0,0,0,0,0,0,0,0,0,0,0,0
2012,7,24,19,0,,30.2,23.3,67,100490,0,0,448,98,101,75,0,0,0,0,270,1.7,8,0,0,0,0,0,0,0,0,0,0,0,0
2012,7,24,20,0,,29,22.9,70,100530,0,0,440,20,3,17,0,0,0,0,290,1.2,8,0,0,0,0,0,0,0,0,0,0,0,0
2012,7,24,21,0,,28.4,22.6,71,100580,0,0,437,0,0,0,0,0,0,0,250,1.2,8,0,0,0,0,0,0,0,0,0,0,0,0
2012,7,24,22,0,,28.2,22.2,70,100640,0,0,435,0,0,0,0,0,0,0,340,0.5,8,0,0,0,0,0,0,0,0,0,0,0,0
2012,7,24,23,0,,27.9,22.3,72,100640,0,0,433,0,0,0,0,0,0,0,230,1.1,8,0,0,0,0,0,0,0,0,0,0,0,0
2012,7,24,24,0,,27.9,22.3,72,100640,0,0,433,0,0,0,0,0,0,0,0,0.2,8,0,0,0,0,0,0,0,0,0,0,0,0
2012,7,25,1,0,,26.9,22.7,78,100630,0,0,414,0,0,0,0,0,0,0,20,0.6,5,0,0,0,0,0,0,0,0,0,0,0,0
2012,7,25,2,0,,26.4,22.6,80,100600,0,0,402,0,0,0,0,0,0,0,230,0.8,3,0,0,0,0,0,0,0,0,0,0,0,0
2012,7,25,3,0,,25.8,22.2,81,100620,0,0,383,0,0,0,0,0,0,0,200,1.2,0,0,0,0,0,0,0,0,0,0,0,0,0
2012,7,25,4,0,,25.5,22.1,82,100640,0,0,394,0,0,0,0,0,0,0,230,1.6,2,0,0,0,0,0,0,0,0,0,0,0,0
2012,7,25,5,0,,25,22.6,87,100660,0,0,392,0,0,0,0,0,0,0,0,0.3,2,0,0,0,0,0,0,0,0,0,0,0,0
2012,7,25,6,0,,24.9,22.7,88,100680,0,0,392,14,4,9,1307,329,1182,0,0,0,2,0,0,0,0,0,0,0,0,0,0,0,0
2012,7,25,7,0,,25.8,23.2,86,100720,0,0,397,111,379,49,30435,39775,7839,0,0,0,2,0,0,0,0,0,0,0,0,0,0,0,0
2012,7,25,8,0,,27.2,23,78,100760,0,0,404,284,519,97,53699,54589,13903,0,0,0.3,2,0,0,0,0,0,0,0,0,0,0,0,0
2012,7,25,9,0,,29.2,23.8,73,100750,0,0,421,460,563,150,69564,54764,22835,0,70,1.4,3,0,0,0,0,0,0,0,0,0,0,0,0
2012,7,25,10,0,,28.9,23.5,73,100730,0,0,425,522,282,320,64454,22866,43134,0,320,1.1,5,0,0,0,0,0,0,0,0,0,0,0,0
2012,7,25,11,0,,31.7,23.5,62,100670,0,0,438,695,454,312,81273,38858,43930,0,50,1.5,4,0,0,0,0,0,0,0,0,0,0,0,0
2012,7,25,12,0,,31.8,21.3,54,100630,0,0,436,739,297,463,81922,24972,58520,0,50,1.6,4,0,0,0,0,0,0,0,0,0,0,0,0
2012,7,25,13,0,,32.8,20.3,48,100580,0,0,440,813,454,375,83692,40126,49087,0,290,1.6,4,0,0,0,0,0,0,0,0,0,0,0,0
2012,7,25,14,0,,32.1,21.3,53,100530,0,0,441,684,220,476,70670,18485,56957,0,340,1.1,5,0,0,0,0,0,0,0,0,0,0,0,0
2012,7,25,15,0,,34.2,21.6,48,100460,0,0,450,723,444,333,64091,35482,43380,0,20,1.8,4,0,0,0,0,0,0,0,0,0,0,0,0
2012,7,25,16,0,,33.5,21.9,51,100420,0,0,450,556,268,352,49838,19723,41973,0,340,1.6,5,0,0,0,0,0,0,0,0,0,0,0,0
2012,7,25,17,0,,33.3,22.4,53,100370,0,0,453,414,260,256,32753,12885,30182,0,290,1.9,6,0,0,0,0,0,0,0,0,0,0,0,0
2012,7,25,18,0,,31.5,23.5,63,100380,0,0,449,220,142,160,0,0,0,0,320,1.8,7,0,0,0,0,0,0,0,0,0,0,0,0
2012,7,25,19,0,,30.8,22.9,63,100420,0,0,438,127,227,76,0,0,0,0,320,1.3,6,0,0,0,0,0,0,0,0,0,0,0,0
2012,7,25,20,0,,29.6,21.5,62,100460,0,0,424,34,15,18,0,0,0,0,270,1.3,4,0,0,0,0,0,0,0,0,0,0,0,0
2012,7,25,21,0,,28.7,21.7,66,100500,0,0,415,0,0,0,0,0,0,0,290,1.2,3,0,0,0,0,0,0,0,0,0,0,0,0
2012,7,25,22,0,,27.9,21.9,70,100500,0,0,411,0,0,0,0,0,0,0,250,1.5,3,0,0,0,0,0,0,0,0,0,0,0,0
2012,7,25,23,0,,27.1,22,74,100460,0,0,407,0,0,0,0,0,0,0,250,2.2,3,0,0,0,0,0,0,0,0,0,0,0,0
2012,7,25,24,0,,26.5,22.3,78,100440,0,0,404,0,0,0,0,0,0,0,200,1.4,3,0,0,0,0,0,0,0,0,0,0,0,0
2012,7,26,1,0,,26.1,22.1,79,100440,0,0,402,0,0,0,0,0,0,0,200,1.8,3,0,0,0,0,0,0,0,0,0,0,0,0
2012,7,26,2,0,,26,22.2,80,100430,0,0,403,0,0,0,0,0,0,0,230,1.4,4,0,0,0,0,0,0,0,0,0,0,0,0
2012,7,26,3,0,,25.5,22.1,82,100420,0,0,401,0,0,0,0,0,0,0,200,1.3,4,0,0,0,0,0,0,0,0,0,0,0,0
2012,7,26,4,0,,25.3,22.1,83,100430,0,0,388,0,0,0,0,0,0,0,250,0.6,1,0,0,0,0,0,0,0,0,0,0,0,0
2012,7,26,5,0,,24.7,22,85,100420,0,0,394,0,0,0,0,0,0,0,180,0.6,3,0,0,0,0,0,0,0,0,0,0,0,0
2012,7,26,6,0,,24.8,22.4,87,100460,0,0,395,12,3,9,1230,261,1131,0,230,0.6,3,0,0,0,0,0,0,0,0,0,0,0,0
2012,7,26,7,0,,25.3,22.5,85,100460,0,0,398,108,364,50,29459,38121,7863,0,20,0.5,3,0,0,0,0,0,0,0,0,0,0,0,0
2012,7,26,8,0,,27,23.2,80,100470,0,0,408,275,483,101,50896,47257,16509,0,0,0.3,3,0,0,0,0,0,0,0,0,0,0,0,0
2012,7,26,9,0,,29.6,23.5,70,100430,0,0,422,456,554,152,68916,53896,22993,0,70,1.2,3,0,0,0,0,0,0,0,0,0,0,0,0
2012,7,26,10,0,,30.9,21.3,57,100380,0,0,427,628,603,197,82709,58845,27904,0,160,0.7,3,0,0,0,0,0,0,0,0,0,0,0,0
2012,7,26,11,0,,31.6,20.8,53,100310,0,0,430,732,544,273,86240,52421,35918,0,90,1.1,3,0,0,0,0,0,0,0,0,0,0,0,0
2012,7,26,12,0,,32.5,22.2,55,100280,0,0,444,730,287,464,81470,23687,59297,0,250,2.4,5,0,0,0,0,0,0,0,0,0,0,0,0
2012,7,26,13,0,,33.3,21.7,51,100230,0,0,448,733,253,490,77390,21364,58992,0,290,1.4,5,0,0,0,0,0,0,0,0,0,0,0,0
2012,7,26,14,0,,33,20.5,48,100200,0,0,445,711,247,478,72409,21039,56830,0,270,2.1,5,0,0,0,0,0,0,0,0,0,0,0,0
2012,7,26,15,0,,32.9,21.7,52,100140,0,0,446,631,230,430,62234,18603,51405,0,250,1.9,5,0,0,0,0,0,0,0,0,0,0,0,0
2012,7,26,16,0,,33.4,21.8,51,100110,0,0,453,505,203,351,46968,17362,40077,0,340,1.8,6,0,0,0,0,0,0,0,0,0,0,0,0
2012,7,26,17,0,,32,22.9,59,100100,0,0,446,386,211,258,32168,15541,29099,0,340,1.8,6,0,0,0,0,0,0,0,0,0,0,0,0
2012,7,26,18,0,,31.4,22.4,59,100090,0,0,438,285,319,150,0,0,0,0,320,1.3,5,0,0,0,0,0,0,0,0,0,0,0,0
2012,7,26,19,0,,29.9,22.3,64,100090,0,0,429,137,300,70,0,0,0,0,290,2,5,0,0,0,0,0,0,0,0,0,0,0,0
2012,7,26,20,0,,28.9,22.1,67,100120,0,0,423,31,13,19,0,0,0,0,250,2.9,5,0,0,0,0,0,0,0,0,0,0,0,0
2012,7,26,21,0,,28.3,22,69,100170,0,0,420,0,0,0,0,0,0,0,250,2.7,5,0,0,0,0,0,0,0,0,0,0,0,0
2012,7,26,22,0,,27.7,21.9,71,100170,0,0,414,0,0,0,0,0,0,0,250,1.6,4,0,0,0,0,0,0,0,0,0,0,0,0
2012,7,26,23,0,,27.1,22.2,75,100160,0,0,409,0,0,0,0,0,0,0,200,2.6,4,0,0,0,0,0,0,0,0,0,0,0,0
2012,7,26,24,0,,26.8,22.2,76,100170,0,0,405,0,0,0,0,0,0,0,250,2,3,0,0,0,0,0,0,0,0,0,0,0,0
2012,7,27,1,0,,26.2,22.2,79,100170,0,0,402,0,0,0,0,0,0,0,200,1.8,3,0,0,0,0,0,0,0,0,0,0,0,0
2012,7,27,2,0,,26.3,22.3,79,100200,0,0,403,0,0,0,0,0,0,0,250,0.6,3,0,0,0,0,0,0,0,0,0,0,0,0
2012,7,27,3,0,,25.7,22.3,82,100210,0,0,399,0,0,0,0,0,0,0,230,0.8,3,0,0,0,0,0,0,0,0,0,0,0,0
2012,7,27,4,0,,25.3,22.1,83,100200,0,0,397,0,0,0,0,0,0,0,160,0.5,3,0,0,0,0,0,0,0,0,0,0,0,0
2012,7,27,5,0,,25.2,22.6,86,100200,0,0,397,0,0,0,0,0,0,0,0,0.3,3,0,0,0,0,0,0,0,0,0,0,0,0
2012,7,27,6,0,,24.9,22.3,86,100250,0,0,395,12,3,8,1176,254,1080,0,70,0.9,3,0,0,0,0,0,0,0,0,0,0,0,0
2012,7,27,7,0,,25.4,22.4,84,100260,0,0,398,108,379,48,30049,39734,7602,0,20,1.7,3,0,0,0,0,0,0,0,0,0,0,0,0
2012,7,27,8,0,,26.9,23.1,80,100280,0,0,407,268,457,105,49360,44626,16950,0,70,0.8,3,0,0,0,0,0,0,0,0,0,0,0,0
2012,7,27,9,0,,27.8,22.9,75,100280,0,0,433,280,120,215,36221,10219,27526,0,70,0.6,8,0,0,0,0,0,0,0,0,0,0,0,0
2012,7,27,10,0,,28.9,22.1,67,100290,0,0,439,388,121,302,47460,10428,37760,0,0,0.4,8,0,0,0,0,0,0,0,0,0,0,0,0
2012,7,27,11,0,,29.3,22.5,67,100240,0,0,442,456,106,367,54078,9074,45377,0,360,1.2,8,0,0,0,0,0,0,0,0,0,0,0,0
2012,7,27,12,0,,31.1,21.5,57,100200,0,0,444,610,170,452,68385,14602,54733,0,360,1.6,7,0,0,0,0,0,0,0,0,0,0,0,0
2012,7,27,13,0,,32.3,22.1,55,100140,0,0,452,626,161,471,68665,13592,56977,0,70,1.1,7,0,0,0,0,0,0,0,0,0,0,0,0
2012,7,27,14,0,,33.2,21.3,50,100110,0,0,457,637,181,467,67169,15222,55919,0,270,1,7,0,0,0,0,0,0,0,0,0,0,0,0
2012,7,27,15,0,,32.2,23.7,61,100080,0,0,454,525,137,405,53783,11898,46877,0,70,1.5,7,0,0,0,0,0,0,0,0,0,0,0,0
2012,7,27,16,0,,33.4,21.8,51,100050,0,0,453,528,232,352,48648,17002,41933,0,270,2.4,6,0,0,0,0,0,0,0,0,0,0,0,0
2012,7,27,17,0,,32.5,21.9,54,100060,0,0,448,400,237,256,32303,11722,30015,0,250,3,6,0,0,0,0,0,0,0,0,0,0,0,0
2012,7,27,18,0,,31.8,23.8,63,100040,0,0,451,242,192,161,0,0,0,0,230,3.8,7,0,0,0,0,0,0,0,0,0,0,0,0
2012,7,27,19,0,,30.7,24.3,69,100070,0,0,445,114,173,75,0,0,0,0,250,4.5,7,0,0,0,0,0,0,0,0,0,0,0,0
2012,7,27,20,0,,29.3,24.4,75,100120,0,0,437,22,4,17,0,0,0,0,290,0.9,7,0,0,0,0,0,0,0,0,0,0,0,0
2012,7,27,21,0,,28.3,24,78,100200,0,0,431,0,0,0,0,0,0,0,360,0.7,7,0,0,0,0,0,0,0,0,0,0,0,0
2012,7,27,22,0,,27.7,24.1,81,100240,0,0,428,0,0,0,0,0,0,0,360,1.1,7,0,0,0,0,0,0,0,0,0,0,0,0
2012,7,27,23,0,,27.4,23.8,81,100260,0,0,426,0,0,0,0,0,0,0,250,2.9,7,0,0,0,0,0,0,0,0,0,0,0,0
2012,7,27,24,0,,27.1,23.9,83,100270,0,0,424,0,0,0,0,0,0,0,270,1,7,0,0,0,0,0,0,0,0,0,0,0,0
2012,7,28,1,0,,26.4,23.2,83,100300,0,0,411,0,0,0,0,0,0,0,270,0.7,5,0,0,0,0,0,0,0,0,0,0,0,0
2012,7,28,2,0,,26,23.2,85,100310,0,0,402,0,0,0,0,0,0,0,0,0.1,3,0,0,0,0,0,0,0,0,0,0,0,0
2012,7,28,3,0,,25.8,22.8,84,100290,0,0,391,0,0,0,0,0,0,0,230,0.5,1,0,0,0,0,0,0,0,0,0,0,0,0
2012,7,28,4,0,,25.7,22.9,85,100280,0,0,396,0,0,0,0,0,0,0,90,1,2,0,0,0,0,0,0,0,0,0,0,0,0
2012,7,28,5,0,,25.6,23.2,87,100300,0,0,406,0,0,0,0,0,0,0,0,0.4,5,0,0,0,0,0,0,0,0,0,0,0,0
2012,7,28,6,0,,25.7,23.1,86,100350,0,0,407,9,2,7,991,121,945,0,50,0.8,5,0,0,0,0,0,0,0,0,0,0,0,0
2012,7,28,7,0,,26.3,23.5,85,100360,0,0,419,76,163,50,16783,13702,9064,0,230,1.1,7,0,0,0,0,0,0,0,0,0,0,0,0
2012,7,28,8,0,,27,23.8,83,100370,0,0,415,238,345,116,42723,33454,18474,0,320,0.7,5,0,0,0,0,0,0,0,0,0,0,0,0
2012,7,28,9,0,,29.7,23.8,71,100360,0,0,430,402,385,192,57211,32923,29239,0,250,1,5,0,0,0,0,0,0,0,0,0,0,0,0
2012,7,28,10,0,,30.9,23.7,66,100380,0,0,437,554,412,261,70683,35268,37917,0,270,0.9,5,0,0,0,0,0,0,0,0,0,0,0,0
2012,7,28,11,0,,31.2,22.5,60,100360,0,0,437,649,294,402,75521,24226,52319,0,230,1.7,5,0,0,0,0,0,0,0,0,0,0,0,0
2012,7,28,12,0,,31,22.3,60,100280,0,0,439,634,191,457,70688,16123,55634,0,320,1.3,6,0,0,0,0,0,0,0,0,0,0,0,0
2012,7,28,13,0,,33.3,21.7,51,100230,0,0,452,680,204,484,73119,17280,58282,0,270,1.8,6,0,0,0,0,0,0,0,0,0,0,0,0
2012,7,28,14,0,,33.9,22.3,51,100180,0,0,457,675,214,473,70099,17643,57087,0,250,1.6,6,0,0,0,0,0,0,0,0,0,0,0,0
2012,7,28,15,0,,34.3,22.7,51,100140,0,0,456,694,312,422,65262,24743,50944,0,230,2.8,5,0,0,0,0,0,0,0,0,0,0,0,0
2012,7,28,16,0,,34.9,22.2,48,100110,0,0,455,611,449,271,48033,31747,35559,0,290,1.9,4,0,0,0,0,0,0,0,0,0,0,0,0
2012,7,28,17,0,,34.9,22.5,49,100090,0,0,456,479,474,193,29089,20931,25051,0,270,1.9,4,0,0,0,0,0,0,0,0,0,0,0,0
2012,7,28,18,0,,33.4,22.5,53,100060,0,0,447,305,402,136,0,0,0,0,270,1.6,4,0,0,0,0,0,0,0,0,0,0,0,0
2012,7,28,19,0,,31.7,24,64,100080,0,0,436,152,380,69,0,0,0,0,250,3.2,3,0,0,0,0,0,0,0,0,0,0,0,0
2012,7,28,20,0,,30.4,24.3,70,100110,0,0,427,32,14,18,0,0,0,0,290,1,3,0,0,0,0,0,0,0,0,0,0,0,0
2012,7,28,21,0,,29.4,24.2,74,100170,0,0,418,0,0,0,0,0,0,0,290,0.5,2,0,0,0,0,0,0,0,0,0,0,0,0
2012,7,28,22,0,,28.6,24.1,77,100210,0,0,416,0,0,0,0,0,0,0,270,0.9,3,0,0,0,0,0,0,0,0,0,0,0,0
2012,7,28,23,0,,28.1,24.1,79,100190,0,0,416,0,0,0,0,0,0,0,230,2,3,0,0,0,0,0,0,0,0,0,0,0,0
2012,7,28,24,0,,27.7,24.1,81,100170,0,0,416,0,0,0,0,0,0,0,250,2.6,4,0,0,0,0,0,0,0,0,0,0,0,0
2012,7,29,1,0,,27.3,24.1,83,100120,0,0,415,0,0,0,0,0,0,0,200,1.7,4,0,0,0,0,0,0,0,0,0,0,0,0
2012,7,29,2,0,,27.1,24.1,84,100090,0,0,415,0,0,0,0,0,0,0,200,1.4,5,0,0,0,0,0,0,0,0,0,0,0,0
2012,7,29,3,0,,27,24,84,100070,0,0,415,0,0,0,0,0,0,0,230,1.8,5,0,0,0,0,0,0,0,0,0,0,0,0
2012,7,29,4,0,,26.7,24.1,86,100070,0,0,413,0,0,0,0,0,0,0,230,2.1,5,0,0,0,0,0,0,0,0,0,0,0,0
2012,7,29,5,0,,26.6,24.2,87,100100,0,0,413,0,0,0,0,0,0,0,200,1.8,5,0,0,0,0,0,0,0,0,0,0,0,0
2012,7,29,6,0,,26.4,24,87,100130,0,0,405,10,2,8,1040,179,973,0,200,1.1,3,0,0,0,0,0,0,0,0,0,0,0,0
2012,7,29,7,0,,27.3,23.9,82,100140,0,0,413,101,340,49,27834,35647,7812,0,160,1.4,4,0,0,0,0,0,0,0,0,0,0,0,0
2012,7,29,8,0,,28.2,23.9,78,100130,0,0,422,244,354,119,43763,34319,18935,0,180,2.2,5,0,0,0,0,0,0,0,0,0,0,0,0
2012,7,29,9,0,,29.4,23.8,72,100120,0,0,428,401,388,191,57193,33169,29054,0,250,2.6,5,0,0,0,0,0,0,0,0,0,0,0,0
2012,7,29,10,0,,30.6,23.5,66,100100,0,0,439,502,258,319,62421,20863,43062,0,230,3.2,6,0,0,0,0,0,0,0,0,0,0,0,0
2012,7,29,11,0,,31.6,23.1,61,100060,0,0,444,605,239,405,71679,19398,53124,0,200,3,6,0,0,0,0,0,0,0,0,0,0,0,0
2012,7,29,12,0,,32.5,23.4,59,100000,0,0,450,687,242,463,75505,20028,56830,0,230,4,6,0,0,0,0,0,0,0,0,0,0,0,0
2012,7,29,13,0,,32.6,22.9,57,99940,0,0,450,683,208,483,73543,17254,58753,0,230,3,6,0,0,0,0,0,0,0,0,0,0,0,0
2012,7,29,14,0,,33.6,22.6,53,99890,0,0,461,611,162,458,65355,13353,55528,0,230,3.6,7,0,0,0,0,0,0,0,0,0,0,0,0
2012,7,29,15,0,,33,22.4,54,99870,0,0,451,608,209,425,60822,16732,51170,0,230,5,6,0,0,0,0,0,0,0,0,0,0,0,0
2012,7,29,16,0,,32.7,22.7,56,99850,0,0,446,558,280,347,49479,20130,41611,0,230,4.7,5,0,0,0,0,0,0,0,0,0,0,0,0
2012,7,29,17,0,,33,23.6,58,99800,0,0,442,480,483,190,28816,20285,24952,0,230,5.2,3,0,0,0,0,0,0,0,0,0,0,0,0
2012,7,29,18,0,,32.5,23.1,58,99830,0,0,439,336,540,110,0,0,0,0,250,4.5,3,0,0,0,0,0,0,0,0,0,0,0,0
2012,7,29,19,0,,30.9,23.7,66,99880,0,0,430,160,448,62,0,0,0,0,250,3.7,3,0,0,0,0,0,0,0,0,0,0,0,0
2012,7,29,20,0,,30.2,23.6,68,99910,0,0,426,33,18,16,0,0,0,0,250,2.3,3,0,0,0,0,0,0,0,0,0,0,0,0
2012,7,29,21,0,,29.2,23.1,70,99930,0,0,420,0,0,0,0,0,0,0,230,3.7,3,0,0,0,0,0,0,0,0,0,0,0,0
2012,7,29,22,0,,28.3,23.4,75,99930,0,0,415,0,0,0,0,0,0,0,200,3.9,3,0,0,0,0,0,0,0,0,0,0,0,0
2012,7,29,23,0,,27.5,23.9,81,99940,0,0,411,0,0,0,0,0,0,0,200,4.5,3,0,0,0,0,0,0,0,0,0,0,0,0
2012,7,29,24,0,,27.2,23.8,82,99890,0,0,409,0,0,0,0,0,0,0,200,3.4,3,0,0,0,0,0,0,0,0,0,0,0,0
2012,7,30,1,0,,27.1,22.9,78,99850,0,0,405,0,0,0,0,0,0,0,200,2.6,2,0,0,0,0,0,0,0,0,0,0,0,0
2012,7,30,2,0,,27.2,22.3,75,99840,0,0,402,0,0,0,0,0,0,0,200,2.7,2,0,0,0,0,0,0,0,0,0,0,0,0
2012,7,30,3,0,,26.5,22.1,77,99810,0,0,394,0,0,0,0,0,0,0,140,1,1,0,0,0,0,0,0,0,0,0,0,0,0
2012,7,30,4,0,,26.1,21.9,78,99810,0,0,384,0,0,0,0,0,0,0,160,1,0,0,0,0,0,0,0,0,0,0,0,0,0
2012,7,30,5,0,,26.1,22.3,80,99850,0,0,385,0,0,0,0,0,0,0,160,1.2,0,0,0,0,0,0,0,0,0,0,0,0,0
2012,7,30,6,0,,26.4,22.6,80,99860,0,0,400,10,3,7,1020,206,943,0,140,1.1,2,0,0,0,0,0,0,0,0,0,0,0,0
2012,7,30,7,0,,26.9,23.1,80,99890,0,0,413,94,277,52,24387,26759,9401,0,140,1.4,5,0,0,0,0,0,0,0,0,0,0,0,0
2012,7,30,8,0,,28.8,23.6,74,99970,0,0,421,265,465,102,49308,45312,16593,0,250,1.4,4,0,0,0,0,0,0,0,0,0,0,0,0
2012,7,30,9,0,,29.3,23.2,70,100020,0,0,424,429,486,166,64627,47215,24634,0,230,3.6,4,0,0,0,0,0,0,0,0,0,0,0,0
2012,7,30,10,0,,30.2,22.8,65,100020,0,0,432,538,325,308,68983,28091,42953,0,200,2.5,5,0,0,0,0,0,0,0,0,0,0,0,0
2012,7,30,11,0,,31.2,22.7,61,100030,0,0,441,585,217,403,69621,17805,52611,0,230,2.6,6,0,0,0,0,0,0,0,0,0,0,0,0
2012,7,30,12,0,,31.8,22.2,57,99950,0,0,444,640,198,457,71189,16719,55621,0,230,1.4,6,0,0,0,0,0,0,0,0,0,0,0,0
2012,7,30,13,0,,33.3,22.4,53,99850,0,0,449,754,280,486,78774,23342,58798,0,180,2.6,5,0,0,0,0,0,0,0,0,0,0,0,0
2012,7,30,14,0,,34.6,22.9,51,99770,0,0,458,748,293,472,74730,23907,57176,0,200,3.1,5,0,0,0,0,0,0,0,0,0,0,0,0
2012,7,30,15,0,,35,23,50,99730,0,0,460,707,336,415,65483,26447,50278,0,200,3.9,5,0,0,0,0,0,0,0,0,0,0,0,0
2012,7,30,16,0,,33.9,23.8,56,99720,0,0,455,564,291,344,49608,20347,41701,0,230,3.9,5,0,0,0,0,0,0,0,0,0,0,0,0
2012,7,30,17,0,,33.2,23.2,56,99730,0,0,459,358,176,252,30872,12726,28480,0,250,4,7,0,0,0,0,0,0,0,0,0,0,0,0
2012,7,30,18,0,,32.2,21,52,99770,0,0,457,206,127,154,0,0,0,0,200,4.7,8,0,0,0,0,0,0,0,0,0,0,0,0
2012,7,30,19,0,,31.4,20.9,54,99810,0,0,443,119,221,72,0,0,0,0,230,4.1,7,0,0,0,0,0,0,0,0,0,0,0,0
2012,7,30,20,0,,30.2,22.8,65,99870,0,0,433,28,11,17,0,0,0,0,250,3.3,5,0,0,0,0,0,0,0,0,0,0,0,0
2012,7,30,21,0,,29.3,22.7,68,99960,0,0,423,0,0,0,0,0,0,0,230,2.5,4,0,0,0,0,0,0,0,0,0,0,0,0
2012,7,30,22,0,,28.9,22.8,70,100030,0,0,422,0,0,0,0,0,0,0,230,2.4,4,0,0,0,0,0,0,0,0,0,0,0,0
2012,7,30,23,0,,28.2,22.6,72,100030,0,0,419,0,0,0,0,0,0,0,250,1.8,5,0,0,0,0,0,0,0,0,0,0,0,0
2012,7,30,24,0,,27.8,22.9,75,100020,0,0,418,0,0,0,0,0,0,0,230,1.1,5,0,0,0,0,0,0,0,0,0,0,0,0
2012,7,31,1,0,,27.2,23,78,99980,0,0,410,0,0,0,0,0,0,0,180,0.7,3,0,0,0,0,0,0,0,0,0,0,0,0
2012,7,31,2,0,,26.8,23.2,81,99990,0,0,401,0,0,0,0,0,0,0,50,1.2,2,0,0,0,0,0,0,0,0,0,0,0,0
2012,7,31,3,0,,26.3,22.9,82,99970,0,0,387,0,0,0,0,0,0,0,90,1.1,0,0,0,0,0,0,0,0,0,0,0,0,0
2012,7,31,4,0,,25.9,23.1,85,99970,0,0,385,0,0,0,0,0,0,0,0,0,0,0,0,0,0,0,0,0,0,0,0,0,0
2012,7,31,5,0,,25.6,22.8,85,99950,0,0,383,0,0,0,0,0,0,0,70,1.2,0,0,0,0,0,0,0,0,0,0,0,0,0
2012,7,31,6,0,,25.6,22.6,84,99960,0,0,383,9,2,7,943,168,881,0,20,1.4,0,0,0,0,0,0,0,0,0,0,0,0,0
2012,7,31,7,0,,26.2,23.2,84,99970,0,0,387,105,62,42,9560,4940,6801,0,70,0.8,0,0,0,0,0,0,0,0,0,0,0,0,0
2012,7,31,8,0,,28.5,23.8,76,99990,0,0,399,285,571,85,56009,60411,12481,0,70,1.3,0,0,0,0,0,0,0,0,0,0,0,0,0
2012,7,31,9,0,,30.7,23.1,64,99990,0,0,418,478,654,124,75198,68844,16975,0,20,0.8,1,0,0,0,0,0,0,0,0,0,0,0,0
2012,7,31,10,0,,31.8,23,60,100010,0,0,424,637,647,180,84514,62920,26289,0,140,0.8,1,0,0,0,0,0,0,0,0,0,0,0,0
2012,7,31,11,0,,32.3,22.9,58,99990,0,0,433,727,547,269,86018,52269,36150,0,340,0.8,2,0,0,0,0,0,0,0,0,0,0,0,0
2012,7,31,12,0,,32.6,21.1,51,99930,0,0,432,792,500,331,85737,44060,44769,0,180,1.6,2,0,0,0,0,0,0,0,0,0,0,0,0
2012,7,31,13,0,,33,22.1,53,99880,0,0,444,746,272,485,78136,22844,58621,0,360,1.7,4,0,0,0,0,0,0,0,0,0,0,0,0
2012,7,31,14,0,,33.8,20.9,47,99850,0,0,447,754,303,469,74830,25619,56063,0,230,1.4,4,0,0,0,0,0,0,0,0,0,0,0,0
2012,7,31,15,0,,32.4,21.8,54,99820,0,0,443,628,233,425,61673,18779,50913,0,20,3.3,5,0,0,0,0,0,0,0,0,0,0,0,0
2012,7,31,16,0,,34.5,20,43,99800,0,0,457,535,249,347,48145,18653,40938,0,320,1.1,6,0,0,0,0,0,0,0,0,0,0,0,0
2012,7,31,17,0,,35,21.6,46,99800,0,0,463,416,282,248,31471,13437,28980,0,360,1.3,6,0,0,0,0,0,0,0,0,0,0,0,0
2012,7,31,18,0,,32.7,23.3,58,99790,0,0,444,310,445,126,0,0,0,0,340,1.6,4,0,0,0,0,0,0,0,0,0,0,0,0
2012,7,31,19,0,,32,23.5,61,99820,0,0,439,147,381,66,0,0,0,0,20,3,4,0,0,0,0,0,0,0,0,0,0,0,0
2012,7,31,20,0,,30.5,23.4,66,99880,0,0,429,30,14,16,0,0,0,0,50,2.2,3,0,0,0,0,0,0,0,0,0,0,0,0
2012,7,31,21,0,,29.6,24,72,99950,0,0,423,0,0,0,0,0,0,0,50,1.5,3,0,0,0,0,0,0,0,0,0,0,0,0
2012,7,31,22,0,,29.1,24.2,75,99990,0,0,416,0,0,0,0,0,0,0,180,1.4,2,0,0,0,0,0,0,0,0,0,0,0,0
2012,7,31,23,0,,28.7,24.2,77,99990,0,0,409,0,0,0,0,0,0,0,180,0.9,1,0,0,0,0,0,0,0,0,0,0,0,0
2012,7,31,24,0,,28.6,23.9,76,99960,0,0,400,0,0,0,0,0,0,0,0,0,0,0,0,0,0,0,0,0,0,0,0,0,0
2005,8,1,1,0,,24.7,23.6,93,99790,0,0,438,0,0,0,0,0,0,0,50,0.8,10,0,0,0,0,0,0,0,0,0,0,0,0
2005,8,1,2,0,,24.7,23.4,93,99660,0,0,438,0,0,0,0,0,0,0,140,1.5,10,0,0,0,0,0,0,0,0,0,0,0,0
2005,8,1,3,0,,25.5,23.3,88,99530,0,0,442,0,0,0,0,0,0,0,180,2.4,10,0,0,0,0,0,0,0,0,0,0,0,0
2005,8,1,4,0,,26,22.9,86,99540,0,0,445,0,0,0,0,0,0,0,180,3.8,10,0,0,0,0,0,0,0,0,0,0,0,0
2005,8,1,5,0,,23.3,22.6,93,99560,0,0,428,0,0,0,0,0,0,0,200,7.6,10,0,0,0,0,0,0,0,0,0,0,0,0
2005,8,1,6,0,,23.1,22.2,95,99570,0,0,427,0,0,0,0,0,0,0,200,3.1,10,0,0,0,0,0,0,0,0,0,0,0,0
2005,8,1,7,0,,23.3,22.7,94,99580,0,0,428,24,1,23,3100,38,3078,0,200,2.9,10,0,0,0,0,0,0,0,0,0,0,0,0
2005,8,1,8,0,,23.8,23.1,94,99590,0,0,432,83,17,77,10473,1430,9445,0,200,0.7,10,0,0,0,0,0,0,0,0,0,0,0,0
2005,8,1,9,0,,25,23.6,92,99600,0,0,440,157,25,143,19157,2101,17382,0,200,2,10,0,0,0,0,0,0,0,0,0,0,0,0
2005,8,1,10,0,,26.5,23.8,86,99590,0,0,449,256,40,228,30475,3364,27365,0,200,4,10,0,0,0,0,0,0,0,0,0,0,0,0
2005,8,1,11,0,,27.4,24.1,83,99590,0,0,455,303,36,273,35465,3006,32600,0,230,3.8,10,0,0,0,0,0,0,0,0,0,0,0,0
2005,8,1,12,0,,26.9,24.3,86,99580,0,0,452,293,24,271,34224,1978,32387,0,230,3.2,10,0,0,0,0,0,0,0,0,0,0,0,0
2005,8,1,13,0,,27.7,24.3,80,99570,0,0,457,313,25,289,36155,2113,34352,0,200,3.5,10,0,0,0,0,0,0,0,0,0,0,0,0
2005,8,1,14,0,,28.3,24.2,80,99550,0,0,460,309,26,285,33879,1721,32620,0,230,3.2,10,0,0,0,0,0,0,0,0,0,0,0,0
2005,8,1,15,0,,27.2,24.2,84,99540,0,0,453,283,26,260,29979,1808,28945,0,200,4.9,10,0,0,0,0,0,0,0,0,0,0,0,0
2005,8,1,16,0,,26.8,24.1,88,99530,0,0,451,206,18,193,21314,1087,20896,0,200,4.2,10,0,0,0,0,0,0,0,0,0,0,0,0
2005,8,1,17,0,,27.1,23.9,79,99510,0,0,453,160,19,149,15286,905,15120,0,230,3.1,10,0,0,0,0,0,0,0,0,0,0,0,0
2005,8,1,18,0,,26.9,23.8,83,99500,0,0,451,114,25,104,0,0,0,0,200,3.8,10,0,0,0,0,0,0,0,0,0,0,0,0
2005,8,1,19,0,,26.5,23.7,85,99520,0,0,449,57,28,51,0,0,0,0,250,3.5,10,0,0,0,0,0,0,0,0,0,0,0,0
2005,8,1,20,0,,25.9,23.6,88,99540,0,0,445,6,0,6,0,0,0,0,180,2.4,10,0,0,0,0,0,0,0,0,0,0,0,0
2005,8,1,21,0,,26,23.5,86,99560,0,0,445,0,0,0,0,0,0,0,180,2.1,10,0,0,0,0,0,0,0,0,0,0,0,0
2005,8,1,22,0,,26.4,23.6,84,99590,0,0,448,0,0,0,0,0,0,0,200,2.3,10,0,0,0,0,0,0,0,0,0,0,0,0
2005,8,1,23,0,,26.5,23.8,85,99620,0,0,449,0,0,0,0,0,0,0,180,1.7,10,0,0,0,0,0,0,0,0,0,0,0,0
2005,8,1,24,0,,26.5,23.9,86,99650,0,0,449,0,0,0,0,0,0,0,180,2,10,0,0,0,0,0,0,0,0,0,0,0,0
2005,8,2,1,0,,26.4,24,87,99610,0,0,448,0,0,0,0,0,0,0,250,1.3,10,0,0,0,0,0,0,0,0,0,0,0,0
2005,8,2,2,0,,26.2,24,88,99580,0,0,447,0,0,0,0,0,0,0,270,0.7,10,0,0,0,0,0,0,0,0,0,0,0,0
2005,8,2,3,0,,26,24.1,89,99540,0,0,446,0,0,0,0,0,0,0,250,0.9,10,0,0,0,0,0,0,0,0,0,0,0,0
2005,8,2,4,0,,26.1,24.3,89,99550,0,0,447,0,0,0,0,0,0,0,270,1.2,10,0,0,0,0,0,0,0,0,0,0,0,0
2005,8,2,5,0,,25.7,24.4,93,99570,0,0,445,0,0,0,0,0,0,0,200,1.7,10,0,0,0,0,0,0,0,0,0,0,0,0
2005,8,2,6,0,,26,24.6,92,99580,0,0,447,0,0,0,0,0,0,0,250,1.1,10,0,0,0,0,0,0,0,0,0,0,0,0
2005,8,2,7,0,,25.2,24.3,92,99560,0,0,433,45,7,38,5070,527,4777,0,230,5,9,0,0,0,0,0,0,0,0,0,0,0,0
2005,8,2,8,0,,24.8,23.9,92,99540,0,0,424,118,48,102,16653,4018,13768,0,230,2.8,9,0,0,0,0,0,0,0,0,0,0,0,0
2005,8,2,9,0,,25.5,23.6,89,99520,0,0,421,231,75,191,30178,6316,24850,0,200,1,8,0,0,0,0,0,0,0,0,0,0,0,0
2005,8,2,10,0,,28,23.6,78,99560,0,0,441,303,64,258,37957,5398,32974,0,200,1.4,9,0,0,0,0,0,0,0,0,0,0,0,0
2005,8,2,11,0,,28.6,23.5,76,99590,0,0,452,381,67,325,44049,5766,38561,0,200,2.2,9,0,0,0,0,0,0,0,0,0,0,0,0
2005,8,2,12,0,,28.5,23.5,74,99630,0,0,460,322,31,294,37387,2628,34949,0,160,2.2,10,0,0,0,0,0,0,0,0,0,0,0,0
2005,8,2,13,0,,28.2,23.9,83,99580,0,0,459,296,22,275,34298,1824,32745,0,200,2.1,10,0,0,0,0,0,0,0,0,0,0,0,0
2005,8,2,14,0,,28.8,24.3,79,99540,0,0,463,307,25,283,33708,1702,32466,0,200,4.3,10,0,0,0,0,0,0,0,0,0,0,0,0
2005,8,2,15,0,,27.3,24.7,86,99490,0,0,455,229,15,217,24940,906,24425,0,200,2.9,10,0,0,0,0,0,0,0,0,0,0,0,0
2005,8,2,16,0,,25.5,23.8,94,99510,0,0,443,153,8,147,16415,392,16265,0,290,1,10,0,0,0,0,0,0,0,0,0,0,0,0
2005,8,2,17,0,,24.2,22.9,94,99520,0,0,434,102,5,99,10413,136,10389,0,200,0.8,10,0,0,0,0,0,0,0,0,0,0,0,0
2005,8,2,18,0,,22.8,22,95,99540,0,0,425,80,9,76,0,0,0,0,200,5,10,0,0,0,0,0,0,0,0,0,0,0,0
2005,8,2,19,0,,23,22.4,95,99540,0,0,426,34,7,32,0,0,0,0,180,1.8,10,0,0,0,0,0,0,0,0,0,0,0,0
2005,8,2,20,0,,23.6,22.7,94,99530,0,0,430,4,0,4,0,0,0,0,110,0.3,10,0,0,0,0,0,0,0,0,0,0,0,0
2005,8,2,21,0,,24.6,23.1,91,99530,0,0,437,0,0,0,0,0,0,0,180,3.4,10,0,0,0,0,0,0,0,0,0,0,0,0
2005,8,2,22,0,,24.8,23.5,93,99510,0,0,438,0,0,0,0,0,0,0,200,2.3,10,0,0,0,0,0,0,0,0,0,0,0,0
2005,8,2,23,0,,25.3,23.8,92,99490,0,0,442,0,0,0,0,0,0,0,180,1.1,10,0,0,0,0,0,0,0,0,0,0,0,0
2005,8,2,24,0,,25.7,24.2,91,99470,0,0,445,0,0,0,0,0,0,0,180,2.5,10,0,0,0,0,0,0,0,0,0,0,0,0
2005,8,3,1,0,,26.1,24.3,91,99460,0,0,447,0,0,0,0,0,0,0,200,4,10,0,0,0,0,0,0,0,0,0,0,0,0
2005,8,3,2,0,,25.9,24.5,92,99460,0,0,446,0,0,0,0,0,0,0,200,3.1,10,0,0,0,0,0,0,0,0,0,0,0,0
2005,8,3,3,0,,25.6,24.6,95,99450,0,0,445,0,0,0,0,0,0,0,200,2.8,10,0,0,0,0,0,0,0,0,0,0,0,0
2005,8,3,4,0,,25.6,24.6,95,99450,0,0,445,0,0,0,0,0,0,0,200,2.6,10,0,0,0,0,0,0,0,0,0,0,0,0
2005,8,3,5,0,,25.5,24.6,95,99440,0,0,444,0,0,0,0,0,0,0,230,2.4,10,0,0,0,0,0,0,0,0,0,0,0,0
2005,8,3,6,0,,25.6,24.6,95,99440,0,0,445,0,0,0,0,0,0,0,230,2.3,10,0,0,0,0,0,0,0,0,0,0,0,0
2005,8,3,7,0,,25.4,24.5,96,99510,0,0,435,46,8,39,5184,596,4854,0,230,4.8,9,0,0,0,0,0,0,0,0,0,0,0,0
2005,8,3,8,0,,25.4,24.5,95,99570,0,0,428,119,49,102,16723,4064,13811,0,180,2.7,9,0,0,0,0,0,0,0,0,0,0,0,0
2005,8,3,9,0,,27.1,24.4,85,99640,0,0,431,271,118,208,35325,9814,27061,0,200,3.7,8,0,0,0,0,0,0,0,0,0,0,0,0
2005,8,3,10,0,,29,23.7,71,99650,0,0,444,386,126,298,47426,10507,37740,0,180,2.5,8,0,0,0,0,0,0,0,0,0,0,0,0
2005,8,3,11,0,,29.8,23.1,66,99670,0,0,452,427,92,350,51100,7803,43684,0,200,3.7,9,0,0,0,0,0,0,0,0,0,0,0,0
2005,8,3,12,0,,30.4,22.4,62,99680,0,0,458,472,87,392,53068,7629,46004,0,200,4.7,9,0,0,0,0,0,0,0,0,0,0,0,0
2005,8,3,13,0,,29.2,22.9,68,99680,0,0,448,436,62,377,48793,5430,44178,0,250,5,9,0,0,0,0,0,0,0,0,0,0,0,0
2005,8,3,14,0,,30.4,23.4,67,99680,0,0,452,506,99,413,54413,8643,48125,0,200,4.7,8,0,0,0,0,0,0,0,0,0,0,0,0
2005,8,3,15,0,,30.1,23.9,69,99680,0,0,448,437,86,362,46248,7401,42049,0,230,4,8,0,0,0,0,0,0,0,0,0,0,0,0
2005,8,3,16,0,,31.3,23.5,62,99670,0,0,450,487,193,342,45324,16115,39203,0,200,6.2,7,0,0,0,0,0,0,0,0,0,0,0,0
2005,8,3,17,0,,30.6,23.2,67,99650,0,0,441,343,164,247,29861,11705,27777,0,250,2.7,7,0,0,0,0,0,0,0,0,0,0,0,0
2005,8,3,18,0,,30.6,22.8,63,99640,0,0,438,272,319,142,0,0,0,0,200,4.6,6,0,0,0,0,0,0,0,0,0,0,0,0
2005,8,3,19,0,,30.1,23.1,66,99690,0,0,434,125,305,62,0,0,0,0,200,4,6,0,0,0,0,0,0,0,0,0,0,0,0
2005,8,3,20,0,,28.6,23.5,74,99750,0,0,424,25,10,16,0,0,0,0,180,3.8,5,0,0,0,0,0,0,0,0,0,0,0,0
2005,8,3,21,0,,28,23.8,78,99800,0,0,420,0,0,0,0,0,0,0,180,3,5,0,0,0,0,0,0,0,0,0,0,0,0
2005,8,3,22,0,,27.8,23.7,78,99820,0,0,416,0,0,0,0,0,0,0,180,3.5,4,0,0,0,0,0,0,0,0,0,0,0,0
2005,8,3,23,0,,27.7,23.6,77,99830,0,0,412,0,0,0,0,0,0,0,180,3.2,3,0,0,0,0,0,0,0,0,0,0,0,0
2005,8,3,24,0,,27.5,23.5,79,99850,0,0,407,0,0,0,0,0,0,0,180,3.9,2,0,0,0,0,0,0,0,0,0,0,0,0
2005,8,4,1,0,,27.6,23.5,79,99850,0,0,410,0,0,0,0,0,0,0,180,3.3,3,0,0,0,0,0,0,0,0,0,0,0,0
2005,8,4,2,0,,27.6,23.4,78,99850,0,0,412,0,0,0,0,0,0,0,180,3.4,3,0,0,0,0,0,0,0,0,0,0,0,0
2005,8,4,3,0,,27.4,23.4,79,99850,0,0,413,0,0,0,0,0,0,0,180,2.4,4,0,0,0,0,0,0,0,0,0,0,0,0
2005,8,4,4,0,,27.4,23.3,80,99870,0,0,411,0,0,0,0,0,0,0,180,3,3,0,0,0,0,0,0,0,0,0,0,0,0
2005,8,4,5,0,,27.4,23.3,79,99890,0,0,409,0,0,0,0,0,0,0,160,3.1,3,0,0,0,0,0,0,0,0,0,0,0,0
2005,8,4,6,0,,27.2,23.2,79,99910,0,0,405,0,0,0,0,0,0,0,180,2.6,2,0,0,0,0,0,0,0,0,0,0,0,0
2005,8,4,7,0,,27.4,23.4,80,99960,0,0,409,95,53,42,9027,4131,6746,0,160,1.6,3,0,0,0,0,0,0,0,0,0,0,0,0
2005,8,4,8,0,,29.7,23.7,70,100000,0,0,424,267,517,91,52216,54532,13225,0,200,1.7,3,0,0,0,0,0,0,0,0,0,0,0,0
2005,8,4,9,0,,29.6,23.9,71,100050,0,0,426,409,445,172,61709,42970,25586,0,180,3.2,4,0,0,0,0,0,0,0,0,0,0,0,0
2005,8,4,10,0,,30.2,23.4,68,100070,0,0,430,565,469,237,74242,44994,32826,0,200,4,4,0,0,0,0,0,0,0,0,0,0,0,0
2005,8,4,11,0,,31.8,23,60,100080,0,0,440,648,308,393,75434,25071,51641,0,200,5.7,5,0,0,0,0,0,0,0,0,0,0,0,0
2005,8,4,12,0,,32.4,22.5,56,100100,0,0,444,723,292,455,80665,23916,58558,0,180,4.1,5,0,0,0,0,0,0,0,0,0,0,0,0
2005,8,4,13,0,,32.8,22.6,56,100070,0,0,447,748,281,481,78150,23381,58320,0,200,4.3,5,0,0,0,0,0,0,0,0,0,0,0,0
2005,8,4,14,0,,33.2,22.7,55,100040,0,0,449,722,271,469,72800,22169,56715,0,180,3.9,5,0,0,0,0,0,0,0,0,0,0,0,0
2005,8,4,15,0,,32.7,22.8,56,100010,0,0,446,638,251,421,62048,19882,50816,0,160,3.7,5,0,0,0,0,0,0,0,0,0,0,0,0
2005,8,4,16,0,,32,23.1,58,100000,0,0,441,537,261,342,48048,18412,41103,0,160,4.1,5,0,0,0,0,0,0,0,0,0,0,0,0
2005,8,4,17,0,,31.5,23.3,61,99990,0,0,438,437,380,213,28332,16880,25375,0,180,4.9,4,0,0,0,0,0,0,0,0,0,0,0,0
2005,8,4,18,0,,31.8,23.6,62,99980,0,0,439,297,421,127,0,0,0,0,200,3.9,4,0,0,0,0,0,0,0,0,0,0,0,0
2005,8,4,19,0,,29.9,23.1,67,100050,0,0,425,145,427,59,0,0,0,0,160,4,3,0,0,0,0,0,0,0,0,0,0,0,0
2005,8,4,20,0,,28.6,22.7,72,100130,0,0,415,27,12,15,0,0,0,0,110,2.3,3,0,0,0,0,0,0,0,0,0,0,0,0
2005,8,4,21,0,,27.9,22.2,71,100200,0,0,407,0,0,0,0,0,0,0,160,1.8,2,0,0,0,0,0,0,0,0,0,0,0,0
2005,8,4,22,0,,27.5,22.3,74,100230,0,0,410,0,0,0,0,0,0,0,140,1,3,0,0,0,0,0,0,0,0,0,0,0,0
2005,8,4,23,0,,27.2,22.4,74,100260,0,0,413,0,0,0,0,0,0,0,160,0.8,5,0,0,0,0,0,0,0,0,0,0,0,0
2005,8,4,24,0,,26.8,22.5,77,100290,0,0,416,0,0,0,0,0,0,0,50,1.3,6,0,0,0,0,0,0,0,0,0,0,0,0
2005,8,5,1,0,,26.4,22.4,78,100270,0,0,410,0,0,0,0,0,0,0,70,1.7,5,0,0,0,0,0,0,0,0,0,0,0,0
2005,8,5,2,0,,25.8,22.2,81,100240,0,0,403,0,0,0,0,0,0,0,70,1.5,4,0,0,0,0,0,0,0,0,0,0,0,0
2005,8,5,3,0,,25.6,22.1,81,100220,0,0,399,0,0,0,0,0,0,0,70,1.3,3,0,0,0,0,0,0,0,0,0,0,0,0
2005,8,5,4,0,,25.2,21.9,82,100230,0,0,397,0,0,0,0,0,0,0,70,2.1,3,0,0,0,0,0,0,0,0,0,0,0,0
2005,8,5,5,0,,25,21.7,82,100240,0,0,397,0,0,0,0,0,0,0,20,0.8,4,0,0,0,0,0,0,0,0,0,0,0,0
2005,8,5,6,0,,24.8,21.5,82,100250,0,0,397,0,0,0,0,0,0,0,50,1.1,4,0,0,0,0,0,0,0,0,0,0,0,0
2005,8,5,7,0,,25.4,21.3,80,100240,0,0,395,95,56,39,8774,4622,6230,0,50,1.4,3,0,0,0,0,0,0,0,0,0,0,0,0
2005,8,5,8,0,,28,21.2,72,100230,0,0,403,281,597,79,56326,62807,11516,0,50,1.3,1,0,0,0,0,0,0,0,0,0,0,0,0
2005,8,5,9,0,,30.7,21,56,100220,0,0,408,485,708,109,77948,75439,14640,0,70,1.6,0,0,0,0,0,0,0,0,0,0,0,0,0
2005,8,5,10,0,,32.7,21,46,100190,0,0,419,671,759,141,91561,79560,18442,0,90,1.8,0,0,0,0,0,0,0,0,0,0,0,0,0
2005,8,5,11,0,,33.5,21,48,100170,0,0,424,786,704,202,93524,68724,28404,0,180,2.5,0,0,0,0,0,0,0,0,0,0,0,0,0
2005,8,5,12,0,,33.4,21,48,100140,0,0,423,830,601,280,89937,57549,36833,0,180,3.5,0,0,0,0,0,0,0,0,0,0,0,0,0
2005,8,5,13,0,,34.1,21.2,42,100120,0,0,433,820,500,345,83400,43725,46393,0,160,2.4,1,0,0,0,0,0,0,0,0,0,0,0,0
2005,8,5,14,0,,34.3,21.3,45,100100,0,0,439,819,538,317,76792,46544,43117,0,180,3.8,1,0,0,0,0,0,0,0,0,0,0,0,0
2005,8,5,15,0,,34,21.5,48,100080,0,0,441,724,483,308,62007,38501,40347,0,160,2.5,2,0,0,0,0,0,0,0,0,0,0,0,0
2005,8,5,16,0,,34.1,21.5,43,100090,0,0,438,633,540,231,44868,38375,30494,0,200,3.7,1,0,0,0,0,0,0,0,0,0,0,0,0
2005,8,5,17,0,,33,21.5,51,100090,0,0,427,480,523,173,25962,21790,22210,0,180,3.9,1,0,0,0,0,0,0,0,0,0,0,0,0
2005,8,5,18,0,,32.4,21.5,53,100100,0,0,418,316,514,110,0,0,0,0,160,2.2,0,0,0,0,0,0,0,0,0,0,0,0,0
2005,8,5,19,0,,31.1,21.2,54,100150,0,0,410,151,488,53,0,0,0,0,180,3,0,0,0,0,0,0,0,0,0,0,0,0,0
2005,8,5,20,0,,29.9,20.8,57,100200,0,0,403,30,13,17,0,0,0,0,200,3,0,0,0,0,0,0,0,0,0,0,0,0,0
2005,8,5,21,0,,29,20.5,60,100250,0,0,398,0,0,0,0,0,0,0,200,2.9,0,0,0,0,0,0,0,0,0,0,0,0,0
2005,8,5,22,0,,28.6,20.8,63,100270,0,0,396,0,0,0,0,0,0,0,0,0.1,0,0,0,0,0,0,0,0,0,0,0,0,0
2005,8,5,23,0,,28,21,67,100280,0,0,393,0,0,0,0,0,0,0,180,1,0,0,0,0,0,0,0,0,0,0,0,0,0
2005,8,5,24,0,,27.2,21.3,70,100300,0,0,390,0,0,0,0,0,0,0,180,0.6,0,0,0,0,0,0,0,0,0,0,0,0,0
2005,8,6,1,0,,26.7,21.2,71,100280,0,0,387,0,0,0,0,0,0,0,160,0.5,0,0,0,0,0,0,0,0,0,0,0,0,0
2005,8,6,2,0,,26.4,21.1,75,100250,0,0,385,0,0,0,0,0,0,0,70,0.9,0,0,0,0,0,0,0,0,0,0,0,0,0
2005,8,6,3,0,,25.8,21,75,100230,0,0,382,0,0,0,0,0,0,0,110,1.1,0,0,0,0,0,0,0,0,0,0,0,0,0
2005,8,6,4,0,,25.3,21.2,75,100210,0,0,389,0,0,0,0,0,0,0,50,2.2,1,0,0,0,0,0,0,0,0,0,0,0,0
2005,8,6,5,0,,24.8,21.3,79,100180,0,0,392,0,0,0,0,0,0,0,50,2.6,3,0,0,0,0,0,0,0,0,0,0,0,0
2005,8,6,6,0,,24.7,21.5,83,100160,0,0,396,0,0,0,0,0,0,0,50,2.7,4,0,0,0,0,0,0,0,0,0,0,0,0
2005,8,6,7,0,,25.7,21.8,80,100170,0,0,400,90,48,41,8709,3940,6547,0,20,0.6,3,0,0,0,0,0,0,0,0,0,0,0,0
2005,8,6,8,0,,28.3,22,71,100180,0,0,412,270,549,85,53529,57823,12367,0,90,1,3,0,0,0,0,0,0,0,0,0,0,0,0
2005,8,6,9,0,,30.9,22.3,60,100190,0,0,424,482,705,109,77955,75541,14673,0,20,0.6,2,0,0,0,0,0,0,0,0,0,0,0,0
2005,8,6,10,0,,30.8,22.6,65,100170,0,0,428,606,588,196,80448,57124,28032,0,200,2.7,3,0,0,0,0,0,0,0,0,0,0,0,0
2005,8,6,11,0,,31.9,22.8,61,100160,0,0,438,669,430,313,78852,37127,43728,0,270,1.5,4,0,0,0,0,0,0,0,0,0,0,0,0
2005,8,6,12,0,,31.8,23.1,60,100140,0,0,441,643,208,453,71425,17331,55462,0,70,0.8,5,0,0,0,0,0,0,0,0,0,0,0,0
2005,8,6,13,0,,33,22.7,53,100090,0,0,446,758,296,477,81448,23938,61232,0,140,2.2,4,0,0,0,0,0,0,0,0,0,0,0,0
2005,8,6,14,0,,34.1,22.4,51,100030,0,0,450,757,319,460,74550,26250,55613,0,200,2.5,4,0,0,0,0,0,0,0,0,0,0,0,0
2005,8,6,15,0,,33.8,22,50,99980,0,0,445,741,525,289,61549,41467,38321,0,180,3.6,3,0,0,0,0,0,0,0,0,0,0,0,0
2005,8,6,16,0,,32.9,22.4,54,99970,0,0,444,580,407,278,46748,28124,36291,0,180,4.1,4,0,0,0,0,0,0,0,0,0,0,0,0
2005,8,6,17,0,,31.6,22.7,60,99970,0,0,440,401,272,242,30312,11625,28345,0,200,4.3,5,0,0,0,0,0,0,0,0,0,0,0,0
2005,8,6,18,0,,31.4,23.1,61,99960,0,0,443,249,257,147,0,0,0,0,180,4.1,6,0,0,0,0,0,0,0,0,0,0,0,0
2005,8,6,19,0,,29.8,22.6,66,100020,0,0,430,122,332,57,0,0,0,0,200,2.8,5,0,0,0,0,0,0,0,0,0,0,0,0
2005,8,6,20,0,,28.7,22.2,65,100090,0,0,421,23,8,14,0,0,0,0,200,3.7,5,0,0,0,0,0,0,0,0,0,0,0,0
2005,8,6,21,0,,27.9,21.7,69,100150,0,0,414,0,0,0,0,0,0,0,200,1.1,4,0,0,0,0,0,0,0,0,0,0,0,0
2005,8,6,22,0,,27.7,22.1,70,100160,0,0,413,0,0,0,0,0,0,0,200,0.8,4,0,0,0,0,0,0,0,0,0,0,0,0
2005,8,6,23,0,,26.9,22.4,77,100170,0,0,409,0,0,0,0,0,0,0,50,1.7,4,0,0,0,0,0,0,0,0,0,0,0,0
2005,8,6,24,0,,26.5,22.8,80,100180,0,0,408,0,0,0,0,0,0,0,110,0.7,4,0,0,0,0,0,0,0,0,0,0,0,0
2005,8,7,1,0,,26,22.7,80,100160,0,0,406,0,0,0,0,0,0,0,90,0.9,4,0,0,0,0,0,0,0,0,0,0,0,0
2005,8,7,2,0,,25.6,22.6,79,100140,0,0,404,0,0,0,0,0,0,0,180,0.8,5,0,0,0,0,0,0,0,0,0,0,0,0
2005,8,7,3,0,,25.2,22.5,85,100120,0,0,403,0,0,0,0,0,0,0,50,1.1,5,0,0,0,0,0,0,0,0,0,0,0,0
2005,8,7,4,0,,24.6,22.3,86,100130,0,0,402,0,0,0,0,0,0,0,70,2.1,6,0,0,0,0,0,0,0,0,0,0,0,0
2005,8,7,5,0,,24.4,22.1,87,100140,0,0,403,0,0,0,0,0,0,0,20,1.5,6,0,0,0,0,0,0,0,0,0,0,0,0
2005,8,7,6,0,,24.2,21.9,87,100150,0,0,405,0,0,0,0,0,0,0,50,1.4,7,0,0,0,0,0,0,0,0,0,0,0,0
2005,8,7,7,0,,25.1,22.2,85,100180,0,0,415,55,14,41,5681,1143,5056,0,50,2.2,8,0,0,0,0,0,0,0,0,0,0,0,0
2005,8,7,8,0,,26.9,22.5,77,100200,0,0,430,167,141,120,25747,11610,17501,0,50,2.1,8,0,0,0,0,0,0,0,0,0,0,0,0
2005,8,7,9,0,,27.1,22.8,77,100230,0,0,439,230,78,189,30027,6716,24411,0,70,1.8,9,0,0,0,0,0,0,0,0,0,0,0,0
2005,8,7,10,0,,28.4,22.1,70,100220,0,0,445,319,77,266,39603,6631,33528,0,160,1.1,9,0,0,0,0,0,0,0,0,0,0,0,0
2005,8,7,11,0,,29.3,21.5,66,100210,0,0,450,390,74,329,44934,6511,38785,0,200,2.2,9,0,0,0,0,0,0,0,0,0,0,0,0
2005,8,7,12,0,,29.4,20.8,60,100200,0,0,450,428,69,366,48396,6083,42804,0,140,2.1,9,0,0,0,0,0,0,0,0,0,0,0,0
2005,8,7,13,0,,29.8,21.1,60,100160,0,0,456,461,74,391,51109,6587,45559,0,160,3.9,9,0,0,0,0,0,0,0,0,0,0,0,0
2005,8,7,14,0,,30.2,21.3,59,100120,0,0,463,333,33,302,37423,2855,35369,0,180,3.6,10,0,0,0,0,0,0,0,0,0,0,0,0
2005,8,7,15,0,,30.5,21.6,59,100080,0,0,470,305,34,277,32056,2552,30633,0,160,2.2,10,0,0,0,0,0,0,0,0,0,0,0,0
2005,8,7,16,0,,26.7,21.7,74,100080,0,0,447,185,14,175,19395,843,19084,0,200,3.8,10,0,0,0,0,0,0,0,0,0,0,0,0
2005,8,7,17,0,,27.4,21.9,70,100080,0,0,451,148,17,139,14221,769,14093,0,180,2.7,10,0,0,0,0,0,0,0,0,0,0,0,0
2005,8,7,18,0,,27.2,22,73,100080,0,0,450,94,16,88,0,0,0,0,180,2.7,10,0,0,0,0,0,0,0,0,0,0,0,0
2005,8,7,19,0,,26.7,22.1,75,100130,0,0,448,50,26,45,0,0,0,0,160,1.5,10,0,0,0,0,0,0,0,0,0,0,0,0
2005,8,7,20,0,,27.2,22.3,73,100170,0,0,451,5,0,5,0,0,0,0,200,0.5,10,0,0,0,0,0,0,0,0,0,0,0,0
2005,8,7,21,0,,27.4,22.4,74,100220,0,0,452,0,0,0,0,0,0,0,180,1.5,10,0,0,0,0,0,0,0,0,0,0,0,0
2005,8,7,22,0,,26.8,22.7,80,100210,0,0,449,0,0,0,0,0,0,0,200,3,10,0,0,0,0,0,0,0,0,0,0,0,0
2005,8,7,23,0,,24.8,22.9,93,100200,0,0,437,0,0,0,0,0,0,0,70,2.3,10,0,0,0,0,0,0,0,0,0,0,0,0
2005,8,7,24,0,,24.5,23.2,93,100190,0,0,436,0,0,0,0,0,0,0,50,2.3,10,0,0,0,0,0,0,0,0,0,0,0,0
2005,8,8,1,0,,24.8,23.1,92,100160,0,0,438,0,0,0,0,0,0,0,50,1.2,10,0,0,0,0,0,0,0,0,0,0,0,0
2005,8,8,2,0,,25.4,23.1,87,100130,0,0,441,0,0,0,0,0,0,0,140,1.4,10,0,0,0,0,0,0,0,0,0,0,0,0
2005,8,8,3,0,,25.5,23,86,100100,0,0,442,0,0,0,0,0,0,0,110,1.4,10,0,0,0,0,0,0,0,0,0,0,0,0
2005,8,8,4,0,,25.2,23.1,88,100110,0,0,432,0,0,0,0,0,0,0,50,1,9,0,0,0,0,0,0,0,0,0,0,0,0
2005,8,8,5,0,,25.3,23.2,88,100120,0,0,425,0,0,0,0,0,0,0,20,0.9,9,0,0,0,0,0,0,0,0,0,0,0,0
2005,8,8,6,0,,25.2,23.3,89,100130,0,0,419,0,0,0,0,0,0,0,20,1.5,8,0,0,0,0,0,0,0,0,0,0,0,0
2005,8,8,7,0,,25.9,23.7,87,100150,0,0,424,53,13,40,5537,1063,4957,0,90,0.8,8,0,0,0,0,0,0,0,0,0,0,0,0
2005,8,8,8,0,,27.7,24,79,100170,0,0,434,166,140,119,25619,11165,17708,0,180,2.3,8,0,0,0,0,0,0,0,0,0,0,0,0
2005,8,8,9,0,,29.3,24.4,75,100190,0,0,444,296,161,211,40696,12779,30030,0,180,2.2,8,0,0,0,0,0,0,0,0,0,0,0,0
2005,8,8,10,0,,30,24.1,71,100150,0,0,448,401,146,300,49183,12118,38101,0,160,3.8,8,0,0,0,0,0,0,0,0,0,0,0,0
2005,8,8,11,0,,30,23.8,69,100120,0,0,448,463,119,365,54935,9878,45622,0,180,4.5,8,0,0,0,0,0,0,0,0,0,0,0,0
2005,8,8,12,0,,30.9,23.5,65,100080,0,0,453,517,115,412,59762,9554,50995,0,180,5.4,8,0,0,0,0,0,0,0,0,0,0,0,0
2005,8,8,13,0,,30.7,23.8,68,100020,0,0,447,591,146,453,65655,11964,55599,0,180,6.2,7,0,0,0,0,0,0,0,0,0,0,0,0
2005,8,8,14,0,,31.6,24,66,99960,0,0,448,594,158,447,63828,12670,54745,0,180,5.4,7,0,0,0,0,0,0,0,0,0,0,0,0
2005,8,8,15,0,,31.2,24.3,67,99900,0,0,443,568,185,410,56257,15870,47447,0,180,4.7,6,0,0,0,0,0,0,0,0,0,0,0,0
2005,8,8,16,0,,31,24.2,67,99900,0,0,445,456,169,332,43167,13857,38094,0,180,5.5,7,0,0,0,0,0,0,0,0,0,0,0,0
2005,8,8,17,0,,29.1,24.1,75,99890,0,0,438,297,117,230,27255,7988,25954,0,160,3.7,7,0,0,0,0,0,0,0,0,0,0,0,0
2005,8,8,18,0,,28.9,24,75,99890,0,0,441,180,103,139,0,0,0,0,180,4.5,8,0,0,0,0,0,0,0,0,0,0,0,0
2005,8,8,19,0,,28.2,24.3,79,99930,0,0,444,61,47,52,0,0,0,0,160,4.3,9,0,0,0,0,0,0,0,0,0,0,0,0
2005,8,8,20,0,,26.1,24.7,94,99970,0,0,439,6,0,6,0,0,0,0,200,3.6,9,0,0,0,0,0,0,0,0,0,0,0,0
2005,8,8,21,0,,26.1,25,94,100010,0,0,448,0,0,0,0,0,0,0,180,1.8,10,0,0,0,0,0,0,0,0,0,0,0,0
2005,8,8,22,0,,26.3,24.8,90,100000,0,0,440,0,0,0,0,0,0,0,180,2.3,9,0,0,0,0,0,0,0,0,0,0,0,0
2005,8,8,23,0,,26.3,24.6,90,100000,0,0,433,0,0,0,0,0,0,0,180,1.7,9,0,0,0,0,0,0,0,0,0,0,0,0
2005,8,8,24,0,,26.6,24.4,88,99990,0,0,429,0,0,0,0,0,0,0,180,3.3,8,0,0,0,0,0,0,0,0,0,0,0,0
2005,8,9,1,0,,26.2,24.2,90,99970,0,0,432,0,0,0,0,0,0,0,200,3.4,9,0,0,0,0,0,0,0,0,0,0,0,0
2005,8,9,2,0,,26.5,24.1,87,99960,0,0,440,0,0,0,0,0,0,0,180,3.3,9,0,0,0,0,0,0,0,0,0,0,0,0
2005,8,9,3,0,,26.8,23.9,84,99940,0,0,451,0,0,0,0,0,0,0,180,3.3,10,0,0,0,0,0,0,0,0,0,0,0,0
2005,8,9,4,0,,26.7,23.7,85,99950,0,0,450,0,0,0,0,0,0,0,180,2.8,10,0,0,0,0,0,0,0,0,0,0,0,0
2005,8,9,5,0,,26.6,23.6,84,99950,0,0,449,0,0,0,0,0,0,0,180,3.8,10,0,0,0,0,0,0,0,0,0,0,0,0
2005,8,9,6,0,,26.7,23.4,82,99960,0,0,449,0,0,0,0,0,0,0,180,3.1,10,0,0,0,0,0,0,0,0,0,0,0,0
2005,8,9,7,0,,26.9,23.7,83,100000,0,0,451,31,3,28,3694,98,3641,0,200,4.3,10,0,0,0,0,0,0,0,0,0,0,0,0
2005,8,9,8,0,,27,23.9,83,100050,0,0,452,102,36,90,14326,3002,12204,0,200,3.9,10,0,0,0,0,0,0,0,0,0,0,0,0
2005,8,9,9,0,,26.9,24.2,85,100090,0,0,452,154,26,140,18894,2182,17076,0,230,4.7,10,0,0,0,0,0,0,0,0,0,0,0,0
2005,8,9,10,0,,25.9,24.6,94,100100,0,0,438,254,42,225,30305,3482,27126,0,200,3.4,9,0,0,0,0,0,0,0,0,0,0,0,0
2005,8,9,11,0,,26.5,25,93,100100,0,0,435,306,39,274,35933,3230,32893,0,200,4,9,0,0,0,0,0,0,0,0,0,0,0,0
2005,8,9,12,0,,29.4,25.4,79,100110,0,0,446,511,112,409,59639,8971,51423,0,200,5.3,8,0,0,0,0,0,0,0,0,0,0,0,0
2005,8,9,13,0,,30.1,24.8,71,100090,0,0,447,562,128,441,63280,10268,54670,0,230,5.8,8,0,0,0,0,0,0,0,0,0,0,0,0
2005,8,9,14,0,,30.8,24.1,66,100070,0,0,448,637,194,457,67003,15484,55938,0,230,6.4,7,0,0,0,0,0,0,0,0,0,0,0,0
2005,8,9,15,0,,30.6,23.5,66,100050,0,0,444,543,164,403,54357,14194,46515,0,230,6.2,7,0,0,0,0,0,0,0,0,0,0,0,0
2005,8,9,16,0,,30.7,23.5,67,100050,0,0,439,498,220,336,46005,15136,40509,0,200,5.1,6,0,0,0,0,0,0,0,0,0,0,0,0
2005,8,9,17,0,,29.2,23.6,71,100040,0,0,427,399,283,236,29544,11171,27761,0,230,5.3,5,0,0,0,0,0,0,0,0,0,0,0,0
2005,8,9,18,0,,28.9,23.6,73,100040,0,0,422,275,371,130,0,0,0,0,230,4.4,4,0,0,0,0,0,0,0,0,0,0,0,0
2005,8,9,19,0,,28.2,23.9,77,100080,0,0,420,116,331,54,0,0,0,0,230,4,5,0,0,0,0,0,0,0,0,0,0,0,0
2005,8,9,20,0,,27.1,24.1,85,100130,0,0,417,19,6,13,0,0,0,0,230,3.7,5,0,0,0,0,0,0,0,0,0,0,0,0
2005,8,9,21,0,,26.6,24.4,88,100170,0,0,417,0,0,0,0,0,0,0,200,4.2,6,0,0,0,0,0,0,0,0,0,0,0,0
2005,8,9,22,0,,26.5,24.3,88,100180,0,0,416,0,0,0,0,0,0,0,200,3.6,6,0,0,0,0,0,0,0,0,0,0,0,0
2005,8,9,23,0,,26.5,24.3,87,100180,0,0,416,0,0,0,0,0,0,0,200,3.4,6,0,0,0,0,0,0,0,0,0,0,0,0
2005,8,9,24,0,,26.4,24.2,88,100190,0,0,416,0,0,0,0,0,0,0,230,3.3,6,0,0,0,0,0,0,0,0,0,0,0,0
2005,8,10,1,0,,26.5,24.2,86,100180,0,0,416,0,0,0,0,0,0,0,230,3.4,6,0,0,0,0,0,0,0,0,0,0,0,0
2005,8,10,2,0,,26.2,24.1,87,100160,0,0,414,0,0,0,0,0,0,0,200,2.5,6,0,0,0,0,0,0,0,0,0,0,0,0
2005,8,10,3,0,,26,24.1,89,100150,0,0,413,0,0,0,0,0,0,0,200,2.4,6,0,0,0,0,0,0,0,0,0,0,0,0
2005,8,10,4,0,,26,24.1,89,100150,0,0,416,0,0,0,0,0,0,0,200,2.3,7,0,0,0,0,0,0,0,0,0,0,0,0
2005,8,10,5,0,,26.1,24,87,100150,0,0,421,0,0,0,0,0,0,0,200,2.2,7,0,0,0,0,0,0,0,0,0,0,0,0
2005,8,10,6,0,,25.9,24,89,100150,0,0,424,0,0,0,0,0,0,0,200,3,8,0,0,0,0,0,0,0,0,0,0,0,0
2005,8,10,7,0,,26.4,24.2,87,100160,0,0,433,39,6,33,4395,471,4140,0,230,1.6,9,0,0,0,0,0,0,0,0,0,0,0,0
2005,8,10,8,0,,27.1,24.3,84,100180,0,0,444,131,75,106,18782,6248,14376,0,200,3.6,9,0,0,0,0,0,0,0,0,0,0,0,0
2005,8,10,9,0,,27.8,24.5,82,100190,0,0,458,162,31,146,19836,2521,17739,0,200,2.7,10,0,0,0,0,0,0,0,0,0,0,0,0
2005,8,10,10,0,,28.2,24.6,80,100180,0,0,460,238,35,214,28449,2932,25777,0,200,4.8,10,0,0,0,0,0,0,0,0,0,0,0,0
2005,8,10,11,0,,28.9,24.6,77,100160,0,0,464,285,32,259,33516,2675,31003,0,230,4.2,10,0,0,0,0,0,0,0,0,0,0,0,0
2005,8,10,12,0,,29.2,24.7,77,100150,0,0,466,319,31,291,37079,2625,34680,0,230,3.8,10,0,0,0,0,0,0,0,0,0,0,0,0
2005,8,10,13,0,,28.6,24.7,77,100120,0,0,463,304,24,281,35141,2021,33451,0,200,5.2,10,0,0,0,0,0,0,0,0,0,0,0,0
2005,8,10,14,0,,29.1,24.8,78,100100,0,0,466,296,24,274,32436,1576,31314,0,230,5,10,0,0,0,0,0,0,0,0,0,0,0,0
2005,8,10,15,0,,27.9,24.8,83,100070,0,0,459,240,18,225,25817,1122,25200,0,230,5.4,10,0,0,0,0,0,0,0,0,0,0,0,0
2005,8,10,16,0,,28,24.5,82,100040,0,0,459,209,20,195,21323,1232,20879,0,230,3.4,10,0,0,0,0,0,0,0,0,0,0,0,0
2005,8,10,17,0,,27.7,24.3,80,100020,0,0,457,176,28,160,16110,1530,15871,0,200,6,10,0,0,0,0,0,0,0,0,0,0,0,0
2005,8,10,18,0,,27.4,24,82,99990,0,0,454,110,27,99,0,0,0,0,230,3.9,10,0,0,0,0,0,0,0,0,0,0,0,0
2005,8,10,19,0,,27.2,23.8,82,100020,0,0,453,49,28,44,0,0,0,0,230,3.9,10,0,0,0,0,0,0,0,0,0,0,0,0
2005,8,10,20,0,,26.9,23.7,83,100060,0,0,451,3,0,3,0,0,0,0,200,3.9,10,0,0,0,0,0,0,0,0,0,0,0,0
2005,8,10,21,0,,26.8,23.5,82,100090,0,0,450,0,0,0,0,0,0,0,200,3.5,10,0,0,0,0,0,0,0,0,0,0,0,0
2005,8,10,22,0,,26.8,23.8,83,100100,0,0,451,0,0,0,0,0,0,0,200,2.8,10,0,0,0,0,0,0,0,0,0,0,0,0
2005,8,10,23,0,,26.5,24.1,87,100100,0,0,449,0,0,0,0,0,0,0,200,4.5,10,0,0,0,0,0,0,0,0,0,0,0,0
2005,8,10,24,0,,26.3,24.4,89,100110,0,0,448,0,0,0,0,0,0,0,200,4,10,0,0,0,0,0,0,0,0,0,0,0,0
2005,8,11,1,0,,26.3,24.5,88,100090,0,0,448,0,0,0,0,0,0,0,230,2.7,10,0,0,0,0,0,0,0,0,0,0,0,0
2005,8,11,2,0,,25.8,24.5,93,100080,0,0,446,0,0,0,0,0,0,0,230,4,10,0,0,0,0,0,0,0,0,0,0,0,0
2005,8,11,3,0,,25.4,24.6,95,100060,0,0,443,0,0,0,0,0,0,0,200,2.4,10,0,0,0,0,0,0,0,0,0,0,0,0
2005,8,11,4,0,,25.4,24.3,94,100070,0,0,443,0,0,0,0,0,0,0,230,1.4,10,0,0,0,0,0,0,0,0,0,0,0,0
2005,8,11,5,0,,25.4,24.1,93,100090,0,0,443,0,0,0,0,0,0,0,200,1.5,10,0,0,0,0,0,0,0,0,0,0,0,0
2005,8,11,6,0,,25.4,23.8,91,100100,0,0,442,0,0,0,0,0,0,0,200,2.3,10,0,0,0,0,0,0,0,0,0,0,0,0
2005,8,11,7,0,,25.7,23.5,90,100130,0,0,435,39,6,33,4405,507,4132,0,200,3.6,9,0,0,0,0,0,0,0,0,0,0,0,0
2005,8,11,8,0,,26.5,23.3,86,100170,0,0,432,135,83,108,20724,6698,16012,0,230,4,9,0,0,0,0,0,0,0,0,0,0,0,0
2005,8,11,9,0,,27.4,23,77,100200,0,0,431,273,133,204,37567,10892,28528,0,230,4.6,8,0,0,0,0,0,0,0,0,0,0,0,0
2005,8,11,10,0,,27.5,23.3,78,100210,0,0,438,305,70,257,38061,5908,32685,0,230,3.2,9,0,0,0,0,0,0,0,0,0,0,0,0
2005,8,11,11,0,,27,23.6,80,100210,0,0,443,348,56,302,40393,4753,35936,0,200,4.8,9,0,0,0,0,0,0,0,0,0,0,0,0
2005,8,11,12,0,,27,23.9,83,100220,0,0,452,274,21,255,32049,1741,30461,0,200,3.2,10,0,0,0,0,0,0,0,0,0,0,0,0
2005,8,11,13,0,,27.6,23.7,82,100180,0,0,451,286,21,266,32417,1287,31343,0,250,2.5,10,0,0,0,0,0,0,0,0,0,0,0,0
2005,8,11,14,0,,28.1,23.6,74,100150,0,0,449,411,59,356,45324,5130,41684,0,230,4.9,9,0,0,0,0,0,0,0,0,0,0,0,0
2005,8,11,15,0,,30.2,23.4,67,100110,0,0,458,418,81,349,44245,6984,40425,0,200,4.6,9,0,0,0,0,0,0,0,0,0,0,0,0
2005,8,11,16,0,,29.3,23.4,69,100110,0,0,452,338,76,283,34727,6210,32510,0,230,4.4,9,0,0,0,0,0,0,0,0,0,0,0,0
2005,8,11,17,0,,28.6,23.4,74,100110,0,0,448,232,61,197,22854,4061,22234,0,200,3.6,9,0,0,0,0,0,0,0,0,0,0,0,0
2005,8,11,18,0,,27.8,23.4,77,100110,0,0,443,140,55,119,0,0,0,0,200,4.6,9,0,0,0,0,0,0,0,0,0,0,0,0
2005,8,11,19,0,,27.5,23.4,79,100150,0,0,442,61,53,51,0,0,0,0,230,3.3,9,0,0,0,0,0,0,0,0,0,0,0,0
2005,8,11,20,0,,27,23.5,81,100200,0,0,439,7,0,6,0,0,0,0,200,3.4,9,0,0,0,0,0,0,0,0,0,0,0,0
2005,8,11,21,0,,26.8,23.5,82,100240,0,0,438,0,0,0,0,0,0,0,230,2.5,9,0,0,0,0,0,0,0,0,0,0,0,0
2005,8,11,22,0,,26.6,23.3,82,100260,0,0,436,0,0,0,0,0,0,0,200,2.7,9,0,0,0,0,0,0,0,0,0,0,0,0
2005,8,11,23,0,,26.5,23,80,100280,0,0,435,0,0,0,0,0,0,0,180,1.8,9,0,0,0,0,0,0,0,0,0,0,0,0
2005,8,11,24,0,,26.5,22.8,80,100300,0,0,435,0,0,0,0,0,0,0,200,2,9,0,0,0,0,0,0,0,0,0,0,0,0
2005,8,12,1,0,,26.5,22.9,81,100310,0,0,426,0,0,0,0,0,0,0,180,0.7,8,0,0,0,0,0,0,0,0,0,0,0,0
2005,8,12,2,0,,26.3,23,82,100310,0,0,418,0,0,0,0,0,0,0,200,2.6,7,0,0,0,0,0,0,0,0,0,0,0,0
2005,8,12,3,0,,26.2,23.1,83,100320,0,0,413,0,0,0,0,0,0,0,200,1.1,6,0,0,0,0,0,0,0,0,0,0,0,0
2005,8,12,4,0,,26.3,23.2,82,100340,0,0,414,0,0,0,0,0,0,0,200,2.6,6,0,0,0,0,0,0,0,0,0,0,0,0
2005,8,12,5,0,,26,23.3,87,100370,0,0,412,0,0,0,0,0,0,0,230,3.1,6,0,0,0,0,0,0,0,0,0,0,0,0
2005,8,12,6,0,,26.1,23.4,85,100390,0,0,413,0,0,0,0,0,0,0,200,3.3,6,0,0,0,0,0,0,0,0,0,0,0,0
2005,8,12,7,0,,26.4,23.6,84,100420,0,0,418,58,20,38,6225,1644,5340,0,230,2.2,7,0,0,0,0,0,0,0,0,0,0,0,0
2005,8,12,8,0,,27.4,23.8,81,100460,0,0,428,185,213,116,31614,18145,18878,0,200,4.5,7,0,0,0,0,0,0,0,0,0,0,0,0
2005,8,12,9,0,,27.8,24,80,100490,0,0,435,265,123,201,36708,9893,28514,0,200,3.4,8,0,0,0,0,0,0,0,0,0,0,0,0
2005,8,12,10,0,,28.8,23.7,73,100470,0,0,433,422,175,302,53935,14142,41094,0,230,3.6,7,0,0,0,0,0,0,0,0,0,0,0,0
2005,8,12,11,0,,30.3,23.4,66,100450,0,0,437,594,249,390,70414,20161,51544,0,230,3.9,6,0,0,0,0,0,0,0,0,0,0,0,0
2005,8,12,12,0,,31.5,23.1,61,100430,0,0,440,711,293,446,79461,23698,57896,0,230,3.2,5,0,0,0,0,0,0,0,0,0,0,0,0
2005,8,12,13,0,,32.3,23,59,100400,0,0,443,741,288,471,79970,23192,60675,0,200,3.4,5,0,0,0,0,0,0,0,0,0,0,0,0
2005,8,12,14,0,,32.4,22.9,55,100380,0,0,442,741,313,454,73029,25512,54989,0,230,4.1,4,0,0,0,0,0,0,0,0,0,0,0,0
2005,8,12,15,0,,32.7,22.8,56,100350,0,0,443,677,326,401,62373,25632,48429,0,230,4.1,4,0,0,0,0,0,0,0,0,0,0,0,0
2005,8,12,16,0,,32.8,22.9,54,100340,0,0,444,568,409,270,45172,27268,35526,0,200,3.8,4,0,0,0,0,0,0,0,0,0,0,0,0
2005,8,12,17,0,,32,23.1,60,100340,0,0,439,434,426,192,26534,13835,24470,0,230,3.7,4,0,0,0,0,0,0,0,0,0,0,0,0
2005,8,12,18,0,,30.8,23.2,64,100330,0,0,432,271,381,125,0,0,0,0,230,4.1,4,0,0,0,0,0,0,0,0,0,0,0,0
2005,8,12,19,0,,29.4,23.4,72,100390,0,0,426,114,300,60,0,0,0,0,200,3.3,4,0,0,0,0,0,0,0,0,0,0,0,0
2005,8,12,20,0,,28.2,23.6,77,100460,0,0,420,15,4,11,0,0,0,0,230,3.9,5,0,0,0,0,0,0,0,0,0,0,0,0
2005,8,12,21,0,,27.5,23.8,80,100520,0,0,418,0,0,0,0,0,0,0,230,2.4,5,0,0,0,0,0,0,0,0,0,0,0,0
2005,8,12,22,0,,26.7,23.7,85,100550,0,0,413,0,0,0,0,0,0,0,230,3.1,5,0,0,0,0,0,0,0,0,0,0,0,0
2005,8,12,23,0,,26.4,23.7,85,100580,0,0,411,0,0,0,0,0,0,0,230,2.7,5,0,0,0,0,0,0,0,0,0,0,0,0
2005,8,12,24,0,,26.1,23.6,86,100610,0,0,410,0,0,0,0,0,0,0,230,3.2,5,0,0,0,0,0,0,0,0,0,0,0,0
2005,8,13,1,0,,26.2,23.7,86,100590,0,0,411,0,0,0,0,0,0,0,200,1.7,5,0,0,0,0,0,0,0,0,0,0,0,0
2005,8,13,2,0,,26.2,23.8,87,100570,0,0,413,0,0,0,0,0,0,0,200,1.8,6,0,0,0,0,0,0,0,0,0,0,0,0
2005,8,13,3,0,,26.2,23.9,87,100550,0,0,414,0,0,0,0,0,0,0,200,0.7,6,0,0,0,0,0,0,0,0,0,0,0,0
2005,8,13,4,0,,26.4,23.9,85,100550,0,0,415,0,0,0,0,0,0,0,160,0.5,6,0,0,0,0,0,0,0,0,0,0,0,0
2005,8,13,5,0,,26.1,23.8,87,100550,0,0,413,0,0,0,0,0,0,0,180,0.4,6,0,0,0,0,0,0,0,0,0,0,0,0
2005,8,13,6,0,,26,23.8,88,100550,0,0,413,0,0,0,0,0,0,0,250,0.6,6,0,0,0,0,0,0,0,0,0,0,0,0
2005,8,13,7,0,,26.3,23.8,88,100570,0,0,415,58,22,37,6165,1776,5214,0,0,0,6,0,0,0,0,0,0,0,0,0,0,0,0
2005,8,13,8,0,,27.5,23.8,82,100580,0,0,421,196,264,111,33978,22448,18260,0,70,0.7,6,0,0,0,0,0,0,0,0,0,0,0,0
2005,8,13,9,0,,28.7,23.8,75,100600,0,0,428,340,263,204,49355,22436,30811,0,270,1,6,0,0,0,0,0,0,0,0,0,0,0,0
2005,8,13,10,0,,29.8,23.7,71,100590,0,0,433,477,255,303,59839,20534,41229,0,230,1.8,6,0,0,0,0,0,0,0,0,0,0,0,0
2005,8,13,11,0,,30,23.6,70,100590,0,0,433,604,265,388,71346,21318,51433,0,230,2.4,5,0,0,0,0,0,0,0,0,0,0,0,0
2005,8,13,12,0,,31.1,23.5,64,100580,0,0,438,673,250,448,76618,20058,58406,0,270,2.5,5,0,0,0,0,0,0,0,0,0,0,0,0
2005,8,13,13,0,,31.9,23.6,59,100560,0,0,440,733,280,470,76517,22939,57486,0,250,2.7,4,0,0,0,0,0,0,0,0,0,0,0,0
2005,8,13,14,0,,32.4,23.6,57,100540,0,0,441,722,291,456,71993,23387,55517,0,270,2,4,0,0,0,0,0,0,0,0,0,0,0,0
2005,8,13,15,0,,32.8,23.7,59,100520,0,0,441,683,424,325,60645,31924,43372,0,290,1.5,3,0,0,0,0,0,0,0,0,0,0,0,0
2005,8,13,16,0,,32,23.4,62,100500,0,0,437,576,436,260,44485,28652,34443,0,290,1.9,3,0,0,0,0,0,0,0,0,0,0,0,0
2005,8,13,17,0,,31.3,23,65,100480,0,0,434,406,323,223,27843,11835,26120,0,270,1.6,4,0,0,0,0,0,0,0,0,0,0,0,0
2005,8,13,18,0,,31.6,22.7,59,100460,0,0,436,270,391,122,0,0,0,0,290,1.7,4,0,0,0,0,0,0,0,0,0,0,0,0
2005,8,13,19,0,,30.1,23.1,66,100480,0,0,427,113,319,58,0,0,0,0,360,1.5,4,0,0,0,0,0,0,0,0,0,0,0,0
2005,8,13,20,0,,28.6,23.4,75,100490,0,0,418,16,5,11,0,0,0,0,320,0.6,3,0,0,0,0,0,0,0,0,0,0,0,0
2005,8,13,21,0,,28,23.8,78,100510,0,0,414,0,0,0,0,0,0,0,320,0.3,3,0,0,0,0,0,0,0,0,0,0,0,0
2005,8,13,22,0,,27.4,23.8,80,100520,0,0,411,0,0,0,0,0,0,0,0,0.2,3,0,0,0,0,0,0,0,0,0,0,0,0
2005,8,13,23,0,,27.2,23.8,81,100530,0,0,409,0,0,0,0,0,0,0,340,0.8,3,0,0,0,0,0,0,0,0,0,0,0,0
2005,8,13,24,0,,26.7,23.8,84,100540,0,0,407,0,0,0,0,0,0,0,270,1.6,3,0,0,0,0,0,0,0,0,0,0,0,0
2005,8,14,1,0,,26.5,23.8,85,100530,0,0,408,0,0,0,0,0,0,0,250,1,4,0,0,0,0,0,0,0,0,0,0,0,0
2005,8,14,2,0,,26.2,23.9,88,100520,0,0,408,0,0,0,0,0,0,0,270,1.2,4,0,0,0,0,0,0,0,0,0,0,0,0
2005,8,14,3,0,,26.1,23.9,88,100510,0,0,410,0,0,0,0,0,0,0,320,0.5,5,0,0,0,0,0,0,0,0,0,0,0,0
2005,8,14,4,0,,26,23.9,87,100510,0,0,409,0,0,0,0,0,0,0,270,0.7,5,0,0,0,0,0,0,0,0,0,0,0,0
2005,8,14,5,0,,26,23.8,87,100520,0,0,409,0,0,0,0,0,0,0,0,0,5,0,0,0,0,0,0,0,0,0,0,0,0
2005,8,14,6,0,,25.7,23.8,89,100520,0,0,408,0,0,0,0,0,0,0,0,0,5,0,0,0,0,0,0,0,0,0,0,0,0
2005,8,14,7,0,,25.8,23.7,89,100530,0,0,407,63,29,34,6114,2367,4849,0,340,0.9,5,0,0,0,0,0,0,0,0,0,0,0,0
2005,8,14,8,0,,26.7,23.7,84,100540,0,0,411,215,334,109,40187,32420,17544,0,0,0.2,4,0,0,0,0,0,0,0,0,0,0,0,0
2005,8,14,9,0,,28.4,23.6,75,100550,0,0,419,384,413,171,58368,39923,25440,0,50,0.6,4,0,0,0,0,0,0,0,0,0,0,0,0
2005,8,14,10,0,,29.7,23.2,67,100510,0,0,426,542,450,235,69586,38857,34438,0,290,1.4,4,0,0,0,0,0,0,0,0,0,0,0,0
2005,8,14,11,0,,30.6,22.7,63,100480,0,0,431,658,435,304,77653,37630,42576,0,340,1.3,4,0,0,0,0,0,0,0,0,0,0,0,0
2005,8,14,12,0,,31.8,22.3,57,100440,0,0,437,729,323,438,80507,26601,56411,0,340,1.6,4,0,0,0,0,0,0,0,0,0,0,0,0
2005,8,14,13,0,,32.5,22.2,56,100380,0,0,446,731,280,469,76200,23469,56786,0,20,2.2,5,0,0,0,0,0,0,0,0,0,0,0,0
2005,8,14,14,0,,33.2,22.2,51,100320,0,0,456,599,169,444,63420,13963,53620,0,360,1.4,7,0,0,0,0,0,0,0,0,0,0,0,0
2005,8,14,15,0,,32.3,22.1,55,100260,0,0,459,453,104,366,47037,9112,42134,0,320,2.4,8,0,0,0,0,0,0,0,0,0,0,0,0
2005,8,14,16,0,,32,22.4,59,100230,0,0,453,420,143,316,40235,11907,36102,0,320,1.7,7,0,0,0,0,0,0,0,0,0,0,0,0
2005,8,14,17,0,,31.6,22.6,61,100200,0,0,447,307,140,228,26835,9572,25476,0,360,1,7,0,0,0,0,0,0,0,0,0,0,0,0
2005,8,14,18,0,,31.2,22.9,61,100170,0,0,441,230,249,136,0,0,0,0,360,1.4,6,0,0,0,0,0,0,0,0,0,0,0,0
2005,8,14,19,0,,29.6,23.1,68,100190,0,0,432,90,205,55,0,0,0,0,360,1,6,0,0,0,0,0,0,0,0,0,0,0,0
2005,8,14,20,0,,28.1,23.3,76,100210,0,0,424,10,2,9,0,0,0,0,320,0.9,6,0,0,0,0,0,0,0,0,0,0,0,0
2005,8,14,21,0,,27.5,23.5,79,100230,0,0,421,0,0,0,0,0,0,0,320,1.3,6,0,0,0,0,0,0,0,0,0,0,0,0
2005,8,14,22,0,,26.9,23.5,81,100230,0,0,421,0,0,0,0,0,0,0,290,1.6,7,0,0,0,0,0,0,0,0,0,0,0,0
2005,8,14,23,0,,26.3,23.5,85,100220,0,0,421,0,0,0,0,0,0,0,290,0.8,7,0,0,0,0,0,0,0,0,0,0,0,0
2005,8,14,24,0,,26.2,23.5,85,100220,0,0,425,0,0,0,0,0,0,0,290,0.7,8,0,0,0,0,0,0,0,0,0,0,0,0
2005,8,15,1,0,,26.1,23.6,86,100200,0,0,425,0,0,0,0,0,0,0,290,0.5,8,0,0,0,0,0,0,0,0,0,0,0,0
2005,8,15,2,0,,25.8,23.7,88,100190,0,0,423,0,0,0,0,0,0,0,270,1.4,8,0,0,0,0,0,0,0,0,0,0,0,0
2005,8,15,3,0,,25.7,23.8,89,100170,0,0,423,0,0,0,0,0,0,0,290,0.6,8,0,0,0,0,0,0,0,0,0,0,0,0
2005,8,15,4,0,,25.6,23.8,89,100170,0,0,422,0,0,0,0,0,0,0,90,0.3,8,0,0,0,0,0,0,0,0,0,0,0,0
2005,8,15,5,0,,25.7,23.7,89,100170,0,0,423,0,0,0,0,0,0,0,0,0.1,8,0,0,0,0,0,0,0,0,0,0,0,0
2005,8,15,6,0,,25.5,23.7,90,100170,0,0,421,0,0,0,0,0,0,0,50,0.6,8,0,0,0,0,0,0,0,0,0,0,0,0
2005,8,15,7,0,,25.9,23.7,87,100180,0,0,424,44,10,34,4631,826,4192,0,50,1.7,8,0,0,0,0,0,0,0,0,0,0,0,0
2005,8,15,8,0,,27,23.6,81,100200,0,0,430,148,120,111,23170,9612,16475,0,0,0.2,8,0,0,0,0,0,0,0,0,0,0,0,0
2005,8,15,9,0,,27.9,23.6,78,100210,0,0,435,252,111,195,32970,9378,25251,0,20,0.6,8,0,0,0,0,0,0,0,0,0,0,0,0
2005,8,15,10,0,,28.9,23.6,75,100190,0,0,441,356,112,280,44031,9367,35575,0,70,1.1,8,0,0,0,0,0,0,0,0,0,0,0,0
2005,8,15,11,0,,30,23.6,67,100170,0,0,447,440,109,351,52393,9061,43964,0,320,1.2,8,0,0,0,0,0,0,0,0,0,0,0,0
2005,8,15,12,0,,30.2,23.6,68,100150,0,0,449,477,97,390,53486,8333,45956,0,290,1.4,8,0,0,0,0,0,0,0,0,0,0,0,0
2005,8,15,13,0,,29.4,23.5,70,100090,0,0,444,467,80,392,51663,6965,45919,0,270,1.8,8,0,0,0,0,0,0,0,0,0,0,0,0
2005,8,15,14,0,,30.1,23.3,67,100040,0,0,448,453,79,380,49135,6895,44315,0,290,1.4,8,0,0,0,0,0,0,0,0,0,0,0,0
2005,8,15,15,0,,30,23.2,67,99980,0,0,447,408,79,341,43160,6772,39538,0,340,0.7,8,0,0,0,0,0,0,0,0,0,0,0,0
2005,8,15,16,0,,30.3,23.4,64,99980,0,0,444,424,149,317,40436,12243,36228,0,360,1.1,7,0,0,0,0,0,0,0,0,0,0,0,0
2005,8,15,17,0,,30.9,23.7,63,99970,0,0,444,331,178,231,27562,11925,25914,0,320,1.5,7,0,0,0,0,0,0,0,0,0,0,0,0
2005,8,15,18,0,,29.5,23.9,72,99970,0,0,433,218,219,137,0,0,0,0,340,0.7,6,0,0,0,0,0,0,0,0,0,0,0,0
2005,8,15,19,0,,28.5,24,76,99970,0,0,426,88,203,54,0,0,0,0,320,1,6,0,0,0,0,0,0,0,0,0,0,0,0
2005,8,15,20,0,,27.6,24.2,81,99970,0,0,420,10,2,8,0,0,0,0,20,1.2,5,0,0,0,0,0,0,0,0,0,0,0,0
2005,8,15,21,0,,27.4,24.3,83,99970,0,0,418,0,0,0,0,0,0,0,340,0.8,5,0,0,0,0,0,0,0,0,0,0,0,0
2005,8,15,22,0,,26.8,23.9,85,99980,0,0,414,0,0,0,0,0,0,0,20,1.1,5,0,0,0,0,0,0,0,0,0,0,0,0
2005,8,15,23,0,,26.3,23.5,87,100000,0,0,411,0,0,0,0,0,0,0,20,1.1,5,0,0,0,0,0,0,0,0,0,0,0,0
2005,8,15,24,0,,26,23.1,84,100010,0,0,408,0,0,0,0,0,0,0,50,1.3,5,0,0,0,0,0,0,0,0,0,0,0,0
2005,8,16,1,0,,25.4,23,86,100000,0,0,404,0,0,0,0,0,0,0,360,0.6,5,0,0,0,0,0,0,0,0,0,0,0,0
2005,8,16,2,0,,24.9,22.9,89,99980,0,0,400,0,0,0,0,0,0,0,20,0.3,4,0,0,0,0,0,0,0,0,0,0,0,0
2005,8,16,3,0,,24.7,22.8,89,99970,0,0,398,0,0,0,0,0,0,0,90,0.4,4,0,0,0,0,0,0,0,0,0,0,0,0
2005,8,16,4,0,,24.5,22.8,90,99980,0,0,396,0,0,0,0,0,0,0,0,0.2,4,0,0,0,0,0,0,0,0,0,0,0,0
2005,8,16,5,0,,24.3,22.7,91,100000,0,0,394,0,0,0,0,0,0,0,0,0.2,3,0,0,0,0,0,0,0,0,0,0,0,0
2005,8,16,6,0,,23.9,22.7,93,100010,0,0,391,0,0,0,0,0,0,0,230,0.9,3,0,0,0,0,0,0,0,0,0,0,0,0
2005,8,16,7,0,,24.2,22.9,94,100010,0,0,390,72,38,34,7109,2996,5521,0,270,1.4,2,0,0,0,0,0,0,0,0,0,0,0,0
2005,8,16,8,0,,25.1,23.2,89,100000,0,0,392,226,410,97,43651,39961,15886,0,270,0.4,2,0,0,0,0,0,0,0,0,0,0,0,0
2005,8,16,9,0,,28.2,23.4,75,100000,0,0,405,436,611,125,69915,64231,17166,0,20,0.8,1,0,0,0,0,0,0,0,0,0,0,0,0
2005,8,16,10,0,,30.8,23.2,65,99970,0,0,423,608,644,171,81782,62703,25296,0,360,0.8,2,0,0,0,0,0,0,0,0,0,0,0,0
2005,8,16,11,0,,31.6,23.1,58,99950,0,0,431,737,635,223,87956,61151,31197,0,160,0.7,2,0,0,0,0,0,0,0,0,0,0,0,0
2005,8,16,12,0,,32.2,22.9,58,99920,0,0,437,765,496,320,82966,42664,44508,0,320,1.4,3,0,0,0,0,0,0,0,0,0,0,0,0
2005,8,16,13,0,,32.9,22.8,55,99880,0,0,442,764,329,458,80942,26552,59109,0,320,1.1,3,0,0,0,0,0,0,0,0,0,0,0,0
2005,8,16,14,0,,33.1,22.7,55,99850,0,0,444,719,295,451,71316,24056,54568,0,20,1.3,4,0,0,0,0,0,0,0,0,0,0,0,0
2005,8,16,15,0,,34.1,22.6,51,99810,0,0,451,667,325,394,61210,25517,47641,0,360,1.9,4,0,0,0,0,0,0,0,0,0,0,0,0
2005,8,16,16,0,,34.1,22.5,52,99780,0,0,450,559,411,265,43837,27052,34635,0,20,1.5,4,0,0,0,0,0,0,0,0,0,0,0,0
2005,8,16,17,0,,33.5,22.5,53,99760,0,0,445,437,468,176,24163,13627,22331,0,340,1.4,3,0,0,0,0,0,0,0,0,0,0,0,0
2005,8,16,18,0,,33,22.4,54,99730,0,0,441,277,458,108,0,0,0,0,340,1.2,3,0,0,0,0,0,0,0,0,0,0,0,0
2005,8,16,19,0,,31.4,22.9,62,99770,0,0,432,112,380,50,0,0,0,0,360,0.5,3,0,0,0,0,0,0,0,0,0,0,0,0
2005,8,16,20,0,,29.8,23.5,70,99800,0,0,424,12,3,9,0,0,0,0,20,0.8,3,0,0,0,0,0,0,0,0,0,0,0,0
2005,8,16,21,0,,29,24,74,99840,0,0,420,0,0,0,0,0,0,0,50,1.9,3,0,0,0,0,0,0,0,0,0,0,0,0
2005,8,16,22,0,,28.3,24.3,80,99870,0,0,416,0,0,0,0,0,0,0,70,2.1,3,0,0,0,0,0,0,0,0,0,0,0,0
2005,8,16,23,0,,27.7,24.5,82,99900,0,0,413,0,0,0,0,0,0,0,50,1.5,3,0,0,0,0,0,0,0,0,0,0,0,0
2005,8,16,24,0,,27.5,24.8,85,99930,0,0,412,0,0,0,0,0,0,0,250,1.6,3,0,0,0,0,0,0,0,0,0,0,0,0
2005,8,17,1,0,,27.1,24.7,86,99910,0,0,410,0,0,0,0,0,0,0,250,0.9,3,0,0,0,0,0,0,0,0,0,0,0,0
2005,8,17,2,0,,26.8,24.7,88,99890,0,0,408,0,0,0,0,0,0,0,250,0.8,3,0,0,0,0,0,0,0,0,0,0,0,0
2005,8,17,3,0,,26.6,24.6,89,99870,0,0,407,0,0,0,0,0,0,0,250,0.7,3,0,0,0,0,0,0,0,0,0,0,0,0
2005,8,17,4,0,,26.3,24.6,90,99880,0,0,408,0,0,0,0,0,0,0,320,0.6,4,0,0,0,0,0,0,0,0,0,0,0,0
2005,8,17,5,0,,25.8,24.6,92,99880,0,0,407,0,0,0,0,0,0,0,230,0.7,4,0,0,0,0,0,0,0,0,0,0,0,0
2005,8,17,6,0,,26,24.6,92,99890,0,0,410,0,0,0,0,0,0,0,250,0.6,5,0,0,0,0,0,0,0,0,0,0,0,0
2005,8,17,7,0,,26.2,24.7,90,99930,0,0,413,58,27,32,5682,2131,4556,0,0,0.1,5,0,0,0,0,0,0,0,0,0,0,0,0
2005,8,17,8,0,,27.6,24.7,83,99970,0,0,422,192,272,107,33565,22745,17803,0,270,0.6,6,0,0,0,0,0,0,0,0,0,0,0,0
2005,8,17,9,0,,27.9,24.8,83,100010,0,0,425,313,216,203,43102,16983,29185,0,270,0.8,6,0,0,0,0,0,0,0,0,0,0,0,0
2005,8,17,10,0,,29.6,24.6,76,99990,0,0,434,451,224,300,57201,17636,41348,0,270,0.9,6,0,0,0,0,0,0,0,0,0,0,0,0
2005,8,17,11,0,,32.1,24.5,65,99980,0,0,449,579,241,384,69196,18899,51693,0,230,1,6,0,0,0,0,0,0,0,0,0,0,0,0
2005,8,17,12,0,,32,24.3,64,99960,0,0,448,652,234,442,71859,19005,54771,0,270,1.8,6,0,0,0,0,0,0,0,0,0,0,0,0
2005,8,17,13,0,,34,23.4,55,99910,0,0,457,713,266,466,74788,21735,56972,0,200,3.9,6,0,0,0,0,0,0,0,0,0,0,0,0
2005,8,17,14,0,,34.3,22.6,53,99850,0,0,457,704,279,451,70353,22743,54585,0,230,2.5,5,0,0,0,0,0,0,0,0,0,0,0,0
2005,8,17,15,0,,34.9,21.7,46,99800,0,0,458,668,331,391,60921,26340,46999,0,230,3.1,5,0,0,0,0,0,0,0,0,0,0,0,0
2005,8,17,16,0,,34.8,21.9,45,99820,0,0,463,511,265,321,44431,18238,38292,0,230,3.5,6,0,0,0,0,0,0,0,0,0,0,0,0
2005,8,17,17,0,,34.3,22,48,99840,0,0,469,290,127,220,25669,8566,24551,0,360,1.5,8,0,0,0,0,0,0,0,0,0,0,0,0
2005,8,17,18,0,,27.6,22.2,72,99860,0,0,441,113,35,100,0,0,0,0,200,7.7,9,0,0,0,0,0,0,0,0,0,0,0,0
2005,8,17,19,0,,22.4,22.1,95,99930,0,0,414,15,1,14,0,0,0,0,250,4.4,9,0,0,0,0,0,0,0,0,0,0,0,0
2005,8,17,20,0,,22.8,22,94,100000,0,0,420,0,0,0,0,0,0,0,50,1.2,10,0,0,0,0,0,0,0,0,0,0,0,0
2005,8,17,21,0,,23,21.9,93,100070,0,0,426,0,0,0,0,0,0,0,90,2,10,0,0,0,0,0,0,0,0,0,0,0,0
2005,8,17,22,0,,23.3,22.1,93,100110,0,0,423,0,0,0,0,0,0,0,70,2,10,0,0,0,0,0,0,0,0,0,0,0,0
2005,8,17,23,0,,23.2,22.4,93,100160,0,0,419,0,0,0,0,0,0,0,70,0.9,9,0,0,0,0,0,0,0,0,0,0,0,0
2005,8,17,24,0,,23.7,22.6,93,100200,0,0,419,0,0,0,0,0,0,0,20,0.4,9,0,0,0,0,0,0,0,0,0,0,0,0
2005,8,18,1,0,,23.3,22.5,92,100160,0,0,413,0,0,0,0,0,0,0,200,0.3,9,0,0,0,0,0,0,0,0,0,0,0,0
2005,8,18,2,0,,23.3,22.3,93,100110,0,0,410,0,0,0,0,0,0,0,110,0.9,8,0,0,0,0,0,0,0,0,0,0,0,0
2005,8,18,3,0,,23.3,22.2,93,100070,0,0,407,0,0,0,0,0,0,0,70,1.1,8,0,0,0,0,0,0,0,0,0,0,0,0
2005,8,18,4,0,,23.5,22.2,93,100050,0,0,404,0,0,0,0,0,0,0,290,0.3,7,0,0,0,0,0,0,0,0,0,0,0,0
2005,8,18,5,0,,23.4,22.2,93,100040,0,0,400,0,0,0,0,0,0,0,50,1.5,7,0,0,0,0,0,0,0,0,0,0,0,0
2005,8,18,6,0,,23.3,22.2,93,100020,0,0,396,0,0,0,0,0,0,0,90,1.8,6,0,0,0,0,0,0,0,0,0,0,0,0
2005,8,18,7,0,,24.1,22.5,91,100050,0,0,401,53,20,32,5492,1707,4593,0,50,0.5,6,0,0,0,0,0,0,0,0,0,0,0,0
2005,8,18,8,0,,25.7,22.8,81,100080,0,0,410,191,275,105,33611,23734,17208,0,230,0.4,6,0,0,0,0,0,0,0,0,0,0,0,0
2005,8,18,9,0,,27.5,23.1,77,100110,0,0,420,348,308,193,50793,26636,29017,0,290,1.6,6,0,0,0,0,0,0,0,0,0,0,0,0
2005,8,18,10,0,,28.9,23.1,73,100100,0,0,430,487,288,293,60820,23543,39703,0,230,1.9,6,0,0,0,0,0,0,0,0,0,0,0,0
2005,8,18,11,0,,30,23.2,69,100080,0,0,438,535,193,380,62017,16164,47082,0,200,2.7,7,0,0,0,0,0,0,0,0,0,0,0,0
2005,8,18,12,0,,29.8,23.2,68,100070,0,0,439,566,158,425,64086,13171,52276,0,230,3.7,7,0,0,0,0,0,0,0,0,0,0,0,0
2005,8,18,13,0,,26.8,23.1,78,100030,0,0,423,467,82,391,51585,7169,45728,0,90,1.4,7,0,0,0,0,0,0,0,0,0,0,0,0
2005,8,18,14,0,,28.4,23.1,64,100000,0,0,435,423,68,361,46216,5889,42150,0,290,3.3,8,0,0,0,0,0,0,0,0,0,0,0,0
2005,8,18,15,0,,25.1,23,88,99960,0,0,418,302,36,272,31304,2697,29888,0,90,2.1,8,0,0,0,0,0,0,0,0,0,0,0,0
2005,8,18,16,0,,27.2,22.9,78,99960,0,0,436,281,50,245,29550,4001,28218,0,90,0.9,9,0,0,0,0,0,0,0,0,0,0,0,0
2005,8,18,17,0,,28.8,22.9,68,99970,0,0,453,218,59,186,21365,3755,20890,0,70,0.6,9,0,0,0,0,0,0,0,0,0,0,0,0
2005,8,18,18,0,,27.9,22.8,74,99970,0,0,456,116,39,102,0,0,0,0,160,0.7,10,0,0,0,0,0,0,0,0,0,0,0,0
2005,8,18,19,0,,26.4,23.1,81,100000,0,0,447,36,19,33,0,0,0,0,70,1.3,10,0,0,0,0,0,0,0,0,0,0,0,0
2005,8,18,20,0,,26.1,23.3,87,100040,0,0,446,0,0,0,0,0,0,0,250,1.8,10,0,0,0,0,0,0,0,0,0,0,0,0
2005,8,18,21,0,,25.5,23.6,89,100070,0,0,443,0,0,0,0,0,0,0,200,1.3,10,0,0,0,0,0,0,0,0,0,0,0,0
2005,8,18,22,0,,25.3,23.5,90,100080,0,0,433,0,0,0,0,0,0,0,290,1,9,0,0,0,0,0,0,0,0,0,0,0,0
2005,8,18,23,0,,25,23.5,90,100080,0,0,424,0,0,0,0,0,0,0,270,0.5,9,0,0,0,0,0,0,0,0,0,0,0,0
2005,8,18,24,0,,24.9,23.4,91,100090,0,0,418,0,0,0,0,0,0,0,0,0.1,8,0,0,0,0,0,0,0,0,0,0,0,0
2005,8,19,1,0,,25,22.9,91,100060,0,0,423,0,0,0,0,0,0,0,50,1,9,0,0,0,0,0,0,0,0,0,0,0,0
2005,8,19,2,0,,24.8,22.4,92,100020,0,0,428,0,0,0,0,0,0,0,160,1.4,9,0,0,0,0,0,0,0,0,0,0,0,0
2005,8,19,3,0,,23.6,21.9,90,99990,0,0,429,0,0,0,0,0,0,0,270,3.4,10,0,0,0,0,0,0,0,0,0,0,0,0
2005,8,19,4,0,,23.7,22.3,95,99950,0,0,430,0,0,0,0,0,0,0,160,2.6,10,0,0,0,0,0,0,0,0,0,0,0,0
2005,8,19,5,0,,23.6,22.8,96,99920,0,0,430,0,0,0,0,0,0,0,0,0.2,10,0,0,0,0,0,0,0,0,0,0,0,0
2005,8,19,6,0,,23.9,23.2,96,99880,0,0,433,0,0,0,0,0,0,0,50,1.2,10,0,0,0,0,0,0,0,0,0,0,0,0
2005,8,19,7,0,,24,23.2,95,99900,0,0,433,18,1,17,2288,29,2273,0,20,0.8,10,0,0,0,0,0,0,0,0,0,0,0,0
2005,8,19,8,0,,24.1,23.3,95,99910,0,0,434,74,18,68,9465,1514,8421,0,20,1,10,0,0,0,0,0,0,0,0,0,0,0,0
2005,8,19,9,0,,24.8,23.3,91,99930,0,0,438,134,20,124,16415,1685,15041,0,70,0.7,10,0,0,0,0,0,0,0,0,0,0,0,0
2005,8,19,10,0,,23.7,23.3,93,99900,0,0,432,169,15,159,20379,1237,19272,0,140,1.5,10,0,0,0,0,0,0,0,0,0,0,0,0
2005,8,19,11,0,,23.9,23.3,95,99860,0,0,433,204,14,193,24307,1140,23256,0,70,1.4,10,0,0,0,0,0,0,0,0,0,0,0,0
2005,8,19,12,0,,25.2,23.3,89,99830,0,0,440,229,13,217,26929,757,26252,0,50,1.1,10,0,0,0,0,0,0,0,0,0,0,0,0
2005,8,19,13,0,,25.7,23.5,85,99800,0,0,444,290,23,269,33464,1919,31901,0,200,2.6,10,0,0,0,0,0,0,0,0,0,0,0,0
2005,8,19,14,0,,25.6,23.7,90,99760,0,0,443,266,19,249,29441,1255,28578,0,250,1.7,10,0,0,0,0,0,0,0,0,0,0,0,0
2005,8,19,15,0,,26.2,23.9,87,99730,0,0,447,239,19,224,25545,1254,24890,0,180,0.9,10,0,0,0,0,0,0,0,0,0,0,0,0
2005,8,19,16,0,,25.9,23.6,87,99720,0,0,445,199,19,185,20127,1181,19738,0,180,1.8,10,0,0,0,0,0,0,0,0,0,0,0,0
2005,8,19,17,0,,25.9,23.2,89,99710,0,0,444,156,23,143,14204,1235,14053,0,250,1.6,10,0,0,0,0,0,0,0,0,0,0,0,0
2005,8,19,18,0,,25,22.9,88,99700,0,0,439,86,17,79,0,0,0,0,180,2,10,0,0,0,0,0,0,0,0,0,0,0,0
2005,8,19,19,0,,25,23,87,99720,0,0,439,31,14,29,0,0,0,0,200,2.3,10,0,0,0,0,0,0,0,0,0,0,0,0
2005,8,19,20,0,,24.8,23,87,99750,0,0,438,0,0,0,0,0,0,0,160,1.9,10,0,0,0,0,0,0,0,0,0,0,0,0
2005,8,19,21,0,,24.1,23.1,94,99770,0,0,434,0,0,0,0,0,0,0,230,1.8,10,0,0,0,0,0,0,0,0,0,0,0,0
2005,8,19,22,0,,23.5,22.9,96,99760,0,0,430,0,0,0,0,0,0,0,230,1.2,10,0,0,0,0,0,0,0,0,0,0,0,0
2005,8,19,23,0,,23.3,22.7,95,99750,0,0,429,0,0,0,0,0,0,0,200,2.9,10,0,0,0,0,0,0,0,0,0,0,0,0
2005,8,19,24,0,,23.3,22.5,95,99740,0,0,428,0,0,0,0,0,0,0,200,2.2,10,0,0,0,0,0,0,0,0,0,0,0,0
2005,8,20,1,0,,23.2,22.3,94,99730,0,0,427,0,0,0,0,0,0,0,200,2.5,10,0,0,0,0,0,0,0,0,0,0,0,0
2005,8,20,2,0,,22.8,22,94,99720,0,0,425,0,0,0,0,0,0,0,200,2,10,0,0,0,0,0,0,0,0,0,0,0,0
2005,8,20,3,0,,22.8,21.8,94,99710,0,0,424,0,0,0,0,0,0,0,230,1.9,10,0,0,0,0,0,0,0,0,0,0,0,0
2005,8,20,4,0,,22.6,21.3,95,99700,0,0,423,0,0,0,0,0,0,0,230,2.7,10,0,0,0,0,0,0,0,0,0,0,0,0
2005,8,20,5,0,,21.9,20.9,93,99690,0,0,418,0,0,0,0,0,0,0,200,2,10,0,0,0,0,0,0,0,0,0,0,0,0
2005,8,20,6,0,,21.4,20.4,94,99680,0,0,415,0,0,0,0,0,0,0,90,1.3,10,0,0,0,0,0,0,0,0,0,0,0,0
2005,8,20,7,0,,21.7,20.5,94,99690,0,0,416,14,1,14,1907,17,1898,0,0,0.2,10,0,0,0,0,0,0,0,0,0,0,0,0
2005,8,20,8,0,,22.4,20.7,92,99700,0,0,421,77,21,71,9852,1797,8617,0,90,1.2,10,0,0,0,0,0,0,0,0,0,0,0,0
2005,8,20,9,0,,22.9,20.8,88,99710,0,0,424,134,20,124,16353,1764,14917,0,70,0.6,10,0,0,0,0,0,0,0,0,0,0,0,0
2005,8,20,10,0,,24.1,20.8,86,99690,0,0,426,220,31,199,26152,2699,23742,0,50,2.7,10,0,0,0,0,0,0,0,0,0,0,0,0
2005,8,20,11,0,,25.9,20.8,74,99680,0,0,433,378,75,318,43520,6647,37407,0,180,1.8,9,0,0,0,0,0,0,0,0,0,0,0,0
2005,8,20,12,0,,25.6,20.8,75,99660,0,0,427,395,60,341,44726,5321,39981,0,180,1.5,9,0,0,0,0,0,0,0,0,0,0,0,0
2005,8,20,13,0,,26,21.1,67,99650,0,0,427,397,54,347,44387,4765,40519,0,110,0.9,9,0,0,0,0,0,0,0,0,0,0,0,0
2005,8,20,14,0,,23.8,21.5,88,99630,0,0,412,385,53,336,42344,4712,39120,0,70,3.1,8,0,0,0,0,0,0,0,0,0,0,0,0
2005,8,20,15,0,,24.6,21.8,84,99620,0,0,414,376,67,321,40020,5809,37009,0,50,3.6,8,0,0,0,0,0,0,0,0,0,0,0,0
2005,8,20,16,0,,26.1,21.8,76,99610,0,0,420,346,91,282,34545,7494,32106,0,50,3.1,8,0,0,0,0,0,0,0,0,0,0,0,0
2005,8,20,17,0,,24.9,21.7,85,99590,0,0,411,300,148,219,25502,9967,24321,0,90,1.3,7,0,0,0,0,0,0,0,0,0,0,0,0
2005,8,20,18,0,,24.8,21.7,83,99580,0,0,408,190,170,129,0,0,0,0,50,2,7,0,0,0,0,0,0,0,0,0,0,0,0
2005,8,20,19,0,,24.3,21.6,85,99620,0,0,407,70,22,48,0,0,0,0,50,3.1,7,0,0,0,0,0,0,0,0,0,0,0,0
2005,8,20,20,0,,23.2,21.6,90,99670,0,0,404,1,0,1,0,0,0,0,50,3.7,8,0,0,0,0,0,0,0,0,0,0,0,0
2005,8,20,21,0,,23,21.5,92,99710,0,0,405,0,0,0,0,0,0,0,50,0.8,8,0,0,0,0,0,0,0,0,0,0,0,0
2005,8,20,22,0,,23,21.4,88,99710,0,0,405,0,0,0,0,0,0,0,180,1.4,8,0,0,0,0,0,0,0,0,0,0,0,0
2005,8,20,23,0,,23,21.4,89,99720,0,0,405,0,0,0,0,0,0,0,70,0.8,8,0,0,0,0,0,0,0,0,0,0,0,0
2005,8,20,24,0,,22.8,21.3,91,99720,0,0,403,0,0,0,0,0,0,0,20,0.6,8,0,0,0,0,0,0,0,0,0,0,0,0
2005,8,21,1,0,,22.5,21.1,92,99700,0,0,404,0,0,0,0,0,0,0,90,1.3,8,0,0,0,0,0,0,0,0,0,0,0,0
2005,8,21,2,0,,22.1,21,94,99680,0,0,405,0,0,0,0,0,0,0,50,1.8,9,0,0,0,0,0,0,0,0,0,0,0,0
2005,8,21,3,0,,22.3,20.8,92,99660,0,0,409,0,0,0,0,0,0,0,20,1.1,9,0,0,0,0,0,0,0,0,0,0,0,0
2005,8,21,4,0,,21.9,20.8,94,99660,0,0,403,0,0,0,0,0,0,0,90,1.1,9,0,0,0,0,0,0,0,0,0,0,0,0
2005,8,21,5,0,,21.9,20.9,94,99660,0,0,401,0,0,0,0,0,0,0,20,1.2,8,0,0,0,0,0,0,0,0,0,0,0,0
2005,8,21,6,0,,22,20.9,93,99660,0,0,399,0,0,0,0,0,0,0,70,2.2,8,0,0,0,0,0,0,0,0,0,0,0,0
2005,8,21,7,0,,22.6,21,91,99700,0,0,400,40,10,30,4210,820,3784,0,50,3.1,8,0,0,0,0,0,0,0,0,0,0,0,0
2005,8,21,8,0,,24.1,21.1,81,99730,0,0,406,164,186,108,28459,16463,17176,0,360,0.6,7,0,0,0,0,0,0,0,0,0,0,0,0
2005,8,21,9,0,,24.7,21.2,81,99770,0,0,407,280,165,198,38551,14057,27141,0,230,0.5,7,0,0,0,0,0,0,0,0,0,0,0,0
2005,8,21,10,0,,26.1,21.3,75,99770,0,0,413,399,164,290,50772,13928,38364,0,0,0.1,7,0,0,0,0,0,0,0,0,0,0,0,0
2005,8,21,11,0,,27.3,21.5,71,99770,0,0,419,541,204,377,64483,17249,48659,0,50,0.6,6,0,0,0,0,0,0,0,0,0,0,0,0
2005,8,21,12,0,,27.6,21.6,70,99770,0,0,419,608,198,433,67572,17002,52451,0,20,1.2,6,0,0,0,0,0,0,0,0,0,0,0,0
2005,8,21,13,0,,28.8,22.1,65,99770,0,0,433,562,140,434,62184,11810,52634,0,290,0.7,7,0,0,0,0,0,0,0,0,0,0,0,0
2005,8,21,14,0,,26.4,22.7,86,99770,0,0,431,329,35,298,36964,3058,34882,0,110,1,9,0,0,0,0,0,0,0,0,0,0,0,0
2005,8,21,15,0,,25,23.2,90,99770,0,0,439,177,8,170,19548,479,19302,0,70,2.1,10,0,0,0,0,0,0,0,0,0,0,0,0
2005,8,21,16,0,,24.6,23.1,92,99780,0,0,437,126,6,122,13510,244,13431,0,250,1.5,10,0,0,0,0,0,0,0,0,0,0,0,0
2005,8,21,17,0,,24.5,22.9,92,99790,0,0,436,114,10,109,10901,308,10865,0,20,1.2,10,0,0,0,0,0,0,0,0,0,0,0,0
2005,8,21,18,0,,24.2,22.8,92,99800,0,0,434,84,17,78,0,0,0,0,20,1.4,10,0,0,0,0,0,0,0,0,0,0,0,0
2005,8,21,19,0,,24.1,22.6,92,99860,0,0,433,28,2,26,0,0,0,0,250,0.9,10,0,0,0,0,0,0,0,0,0,0,0,0
2005,8,21,20,0,,23.6,22.4,95,99920,0,0,430,0,0,0,0,0,0,0,270,1.2,10,0,0,0,0,0,0,0,0,0,0,0,0
2005,8,21,21,0,,22.9,22.2,96,99980,0,0,426,0,0,0,0,0,0,0,70,1.9,10,0,0,0,0,0,0,0,0,0,0,0,0
2005,8,21,22,0,,22.7,22.1,96,100010,0,0,424,0,0,0,0,0,0,0,160,0.8,10,0,0,0,0,0,0,0,0,0,0,0,0
2005,8,21,23,0,,22.6,22.1,97,100050,0,0,424,0,0,0,0,0,0,0,0,0,10,0,0,0,0,0,0,0,0,0,0,0,0
2005,8,21,24,0,,22.6,22,97,100080,0,0,424,0,0,0,0,0,0,0,270,0.8,10,0,0,0,0,0,0,0,0,0,0,0,0
2005,8,22,1,0,,22.3,21.9,97,100070,0,0,422,0,0,0,0,0,0,0,320,0.4,10,0,0,0,0,0,0,0,0,0,0,0,0
2005,8,22,2,0,,22.3,21.8,97,100050,0,0,422,0,0,0,0,0,0,0,0,0.2,10,0,0,0,0,0,0,0,0,0,0,0,0
2005,8,22,3,0,,22.3,21.7,97,100040,0,0,421,0,0,0,0,0,0,0,320,0.3,10,0,0,0,0,0,0,0,0,0,0,0,0
2005,8,22,4,0,,22.1,21.4,97,100070,0,0,420,0,0,0,0,0,0,0,250,2,10,0,0,0,0,0,0,0,0,0,0,0,0
2005,8,22,5,0,,21.9,21.2,97,100090,0,0,418,0,0,0,0,0,0,0,250,2.4,10,0,0,0,0,0,0,0,0,0,0,0,0
2005,8,22,6,0,,21.5,20.9,97,100120,0,0,416,0,0,0,0,0,0,0,250,0.9,10,0,0,0,0,0,0,0,0,0,0,0,0
2005,8,22,7,0,,21.8,21.3,97,100160,0,0,418,14,1,14,1904,17,1895,0,250,0.7,10,0,0,0,0,0,0,0,0,0,0,0,0
2005,8,22,8,0,,22.1,21.6,97,100210,0,0,420,71,18,66,9115,1494,8094,0,270,0.6,10,0,0,0,0,0,0,0,0,0,0,0,0
2005,8,22,9,0,,22.7,22,96,100250,0,0,424,125,17,116,15315,1472,14123,0,0,0.2,10,0,0,0,0,0,0,0,0,0,0,0,0
2005,8,22,10,0,,23.1,22,92,100250,0,0,426,192,22,177,22922,1846,21282,0,50,1.2,10,0,0,0,0,0,0,0,0,0,0,0,0
2005,8,22,11,0,,23.9,21.9,88,100260,0,0,431,240,22,222,28259,1883,26536,0,20,1.4,10,0,0,0,0,0,0,0,0,0,0,0,0
2005,8,22,12,0,,23.6,21.9,90,100260,0,0,429,248,17,233,28998,1463,27701,0,50,2.3,10,0,0,0,0,0,0,0,0,0,0,0,0
2005,8,22,13,0,,23.6,22.3,92,100230,0,0,425,225,11,214,26070,683,25520,0,50,0.4,10,0,0,0,0,0,0,0,0,0,0,0,0
2005,8,22,14,0,,25.3,22.8,85,100190,0,0,432,374,50,329,41383,4381,38414,0,70,2.4,9,0,0,0,0,0,0,0,0,0,0,0,0
2005,8,22,15,0,,26.1,23.2,84,100160,0,0,433,369,65,315,39385,5526,36560,0,50,3.5,9,0,0,0,0,0,0,0,0,0,0,0,0
2005,8,22,16,0,,25.3,23,85,100170,0,0,425,287,56,248,29876,4485,28451,0,50,2.2,9,0,0,0,0,0,0,0,0,0,0,0,0
2005,8,22,17,0,,25.3,22.7,85,100190,0,0,422,250,93,200,22955,5931,22302,0,50,2.8,8,0,0,0,0,0,0,0,0,0,0,0,0
2005,8,22,18,0,,25.4,22.5,84,100200,0,0,419,151,94,118,0,0,0,0,20,1.3,8,0,0,0,0,0,0,0,0,0,0,0,0
2005,8,22,19,0,,24.3,22.2,88,100250,0,0,413,54,12,42,0,0,0,0,50,2,8,0,0,0,0,0,0,0,0,0,0,0,0
2005,8,22,20,0,,23.9,22,89,100290,0,0,410,0,0,0,0,0,0,0,20,1.6,8,0,0,0,0,0,0,0,0,0,0,0,0
2005,8,22,21,0,,23.6,21.7,89,100340,0,0,408,0,0,0,0,0,0,0,50,2,8,0,0,0,0,0,0,0,0,0,0,0,0
2005,8,22,22,0,,23.4,21.5,89,100360,0,0,412,0,0,0,0,0,0,0,50,1.9,9,0,0,0,0,0,0,0,0,0,0,0,0
2005,8,22,23,0,,23.2,21.2,89,100380,0,0,418,0,0,0,0,0,0,0,20,1,9,0,0,0,0,0,0,0,0,0,0,0,0
2005,8,22,24,0,,23.1,21,88,100400,0,0,425,0,0,0,0,0,0,0,50,1.6,10,0,0,0,0,0,0,0,0,0,0,0,0
2005,8,23,1,0,,22.6,20.6,89,100380,0,0,414,0,0,0,0,0,0,0,70,2.3,9,0,0,0,0,0,0,0,0,0,0,0,0
2005,8,23,2,0,,22.1,20.2,89,100370,0,0,404,0,0,0,0,0,0,0,20,2.2,9,0,0,0,0,0,0,0,0,0,0,0,0
2005,8,23,3,0,,21.7,19.8,89,100350,0,0,396,0,0,0,0,0,0,0,20,2.5,8,0,0,0,0,0,0,0,0,0,0,0,0
2005,8,23,4,0,,21.4,19.5,89,100340,0,0,391,0,0,0,0,0,0,0,20,2.2,8,0,0,0,0,0,0,0,0,0,0,0,0
2005,8,23,5,0,,20.8,19.2,89,100340,0,0,386,0,0,0,0,0,0,0,50,4.6,7,0,0,0,0,0,0,0,0,0,0,0,0
2005,8,23,6,0,,20.5,18.9,90,100330,0,0,382,0,0,0,0,0,0,0,50,3.6,7,0,0,0,0,0,0,0,0,0,0,0,0
2005,8,23,7,0,,20.9,18.9,87,100350,0,0,384,45,14,31,4399,1185,3787,0,50,3.3,7,0,0,0,0,0,0,0,0,0,0,0,0
2005,8,23,8,0,,23.2,19,78,100370,0,0,396,185,289,99,35206,28591,15725,0,50,5.5,7,0,0,0,0,0,0,0,0,0,0,0,0
2005,8,23,9,0,,25.1,19,69,100390,0,0,407,319,252,194,46394,22926,27877,0,50,2.5,7,0,0,0,0,0,0,0,0,0,0,0,0
2005,8,23,10,0,,26,18.9,66,100360,0,0,411,445,231,292,55735,20474,37583,0,50,2,7,0,0,0,0,0,0,0,0,0,0,0,0
2005,8,23,11,0,,27.4,18.8,62,100340,0,0,419,520,186,372,60063,16715,44808,0,20,1.4,7,0,0,0,0,0,0,0,0,0,0,0,0
2005,8,23,12,0,,27.5,18.7,59,100310,0,0,420,582,178,425,64705,15907,50642,0,50,3.8,7,0,0,0,0,0,0,0,0,0,0,0,0
2005,8,23,13,0,,29.4,18.4,54,100280,0,0,432,628,193,451,67041,17171,53256,0,90,3.6,7,0,0,0,0,0,0,0,0,0,0,0,0
2005,8,23,14,0,,29,18.2,53,100250,0,0,432,512,119,405,53839,10967,46443,0,70,3.4,8,0,0,0,0,0,0,0,0,0,0,0,0
2005,8,23,15,0,,30,17.9,48,100220,0,0,440,488,141,373,48862,12849,42340,0,70,3.7,8,0,0,0,0,0,0,0,0,0,0,0,0
2005,8,23,16,0,,29.4,17.8,47,100210,0,0,424,477,238,311,41373,17211,35976,0,70,3.7,6,0,0,0,0,0,0,0,0,0,0,0,0
2005,8,23,17,0,,30,17.7,47,100210,0,0,421,421,486,162,20557,13206,19159,0,90,2.1,4,0,0,0,0,0,0,0,0,0,0,0,0
2005,8,23,18,0,,27.9,17.6,53,100200,0,0,402,260,479,96,0,0,0,0,90,2.7,2,0,0,0,0,0,0,0,0,0,0,0,0
2005,8,23,19,0,,25.2,17.3,64,100230,0,0,387,93,53,41,0,0,0,0,50,4.9,2,0,0,0,0,0,0,0,0,0,0,0,0
2005,8,23,20,0,,23.8,17.1,67,100260,0,0,379,0,0,0,0,0,0,0,50,3.4,2,0,0,0,0,0,0,0,0,0,0,0,0
2005,8,23,21,0,,22.7,16.8,69,100290,0,0,373,0,0,0,0,0,0,0,50,3.2,2,0,0,0,0,0,0,0,0,0,0,0,0
2005,8,23,22,0,,22.2,16.2,67,100290,0,0,375,0,0,0,0,0,0,0,50,4.9,3,0,0,0,0,0,0,0,0,0,0,0,0
2005,8,23,23,0,,21.5,15.7,67,100300,0,0,374,0,0,0,0,0,0,0,50,4.9,5,0,0,0,0,0,0,0,0,0,0,0,0
2005,8,23,24,0,,21.4,15.1,67,100300,0,0,377,0,0,0,0,0,0,0,50,4.4,6,0,0,0,0,0,0,0,0,0,0,0,0
2005,8,24,1,0,,21.2,14.9,66,100240,0,0,381,0,0,0,0,0,0,0,50,5.6,7,0,0,0,0,0,0,0,0,0,0,0,0
2005,8,24,2,0,,21.1,14.8,66,100190,0,0,386,0,0,0,0,0,0,0,50,4.9,8,0,0,0,0,0,0,0,0,0,0,0,0
2005,8,24,3,0,,20.5,14.6,69,100130,0,0,391,0,0,0,0,0,0,0,50,7.3,9,0,0,0,0,0,0,0,0,0,0,0,0
2005,8,24,4,0,,20.7,14.5,66,100080,0,0,389,0,0,0,0,0,0,0,50,7.2,9,0,0,0,0,0,0,0,0,0,0,0,0
2005,8,24,5,0,,20.9,14.5,66,100030,0,0,387,0,0,0,0,0,0,0,50,6.7,8,0,0,0,0,0,0,0,0,0,0,0,0
2005,8,24,6,0,,20.9,14.4,66,99980,0,0,384,0,0,0,0,0,0,0,50,8,8,0,0,0,0,0,0,0,0,0,0,0,0
2005,8,24,7,0,,21.2,15,68,99950,0,0,387,43,13,30,4287,1147,3697,0,50,4.3,8,0,0,0,0,0,0,0,0,0,0,0,0
2005,8,24,8,0,,22.2,15.6,65,99930,0,0,393,165,204,104,28862,19069,15908,0,50,7.4,8,0,0,0,0,0,0,0,0,0,0,0,0
2005,8,24,9,0,,24.7,16.2,59,99900,0,0,407,297,206,196,40924,19034,25590,0,50,5.5,8,0,0,0,0,0,0,0,0,0,0,0,0
2005,8,24,10,0,,25.4,16.8,57,99900,0,0,418,360,126,276,43986,11736,33606,0,50,5.2,9,0,0,0,0,0,0,0,0,0,0,0,0
2005,8,24,11,0,,25,17.4,62,99900,0,0,423,397,89,327,46853,8196,39393,0,50,5.3,9,0,0,0,0,0,0,0,0,0,0,0,0
2005,8,24,12,0,,24.5,18,67,99900,0,0,429,298,29,273,34258,2609,31959,0,70,4.2,10,0,0,0,0,0,0,0,0,0,0,0,0
2005,8,24,13,0,,24.1,18.5,67,99840,0,0,427,273,20,255,31199,1389,30089,0,70,4.3,10,0,0,0,0,0,0,0,0,0,0,0,0
2005,8,24,14,0,,22.2,18.9,82,99770,0,0,417,211,11,202,24048,690,23585,0,70,2.3,10,0,0,0,0,0,0,0,0,0,0,0,0
2005,8,24,15,0,,20.8,19.4,92,99710,0,0,410,166,7,160,18502,439,18281,0,70,3.6,10,0,0,0,0,0,0,0,0,0,0,0,0
2005,8,24,16,0,,20.2,19.3,94,99660,0,0,407,146,9,140,15372,472,15225,0,70,4.4,10,0,0,0,0,0,0,0,0,0,0,0,0
2005,8,24,17,0,,20.6,19.3,91,99620,0,0,409,155,26,142,13915,1649,13748,0,70,8,10,0,0,0,0,0,0,0,0,0,0,0,0
2005,8,24,18,0,,20.6,19.2,92,99570,0,0,409,98,30,88,0,0,0,0,50,5.7,10,0,0,0,0,0,0,0,0,0,0,0,0
2005,8,24,19,0,,21.2,19.5,89,99530,0,0,404,49,10,39,0,0,0,0,50,6.5,9,0,0,0,0,0,0,0,0,0,0,0,0
2005,8,24,20,0,,21.8,19.7,89,99500,0,0,401,0,0,0,0,0,0,0,50,5.5,9,0,0,0,0,0,0,0,0,0,0,0,0
2005,8,24,21,0,,22.6,20,85,99460,0,0,401,0,0,0,0,0,0,0,50,5.5,8,0,0,0,0,0,0,0,0,0,0,0,0
2005,8,24,22,0,,23.9,20.3,81,99460,0,0,414,0,0,0,0,0,0,0,90,1.8,9,0,0,0,0,0,0,0,0,0,0,0,0
2005,8,24,23,0,,23.6,20.5,83,99470,0,0,419,0,0,0,0,0,0,0,290,1.2,9,0,0,0,0,0,0,0,0,0,0,0,0
2005,8,24,24,0,,23.1,20.8,87,99470,0,0,425,0,0,0,0,0,0,0,340,2,10,0,0,0,0,0,0,0,0,0,0,0,0
2005,8,25,1,0,,23.7,21,86,99450,0,0,428,0,0,0,0,0,0,0,230,1.7,10,0,0,0,0,0,0,0,0,0,0,0,0
2005,8,25,2,0,,23.3,21.3,89,99440,0,0,427,0,0,0,0,0,0,0,340,0.8,10,0,0,0,0,0,0,0,0,0,0,0,0
2005,8,25,3,0,,22.1,21.5,97,99420,0,0,420,0,0,0,0,0,0,0,250,2.3,10,0,0,0,0,0,0,0,0,0,0,0,0
2005,8,25,4,0,,22.4,21.7,97,99410,0,0,422,0,0,0,0,0,0,0,320,0.8,10,0,0,0,0,0,0,0,0,0,0,0,0
2005,8,25,5,0,,22.6,21.9,96,99390,0,0,423,0,0,0,0,0,0,0,110,0.3,10,0,0,0,0,0,0,0,0,0,0,0,0
2005,8,25,6,0,,22.8,22.1,96,99380,0,0,425,0,0,0,0,0,0,0,70,0.6,10,0,0,0,0,0,0,0,0,0,0,0,0
2005,8,25,7,0,,22.9,22.3,96,99400,0,0,426,17,1,16,2158,29,2144,0,50,0.8,10,0,0,0,0,0,0,0,0,0,0,0,0
2005,8,25,8,0,,23.3,22.5,96,99410,0,0,428,71,19,65,9097,1561,8039,0,20,1.2,10,0,0,0,0,0,0,0,0,0,0,0,0
2005,8,25,9,0,,23.5,22.7,95,99430,0,0,430,124,18,115,15218,1493,14019,0,50,1.1,10,0,0,0,0,0,0,0,0,0,0,0,0
2005,8,25,10,0,,23.8,22.7,95,99440,0,0,431,175,17,163,20992,1460,19704,0,0,0.1,10,0,0,0,0,0,0,0,0,0,0,0,0
2005,8,25,11,0,,25.3,22.8,89,99440,0,0,440,249,25,229,29314,2131,27380,0,160,1.2,10,0,0,0,0,0,0,0,0,0,0,0,0
2005,8,25,12,0,,25.7,22.8,84,99450,0,0,443,294,28,270,34115,2408,31999,0,200,2.9,10,0,0,0,0,0,0,0,0,0,0,0,0
2005,8,25,13,0,,26.5,22.8,79,99460,0,0,443,322,32,293,36768,2746,34581,0,230,3.1,10,0,0,0,0,0,0,0,0,0,0,0,0
2005,8,25,14,0,,26.2,22.9,82,99460,0,0,437,375,52,329,41430,4549,38393,0,200,5,9,0,0,0,0,0,0,0,0,0,0,0,0
2005,8,25,15,0,,26.7,22.9,80,99470,0,0,436,356,61,307,38142,5239,35523,0,230,5.4,9,0,0,0,0,0,0,0,0,0,0,0,0
2005,8,25,16,0,,25.6,22.1,82,99560,0,0,433,268,49,234,28031,3896,26841,0,230,5.4,9,0,0,0,0,0,0,0,0,0,0,0,0
2005,8,25,17,0,,24.7,21.3,81,99640,0,0,430,146,22,134,13141,1276,13017,0,250,5.4,10,0,0,0,0,0,0,0,0,0,0,0,0
2005,8,25,18,0,,22.9,20.5,86,99730,0,0,423,74,14,69,0,0,0,0,270,5.1,10,0,0,0,0,0,0,0,0,0,0,0,0
2005,8,25,19,0,,21.6,19.9,90,99820,0,0,415,22,1,21,0,0,0,0,270,5.5,10,0,0,0,0,0,0,0,0,0,0,0,0
2005,8,25,20,0,,21.6,19.3,86,99920,0,0,414,0,0,0,0,0,0,0,270,3.7,10,0,0,0,0,0,0,0,0,0,0,0,0
2005,8,25,21,0,,21.3,18.7,85,100010,0,0,412,0,0,0,0,0,0,0,270,2.3,10,0,0,0,0,0,0,0,0,0,0,0,0
2005,8,25,22,0,,20.9,18.9,88,100040,0,0,410,0,0,0,0,0,0,0,320,0.8,10,0,0,0,0,0,0,0,0,0,0,0,0
2005,8,25,23,0,,20.6,19.2,90,100070,0,0,409,0,0,0,0,0,0,0,270,1.7,10,0,0,0,0,0,0,0,0,0,0,0,0
2005,8,25,24,0,,20.2,19.4,95,100100,0,0,407,0,0,0,0,0,0,0,20,0.8,10,0,0,0,0,0,0,0,0,0,0,0,0
2005,8,26,1,0,,20.2,19.2,94,100120,0,0,406,0,0,0,0,0,0,0,0,0.1,10,0,0,0,0,0,0,0,0,0,0,0,0
2005,8,26,2,0,,20.1,19.1,93,100150,0,0,406,0,0,0,0,0,0,0,250,1.6,10,0,0,0,0,0,0,0,0,0,0,0,0
2005,8,26,3,0,,20.2,18.9,92,100170,0,0,406,0,0,0,0,0,0,0,360,0.3,10,0,0,0,0,0,0,0,0,0,0,0,0
2005,8,26,4,0,,19.7,18.9,96,100210,0,0,403,0,0,0,0,0,0,0,230,1.2,10,0,0,0,0,0,0,0,0,0,0,0,0
2005,8,26,5,0,,19.8,18.8,94,100250,0,0,404,0,0,0,0,0,0,0,200,1.2,10,0,0,0,0,0,0,0,0,0,0,0,0
2005,8,26,6,0,,19.5,18.8,95,100290,0,0,402,0,0,0,0,0,0,0,250,1,10,0,0,0,0,0,0,0,0,0,0,0,0
2005,8,26,7,0,,19.9,18.4,93,100340,0,0,396,26,3,23,3027,288,2880,0,230,1,9,0,0,0,0,0,0,0,0,0,0,0,0
2005,8,26,8,0,,20.7,17.9,90,100380,0,0,393,106,60,88,15263,5471,11569,0,270,1.5,9,0,0,0,0,0,0,0,0,0,0,0,0
2005,8,26,9,0,,22,17.5,76,100430,0,0,394,257,138,189,35124,12565,25055,0,360,1.6,8,0,0,0,0,0,0,0,0,0,0,0,0
2005,8,26,10,0,,22.9,17,76,100440,0,0,390,403,178,286,50454,16280,36130,0,290,1.3,7,0,0,0,0,0,0,0,0,0,0,0,0
2005,8,26,11,0,,24.2,16.5,69,100450,0,0,391,612,314,364,70678,28841,44572,0,340,1.3,5,0,0,0,0,0,0,0,0,0,0,0,0
2005,8,26,12,0,,25,16,57,100460,0,0,391,706,328,419,76748,30133,50360,0,360,2,4,0,0,0,0,0,0,0,0,0,0,0,0
2005,8,26,13,0,,25.3,16.1,57,100420,0,0,393,743,333,441,76704,30366,52609,0,360,2.9,4,0,0,0,0,0,0,0,0,0,0,0,0
2005,8,26,14,0,,26.4,16.2,57,100390,0,0,399,712,321,428,68877,28841,49726,0,360,1.3,4,0,0,0,0,0,0,0,0,0,0,0,0
2005,8,26,15,0,,26.7,16.3,53,100350,0,0,401,638,325,375,57212,27849,43396,0,360,1.8,4,0,0,0,0,0,0,0,0,0,0,0,0
2005,8,26,16,0,,27.2,16.8,58,100360,0,0,403,543,443,239,38691,31569,29180,0,320,1.6,4,0,0,0,0,0,0,0,0,0,0,0,0
2005,8,26,17,0,,25.4,17.2,63,100370,0,0,393,392,416,174,20868,9408,19996,0,360,1.5,3,0,0,0,0,0,0,0,0,0,0,0,0
2005,8,26,18,0,,24.2,17.7,67,100380,0,0,386,235,396,104,0,0,0,0,320,1.9,3,0,0,0,0,0,0,0,0,0,0,0,0
2005,8,26,19,0,,23.4,18,72,100430,0,0,382,75,44,31,0,0,0,0,320,1.5,3,0,0,0,0,0,0,0,0,0,0,0,0
2005,8,26,20,0,,22.8,18.4,76,100470,0,0,379,0,0,0,0,0,0,0,320,1,3,0,0,0,0,0,0,0,0,0,0,0,0
2005,8,26,21,0,,22.5,18.7,79,100520,0,0,378,0,0,0,0,0,0,0,270,1.4,3,0,0,0,0,0,0,0,0,0,0,0,0
2005,8,26,22,0,,22.1,18.8,80,100510,0,0,380,0,0,0,0,0,0,0,360,0.4,4,0,0,0,0,0,0,0,0,0,0,0,0
2005,8,26,23,0,,22,18.9,81,100510,0,0,384,0,0,0,0,0,0,0,0,0.1,6,0,0,0,0,0,0,0,0,0,0,0,0
2005,8,26,24,0,,21.9,19,83,100500,0,0,389,0,0,0,0,0,0,0,290,0.5,7,0,0,0,0,0,0,0,0,0,0,0,0
2005,8,27,1,0,,21.3,19.1,88,100510,0,0,385,0,0,0,0,0,0,0,250,1.6,7,0,0,0,0,0,0,0,0,0,0,0,0
2005,8,27,2,0,,20.9,19.3,89,100520,0,0,381,0,0,0,0,0,0,0,180,0.8,6,0,0,0,0,0,0,0,0,0,0,0,0
2005,8,27,3,0,,21,19.4,90,100530,0,0,381,0,0,0,0,0,0,0,0,0.1,6,0,0,0,0,0,0,0,0,0,0,0,0
2005,8,27,4,0,,20.5,19.2,92,100530,0,0,378,0,0,0,0,0,0,0,20,1.4,6,0,0,0,0,0,0,0,0,0,0,0,0
2005,8,27,5,0,,19.8,19,93,100540,0,0,374,0,0,0,0,0,0,0,70,1.7,6,0,0,0,0,0,0,0,0,0,0,0,0
2005,8,27,6,0,,20,18.8,93,100540,0,0,375,0,0,0,0,0,0,0,290,0.5,6,0,0,0,0,0,0,0,0,0,0,0,0
2005,8,27,7,0,,20.3,19,92,100560,0,0,375,46,17,29,4804,1514,4035,0,20,1,6,0,0,0,0,0,0,0,0,0,0,0,0
2005,8,27,8,0,,21.4,19.2,87,100570,0,0,380,190,353,88,37720,34920,14217,0,50,0.9,5,0,0,0,0,0,0,0,0,0,0,0,0
2005,8,27,9,0,,23.6,19.4,77,100590,0,0,391,350,373,169,51891,33870,24825,0,20,1.4,5,0,0,0,0,0,0,0,0,0,0,0,0
2005,8,27,10,0,,24.4,19.5,70,100570,0,0,394,483,314,277,62597,28360,37713,0,160,0.8,5,0,0,0,0,0,0,0,0,0,0,0,0
2005,8,27,11,0,,25.4,19.7,67,100550,0,0,399,625,414,299,73962,37392,40214,0,50,1.4,4,0,0,0,0,0,0,0,0,0,0,0,0
2005,8,27,12,0,,27,19.8,65,100530,0,0,407,700,323,419,76795,28035,52325,0,50,0.8,4,0,0,0,0,0,0,0,0,0,0,0,0
2005,8,27,13,0,,27.2,19.7,60,100480,0,0,408,708,288,447,73137,25257,53177,0,20,0.9,4,0,0,0,0,0,0,0,0,0,0,0,0
2005,8,27,14,0,,27.4,19.5,58,100420,0,0,409,683,285,432,67289,24533,51086,0,20,1.6,4,0,0,0,0,0,0,0,0,0,0,0,0
2005,8,27,15,0,,27.4,19.4,62,100370,0,0,408,594,263,382,55550,21608,44915,0,320,1.1,4,0,0,0,0,0,0,0,0,0,0,0,0
2005,8,27,16,0,,28,19.5,54,100350,0,0,411,507,312,294,40696,21454,34324,0,340,0.8,4,0,0,0,0,0,0,0,0,0,0,0,0
2005,8,27,17,0,,28.4,19.7,51,100330,0,0,412,408,486,156,19391,8639,18629,0,340,0.9,3,0,0,0,0,0,0,0,0,0,0,0,0
2005,8,27,18,0,,27,19.8,65,100310,0,0,403,243,456,94,0,0,0,0,340,0.9,3,0,0,0,0,0,0,0,0,0,0,0,0
2005,8,27,19,0,,25,20,76,100350,0,0,398,65,30,35,0,0,0,0,320,1.3,5,0,0,0,0,0,0,0,0,0,0,0,0
2005,8,27,20,0,,24,20.2,81,100390,0,0,399,0,0,0,0,0,0,0,290,1.4,6,0,0,0,0,0,0,0,0,0,0,0,0
2005,8,27,21,0,,23.2,20.4,84,100430,0,0,404,0,0,0,0,0,0,0,320,0.4,8,0,0,0,0,0,0,0,0,0,0,0,0
2005,8,27,22,0,,22.5,20.2,88,100430,0,0,391,0,0,0,0,0,0,0,270,0.4,6,0,0,0,0,0,0,0,0,0,0,0,0
2005,8,27,23,0,,22.2,20.1,88,100440,0,0,383,0,0,0,0,0,0,0,290,0.5,5,0,0,0,0,0,0,0,0,0,0,0,0
2005,8,27,24,0,,21.5,19.9,91,100440,0,0,375,0,0,0,0,0,0,0,50,0.4,3,0,0,0,0,0,0,0,0,0,0,0,0
2005,8,28,1,0,,21.4,19.5,88,100430,0,0,373,0,0,0,0,0,0,0,320,0.4,3,0,0,0,0,0,0,0,0,0,0,0,0
2005,8,28,2,0,,21,19.1,88,100430,0,0,369,0,0,0,0,0,0,0,50,0.9,2,0,0,0,0,0,0,0,0,0,0,0,0
2005,8,28,3,0,,20.3,18.7,90,100420,0,0,364,0,0,0,0,0,0,0,20,1.2,2,0,0,0,0,0,0,0,0,0,0,0,0
2005,8,28,4,0,,20.1,18.5,91,100430,0,0,359,0,0,0,0,0,0,0,50,0.9,1,0,0,0,0,0,0,0,0,0,0,0,0
2005,8,28,5,0,,19.6,18.4,92,100450,0,0,353,0,0,0,0,0,0,0,340,0.4,1,0,0,0,0,0,0,0,0,0,0,0,0
2005,8,28,6,0,,19.3,18.2,94,100460,0,0,347,0,0,0,0,0,0,0,270,0.6,0,0,0,0,0,0,0,0,0,0,0,0,0
2005,8,28,7,0,,19.2,18.5,94,100470,0,0,347,58,27,31,5480,2362,4286,0,0,0,0,0,0,0,0,0,0,0,0,0,0,0,0
2005,8,28,8,0,,20.8,18.7,87,100480,0,0,354,213,462,81,44124,48114,11845,0,270,0.8,0,0,0,0,0,0,0,0,0,0,0,0,0
2005,8,28,9,0,,22.3,19,82,100490,0,0,362,389,526,135,61781,52127,20242,0,270,0.9,0,0,0,0,0,0,0,0,0,0,0,0,0
2005,8,28,10,0,,25.3,18.1,64,100480,0,0,379,593,670,155,80755,69357,20068,0,360,0.8,0,0,0,0,0,0,0,0,0,0,0,0,0
2005,8,28,11,0,,26.1,17.1,62,100480,0,0,384,721,659,204,86313,65004,27815,0,270,1.3,1,0,0,0,0,0,0,0,0,0,0,0,0
2005,8,28,12,0,,26.5,16.2,53,100470,0,0,387,792,619,253,85313,60333,32830,0,340,1.6,1,0,0,0,0,0,0,0,0,0,0,0,0
2005,8,28,13,0,,27.2,16.6,55,100410,0,0,395,766,485,328,77084,44693,41913,0,290,1.3,2,0,0,0,0,0,0,0,0,0,0,0,0
2005,8,28,14,0,,28.3,17,51,100360,0,0,405,762,529,297,69878,47871,38437,0,20,2.2,2,0,0,0,0,0,0,0,0,0,0,0,0
2005,8,28,15,0,,29.2,17.4,49,100300,0,0,413,690,538,258,54625,45207,32554,0,20,2,3,0,0,0,0,0,0,0,0,0,0,0,0
2005,8,28,16,0,,28.2,18,47,100310,0,0,408,546,471,226,37597,32392,28115,0,360,1.2,3,0,0,0,0,0,0,0,0,0,0,0,0
2005,8,28,17,0,,28.4,18.5,52,100330,0,0,410,401,471,158,19196,8134,18516,0,340,1.4,3,0,0,0,0,0,0,0,0,0,0,0,0
2005,8,28,18,0,,26.5,19.1,64,100340,0,0,400,227,388,102,0,0,0,0,340,1.8,3,0,0,0,0,0,0,0,0,0,0,0,0
2005,8,28,19,0,,24.7,18.4,70,100370,0,0,388,70,30,39,0,0,0,0,360,1.4,3,0,0,0,0,0,0,0,0,0,0,0,0
2005,8,28,20,0,,23.5,17.6,70,100410,0,0,380,0,0,0,0,0,0,0,20,3.2,2,0,0,0,0,0,0,0,0,0,0,0,0
2005,8,28,21,0,,22.4,16.9,71,100440,0,0,372,0,0,0,0,0,0,0,70,2.6,2,0,0,0,0,0,0,0,0,0,0,0,0
2005,8,28,22,0,,21.8,17.1,75,100470,0,0,369,0,0,0,0,0,0,0,50,3.1,2,0,0,0,0,0,0,0,0,0,0,0,0
2005,8,28,23,0,,21.9,17.2,77,100490,0,0,370,0,0,0,0,0,0,0,90,0.5,2,0,0,0,0,0,0,0,0,0,0,0,0
2005,8,28,24,0,,21.7,17.4,77,100520,0,0,369,0,0,0,0,0,0,0,360,0.7,2,0,0,0,0,0,0,0,0,0,0,0,0
2005,8,29,1,0,,20.5,17.5,85,100510,0,0,360,0,0,0,0,0,0,0,0,0.1,1,0,0,0,0,0,0,0,0,0,0,0,0
2005,8,29,2,0,,20.6,17.7,85,100490,0,0,357,0,0,0,0,0,0,0,90,1.2,1,0,0,0,0,0,0,0,0,0,0,0,0
2005,8,29,3,0,,20.1,17.8,87,100480,0,0,350,0,0,0,0,0,0,0,50,1.3,0,0,0,0,0,0,0,0,0,0,0,0,0
2005,8,29,4,0,,19.3,17.8,90,100470,0,0,353,0,0,0,0,0,0,0,50,1.8,1,0,0,0,0,0,0,0,0,0,0,0,0
2005,8,29,5,0,,19.8,17.7,88,100460,0,0,360,0,0,0,0,0,0,0,50,3.1,2,0,0,0,0,0,0,0,0,0,0,0,0
2005,8,29,6,0,,19.5,17.7,89,100450,0,0,362,0,0,0,0,0,0,0,50,3.1,3,0,0,0,0,0,0,0,0,0,0,0,0
2005,8,29,7,0,,19.9,18.3,88,100440,0,0,364,57,27,30,5394,2396,4188,0,50,1.2,3,0,0,0,0,0,0,0,0,0,0,0,0
2005,8,29,8,0,,21.1,18.8,87,100430,0,0,369,222,523,73,47324,54615,10803,0,50,4.7,2,0,0,0,0,0,0,0,0,0,0,0,0
2005,8,29,9,0,,23.9,19.4,76,100420,0,0,383,403,586,121,65070,61015,16587,0,50,1.2,2,0,0,0,0,0,0,0,0,0,0,0,0
2005,8,29,10,0,,24.7,19.5,69,100390,0,0,385,554,565,186,74647,55478,26241,0,20,1.3,2,0,0,0,0,0,0,0,0,0,0,0,0
2005,8,29,11,0,,26.3,19.6,68,100350,0,0,392,694,597,226,82905,58193,30695,0,250,1.7,1,0,0,0,0,0,0,0,0,0,0,0,0
2005,8,29,12,0,,27.9,19.7,61,100320,0,0,399,763,557,279,81525,50148,38054,0,290,1.7,1,0,0,0,0,0,0,0,0,0,0,0,0
2005,8,29,13,0,,29.1,18.4,55,100270,0,0,416,752,460,338,76358,41502,43837,0,320,0.8,4,0,0,0,0,0,0,0,0,0,0,0,0
2005,8,29,14,0,,30.1,17.2,48,100220,0,0,429,654,255,430,64978,22556,50247,0,270,1.1,6,0,0,0,0,0,0,0,0,0,0,0,0
2005,8,29,15,0,,29.5,15.9,44,100170,0,0,444,387,81,322,40195,7407,36609,0,20,1.5,9,0,0,0,0,0,0,0,0,0,0,0,0
2005,8,29,16,0,,29.8,16.7,47,100150,0,0,437,373,131,285,35157,11128,31948,0,360,1.2,8,0,0,0,0,0,0,0,0,0,0,0,0
2005,8,29,17,0,,29.5,17.5,48,100120,0,0,430,299,184,205,23257,12348,22281,0,360,1,7,0,0,0,0,0,0,0,0,0,0,0,0
2005,8,29,18,0,,28.4,18.3,54,100100,0,0,419,193,264,109,0,0,0,0,360,0.7,6,0,0,0,0,0,0,0,0,0,0,0,0
2005,8,29,19,0,,26.9,19.1,69,100150,0,0,412,54,20,34,0,0,0,0,340,1,6,0,0,0,0,0,0,0,0,0,0,0,0
2005,8,29,20,0,,25.7,20,77,100200,0,0,406,0,0,0,0,0,0,0,230,2.5,6,0,0,0,0,0,0,0,0,0,0,0,0
2005,8,29,21,0,,24.7,20.8,79,100250,0,0,402,0,0,0,0,0,0,0,200,2.8,6,0,0,0,0,0,0,0,0,0,0,0,0
2005,8,29,22,0,,24.3,20.8,81,100230,0,0,400,0,0,0,0,0,0,0,200,2.2,6,0,0,0,0,0,0,0,0,0,0,0,0
2005,8,29,23,0,,23.8,20.7,83,100210,0,0,397,0,0,0,0,0,0,0,230,1.6,6,0,0,0,0,0,0,0,0,0,0,0,0
2005,8,29,24,0,,23.7,20.7,83,100190,0,0,396,0,0,0,0,0,0,0,230,1.3,6,0,0,0,0,0,0,0,0,0,0,0,0
2005,8,30,1,0,,23.5,20.7,85,100140,0,0,398,0,0,0,0,0,0,0,290,0.3,7,0,0,0,0,0,0,0,0,0,0,0,0
2005,8,30,2,0,,23.1,20.7,87,100100,0,0,400,0,0,0,0,0,0,0,320,0.3,7,0,0,0,0,0,0,0,0,0,0,0,0
2005,8,30,3,0,,23,20.7,87,100050,0,0,404,0,0,0,0,0,0,0,270,0.4,8,0,0,0,0,0,0,0,0,0,0,0,0
2005,8,30,4,0,,22.4,20.7,90,100070,0,0,406,0,0,0,0,0,0,0,0,0.1,9,0,0,0,0,0,0,0,0,0,0,0,0
2005,8,30,5,0,,22.6,20.8,90,100080,0,0,414,0,0,0,0,0,0,0,20,0.5,9,0,0,0,0,0,0,0,0,0,0,0,0
2005,8,30,6,0,,22.5,20.8,90,100100,0,0,421,0,0,0,0,0,0,0,270,0.5,10,0,0,0,0,0,0,0,0,0,0,0,0
2005,8,30,7,0,,22.6,20.9,90,100150,0,0,422,15,1,14,1951,23,1940,0,0,0,10,0,0,0,0,0,0,0,0,0,0,0,0
2005,8,30,8,0,,23.2,21.1,86,100210,0,0,426,70,21,64,9019,1742,7858,0,0,0.2,10,0,0,0,0,0,0,0,0,0,0,0,0
2005,8,30,9,0,,23,21.2,89,100260,0,0,425,120,17,112,14711,1495,13526,0,320,1,10,0,0,0,0,0,0,0,0,0,0,0,0
2005,8,30,10,0,,23.2,21.4,89,100260,0,0,426,175,18,163,21021,1588,19639,0,270,0.5,10,0,0,0,0,0,0,0,0,0,0,0,0
2005,8,30,11,0,,23.6,21.7,88,100250,0,0,429,197,14,187,23425,1183,22367,0,340,0.3,10,0,0,0,0,0,0,0,0,0,0,0,0
2005,8,30,12,0,,24.2,21.9,87,100250,0,0,433,254,20,237,29603,1690,28143,0,320,0.7,10,0,0,0,0,0,0,0,0,0,0,0,0
2005,8,30,13,0,,24,21.5,87,100210,0,0,431,261,19,244,29655,1216,28706,0,20,2.4,10,0,0,0,0,0,0,0,0,0,0,0,0
2005,8,30,14,0,,23.5,21.2,84,100170,0,0,428,247,18,232,27360,1181,26593,0,50,2.8,10,0,0,0,0,0,0,0,0,0,0,0,0
2005,8,30,15,0,,23.2,20.8,86,100130,0,0,425,212,16,200,22752,1040,22253,0,50,2.9,10,0,0,0,0,0,0,0,0,0,0,0,0
2005,8,30,16,0,,23.1,19.9,82,100130,0,0,424,187,20,174,18780,1236,18429,0,50,2.5,10,0,0,0,0,0,0,0,0,0,0,0,0
2005,8,30,17,0,,22.7,19.1,76,100140,0,0,420,148,26,135,12936,1967,12790,0,50,3.4,10,0,0,0,0,0,0,0,0,0,0,0,0
2005,8,30,18,0,,22.4,18.2,77,100140,0,0,417,80,22,74,0,0,0,0,50,2.1,10,0,0,0,0,0,0,0,0,0,0,0,0
2005,8,30,19,0,,22.1,17.6,76,100170,0,0,415,23,2,21,0,0,0,0,20,2.8,10,0,0,0,0,0,0,0,0,0,0,0,0
2005,8,30,20,0,,21.8,17,82,100190,0,0,412,0,0,0,0,0,0,0,70,1.7,10,0,0,0,0,0,0,0,0,0,0,0,0
2005,8,30,21,0,,21.7,16.4,72,100220,0,0,411,0,0,0,0,0,0,0,50,1.2,10,0,0,0,0,0,0,0,0,0,0,0,0
2005,8,30,22,0,,21,16.4,80,100230,0,0,407,0,0,0,0,0,0,0,70,1.7,10,0,0,0,0,0,0,0,0,0,0,0,0
2005,8,30,23,0,,20.9,16.3,79,100250,0,0,406,0,0,0,0,0,0,0,50,0.4,10,0,0,0,0,0,0,0,0,0,0,0,0
2005,8,30,24,0,,21.2,16.3,73,100260,0,0,408,0,0,0,0,0,0,0,50,1,10,0,0,0,0,0,0,0,0,0,0,0,0
2005,8,31,1,0,,20.6,16.3,75,100250,0,0,405,0,0,0,0,0,0,0,70,1.5,10,0,0,0,0,0,0,0,0,0,0,0,0
2005,8,31,2,0,,20.4,16.4,79,100230,0,0,404,0,0,0,0,0,0,0,50,1.9,10,0,0,0,0,0,0,0,0,0,0,0,0
2005,8,31,3,0,,20.3,16.4,79,100220,0,0,403,0,0,0,0,0,0,0,90,0.4,10,0,0,0,0,0,0,0,0,0,0,0,0
2005,8,31,4,0,,20.1,16.5,81,100240,0,0,402,0,0,0,0,0,0,0,90,1.3,10,0,0,0,0,0,0,0,0,0,0,0,0
2005,8,31,5,0,,20,16.6,81,100250,0,0,402,0,0,0,0,0,0,0,50,1.8,10,0,0,0,0,0,0,0,0,0,0,0,0
2005,8,31,6,0,,20.1,16.7,81,100270,0,0,402,0,0,0,0,0,0,0,50,2.6,10,0,0,0,0,0,0,0,0,0,0,0,0
2005,8,31,7,0,,20.5,16.9,81,100280,0,0,397,25,3,22,2853,283,2712,0,0,0.2,9,0,0,0,0,0,0,0,0,0,0,0,0
2005,8,31,8,0,,21.2,17.1,78,100300,0,0,395,110,77,89,17224,6951,12606,0,50,2.2,9,0,0,0,0,0,0,0,0,0,0,0,0
2005,8,31,9,0,,22.5,17.3,73,100310,0,0,397,259,153,186,35614,13957,24589,0,70,2.7,8,0,0,0,0,0,0,0,0,0,0,0,0
2005,8,31,10,0,,23.8,17.9,68,100310,0,0,400,395,178,279,49689,16101,35722,0,70,0.4,7,0,0,0,0,0,0,0,0,0,0,0,0
2005,8,31,11,0,,25.4,18.6,64,100300,0,0,406,503,184,360,58155,16602,43352,0,20,0.6,7,0,0,0,0,0,0,0,0,0,0,0,0
2005,8,31,12,0,,27.2,19.2,62,100300,0,0,414,624,236,421,68278,20959,50240,0,20,1.1,6,0,0,0,0,0,0,0,0,0,0,0,0
2005,8,31,13,0,,28.2,20,60,100260,0,0,418,695,286,440,71773,24875,52453,0,320,0.6,5,0,0,0,0,0,0,0,0,0,0,0,0
2005,8,31,14,0,,28.2,20.7,63,100230,0,0,416,657,266,425,65185,22427,50709,0,20,2,5,0,0,0,0,0,0,0,0,0,0,0,0
2005,8,31,15,0,,30.4,21.5,59,100190,0,0,428,647,455,286,53967,35187,37223,0,20,2.1,4,0,0,0,0,0,0,0,0,0,0,0,0
2005,8,31,16,0,,30.4,21.3,60,100220,0,0,430,500,328,282,39176,21124,33272,0,180,2,5,0,0,0,0,0,0,0,0,0,0,0,0
2005,8,31,17,0,,29.9,21,59,100260,0,0,429,368,389,172,20397,2470,20225,0,160,1.8,5,0,0,0,0,0,0,0,0,0,0,0,0
2005,8,31,18,0,,29,20.8,61,100290,0,0,426,187,264,106,0,0,0,0,180,2.9,6,0,0,0,0,0,0,0,0,0,0,0,0
2005,8,31,19,0,,28.2,21,65,100330,0,0,420,54,23,31,0,0,0,0,180,2.6,6,0,0,0,0,0,0,0,0,0,0,0,0
2005,8,31,20,0,,27.1,21.1,71,100380,0,0,413,0,0,0,0,0,0,0,200,2.5,5,0,0,0,0,0,0,0,0,0,0,0,0
2005,8,31,21,0,,26.8,21.3,72,100420,0,0,410,0,0,0,0,0,0,0,180,0.8,5,0,0,0,0,0,0,0,0,0,0,0,0
2005,8,31,22,0,,26.3,21.5,75,100440,0,0,407,0,0,0,0,0,0,0,200,0.9,5,0,0,0,0,0,0,0,0,0,0,0,0
2005,8,31,23,0,,25.9,21.7,77,100470,0,0,404,0,0,0,0,0,0,0,250,1,4,0,0,0,0,0,0,0,0,0,0,0,0
2005,8,31,24,0,,25.4,21.9,81,100490,0,0,401,0,0,0,0,0,0,0,270,0.9,4,0,0,0,0,0,0,0,0,0,0,0,0
1991,9,1,1,0,,21.4,19.4,89,100330,0,0,358,0,0,0,0,0,0,0,140,1.3,0,0,0,0,0,0,0,0,0,0,0,0,0
1991,9,1,2,0,,20.7,19.1,91,100320,0,0,354,0,0,0,0,0,0,0,0,0.2,0,0,0,0,0,0,0,0,0,0,0,0,0
1991,9,1,3,0,,20,18.8,93,100310,0,0,351,0,0,0,0,0,0,0,140,0.8,0,0,0,0,0,0,0,0,0,0,0,0,0
1991,9,1,4,0,,19.9,18.4,93,100340,0,0,350,0,0,0,0,0,0,0,0,0,0,0,0,0,0,0,0,0,0,0,0,0,0
1991,9,1,5,0,,19.4,18,93,100370,0,0,347,0,0,0,0,0,0,0,0,0.2,0,0,0,0,0,0,0,0,0,0,0,0,0
1991,9,1,6,0,,18.8,17.6,93,100400,0,0,344,0,0,0,0,0,0,0,140,0.8,0,0,0,0,0,0,0,0,0,0,0,0,0
1991,9,1,7,0,,18.9,18.3,88,100420,0,0,345,53,23,30,5205,2035,4191,0,0,0,0,0,0,0,0,0,0,0,0,0,0,0,0
1991,9,1,8,0,,20,18.9,84,100450,0,0,351,199,415,84,40960,41109,13688,0,200,0.3,0,0,0,0,0,0,0,0,0,0,0,0,0
1991,9,1,9,0,,23.5,19.6,79,100470,0,0,369,405,615,113,66320,64244,15629,0,20,2,0,0,0,0,0,0,0,0,0,0,0,0,0
1991,9,1,10,0,,26,19.3,70,100460,0,0,381,611,749,129,84973,78275,17148,0,50,3.2,0,0,0,0,0,0,0,0,0,0,0,0,0
1991,9,1,11,0,,27.9,18.9,61,100450,0,0,390,758,774,158,91940,80325,20411,0,20,3.7,0,0,0,0,0,0,0,0,0,0,0,0,0
1991,9,1,12,0,,29.5,18.6,52,100440,0,0,399,819,707,211,88422,69078,29056,0,360,2.5,0,0,0,0,0,0,0,0,0,0,0,0,0
1991,9,1,13,0,,30.6,18,48,100380,0,0,404,835,667,240,81855,64220,32065,0,70,3,0,0,0,0,0,0,0,0,0,0,0,0,0
1991,9,1,14,0,,31.4,17.5,43,100330,0,0,408,803,651,238,70082,58615,32339,0,90,2,0,0,0,0,0,0,0,0,0,0,0,0,0
1991,9,1,15,0,,32.5,16.9,39,100270,0,0,413,732,673,200,54750,58119,27190,0,70,2.5,0,0,0,0,0,0,0,0,0,0,0,0,0
1991,9,1,16,0,,32,18.2,45,100270,0,0,412,584,618,174,35304,43812,23138,0,20,2,0,0,0,0,0,0,0,0,0,0,0,0,0
1991,9,1,17,0,,32,19.4,50,100270,0,0,413,418,584,127,15640,11352,14870,0,20,1.7,0,0,0,0,0,0,0,0,0,0,0,0,0
1991,9,1,18,0,,30.4,20.7,56,100270,0,0,406,234,505,81,0,0,0,0,320,2.8,0,0,0,0,0,0,0,0,0,0,0,0,0
1991,9,1,19,0,,28.3,21,64,100320,0,0,408,64,32,33,0,0,0,0,290,2.3,2,0,0,0,0,0,0,0,0,0,0,0,0
1991,9,1,20,0,,28,21.2,72,100380,0,0,414,0,0,0,0,0,0,0,0,0.2,4,0,0,0,0,0,0,0,0,0,0,0,0
1991,9,1,21,0,,25.2,21.5,80,100430,0,0,406,0,0,0,0,0,0,0,0,0.2,6,0,0,0,0,0,0,0,0,0,0,0,0
1991,9,1,22,0,,24.5,21.2,82,100430,0,0,395,0,0,0,0,0,0,0,140,1,4,0,0,0,0,0,0,0,0,0,0,0,0
1991,9,1,23,0,,23.7,20.9,83,100420,0,0,383,0,0,0,0,0,0,0,140,1.2,2,0,0,0,0,0,0,0,0,0,0,0,0
1991,9,1,24,0,,23.2,20.6,85,100420,0,0,368,0,0,0,0,0,0,0,140,1,0,0,0,0,0,0,0,0,0,0,0,0,0
1991,9,2,1,0,,22.7,20.5,87,100410,0,0,366,0,0,0,0,0,0,0,110,0.7,0,0,0,0,0,0,0,0,0,0,0,0,0
1991,9,2,2,0,,22.3,20.3,89,100400,0,0,363,0,0,0,0,0,0,0,160,0.5,0,0,0,0,0,0,0,0,0,0,0,0,0
1991,9,2,3,0,,21.8,20.2,91,100390,0,0,361,0,0,0,0,0,0,0,0,0,0,0,0,0,0,0,0,0,0,0,0,0,0
1991,9,2,4,0,,21.4,19.9,91,100370,0,0,364,0,0,0,0,0,0,0,140,1.2,1,0,0,0,0,0,0,0,0,0,0,0,0
1991,9,2,5,0,,21.3,19.7,90,100360,0,0,367,0,0,0,0,0,0,0,0,0,1,0,0,0,0,0,0,0,0,0,0,0,0
1991,9,2,6,0,,21,19.4,90,100340,0,0,368,0,0,0,0,0,0,0,0,0,2,0,0,0,0,0,0,0,0,0,0,0,0
1991,9,2,7,0,,21,19.9,86,100350,0,0,373,51,29,22,4765,2437,3556,0,0,0,3,0,0,0,0,0,0,0,0,0,0,0,0
1991,9,2,8,0,,22.5,20.5,83,100370,0,0,385,176,334,85,35699,32906,13945,0,0,0.2,5,0,0,0,0,0,0,0,0,0,0,0,0
1991,9,2,9,0,,24.8,21,79,100380,0,0,403,317,296,177,47086,26316,26385,0,360,1.3,6,0,0,0,0,0,0,0,0,0,0,0,0
1991,9,2,10,0,,25.5,21.3,75,100330,0,0,406,438,250,277,55309,21343,36872,0,320,0.8,6,0,0,0,0,0,0,0,0,0,0,0,0
1991,9,2,11,0,,26.6,21.5,71,100270,0,0,411,572,275,359,67221,23277,46560,0,50,0.5,5,0,0,0,0,0,0,0,0,0,0,0,0
1991,9,2,12,0,,28.5,21.8,67,100220,0,0,421,631,249,417,71349,20834,53511,0,340,0.7,5,0,0,0,0,0,0,0,0,0,0,0,0
1991,9,2,13,0,,30.5,20.3,59,100170,0,0,425,792,576,280,77819,51073,38404,0,230,2.8,3,0,0,0,0,0,0,0,0,0,0,0,0
1991,9,2,14,0,,31.4,18.7,51,100130,0,0,421,797,647,238,69573,57478,32788,0,140,2,2,0,0,0,0,0,0,0,0,0,0,0,0
1991,9,2,15,0,,31.4,17.2,43,100080,0,0,407,726,668,200,54285,57451,27287,0,180,3.3,0,0,0,0,0,0,0,0,0,0,0,0,0
1991,9,2,16,0,,31.5,17.9,47,100080,0,0,422,570,588,182,35191,41409,23880,0,160,3,2,0,0,0,0,0,0,0,0,0,0,0,0
1991,9,2,17,0,,30.3,18.7,52,100080,0,0,424,373,433,159,18408,3036,18217,0,160,3.2,4,0,0,0,0,0,0,0,0,0,0,0,0
1991,9,2,18,0,,28.9,19.4,56,100080,0,0,424,179,257,102,0,0,0,0,180,3.2,6,0,0,0,0,0,0,0,0,0,0,0,0
1991,9,2,19,0,,27.2,19.1,59,100110,0,0,412,49,19,31,0,0,0,0,160,3.5,6,0,0,0,0,0,0,0,0,0,0,0,0
1991,9,2,20,0,,26.1,18.8,63,100140,0,0,405,0,0,0,0,0,0,0,180,3.5,5,0,0,0,0,0,0,0,0,0,0,0,0
1991,9,2,21,0,,25.4,18.5,66,100170,0,0,399,0,0,0,0,0,0,0,180,1.8,5,0,0,0,0,0,0,0,0,0,0,0,0
1991,9,2,22,0,,24.9,19.1,70,100190,0,0,401,0,0,0,0,0,0,0,230,3,6,0,0,0,0,0,0,0,0,0,0,0,0
1991,9,2,23,0,,24.3,19.6,75,100200,0,0,403,0,0,0,0,0,0,0,230,0.7,7,0,0,0,0,0,0,0,0,0,0,0,0
1991,9,2,24,0,,23.9,20.2,79,100220,0,0,408,0,0,0,0,0,0,0,200,0.8,8,0,0,0,0,0,0,0,0,0,0,0,0
1991,9,3,1,0,,23.8,20.2,79,100190,0,0,413,0,0,0,0,0,0,0,180,1.7,9,0,0,0,0,0,0,0,0,0,0,0,0
1991,9,3,2,0,,23.7,20.2,80,100170,0,0,419,0,0,0,0,0,0,0,200,1.3,9,0,0,0,0,0,0,0,0,0,0,0,0
1991,9,3,3,0,,23.8,20.2,80,100140,0,0,428,0,0,0,0,0,0,0,0,0.2,10,0,0,0,0,0,0,0,0,0,0,0,0
1991,9,3,4,0,,23.8,20.3,81,100140,0,0,428,0,0,0,0,0,0,0,0,0.2,10,0,0,0,0,0,0,0,0,0,0,0,0
1991,9,3,5,0,,23.6,20.3,83,100140,0,0,427,0,0,0,0,0,0,0,140,1.3,10,0,0,0,0,0,0,0,0,0,0,0,0
1991,9,3,6,0,,23.2,20.4,84,100140,0,0,425,0,0,0,0,0,0,0,180,0.3,10,0,0,0,0,0,0,0,0,0,0,0,0
1991,9,3,7,0,,23.2,20.3,80,100150,0,0,404,30,6,24,3274,505,3024,0,160,1.5,8,0,0,0,0,0,0,0,0,0,0,0,0
1991,9,3,8,0,,24.3,20.3,77,100170,0,0,399,166,281,89,32797,27667,14571,0,110,1.5,6,0,0,0,0,0,0,0,0,0,0,0,0
1991,9,3,9,0,,25.4,20.2,73,100180,0,0,398,361,465,143,57260,45694,21429,0,160,3.3,4,0,0,0,0,0,0,0,0,0,0,0,0
1991,9,3,10,0,,26.4,20.1,69,100190,0,0,409,447,270,274,56257,23517,36005,0,140,2.7,6,0,0,0,0,0,0,0,0,0,0,0,0
1991,9,3,11,0,,28.1,20,64,100190,0,0,427,510,198,357,59017,17535,43504,0,230,2,7,0,0,0,0,0,0,0,0,0,0,0,0
1991,9,3,12,0,,28.3,19.9,60,100200,0,0,442,407,74,344,45811,6656,40134,0,180,1.5,9,0,0,0,0,0,0,0,0,0,0,0,0
1991,9,3,13,0,,29.9,19.4,56,100140,0,0,441,521,129,407,57384,11340,48674,0,180,2.3,8,0,0,0,0,0,0,0,0,0,0,0,0
1991,9,3,14,0,,30.8,18.9,52,100080,0,0,439,562,175,411,58246,15132,48622,0,140,2.3,7,0,0,0,0,0,0,0,0,0,0,0,0
1991,9,3,15,0,,30.5,18.4,48,100020,0,0,432,560,247,367,52422,20269,42984,0,160,2,6,0,0,0,0,0,0,0,0,0,0,0,0
1991,9,3,16,0,,30.9,19,53,100040,0,0,440,412,192,286,36405,15790,32164,0,200,2.2,7,0,0,0,0,0,0,0,0,0,0,0,0
1991,9,3,17,0,,29.4,19.7,58,100050,0,0,439,243,117,186,20647,7398,20216,0,200,2.8,8,0,0,0,0,0,0,0,0,0,0,0,0
1991,9,3,18,0,,28,20.3,63,100070,0,0,441,102,52,86,0,0,0,0,180,2.3,9,0,0,0,0,0,0,0,0,0,0,0,0
1991,9,3,19,0,,27,20.2,66,100120,0,0,431,25,3,22,0,0,0,0,160,2.3,9,0,0,0,0,0,0,0,0,0,0,0,0
1991,9,3,20,0,,26.2,20.2,68,100160,0,0,423,0,0,0,0,0,0,0,160,3.3,8,0,0,0,0,0,0,0,0,0,0,0,0
1991,9,3,21,0,,25.8,20.1,71,100210,0,0,418,0,0,0,0,0,0,0,160,3.8,8,0,0,0,0,0,0,0,0,0,0,0,0
1991,9,3,22,0,,25.4,20,71,100240,0,0,408,0,0,0,0,0,0,0,160,1,7,0,0,0,0,0,0,0,0,0,0,0,0
1991,9,3,23,0,,25.3,19.8,72,100260,0,0,402,0,0,0,0,0,0,0,160,0.7,5,0,0,0,0,0,0,0,0,0,0,0,0
1991,9,3,24,0,,25,19.7,72,100290,0,0,396,0,0,0,0,0,0,0,0,0,4,0,0,0,0,0,0,0,0,0,0,0,0
1991,9,4,1,0,,24.9,20.2,75,100280,0,0,398,0,0,0,0,0,0,0,0,0.2,5,0,0,0,0,0,0,0,0,0,0,0,0
1991,9,4,2,0,,24.8,20.7,78,100280,0,0,400,0,0,0,0,0,0,0,0,0.2,5,0,0,0,0,0,0,0,0,0,0,0,0
1991,9,4,3,0,,24.7,21.2,81,100270,0,0,402,0,0,0,0,0,0,0,200,1.8,6,0,0,0,0,0,0,0,0,0,0,0,0
1991,9,4,4,0,,24.6,21.2,81,100290,0,0,402,0,0,0,0,0,0,0,180,2,6,0,0,0,0,0,0,0,0,0,0,0,0
1991,9,4,5,0,,24.6,21.1,81,100310,0,0,402,0,0,0,0,0,0,0,180,2.7,6,0,0,0,0,0,0,0,0,0,0,0,0
1991,9,4,6,0,,24.5,21.1,81,100330,0,0,401,0,0,0,0,0,0,0,180,2.7,6,0,0,0,0,0,0,0,0,0,0,0,0
1991,9,4,7,0,,24.9,21.5,78,100340,0,0,397,53,25,28,4954,2116,3915,0,180,3.2,4,0,0,0,0,0,0,0,0,0,0,0,0
1991,9,4,8,0,,26,21.9,76,100340,0,0,397,211,529,68,46850,55693,10292,0,180,2.2,2,0,0,0,0,0,0,0,0,0,0,0,0
1991,9,4,9,0,,27.6,22.3,73,100350,0,0,393,403,633,108,67164,66597,15109,0,180,4.3,0,0,0,0,0,0,0,0,0,0,0,0,0
1991,9,4,10,0,,28.7,22.7,71,100350,0,0,416,533,543,187,72320,52664,27110,0,160,2.7,3,0,0,0,0,0,0,0,0,0,0,0,0
1991,9,4,11,0,,29.6,23.1,69,100340,0,0,432,545,244,358,64966,19840,47475,0,180,3.7,6,0,0,0,0,0,0,0,0,0,0,0,0
1991,9,4,12,0,,30.3,23.5,67,100340,0,0,459,415,79,348,46800,6806,41018,0,160,3.7,9,0,0,0,0,0,0,0,0,0,0,0,0
1991,9,4,13,0,,31,23.4,65,100300,0,0,456,492,112,394,53453,9703,46037,0,180,3,8,0,0,0,0,0,0,0,0,0,0,0,0
1991,9,4,14,0,,30.4,23.3,64,100250,0,0,447,469,108,376,49659,9351,43749,0,180,4.3,8,0,0,0,0,0,0,0,0,0,0,0,0
1991,9,4,15,0,,31.4,23.2,62,100210,0,0,448,479,159,355,47102,13592,40833,0,180,3.3,7,0,0,0,0,0,0,0,0,0,0,0,0
1991,9,4,16,0,,28.5,23.3,72,100230,0,0,436,292,75,243,29328,5717,27819,0,230,3.5,8,0,0,0,0,0,0,0,0,0,0,0,0
1991,9,4,17,0,,24.8,23.5,83,100250,0,0,420,164,40,144,13405,4197,13181,0,180,2.3,8,0,0,0,0,0,0,0,0,0,0,0,0
1991,9,4,18,0,,24.8,23.6,93,100270,0,0,426,66,16,62,0,0,0,0,180,3,9,0,0,0,0,0,0,0,0,0,0,0,0
1991,9,4,19,0,,25.1,23.8,92,100300,0,0,428,21,2,19,0,0,0,0,180,2.5,9,0,0,0,0,0,0,0,0,0,0,0,0
1991,9,4,20,0,,25.4,23.9,91,100340,0,0,430,0,0,0,0,0,0,0,180,2.2,9,0,0,0,0,0,0,0,0,0,0,0,0
1991,9,4,21,0,,25.9,24.1,90,100370,0,0,433,0,0,0,0,0,0,0,180,2,9,0,0,0,0,0,0,0,0,0,0,0,0
1991,9,4,22,0,,26,24.1,89,100370,0,0,418,0,0,0,0,0,0,0,200,1.8,7,0,0,0,0,0,0,0,0,0,0,0,0
1991,9,4,23,0,,26.2,24,89,100370,0,0,411,0,0,0,0,0,0,0,180,1.5,5,0,0,0,0,0,0,0,0,0,0,0,0
1991,9,4,24,0,,26.2,24,88,100370,0,0,404,0,0,0,0,0,0,0,180,3.7,3,0,0,0,0,0,0,0,0,0,0,0,0
1991,9,5,1,0,,26.2,23.8,87,100340,0,0,409,0,0,0,0,0,0,0,180,2.3,5,0,0,0,0,0,0,0,0,0,0,0,0
1991,9,5,2,0,,26.2,23.7,86,100300,0,0,415,0,0,0,0,0,0,0,180,3.5,6,0,0,0,0,0,0,0,0,0,0,0,0
1991,9,5,3,0,,26.2,23.5,85,100270,0,0,425,0,0,0,0,0,0,0,180,2.8,8,0,0,0,0,0,0,0,0,0,0,0,0
1991,9,5,4,0,,24.9,22.7,88,100320,0,0,422,0,0,0,0,0,0,0,180,4,9,0,0,0,0,0,0,0,0,0,0,0,0
1991,9,5,5,0,,23.5,22,91,100370,0,0,421,0,0,0,0,0,0,0,250,2.2,9,0,0,0,0,0,0,0,0,0,0,0,0
1991,9,5,6,0,,22.2,21.2,94,100420,0,0,420,0,0,0,0,0,0,0,110,2.5,10,0,0,0,0,0,0,0,0,0,0,0,0
1991,9,5,7,0,,22.1,21.6,95,100400,0,0,420,9,0,8,1166,6,1163,0,110,1,10,0,0,0,0,0,0,0,0,0,0,0,0
1991,9,5,8,0,,22.2,22,95,100390,0,0,421,53,11,50,6797,919,6195,0,90,0.8,10,0,0,0,0,0,0,0,0,0,0,0,0
1991,9,5,9,0,,23.1,22.4,96,100370,0,0,427,117,18,109,14417,1521,13231,0,0,0,10,0,0,0,0,0,0,0,0,0,0,0,0
1991,9,5,10,0,,24.2,22.6,96,100400,0,0,433,190,25,174,22724,2105,20924,0,90,0.3,10,0,0,0,0,0,0,0,0,0,0,0,0
1991,9,5,11,0,,25.8,22.7,95,100430,0,0,443,252,29,230,29632,2475,27457,0,320,0.3,10,0,0,0,0,0,0,0,0,0,0,0,0
1991,9,5,12,0,,23.7,22.9,95,100460,0,0,431,232,16,218,26959,939,26165,0,290,2.5,10,0,0,0,0,0,0,0,0,0,0,0,0
1991,9,5,13,0,,22.9,22.9,96,100430,0,0,427,184,8,177,21574,416,21258,0,230,1,10,0,0,0,0,0,0,0,0,0,0,0,0
1991,9,5,14,0,,22.9,22.8,96,100410,0,0,426,174,7,168,19886,394,19638,0,140,2.7,10,0,0,0,0,0,0,0,0,0,0,0,0
1991,9,5,15,0,,23.4,22.8,97,100380,0,0,429,194,13,183,20777,806,20409,0,160,2,10,0,0,0,0,0,0,0,0,0,0,0,0
1991,9,5,16,0,,24,22.8,96,100360,0,0,433,175,19,163,17415,1009,17154,0,160,1.3,10,0,0,0,0,0,0,0,0,0,0,0,0
1991,9,5,17,0,,24,22.8,96,100350,0,0,433,128,21,118,11003,1614,10925,0,230,1.7,10,0,0,0,0,0,0,0,0,0,0,0,0
1991,9,5,18,0,,23.6,22.8,95,100330,0,0,430,67,18,62,0,0,0,0,180,1.5,10,0,0,0,0,0,0,0,0,0,0,0,0
1991,9,5,19,0,,23.4,22.4,95,100320,0,0,429,15,1,14,0,0,0,0,160,2.3,10,0,0,0,0,0,0,0,0,0,0,0,0
1991,9,5,20,0,,22.8,22,96,100310,0,0,425,0,0,0,0,0,0,0,160,3.8,10,0,0,0,0,0,0,0,0,0,0,0,0
1991,9,5,21,0,,22.3,21.6,96,100300,0,0,421,0,0,0,0,0,0,0,160,1.7,10,0,0,0,0,0,0,0,0,0,0,0,0
1991,9,5,22,0,,22.5,21.7,95,100270,0,0,423,0,0,0,0,0,0,0,160,5.2,10,0,0,0,0,0,0,0,0,0,0,0,0
1991,9,5,23,0,,22.7,21.8,94,100240,0,0,424,0,0,0,0,0,0,0,160,5.2,10,0,0,0,0,0,0,0,0,0,0,0,0
1991,9,5,24,0,,23.1,21.9,93,100210,0,0,426,0,0,0,0,0,0,0,360,2,10,0,0,0,0,0,0,0,0,0,0,0,0
1991,9,6,1,0,,23,22,94,100190,0,0,426,0,0,0,0,0,0,0,250,0.8,10,0,0,0,0,0,0,0,0,0,0,0,0
1991,9,6,2,0,,22.9,22,95,100180,0,0,425,0,0,0,0,0,0,0,0,0,10,0,0,0,0,0,0,0,0,0,0,0,0
1991,9,6,3,0,,22.8,22.1,96,100160,0,0,425,0,0,0,0,0,0,0,0,0,10,0,0,0,0,0,0,0,0,0,0,0,0
1991,9,6,4,0,,22.8,22.1,96,100160,0,0,425,0,0,0,0,0,0,0,180,0.5,10,0,0,0,0,0,0,0,0,0,0,0,0
1991,9,6,5,0,,22.7,22.2,97,100160,0,0,424,0,0,0,0,0,0,0,0,0,10,0,0,0,0,0,0,0,0,0,0,0,0
1991,9,6,6,0,,22.6,22.2,97,100160,0,0,424,0,0,0,0,0,0,0,160,1,10,0,0,0,0,0,0,0,0,0,0,0,0
1991,9,6,7,0,,22.6,22.3,96,100170,0,0,424,11,0,11,1505,12,1499,0,0,0,10,0,0,0,0,0,0,0,0,0,0,0,0
1991,9,6,8,0,,22.7,22.4,96,100190,0,0,425,60,16,56,7746,1340,6873,0,140,1,10,0,0,0,0,0,0,0,0,0,0,0,0
1991,9,6,9,0,,23.3,22.5,95,100200,0,0,428,116,18,108,14312,1511,13139,0,160,1,10,0,0,0,0,0,0,0,0,0,0,0,0
1991,9,6,10,0,,23.8,22.6,94,100190,0,0,431,167,18,156,20138,1494,18863,0,0,0.2,10,0,0,0,0,0,0,0,0,0,0,0,0
1991,9,6,11,0,,24.1,22.8,94,100190,0,0,433,197,15,185,23382,1242,22294,0,0,0,10,0,0,0,0,0,0,0,0,0,0,0,0
1991,9,6,12,0,,24,22.9,93,100180,0,0,433,218,14,206,25507,784,24847,0,90,1,10,0,0,0,0,0,0,0,0,0,0,0,0
1991,9,6,13,0,,24.3,23,93,100150,0,0,435,240,16,226,27290,977,26551,0,160,1.3,10,0,0,0,0,0,0,0,0,0,0,0,0
1991,9,6,14,0,,24.5,23.1,92,100110,0,0,436,220,14,208,24449,852,23918,0,0,0.2,10,0,0,0,0,0,0,0,0,0,0,0,0
1991,9,6,15,0,,24.6,23.2,92,100080,0,0,437,203,15,191,21589,948,21160,0,90,0.3,10,0,0,0,0,0,0,0,0,0,0,0,0
1991,9,6,16,0,,24.4,23.1,92,100080,0,0,435,170,17,159,16942,916,16709,0,290,2.2,10,0,0,0,0,0,0,0,0,0,0,0,0
1991,9,6,17,0,,24.3,22.9,92,100080,0,0,435,119,17,111,10301,1307,10244,0,140,1,10,0,0,0,0,0,0,0,0,0,0,0,0
1991,9,6,18,0,,24.2,22.8,92,100080,0,0,434,64,16,59,0,0,0,0,0,0.2,10,0,0,0,0,0,0,0,0,0,0,0,0
1991,9,6,19,0,,24,22.5,92,100100,0,0,420,22,2,20,0,0,0,0,140,0.7,9,0,0,0,0,0,0,0,0,0,0,0,0
1991,9,6,20,0,,23.8,22.2,93,100120,0,0,410,0,0,0,0,0,0,0,50,0.7,8,0,0,0,0,0,0,0,0,0,0,0,0
1991,9,6,21,0,,23.1,21.9,93,100140,0,0,399,0,0,0,0,0,0,0,110,0.3,7,0,0,0,0,0,0,0,0,0,0,0,0
1991,9,6,22,0,,23,21.6,93,100130,0,0,389,0,0,0,0,0,0,0,0,0.2,5,0,0,0,0,0,0,0,0,0,0,0,0
1991,9,6,23,0,,22.5,21.4,94,100120,0,0,379,0,0,0,0,0,0,0,0,0,2,0,0,0,0,0,0,0,0,0,0,0,0
1991,9,6,24,0,,22.1,21.1,94,100110,0,0,364,0,0,0,0,0,0,0,0,0,0,0,0,0,0,0,0,0,0,0,0,0,0
1991,9,7,1,0,,21.8,21,95,100100,0,0,379,0,0,0,0,0,0,0,360,0.3,3,0,0,0,0,0,0,0,0,0,0,0,0
1991,9,7,2,0,,21.6,20.8,96,100090,0,0,388,0,0,0,0,0,0,0,160,0.3,7,0,0,0,0,0,0,0,0,0,0,0,0
1991,9,7,3,0,,21.3,20.7,97,100080,0,0,415,0,0,0,0,0,0,0,0,0,10,0,0,0,0,0,0,0,0,0,0,0,0
1991,9,7,4,0,,20.7,19.9,96,100060,0,0,384,0,0,0,0,0,0,0,50,1.7,7,0,0,0,0,0,0,0,0,0,0,0,0
1991,9,7,5,0,,20.4,19,95,100050,0,0,371,0,0,0,0,0,0,0,360,0.5,4,0,0,0,0,0,0,0,0,0,0,0,0
1991,9,7,6,0,,19.3,18.2,94,100030,0,0,353,0,0,0,0,0,0,0,140,0.5,1,0,0,0,0,0,0,0,0,0,0,0,0
1991,9,7,7,0,,18.7,18.7,92,100030,0,0,351,47,27,20,4377,2296,3265,0,140,1.7,1,0,0,0,0,0,0,0,0,0,0,0,0
1991,9,7,8,0,,19.6,19.2,89,100040,0,0,356,179,357,85,36801,35267,13908,0,140,0.8,1,0,0,0,0,0,0,0,0,0,0,0,0
1991,9,7,9,0,,22.1,19.7,87,100040,0,0,369,368,524,127,59530,51796,19446,0,180,1.3,1,0,0,0,0,0,0,0,0,0,0,0,0
1991,9,7,10,0,,24.4,19.5,77,100010,0,0,382,548,609,165,74955,60032,23927,0,20,0.3,1,0,0,0,0,0,0,0,0,0,0,0,0
1991,9,7,11,0,,26.4,19.2,68,99970,0,0,394,697,663,193,83882,65065,27126,0,360,0.8,2,0,0,0,0,0,0,0,0,0,0,0,0
1991,9,7,12,0,,28,19,58,99940,0,0,404,753,594,253,81576,57292,33496,0,340,0.7,2,0,0,0,0,0,0,0,0,0,0,0,0
1991,9,7,13,0,,28.6,19.3,56,99900,0,0,409,758,535,291,75205,47882,39150,0,230,1.2,2,0,0,0,0,0,0,0,0,0,0,0,0
1991,9,7,14,0,,30.6,19.6,53,99850,0,0,422,738,549,273,66642,47996,36906,0,200,2.2,3,0,0,0,0,0,0,0,0,0,0,0,0
1991,9,7,15,0,,31.3,19.9,51,99810,0,0,428,668,570,230,52281,46875,31285,0,200,3.3,3,0,0,0,0,0,0,0,0,0,0,0,0
1991,9,7,16,0,,30.3,19.9,54,99810,0,0,422,541,561,183,31916,33765,23482,0,180,3.3,3,0,0,0,0,0,0,0,0,0,0,0,0
1991,9,7,17,0,,30.3,19.8,56,99810,0,0,422,373,503,136,15502,0,15502,0,140,2.3,3,0,0,0,0,0,0,0,0,0,0,0,0
1991,9,7,18,0,,28.7,19.8,59,99810,0,0,413,203,447,79,0,0,0,0,160,3.2,3,0,0,0,0,0,0,0,0,0,0,0,0
1991,9,7,19,0,,27.1,20.1,63,99830,0,0,408,51,28,23,0,0,0,0,160,2.7,4,0,0,0,0,0,0,0,0,0,0,0,0
1991,9,7,20,0,,26.3,20.3,67,99850,0,0,407,0,0,0,0,0,0,0,140,0.3,5,0,0,0,0,0,0,0,0,0,0,0,0
1991,9,7,21,0,,26.1,20.6,71,99870,0,0,409,0,0,0,0,0,0,0,180,2,6,0,0,0,0,0,0,0,0,0,0,0,0
1991,9,7,22,0,,25.7,20.9,75,99870,0,0,401,0,0,0,0,0,0,0,0,0,4,0,0,0,0,0,0,0,0,0,0,0,0
1991,9,7,23,0,,25.1,21.3,79,99870,0,0,391,0,0,0,0,0,0,0,250,1,2,0,0,0,0,0,0,0,0,0,0,0,0
1991,9,7,24,0,,24.7,21.6,83,99870,0,0,377,0,0,0,0,0,0,0,250,1,0,0,0,0,0,0,0,0,0,0,0,0,0
1991,9,8,1,0,,24.2,21.5,85,99880,0,0,389,0,0,0,0,0,0,0,0,0,3,0,0,0,0,0,0,0,0,0,0,0,0
1991,9,8,2,0,,23.6,21.3,87,99890,0,0,394,0,0,0,0,0,0,0,0,0.2,5,0,0,0,0,0,0,0,0,0,0,0,0
1991,9,8,3,0,,23.1,21.2,89,99900,0,0,405,0,0,0,0,0,0,0,0,0,8,0,0,0,0,0,0,0,0,0,0,0,0
1991,9,8,4,0,,23,20.7,86,99890,0,0,406,0,0,0,0,0,0,0,0,0.2,8,0,0,0,0,0,0,0,0,0,0,0,0
1991,9,8,5,0,,23,20.3,84,99870,0,0,409,0,0,0,0,0,0,0,0,0,9,0,0,0,0,0,0,0,0,0,0,0,0
1991,9,8,6,0,,23.3,19.8,81,99860,0,0,413,0,0,0,0,0,0,0,70,1.8,9,0,0,0,0,0,0,0,0,0,0,0,0
1991,9,8,7,0,,23.7,20.2,79,99890,0,0,409,30,7,23,3126,546,2863,0,90,0.7,8,0,0,0,0,0,0,0,0,0,0,0,0
1991,9,8,8,0,,24.3,20.6,78,99910,0,0,408,126,140,89,20839,11978,13094,0,20,2.2,8,0,0,0,0,0,0,0,0,0,0,0,0
1991,9,8,9,0,,25.4,21,76,99940,0,0,411,268,195,178,37544,16709,24658,0,20,1.3,7,0,0,0,0,0,0,0,0,0,0,0,0
1991,9,8,10,0,,26.4,21,71,99930,0,0,411,418,237,270,52996,20294,35806,0,360,1.2,6,0,0,0,0,0,0,0,0,0,0,0,0
1991,9,8,11,0,,28.2,20.9,65,99910,0,0,418,578,310,343,67470,26486,44452,0,360,1,5,0,0,0,0,0,0,0,0,0,0,0,0
1991,9,8,12,0,,29.3,20.9,60,99900,0,0,421,687,443,315,75376,39113,42691,0,340,1.5,4,0,0,0,0,0,0,0,0,0,0,0,0
1991,9,8,13,0,,30,21.3,60,99870,0,0,427,674,289,423,69397,24581,50983,0,290,2.5,5,0,0,0,0,0,0,0,0,0,0,0,0
1991,9,8,14,0,,31,21.6,59,99840,0,0,436,639,276,406,62878,22771,48867,0,360,1.8,5,0,0,0,0,0,0,0,0,0,0,0,0
1991,9,8,15,0,,30.7,22,59,99810,0,0,437,528,227,354,50222,17357,42527,0,290,4,6,0,0,0,0,0,0,0,0,0,0,0,0
1991,9,8,16,0,,30.3,21.7,60,99830,0,0,432,472,332,261,35707,19738,30871,0,340,4.5,5,0,0,0,0,0,0,0,0,0,0,0,0
1991,9,8,17,0,,29.7,21.3,60,99840,0,0,426,313,295,175,19029,0,19029,0,340,3,5,0,0,0,0,0,0,0,0,0,0,0,0
1991,9,8,18,0,,29.3,21,61,99860,0,0,421,194,418,81,0,0,0,0,50,3.2,4,0,0,0,0,0,0,0,0,0,0,0,0
1991,9,8,19,0,,27.6,21,66,99920,0,0,414,47,23,24,0,0,0,0,50,3,5,0,0,0,0,0,0,0,0,0,0,0,0
1991,9,8,20,0,,26.5,21.1,71,99970,0,0,410,0,0,0,0,0,0,0,70,2.7,5,0,0,0,0,0,0,0,0,0,0,0,0
1991,9,8,21,0,,25.8,21.1,76,100030,0,0,408,0,0,0,0,0,0,0,50,2,6,0,0,0,0,0,0,0,0,0,0,0,0
1991,9,8,22,0,,25.5,21.2,79,100050,0,0,401,0,0,0,0,0,0,0,50,0.8,4,0,0,0,0,0,0,0,0,0,0,0,0
1991,9,8,23,0,,24.7,21.3,83,100060,0,0,392,0,0,0,0,0,0,0,110,0.7,3,0,0,0,0,0,0,0,0,0,0,0,0
1991,9,8,24,0,,23.8,21.4,86,100080,0,0,379,0,0,0,0,0,0,0,0,0.2,1,0,0,0,0,0,0,0,0,0,0,0,0
1991,9,9,1,0,,23.3,21.2,87,100070,0,0,383,0,0,0,0,0,0,0,0,0,2,0,0,0,0,0,0,0,0,0,0,0,0
1991,9,9,2,0,,22.9,20.9,89,100050,0,0,385,0,0,0,0,0,0,0,110,0.3,4,0,0,0,0,0,0,0,0,0,0,0,0
1991,9,9,3,0,,22.4,20.7,90,100040,0,0,386,0,0,0,0,0,0,0,0,0,5,0,0,0,0,0,0,0,0,0,0,0,0
1991,9,9,4,0,,22,20.6,91,100070,0,0,382,0,0,0,0,0,0,0,0,0,4,0,0,0,0,0,0,0,0,0,0,0,0
1991,9,9,5,0,,21.7,20.5,93,100100,0,0,379,0,0,0,0,0,0,0,0,0,4,0,0,0,0,0,0,0,0,0,0,0,0
1991,9,9,6,0,,21.4,20.4,94,100130,0,0,375,0,0,0,0,0,0,0,0,0,3,0,0,0,0,0,0,0,0,0,0,0,0
1991,9,9,7,0,,21.4,20.6,90,100170,0,0,375,44,23,21,3955,1974,3009,0,0,0,3,0,0,0,0,0,0,0,0,0,0,0,0
1991,9,9,8,0,,22.4,20.8,87,100220,0,0,380,177,369,82,36975,36255,13623,0,0,0.2,3,0,0,0,0,0,0,0,0,0,0,0,0
1991,9,9,9,0,,24.2,21,83,100260,0,0,390,352,476,135,56490,46671,20624,0,110,0.3,3,0,0,0,0,0,0,0,0,0,0,0,0
1991,9,9,10,0,,25.8,21.4,79,100250,0,0,398,498,474,202,67331,45940,28553,0,360,0.7,3,0,0,0,0,0,0,0,0,0,0,0,0
1991,9,9,11,0,,27.2,21.8,75,100230,0,0,404,654,565,227,78580,54482,31410,0,320,1.7,2,0,0,0,0,0,0,0,0,0,0,0,0
1991,9,9,12,0,,28,22.2,71,100220,0,0,408,707,498,290,76588,43380,40494,0,290,2.8,2,0,0,0,0,0,0,0,0,0,0,0,0
1991,9,9,13,0,,29.6,21.7,66,100190,0,0,419,731,487,309,73763,42235,42292,0,290,1.3,3,0,0,0,0,0,0,0,0,0,0,0,0
1991,9,9,14,0,,30.4,21.3,60,100160,0,0,425,720,524,280,65752,44803,38377,0,270,3,3,0,0,0,0,0,0,0,0,0,0,0,0
1991,9,9,15,0,,31,20.8,55,100130,0,0,430,628,488,257,49941,37480,33496,0,270,2.7,4,0,0,0,0,0,0,0,0,0,0,0,0
1991,9,9,16,0,,30.4,20.8,59,100140,0,0,430,466,328,259,35182,19639,30465,0,290,2.7,5,0,0,0,0,0,0,0,0,0,0,0,0
1991,9,9,17,0,,29.4,20.8,62,100150,0,0,428,293,248,178,19145,0,19145,0,320,3.3,6,0,0,0,0,0,0,0,0,0,0,0,0
1991,9,9,18,0,,27.7,20.8,66,100160,0,0,423,133,155,92,0,0,0,0,320,3.2,7,0,0,0,0,0,0,0,0,0,0,0,0
1991,9,9,19,0,,26.3,20.6,69,100230,0,0,415,31,7,24,0,0,0,0,290,1.7,7,0,0,0,0,0,0,0,0,0,0,0,0
1991,9,9,20,0,,25.5,20.3,73,100300,0,0,410,0,0,0,0,0,0,0,230,1,7,0,0,0,0,0,0,0,0,0,0,0,0
1991,9,9,21,0,,24.5,20.1,76,100370,0,0,405,0,0,0,0,0,0,0,230,2,7,0,0,0,0,0,0,0,0,0,0,0,0
1991,9,9,22,0,,24,20.1,78,100400,0,0,402,0,0,0,0,0,0,0,250,1.7,7,0,0,0,0,0,0,0,0,0,0,0,0
1991,9,9,23,0,,23.7,20.2,79,100430,0,0,400,0,0,0,0,0,0,0,200,1,7,0,0,0,0,0,0,0,0,0,0,0,0
1991,9,9,24,0,,23.6,20.2,81,100460,0,0,400,0,0,0,0,0,0,0,230,1.2,7,0,0,0,0,0,0,0,0,0,0,0,0
1991,9,10,1,0,,23.3,20.2,83,100460,0,0,398,0,0,0,0,0,0,0,230,0.8,7,0,0,0,0,0,0,0,0,0,0,0,0
1991,9,10,2,0,,23,20.3,84,100460,0,0,397,0,0,0,0,0,0,0,200,0.8,7,0,0,0,0,0,0,0,0,0,0,0,0
1991,9,10,3,0,,22.7,20.3,86,100460,0,0,395,0,0,0,0,0,0,0,270,0.3,7,0,0,0,0,0,0,0,0,0,0,0,0
1991,9,10,4,0,,22.5,20.2,87,100460,0,0,386,0,0,0,0,0,0,0,0,0.2,5,0,0,0,0,0,0,0,0,0,0,0,0
1991,9,10,5,0,,22.1,20,89,100470,0,0,378,0,0,0,0,0,0,0,0,0,3,0,0,0,0,0,0,0,0,0,0,0,0
1991,9,10,6,0,,21.7,19.9,90,100470,0,0,367,0,0,0,0,0,0,0,0,0.2,1,0,0,0,0,0,0,0,0,0,0,0,0
1991,9,10,7,0,,21.6,20.3,88,100520,0,0,377,43,23,21,3883,1932,2961,0,0,0,3,0,0,0,0,0,0,0,0,0,0,0,0
1991,9,10,8,0,,22.1,20.6,85,100570,0,0,387,140,204,88,25907,18076,14311,0,0,0,6,0,0,0,0,0,0,0,0,0,0,0,0
1991,9,10,9,0,,24,21,83,100620,0,0,409,221,117,169,31100,10004,23440,0,290,1,8,0,0,0,0,0,0,0,0,0,0,0,0
1991,9,10,10,0,,24.4,20.4,77,100590,0,0,403,369,169,264,47236,14631,34930,0,290,1.3,7,0,0,0,0,0,0,0,0,0,0,0,0
1991,9,10,11,0,,25,19.9,70,100570,0,0,400,542,260,346,63762,22692,44191,0,290,1.7,5,0,0,0,0,0,0,0,0,0,0,0,0
1991,9,10,12,0,,26.8,19.3,64,100540,0,0,405,661,322,392,72473,28184,49127,0,270,2.2,4,0,0,0,0,0,0,0,0,0,0,0,0
1991,9,10,13,0,,27.6,18.9,59,100480,0,0,411,661,280,419,68067,24708,49755,0,270,1.3,5,0,0,0,0,0,0,0,0,0,0,0,0
1991,9,10,14,0,,28.6,18.5,55,100430,0,0,418,646,296,398,62543,25654,46979,0,230,1.3,5,0,0,0,0,0,0,0,0,0,0,0,0
1991,9,10,15,0,,29.8,18.1,50,100370,0,0,427,554,275,347,50256,22287,40581,0,230,1.7,6,0,0,0,0,0,0,0,0,0,0,0,0
1991,9,10,16,0,,29,18.7,56,100360,0,0,421,465,335,255,34443,20745,29562,0,270,2.7,5,0,0,0,0,0,0,0,0,0,0,0,0
1991,9,10,17,0,,27.8,19.3,62,100360,0,0,412,323,354,161,17097,0,17097,0,290,3.5,5,0,0,0,0,0,0,0,0,0,0,0,0
1991,9,10,18,0,,26.2,19.9,68,100350,0,0,402,174,329,88,0,0,0,0,320,4.7,4,0,0,0,0,0,0,0,0,0,0,0,0
1991,9,10,19,0,,24.8,20.1,72,100400,0,0,402,36,12,24,0,0,0,0,320,3.2,6,0,0,0,0,0,0,0,0,0,0,0,0
1991,9,10,20,0,,24.1,20.2,77,100450,0,0,409,0,0,0,0,0,0,0,290,2,8,0,0,0,0,0,0,0,0,0,0,0,0
1991,9,10,21,0,,23.8,20.4,81,100500,0,0,428,0,0,0,0,0,0,0,270,1.5,10,0,0,0,0,0,0,0,0,0,0,0,0
1991,9,10,22,0,,23.4,20.4,83,100490,0,0,401,0,0,0,0,0,0,0,270,1.5,7,0,0,0,0,0,0,0,0,0,0,0,0
1991,9,10,23,0,,23,20.4,86,100470,0,0,388,0,0,0,0,0,0,0,230,1.2,5,0,0,0,0,0,0,0,0,0,0,0,0
1991,9,10,24,0,,22.6,20.4,88,100460,0,0,377,0,0,0,0,0,0,0,140,0.5,2,0,0,0,0,0,0,0,0,0,0,0,0
1991,9,11,1,0,,22.2,20.6,89,100430,0,0,376,0,0,0,0,0,0,0,0,0.2,2,0,0,0,0,0,0,0,0,0,0,0,0
1991,9,11,2,0,,21.9,20.8,89,100400,0,0,374,0,0,0,0,0,0,0,140,0.7,2,0,0,0,0,0,0,0,0,0,0,0,0
1991,9,11,3,0,,21.5,21,90,100370,0,0,372,0,0,0,0,0,0,0,140,0.8,2,0,0,0,0,0,0,0,0,0,0,0,0
1991,9,11,4,0,,21.2,20.3,90,100360,0,0,371,0,0,0,0,0,0,0,0,0,2,0,0,0,0,0,0,0,0,0,0,0,0
1991,9,11,5,0,,20.9,19.6,91,100350,0,0,370,0,0,0,0,0,0,0,0,0,3,0,0,0,0,0,0,0,0,0,0,0,0
1991,9,11,6,0,,20.4,18.9,91,100340,0,0,368,0,0,0,0,0,0,0,0,0,3,0,0,0,0,0,0,0,0,0,0,0,0
1991,9,11,7,0,,20.2,19.3,89,100340,0,0,370,40,18,22,3852,1514,3134,0,140,0.5,4,0,0,0,0,0,0,0,0,0,0,0,0
1991,9,11,8,0,,21.3,19.8,88,100350,0,0,377,163,350,74,34546,34526,12487,0,0,0,4,0,0,0,0,0,0,0,0,0,0,0,0
1991,9,11,9,0,,22.6,20.2,86,100350,0,0,387,301,302,165,45340,27128,24643,0,290,0.3,5,0,0,0,0,0,0,0,0,0,0,0,0
1991,9,11,10,0,,23.9,19.6,79,100330,0,0,397,417,247,264,52782,21681,34612,0,270,1,6,0,0,0,0,0,0,0,0,0,0,0,0
1991,9,11,11,0,,24.7,19,72,100310,0,0,408,414,121,323,48655,10926,39268,0,320,2,8,0,0,0,0,0,0,0,0,0,0,0,0
1991,9,11,12,0,,25.5,18.4,65,100290,0,0,423,392,73,331,43957,6664,38461,0,270,2.3,9,0,0,0,0,0,0,0,0,0,0,0,0
1991,9,11,13,0,,25.3,17.8,63,100250,0,0,425,399,69,340,43873,6305,39226,0,270,2.7,9,0,0,0,0,0,0,0,0,0,0,0,0
1991,9,11,14,0,,24.9,17.1,61,100220,0,0,426,296,34,268,32805,3101,30937,0,340,3.8,10,0,0,0,0,0,0,0,0,0,0,0,0
1991,9,11,15,0,,24.8,16.5,59,100180,0,0,429,247,29,225,25576,2233,24617,0,320,3,10,0,0,0,0,0,0,0,0,0,0,0,0
1991,9,11,16,0,,24.2,17.1,64,100170,0,0,426,190,26,173,18393,1716,17998,0,360,2.7,10,0,0,0,0,0,0,0,0,0,0,0,0
1991,9,11,17,0,,23.8,17.8,68,100170,0,0,425,125,23,114,10230,3597,10163,0,340,1.8,10,0,0,0,0,0,0,0,0,0,0,0,0
1991,9,11,18,0,,23.6,18.4,73,100160,0,0,424,63,20,57,0,0,0,0,50,1.5,10,0,0,0,0,0,0,0,0,0,0,0,0
1991,9,11,19,0,,22.7,18,75,100220,0,0,411,20,2,18,0,0,0,0,50,1.7,9,0,0,0,0,0,0,0,0,0,0,0,0
1991,9,11,20,0,,22.2,17.6,77,100280,0,0,401,0,0,0,0,0,0,0,360,1,9,0,0,0,0,0,0,0,0,0,0,0,0
1991,9,11,21,0,,20.8,17.2,79,100340,0,0,387,0,0,0,0,0,0,0,0,0,8,0,0,0,0,0,0,0,0,0,0,0,0
1991,9,11,22,0,,20.5,17.2,81,100340,0,0,386,0,0,0,0,0,0,0,110,1,8,0,0,0,0,0,0,0,0,0,0,0,0
1991,9,11,23,0,,20,17.3,84,100350,0,0,383,0,0,0,0,0,0,0,0,0,8,0,0,0,0,0,0,0,0,0,0,0,0
1991,9,11,24,0,,19.8,17.3,86,100350,0,0,382,0,0,0,0,0,0,0,0,0,8,0,0,0,0,0,0,0,0,0,0,0,0
1991,9,12,1,0,,19.6,17.4,87,100330,0,0,381,0,0,0,0,0,0,0,0,0,8,0,0,0,0,0,0,0,0,0,0,0,0
1991,9,12,2,0,,19.4,17.5,89,100320,0,0,380,0,0,0,0,0,0,0,0,0,8,0,0,0,0,0,0,0,0,0,0,0,0
1991,9,12,3,0,,19.2,17.6,90,100300,0,0,380,0,0,0,0,0,0,0,0,0,8,0,0,0,0,0,0,0,0,0,0,0,0
1991,9,12,4,0,,19.2,17.6,90,100310,0,0,382,0,0,0,0,0,0,0,0,0,8,0,0,0,0,0,0,0,0,0,0,0,0
1991,9,12,5,0,,19.1,17.6,91,100320,0,0,384,0,0,0,0,0,0,0,0,0,9,0,0,0,0,0,0,0,0,0,0,0,0
1991,9,12,6,0,,19.1,17.6,91,100330,0,0,387,0,0,0,0,0,0,0,0,0,9,0,0,0,0,0,0,0,0,0,0,0,0
1991,9,12,7,0,,19.2,17.6,87,100350,0,0,382,24,4,20,2635,347,2471,0,340,0.7,8,0,0,0,0,0,0,0,0,0,0,0,0
1991,9,12,8,0,,19.9,17.5,82,100370,0,0,381,110,106,83,17957,9528,11895,0,0,0,8,0,0,0,0,0,0,0,0,0,0,0,0
1991,9,12,9,0,,21.4,17.5,78,100390,0,0,385,264,204,173,37201,18488,23149,0,320,1.3,7,0,0,0,0,0,0,0,0,0,0,0,0
1991,9,12,10,0,,22.5,17.3,73,100380,0,0,390,380,190,263,48077,17255,33671,0,360,1,7,0,0,0,0,0,0,0,0,0,0,0,0
1991,9,12,11,0,,24.5,17.1,67,100380,0,0,401,496,206,343,58579,18721,42560,0,320,2,7,0,0,0,0,0,0,0,0,0,0,0,0
1991,9,12,12,0,,24.7,16.9,62,100370,0,0,402,521,163,387,58048,14936,45787,0,20,1.3,7,0,0,0,0,0,0,0,0,0,0,0,0
1991,9,12,13,0,,25.9,16.9,61,100360,0,0,412,490,122,385,52552,11343,44239,0,340,0.8,8,0,0,0,0,0,0,0,0,0,0,0,0
1991,9,12,14,0,,26,16.9,61,100350,0,0,418,464,118,367,48352,10909,41830,0,320,3,8,0,0,0,0,0,0,0,0,0,0,0,0
1991,9,12,15,0,,25.2,16.9,60,100340,0,0,420,329,65,280,34347,5833,31870,0,340,2.8,9,0,0,0,0,0,0,0,0,0,0,0,0
1991,9,12,16,0,,24.7,17.1,64,100360,0,0,421,251,59,215,25181,4687,24125,0,340,4.3,9,0,0,0,0,0,0,0,0,0,0,0,0
1991,9,12,17,0,,23.8,17.3,67,100370,0,0,420,124,24,113,10018,4041,9963,0,340,3.3,10,0,0,0,0,0,0,0,0,0,0,0,0
1991,9,12,18,0,,23,17.5,71,100390,0,0,420,62,21,57,0,0,0,0,340,3.2,10,0,0,0,0,0,0,0,0,0,0,0,0
1991,9,12,19,0,,22.5,16.2,68,100430,0,0,411,13,1,12,0,0,0,0,340,2,10,0,0,0,0,0,0,0,0,0,0,0,0
1991,9,12,20,0,,21.9,15,65,100460,0,0,402,0,0,0,0,0,0,0,50,2.3,9,0,0,0,0,0,0,0,0,0,0,0,0
1991,9,12,21,0,,21.4,13.7,62,100500,0,0,394,0,0,0,0,0,0,0,70,3,9,0,0,0,0,0,0,0,0,0,0,0,0
1991,9,12,22,0,,21,13.8,64,100500,0,0,392,0,0,0,0,0,0,0,50,1.5,9,0,0,0,0,0,0,0,0,0,0,0,0
1991,9,12,23,0,,20.5,14,66,100500,0,0,390,0,0,0,0,0,0,0,50,2,9,0,0,0,0,0,0,0,0,0,0,0,0
1991,9,12,24,0,,20.2,14.1,68,100500,0,0,388,0,0,0,0,0,0,0,360,1.3,9,0,0,0,0,0,0,0,0,0,0,0,0
1991,9,13,1,0,,20,14.7,72,100490,0,0,370,0,0,0,0,0,0,0,50,2.2,6,0,0,0,0,0,0,0,0,0,0,0,0
1991,9,13,2,0,,19.7,15.4,76,100480,0,0,360,0,0,0,0,0,0,0,360,1,3,0,0,0,0,0,0,0,0,0,0,0,0
1991,9,13,3,0,,19.5,16,80,100470,0,0,345,0,0,0,0,0,0,0,340,1.3,0,0,0,0,0,0,0,0,0,0,0,0,0
1991,9,13,4,0,,18.9,16,81,100480,0,0,357,0,0,0,0,0,0,0,340,1.3,3,0,0,0,0,0,0,0,0,0,0,0,0
1991,9,13,5,0,,19.1,16,83,100490,0,0,367,0,0,0,0,0,0,0,340,0.3,6,0,0,0,0,0,0,0,0,0,0,0,0
1991,9,13,6,0,,18.8,16,84,100500,0,0,384,0,0,0,0,0,0,0,360,0.8,9,0,0,0,0,0,0,0,0,0,0,0,0
1991,9,13,7,0,,18.9,15.7,77,100490,0,0,370,31,9,22,3060,740,2713,0,20,1.2,7,0,0,0,0,0,0,0,0,0,0,0,0
1991,9,13,8,0,,20.3,15.3,70,100480,0,0,369,172,381,77,36700,38068,12581,0,20,2.5,5,0,0,0,0,0,0,0,0,0,0,0,0
1991,9,13,9,0,,22.3,15,63,100470,0,0,373,377,609,106,62395,63074,14637,0,50,4.2,3,0,0,0,0,0,0,0,0,0,0,0,0
1991,9,13,10,0,,24.2,15.9,61,100440,0,0,388,529,595,163,72469,59161,23263,0,20,3.2,4,0,0,0,0,0,0,0,0,0,0,0,0
1991,9,13,11,0,,25.2,16.7,58,100420,0,0,398,553,290,337,64384,26482,41818,0,360,3.2,6,0,0,0,0,0,0,0,0,0,0,0,0
1991,9,13,12,0,,27,17.6,56,100390,0,0,415,579,223,395,63425,20204,46917,0,20,3,7,0,0,0,0,0,0,0,0,0,0,0,0
1991,9,13,13,0,,27.1,17.6,54,100340,0,0,416,555,175,406,59347,15712,47897,0,340,2,7,0,0,0,0,0,0,0,0,0,0,0,0
1991,9,13,14,0,,28.7,17.7,52,100290,0,0,425,574,218,394,57568,18999,46295,0,50,3.7,7,0,0,0,0,0,0,0,0,0,0,0,0
1991,9,13,15,0,,28.9,17.7,50,100240,0,0,426,476,186,338,45300,16661,38303,0,50,2.7,7,0,0,0,0,0,0,0,0,0,0,0,0
1991,9,13,16,0,,28.5,18,54,100230,0,0,431,344,145,255,31035,11517,28496,0,50,3.8,8,0,0,0,0,0,0,0,0,0,0,0,0
1991,9,13,17,0,,27.2,18.2,59,100210,0,0,433,181,71,150,15906,4771,15865,0,50,3.8,9,0,0,0,0,0,0,0,0,0,0,0,0
1991,9,13,18,0,,26,18.5,63,100200,0,0,439,65,25,59,0,0,0,0,70,3.5,10,0,0,0,0,0,0,0,0,0,0,0,0
1991,9,13,19,0,,25.4,18.5,65,100210,0,0,435,12,1,11,0,0,0,0,50,3,10,0,0,0,0,0,0,0,0,0,0,0,0
1991,9,13,20,0,,24.5,18.6,68,100230,0,0,430,0,0,0,0,0,0,0,50,1,10,0,0,0,0,0,0,0,0,0,0,0,0
1991,9,13,21,0,,24.3,18.6,70,100240,0,0,429,0,0,0,0,0,0,0,50,2.2,10,0,0,0,0,0,0,0,0,0,0,0,0
1991,9,13,22,0,,23.9,18.1,70,100220,0,0,426,0,0,0,0,0,0,0,50,3.5,10,0,0,0,0,0,0,0,0,0,0,0,0
1991,9,13,23,0,,23.4,17.7,69,100200,0,0,422,0,0,0,0,0,0,0,50,3.3,10,0,0,0,0,0,0,0,0,0,0,0,0
1991,9,13,24,0,,23.1,17.2,69,100180,0,0,420,0,0,0,0,0,0,0,70,2.2,10,0,0,0,0,0,0,0,0,0,0,0,0
1991,9,14,1,0,,23,17.2,70,100110,0,0,420,0,0,0,0,0,0,0,50,3.5,10,0,0,0,0,0,0,0,0,0,0,0,0
1991,9,14,2,0,,23,17.3,70,100040,0,0,419,0,0,0,0,0,0,0,50,3,10,0,0,0,0,0,0,0,0,0,0,0,0
1991,9,14,3,0,,22.9,17.3,71,99970,0,0,419,0,0,0,0,0,0,0,50,3.5,10,0,0,0,0,0,0,0,0,0,0,0,0
1991,9,14,4,0,,23.2,17.1,71,99910,0,0,420,0,0,0,0,0,0,0,70,2.7,10,0,0,0,0,0,0,0,0,0,0,0,0
1991,9,14,5,0,,22.6,16.8,71,99840,0,0,417,0,0,0,0,0,0,0,50,3.3,10,0,0,0,0,0,0,0,0,0,0,0,0
1991,9,14,6,0,,21.9,16.6,71,99780,0,0,412,0,0,0,0,0,0,0,20,3.2,10,0,0,0,0,0,0,0,0,0,0,0,0
1991,9,14,7,0,,21.9,16.6,69,99850,0,0,386,30,9,22,3008,725,2670,0,50,3.3,7,0,0,0,0,0,0,0,0,0,0,0,0
1991,9,14,8,0,,21.9,16.7,67,99910,0,0,376,169,372,78,36000,36953,12688,0,20,3,4,0,0,0,0,0,0,0,0,0,0,0,0
1991,9,14,9,0,,23.6,16.7,65,99980,0,0,373,367,580,111,60681,60165,15302,0,50,2.8,1,0,0,0,0,0,0,0,0,0,0,0,0
1991,9,14,10,0,,25.6,16.9,61,100070,0,0,392,532,613,157,73163,60896,22709,0,50,4.2,3,0,0,0,0,0,0,0,0,0,0,0,0
1991,9,14,11,0,,27.1,17.2,56,100150,0,0,407,619,511,240,74065,49786,31816,0,90,3.5,5,0,0,0,0,0,0,0,0,0,0,0,0
1991,9,14,12,0,,28,17.4,52,100240,0,0,421,563,209,392,61931,18938,46532,0,140,2.2,7,0,0,0,0,0,0,0,0,0,0,0,0
1991,9,14,13,0,,27.5,17.9,56,100270,0,0,425,466,109,373,50227,10050,42945,0,160,0.7,8,0,0,0,0,0,0,0,0,0,0,0,0
1991,9,14,14,0,,27.3,18.3,60,100300,0,0,434,337,51,295,36749,4584,34049,0,0,0.2,9,0,0,0,0,0,0,0,0,0,0,0,0
1991,9,14,15,0,,26.1,18.8,64,100330,0,0,440,215,21,200,22538,1465,21930,0,110,2.2,10,0,0,0,0,0,0,0,0,0,0,0,0
1991,9,14,16,0,,25,18.5,66,100410,0,0,424,214,40,190,19993,2800,19389,0,140,1.3,9,0,0,0,0,0,0,0,0,0,0,0,0
1991,9,14,17,0,,24,18.1,67,100480,0,0,411,142,37,126,10747,9627,10715,0,20,1.2,9,0,0,0,0,0,0,0,0,0,0,0,0
1991,9,14,18,0,,23.9,17.8,69,100560,0,0,405,101,94,78,0,0,0,0,90,1.3,8,0,0,0,0,0,0,0,0,0,0,0,0
1991,9,14,19,0,,23.4,16.9,67,100650,0,0,404,24,5,19,0,0,0,0,200,1.5,8,0,0,0,0,0,0,0,0,0,0,0,0
1991,9,14,20,0,,23.1,16.1,64,100750,0,0,404,0,0,0,0,0,0,0,20,0.3,9,0,0,0,0,0,0,0,0,0,0,0,0
1991,9,14,21,0,,22.8,15.2,62,100840,0,0,404,0,0,0,0,0,0,0,0,0,9,0,0,0,0,0,0,0,0,0,0,0,0
1991,9,14,22,0,,22.4,15.6,67,100860,0,0,383,0,0,0,0,0,0,0,180,0.3,6,0,0,0,0,0,0,0,0,0,0,0,0
1991,9,14,23,0,,21.8,16,71,100880,0,0,371,0,0,0,0,0,0,0,290,1.3,3,0,0,0,0,0,0,0,0,0,0,0,0
1991,9,14,24,0,,20.7,16.4,76,100900,0,0,351,0,0,0,0,0,0,0,160,1,0,0,0,0,0,0,0,0,0,0,0,0,0
1991,9,15,1,0,,20.2,16.4,78,100920,0,0,356,0,0,0,0,0,0,0,320,0.3,1,0,0,0,0,0,0,0,0,0,0,0,0
1991,9,15,2,0,,19.8,16.4,81,100940,0,0,358,0,0,0,0,0,0,0,140,1,2,0,0,0,0,0,0,0,0,0,0,0,0
1991,9,15,3,0,,19.3,16.4,83,100960,0,0,359,0,0,0,0,0,0,0,230,0.8,3,0,0,0,0,0,0,0,0,0,0,0,0
1991,9,15,4,0,,18.8,16.2,84,100990,0,0,357,0,0,0,0,0,0,0,0,0.2,3,0,0,0,0,0,0,0,0,0,0,0,0
1991,9,15,5,0,,18.7,15.9,84,101010,0,0,356,0,0,0,0,0,0,0,140,0.8,3,0,0,0,0,0,0,0,0,0,0,0,0
1991,9,15,6,0,,18.2,15.7,85,101040,0,0,353,0,0,0,0,0,0,0,0,0.2,3,0,0,0,0,0,0,0,0,0,0,0,0
1991,9,15,7,0,,18.2,15.6,79,101080,0,0,354,41,23,18,3794,1989,2870,0,0,0.2,3,0,0,0,0,0,0,0,0,0,0,0,0
1991,9,15,8,0,,20.3,15.4,73,101110,0,0,365,173,413,73,37820,41211,11935,0,0,0,4,0,0,0,0,0,0,0,0,0,0,0,0
1991,9,15,9,0,,21.9,15.3,67,101150,0,0,374,336,464,132,54299,46262,19544,0,0,0.2,4,0,0,0,0,0,0,0,0,0,0,0,0
1991,9,15,10,0,,23.4,16,65,101150,0,0,389,443,321,248,57985,30068,33172,0,20,0.8,6,0,0,0,0,0,0,0,0,0,0,0,0
1991,9,15,11,0,,24.6,16.6,63,101150,0,0,407,427,139,324,49749,12905,38843,0,360,2.3,8,0,0,0,0,0,0,0,0,0,0,0,0
1991,9,15,12,0,,25.4,17.3,61,101150,0,0,433,333,50,293,37757,4550,34075,0,360,2.7,10,0,0,0,0,0,0,0,0,0,0,0,0
1991,9,15,13,0,,25.7,17,57,101100,0,0,407,540,167,399,57832,15135,46930,0,50,3,7,0,0,0,0,0,0,0,0,0,0,0,0
1991,9,15,14,0,,26.9,16.6,54,101050,0,0,402,660,431,307,60252,38009,38046,0,50,2.7,4,0,0,0,0,0,0,0,0,0,0,0,0
1991,9,15,15,0,,27.4,16.3,50,101000,0,0,392,641,584,212,47963,49005,27854,0,70,3,1,0,0,0,0,0,0,0,0,0,0,0,0
1991,9,15,16,0,,27.6,16.6,54,101010,0,0,400,527,619,153,27895,38923,19702,0,20,3.2,2,0,0,0,0,0,0,0,0,0,0,0,0
1991,9,15,17,0,,26.8,16.9,57,101010,0,0,401,328,452,132,0,0,0,0,50,2.7,4,0,0,0,0,0,0,0,0,0,0,0,0
1991,9,15,18,0,,25.3,17.2,61,101020,0,0,397,151,347,69,0,0,0,0,180,1,5,0,0,0,0,0,0,0,0,0,0,0,0
1991,9,15,19,0,,23.7,16.6,62,101080,0,0,387,34,14,20,0,0,0,0,160,2.7,5,0,0,0,0,0,0,0,0,0,0,0,0
1991,9,15,20,0,,23.3,16,63,101130,0,0,383,0,0,0,0,0,0,0,160,3.5,4,0,0,0,0,0,0,0,0,0,0,0,0
1991,9,15,21,0,,22.6,15.4,64,101190,0,0,378,0,0,0,0,0,0,0,160,2.7,4,0,0,0,0,0,0,0,0,0,0,0,0
1991,9,15,22,0,,22.2,15.6,69,101200,0,0,372,0,0,0,0,0,0,0,270,1.2,3,0,0,0,0,0,0,0,0,0,0,0,0
1991,9,15,23,0,,20.7,15.9,73,101210,0,0,359,0,0,0,0,0,0,0,140,1.3,1,0,0,0,0,0,0,0,0,0,0,0,0
1991,9,15,24,0,,20.1,16.1,78,101220,0,0,348,0,0,0,0,0,0,0,0,0.2,0,0,0,0,0,0,0,0,0,0,0,0,0
1991,9,16,1,0,,19.3,15.9,81,101200,0,0,344,0,0,0,0,0,0,0,140,0.7,0,0,0,0,0,0,0,0,0,0,0,0,0
1991,9,16,2,0,,18.6,15.6,83,101170,0,0,340,0,0,0,0,0,0,0,0,0,0,0,0,0,0,0,0,0,0,0,0,0,0
1991,9,16,3,0,,17.8,15.4,86,101150,0,0,336,0,0,0,0,0,0,0,110,1.3,0,0,0,0,0,0,0,0,0,0,0,0,0
1991,9,16,4,0,,17.6,15.2,87,101180,0,0,346,0,0,0,0,0,0,0,0,0.2,2,0,0,0,0,0,0,0,0,0,0,0,0
1991,9,16,5,0,,17.2,14.9,87,101210,0,0,350,0,0,0,0,0,0,0,140,0.8,4,0,0,0,0,0,0,0,0,0,0,0,0
1991,9,16,6,0,,16.8,14.7,88,101240,0,0,354,0,0,0,0,0,0,0,140,0.3,6,0,0,0,0,0,0,0,0,0,0,0,0
1991,9,16,7,0,,16.5,14.3,80,101250,0,0,350,35,14,21,3466,1308,2862,0,110,1.3,5,0,0,0,0,0,0,0,0,0,0,0,0
1991,9,16,8,0,,18.1,13.9,71,101270,0,0,355,156,309,82,32405,30824,13130,0,0,0.2,5,0,0,0,0,0,0,0,0,0,0,0,0
1991,9,16,9,0,,20.8,13.5,63,101280,0,0,366,352,537,117,58001,53998,17598,0,50,2,4,0,0,0,0,0,0,0,0,0,0,0,0
1991,9,16,10,0,,22.3,14.2,60,101250,0,0,379,479,466,197,64582,46100,26690,0,340,0.7,5,0,0,0,0,0,0,0,0,0,0,0,0
1991,9,16,11,0,,24.3,14.8,58,101210,0,0,395,517,247,336,60378,23096,40945,0,200,1.3,7,0,0,0,0,0,0,0,0,0,0,0,0
1991,9,16,12,0,,25.2,15.5,55,101180,0,0,409,486,142,371,54361,13180,43747,0,320,1.7,8,0,0,0,0,0,0,0,0,0,0,0,0
1991,9,16,13,0,,25.9,15,52,101130,0,0,404,577,205,405,60614,18896,47085,0,70,2.7,7,0,0,0,0,0,0,0,0,0,0,0,0
1991,9,16,14,0,,26.6,14.4,50,101070,0,0,402,628,303,381,59914,27308,44085,0,50,2.2,5,0,0,0,0,0,0,0,0,0,0,0,0
1991,9,16,15,0,,25.9,13.9,47,101020,0,0,393,586,449,257,46401,37700,31113,0,50,2.7,4,0,0,0,0,0,0,0,0,0,0,0,0
1991,9,16,16,0,,26.5,14.3,49,101010,0,0,396,473,466,194,28686,27593,23016,0,50,3,4,0,0,0,0,0,0,0,0,0,0,0,0
1991,9,16,17,0,,26.5,14.7,52,101010,0,0,396,344,533,115,0,0,0,0,70,2.5,3,0,0,0,0,0,0,0,0,0,0,0,0
1991,9,16,18,0,,25.1,15.1,54,101000,0,0,388,173,475,63,0,0,0,0,160,2.3,3,0,0,0,0,0,0,0,0,0,0,0,0
1991,9,16,19,0,,23.3,15.3,59,101030,0,0,378,37,21,16,0,0,0,0,110,2,3,0,0,0,0,0,0,0,0,0,0,0,0
1991,9,16,20,0,,22,15.5,64,101070,0,0,372,0,0,0,0,0,0,0,160,2.5,3,0,0,0,0,0,0,0,0,0,0,0,0
1991,9,16,21,0,,21.7,15.7,69,101100,0,0,371,0,0,0,0,0,0,0,0,0,3,0,0,0,0,0,0,0,0,0,0,0,0
1991,9,16,22,0,,20.7,15.8,73,101090,0,0,363,0,0,0,0,0,0,0,140,1.7,2,0,0,0,0,0,0,0,0,0,0,0,0
1991,9,16,23,0,,19.6,15.9,78,101080,0,0,355,0,0,0,0,0,0,0,140,2.2,2,0,0,0,0,0,0,0,0,0,0,0,0
1991,9,16,24,0,,19.1,16,82,101070,0,0,350,0,0,0,0,0,0,0,110,1,1,0,0,0,0,0,0,0,0,0,0,0,0
1991,9,17,1,0,,18.5,15.9,85,101040,0,0,345,0,0,0,0,0,0,0,160,1,1,0,0,0,0,0,0,0,0,0,0,0,0
1991,9,17,2,0,,17.8,15.7,87,101010,0,0,339,0,0,0,0,0,0,0,160,0.8,0,0,0,0,0,0,0,0,0,0,0,0,0
1991,9,17,3,0,,17.2,15.6,90,100980,0,0,334,0,0,0,0,0,0,0,140,1.2,0,0,0,0,0,0,0,0,0,0,0,0,0
1991,9,17,4,0,,16.5,15,90,100960,0,0,335,0,0,0,0,0,0,0,140,1.8,1,0,0,0,0,0,0,0,0,0,0,0,0
1991,9,17,5,0,,16,14.5,90,100930,0,0,335,0,0,0,0,0,0,0,0,0.2,1,0,0,0,0,0,0,0,0,0,0,0,0
1991,9,17,6,0,,15.6,13.9,90,100910,0,0,336,0,0,0,0,0,0,0,0,0,2,0,0,0,0,0,0,0,0,0,0,0,0
1991,9,17,7,0,,15.6,13.7,83,100910,0,0,334,40,23,17,3600,2046,2661,0,160,1.2,2,0,0,0,0,0,0,0,0,0,0,0,0
1991,9,17,8,0,,17,13.4,75,100910,0,0,339,178,479,64,40399,49477,9600,0,0,0,1,0,0,0,0,0,0,0,0,0,0,0,0
1991,9,17,9,0,,19.3,13.2,68,100910,0,0,347,369,613,102,61388,63404,14141,0,250,0.3,1,0,0,0,0,0,0,0,0,0,0,0,0
1991,9,17,10,0,,21,13.4,63,100860,0,0,364,523,610,156,72062,61059,22080,0,340,0.5,3,0,0,0,0,0,0,0,0,0,0,0,0
1991,9,17,11,0,,22.8,13.6,59,100800,0,0,380,583,440,261,69131,41871,34055,0,320,0.5,5,0,0,0,0,0,0,0,0,0,0,0,0
1991,9,17,12,0,,23.8,13.8,54,100750,0,0,393,553,207,385,60601,19562,44927,0,290,1.7,7,0,0,0,0,0,0,0,0,0,0,0,0
1991,9,17,13,0,,25,13.9,51,100640,0,0,400,567,197,401,59541,18383,46459,0,70,1.3,7,0,0,0,0,0,0,0,0,0,0,0,0
1991,9,17,14,0,,25.9,13.9,49,100540,0,0,405,544,200,382,54441,18073,44050,0,340,1.3,7,0,0,0,0,0,0,0,0,0,0,0,0
1991,9,17,15,0,,26.6,14,46,100430,0,0,409,482,210,330,44756,17480,37753,0,250,1.7,7,0,0,0,0,0,0,0,0,0,0,0,0
1991,9,17,16,0,,26,14.6,51,100400,0,0,410,331,145,245,29482,11651,27147,0,290,2,8,0,0,0,0,0,0,0,0,0,0,0,0
1991,9,17,17,0,,24.4,15.2,56,100370,0,0,407,204,114,155,0,0,0,0,360,2.2,8,0,0,0,0,0,0,0,0,0,0,0,0
1991,9,17,18,0,,23.8,15.8,61,100340,0,0,410,78,55,65,0,0,0,0,50,1.3,9,0,0,0,0,0,0,0,0,0,0,0,0
1991,9,17,19,0,,23.1,16.2,66,100350,0,0,410,14,1,13,0,0,0,0,140,1.7,9,0,0,0,0,0,0,0,0,0,0,0,0
1991,9,17,20,0,,22.5,16.5,70,100370,0,0,411,0,0,0,0,0,0,0,140,1.2,10,0,0,0,0,0,0,0,0,0,0,0,0
1991,9,17,21,0,,21.6,16.9,75,100380,0,0,411,0,0,0,0,0,0,0,140,1.7,10,0,0,0,0,0,0,0,0,0,0,0,0
1991,9,17,22,0,,21.3,16.7,76,100330,0,0,409,0,0,0,0,0,0,0,180,0.5,10,0,0,0,0,0,0,0,0,0,0,0,0
1991,9,17,23,0,,21.2,16.5,77,100290,0,0,408,0,0,0,0,0,0,0,0,0,10,0,0,0,0,0,0,0,0,0,0,0,0
1991,9,17,24,0,,20.3,16.3,78,100240,0,0,403,0,0,0,0,0,0,0,140,0.3,10,0,0,0,0,0,0,0,0,0,0,0,0
1991,9,18,1,0,,20,16.4,80,100210,0,0,401,0,0,0,0,0,0,0,320,0.5,10,0,0,0,0,0,0,0,0,0,0,0,0
1991,9,18,2,0,,19.7,16.5,82,100190,0,0,400,0,0,0,0,0,0,0,160,0.5,10,0,0,0,0,0,0,0,0,0,0,0,0
1991,9,18,3,0,,19.4,16.6,84,100160,0,0,398,0,0,0,0,0,0,0,0,0,10,0,0,0,0,0,0,0,0,0,0,0,0
1991,9,18,4,0,,19.2,16.6,84,100100,0,0,397,0,0,0,0,0,0,0,140,0.5,10,0,0,0,0,0,0,0,0,0,0,0,0
1991,9,18,5,0,,19.2,16.5,85,100050,0,0,397,0,0,0,0,0,0,0,110,1.3,10,0,0,0,0,0,0,0,0,0,0,0,0
1991,9,18,6,0,,19,16.5,85,99990,0,0,396,0,0,0,0,0,0,0,160,0.5,10,0,0,0,0,0,0,0,0,0,0,0,0
1991,9,18,7,0,,19,16.3,82,99990,0,0,388,15,2,14,1916,54,1891,0,160,1.3,9,0,0,0,0,0,0,0,0,0,0,0,0
1991,9,18,8,0,,18.9,16.1,79,99980,0,0,381,78,50,67,11665,4640,8790,0,70,1.8,9,0,0,0,0,0,0,0,0,0,0,0,0
1991,9,18,9,0,,20.2,15.9,76,99980,0,0,383,203,107,157,27135,10075,19659,0,0,0.2,8,0,0,0,0,0,0,0,0,0,0,0,0
1991,9,18,10,0,,21.2,15.4,68,99900,0,0,374,431,310,245,56434,29142,32678,0,290,1,5,0,0,0,0,0,0,0,0,0,0,0,0
1991,9,18,11,0,,23.7,15,59,99810,0,0,379,636,586,209,76322,57792,28125,0,320,1.2,3,0,0,0,0,0,0,0,0,0,0,0,0
1991,9,18,12,0,,25.1,14.5,51,99730,0,0,371,738,641,219,79316,62897,29176,0,320,0.8,0,0,0,0,0,0,0,0,0,0,0,0,0
1991,9,18,13,0,,26.7,14.2,48,99650,0,0,379,783,684,212,75319,66429,28337,0,340,1,0,0,0,0,0,0,0,0,0,0,0,0,0
1991,9,18,14,0,,27.3,14,45,99570,0,0,382,730,632,222,62296,57926,29260,0,290,2.3,0,0,0,0,0,0,0,0,0,0,0,0,0
1991,9,18,15,0,,27.7,13.7,42,99490,0,0,383,646,631,191,46164,53646,24936,0,290,1.5,0,0,0,0,0,0,0,0,0,0,0,0,0
1991,9,18,16,0,,28.6,14.8,47,99450,0,0,389,517,628,146,26030,38545,18501,0,320,2,0,0,0,0,0,0,0,0,0,0,0,0,0
1991,9,18,17,0,,28,15.9,51,99400,0,0,387,349,587,103,0,0,0,0,360,1.3,0,0,0,0,0,0,0,0,0,0,0,0,0
1991,9,18,18,0,,26.4,17,56,99360,0,0,380,174,544,54,0,0,0,0,320,3.2,0,0,0,0,0,0,0,0,0,0,0,0,0
1991,9,18,19,0,,24.6,16.8,60,99410,0,0,382,33,17,16,0,0,0,0,320,0.3,2,0,0,0,0,0,0,0,0,0,0,0,0
1991,9,18,20,0,,23.2,16.6,65,99450,0,0,380,0,0,0,0,0,0,0,270,1.3,3,0,0,0,0,0,0,0,0,0,0,0,0
1991,9,18,21,0,,22.4,16.4,69,99500,0,0,381,0,0,0,0,0,0,0,320,1.5,5,0,0,0,0,0,0,0,0,0,0,0,0
1991,9,18,22,0,,21.7,16.5,74,99490,0,0,373,0,0,0,0,0,0,0,270,0.5,3,0,0,0,0,0,0,0,0,0,0,0,0
1991,9,18,23,0,,21.1,16.7,78,99470,0,0,364,0,0,0,0,0,0,0,0,0,2,0,0,0,0,0,0,0,0,0,0,0,0
1991,9,18,24,0,,19.8,16.8,83,99460,0,0,347,0,0,0,0,0,0,0,160,1.7,0,0,0,0,0,0,0,0,0,0,0,0,0
1991,9,19,1,0,,19.3,16.7,85,99410,0,0,345,0,0,0,0,0,0,0,140,1.5,0,0,0,0,0,0,0,0,0,0,0,0,0
1991,9,19,2,0,,18.7,16.5,87,99360,0,0,342,0,0,0,0,0,0,0,0,0.2,0,0,0,0,0,0,0,0,0,0,0,0,0
1991,9,19,3,0,,18.2,16.4,89,99310,0,0,340,0,0,0,0,0,0,0,0,0,0,0,0,0,0,0,0,0,0,0,0,0,0
1991,9,19,4,0,,17.8,16.2,90,99300,0,0,340,0,0,0,0,0,0,0,0,0.2,0,0,0,0,0,0,0,0,0,0,0,0,0
1991,9,19,5,0,,17.7,16.1,90,99290,0,0,341,0,0,0,0,0,0,0,0,0,1,0,0,0,0,0,0,0,0,0,0,0,0
1991,9,19,6,0,,17.5,15.9,91,99280,0,0,342,0,0,0,0,0,0,0,140,1.3,1,0,0,0,0,0,0,0,0,0,0,0,0
1991,9,19,7,0,,17.4,16.2,89,99270,0,0,340,38,21,16,3483,1845,2647,0,0,0,1,0,0,0,0,0,0,0,0,0,0,0,0
1991,9,19,8,0,,18.4,16.6,86,99250,0,0,343,167,427,68,37461,44287,10148,0,0,0,0,0,0,0,0,0,0,0,0,0,0,0,0
1991,9,19,9,0,,19.7,16.9,84,99240,0,0,347,335,496,122,54965,49328,18516,0,290,1.7,0,0,0,0,0,0,0,0,0,0,0,0,0
1991,9,19,10,0,,21.4,16.6,76,99240,0,0,360,508,580,162,69868,57587,23122,0,290,0.5,1,0,0,0,0,0,0,0,0,0,0,0,0
1991,9,19,11,0,,23,16.2,68,99240,0,0,371,641,608,200,77082,59896,27355,0,290,2.2,1,0,0,0,0,0,0,0,0,0,0,0,0
1991,9,19,12,0,,24.1,15.9,60,99240,0,0,379,708,577,243,76319,56041,31874,0,290,2.3,2,0,0,0,0,0,0,0,0,0,0,0,0
1991,9,19,13,0,,24.8,15.7,57,99230,0,0,383,733,575,255,71153,53289,33701,0,270,3,2,0,0,0,0,0,0,0,0,0,0,0,0
1991,9,19,14,0,,25.6,15.4,55,99210,0,0,387,708,588,237,61348,53271,31217,0,320,3.7,2,0,0,0,0,0,0,0,0,0,0,0,0
1991,9,19,15,0,,25.6,15.2,52,99200,0,0,387,622,580,206,45798,48518,26838,0,290,4.3,2,0,0,0,0,0,0,0,0,0,0,0,0
1991,9,19,16,0,,25.6,14.8,53,99230,0,0,385,489,555,164,25731,30974,19838,0,340,2.8,2,0,0,0,0,0,0,0,0,0,0,0,0
1991,9,19,17,0,,24.5,14.5,55,99270,0,0,377,340,569,104,0,0,0,0,340,4.2,1,0,0,0,0,0,0,0,0,0,0,0,0
1991,9,19,18,0,,23.4,14.1,56,99300,0,0,369,168,526,54,0,0,0,0,320,4,1,0,0,0,0,0,0,0,0,0,0,0,0
1991,9,19,19,0,,21.9,14.7,62,99360,0,0,360,33,19,14,0,0,0,0,320,2.8,1,0,0,0,0,0,0,0,0,0,0,0,0
1991,9,19,20,0,,20.3,15.2,67,99430,0,0,350,0,0,0,0,0,0,0,320,2,0,0,0,0,0,0,0,0,0,0,0,0,0
1991,9,19,21,0,,20.7,15.8,73,99490,0,0,351,0,0,0,0,0,0,0,320,1.3,0,0,0,0,0,0,0,0,0,0,0,0,0
1991,9,19,22,0,,19.1,15.6,78,99520,0,0,343,0,0,0,0,0,0,0,160,2,0,0,0,0,0,0,0,0,0,0,0,0,0
1991,9,19,23,0,,18,15.5,82,99540,0,0,337,0,0,0,0,0,0,0,160,0.5,0,0,0,0,0,0,0,0,0,0,0,0,0
1991,9,19,24,0,,17.5,15.3,87,99570,0,0,335,0,0,0,0,0,0,0,140,1.7,0,0,0,0,0,0,0,0,0,0,0,0,0
1991,9,20,1,0,,17.2,15.2,88,99560,0,0,334,0,0,0,0,0,0,0,160,3.2,0,0,0,0,0,0,0,0,0,0,0,0,0
1991,9,20,2,0,,17,15.2,89,99560,0,0,332,0,0,0,0,0,0,0,160,2.7,0,0,0,0,0,0,0,0,0,0,0,0,0
1991,9,20,3,0,,16.7,15.1,90,99550,0,0,331,0,0,0,0,0,0,0,140,0.5,0,0,0,0,0,0,0,0,0,0,0,0,0
1991,9,20,4,0,,16.8,15.3,91,99570,0,0,347,0,0,0,0,0,0,0,0,0,3,0,0,0,0,0,0,0,0,0,0,0,0
1991,9,20,5,0,,16.6,15.5,91,99580,0,0,357,0,0,0,0,0,0,0,160,1,7,0,0,0,0,0,0,0,0,0,0,0,0
1991,9,20,6,0,,16.9,15.7,92,99600,0,0,384,0,0,0,0,0,0,0,160,2.5,10,0,0,0,0,0,0,0,0,0,0,0,0
1991,9,20,7,0,,16.9,15.8,88,99620,0,0,360,24,6,19,2537,495,2314,0,180,2.3,7,0,0,0,0,0,0,0,0,0,0,0,0
1991,9,20,8,0,,17.6,15.8,84,99650,0,0,353,152,331,76,32641,32889,12454,0,0,0,4,0,0,0,0,0,0,0,0,0,0,0,0
1991,9,20,9,0,,19.5,15.9,80,99670,0,0,352,345,548,112,57422,54774,17123,0,160,1.7,1,0,0,0,0,0,0,0,0,0,0,0,0
1991,9,20,10,0,,20.6,14.8,71,99700,0,0,357,513,603,155,70726,60149,22111,0,270,1.5,1,0,0,0,0,0,0,0,0,0,0,0,0
1991,9,20,11,0,,22.2,13.7,61,99730,0,0,366,652,644,187,78438,63997,25552,0,270,3.2,2,0,0,0,0,0,0,0,0,0,0,0,0
1991,9,20,12,0,,22.6,12.6,52,99760,0,0,368,745,675,203,79895,66754,27233,0,270,6.5,2,0,0,0,0,0,0,0,0,0,0,0,0
1991,9,20,13,0,,22.5,12.4,51,99780,0,0,370,735,589,248,71079,55894,32046,0,270,6.7,3,0,0,0,0,0,0,0,0,0,0,0,0
1991,9,20,14,0,,22.3,12.2,51,99800,0,0,371,670,503,269,59723,46561,33609,0,290,6.8,3,0,0,0,0,0,0,0,0,0,0,0,0
1991,9,20,15,0,,22.7,12,50,99820,0,0,374,569,449,249,44317,37919,29687,0,290,5.3,4,0,0,0,0,0,0,0,0,0,0,0,0
1991,9,20,16,0,,22,12.3,53,99850,0,0,373,428,348,226,28971,20612,25155,0,290,5.2,5,0,0,0,0,0,0,0,0,0,0,0,0
1991,9,20,17,0,,21.8,12.7,57,99880,0,0,374,296,396,133,0,0,0,0,290,5.3,5,0,0,0,0,0,0,0,0,0,0,0,0
1991,9,20,18,0,,21.1,13,60,99910,0,0,373,127,295,65,0,0,0,0,290,3.3,6,0,0,0,0,0,0,0,0,0,0,0,0
1991,9,20,19,0,,20.2,13.1,64,99990,0,0,367,27,11,16,0,0,0,0,290,3,5,0,0,0,0,0,0,0,0,0,0,0,0
1991,9,20,20,0,,19.5,13.3,67,100060,0,0,361,0,0,0,0,0,0,0,270,2.7,5,0,0,0,0,0,0,0,0,0,0,0,0
1991,9,20,21,0,,18.8,13.4,71,100140,0,0,356,0,0,0,0,0,0,0,230,1.3,4,0,0,0,0,0,0,0,0,0,0,0,0
1991,9,20,22,0,,18.1,13.6,74,100170,0,0,352,0,0,0,0,0,0,0,140,1.7,4,0,0,0,0,0,0,0,0,0,0,0,0
1991,9,20,23,0,,18,13.8,77,100210,0,0,351,0,0,0,0,0,0,0,110,1,3,0,0,0,0,0,0,0,0,0,0,0,0
1991,9,20,24,0,,17.4,14,80,100240,0,0,347,0,0,0,0,0,0,0,200,1,3,0,0,0,0,0,0,0,0,0,0,0,0
1991,9,21,1,0,,16.8,13.9,83,100250,0,0,346,0,0,0,0,0,0,0,140,2.2,4,0,0,0,0,0,0,0,0,0,0,0,0
1991,9,21,2,0,,16.2,13.7,85,100250,0,0,345,0,0,0,0,0,0,0,160,2.5,4,0,0,0,0,0,0,0,0,0,0,0,0
1991,9,21,3,0,,15.6,13.6,88,100260,0,0,344,0,0,0,0,0,0,0,160,2.2,5,0,0,0,0,0,0,0,0,0,0,0,0
1991,9,21,4,0,,15.6,13.4,88,100310,0,0,339,0,0,0,0,0,0,0,320,0.3,3,0,0,0,0,0,0,0,0,0,0,0,0
1991,9,21,5,0,,15.4,13.2,88,100350,0,0,332,0,0,0,0,0,0,0,140,1.3,2,0,0,0,0,0,0,0,0,0,0,0,0
1991,9,21,6,0,,15,13,88,100400,0,0,321,0,0,0,0,0,0,0,160,1.5,0,0,0,0,0,0,0,0,0,0,0,0,0
1991,9,21,7,0,,15,13.6,84,100440,0,0,334,36,20,16,3331,1794,2528,0,0,0,2,0,0,0,0,0,0,0,0,0,0,0,0
1991,9,21,8,0,,17,14.3,79,100470,0,0,350,146,358,65,32664,35839,10773,0,0,0,5,0,0,0,0,0,0,0,0,0,0,0,0
1991,9,21,9,0,,19.4,14.9,75,100510,0,0,371,260,235,160,38999,22121,22796,0,250,0.3,7,0,0,0,0,0,0,0,0,0,0,0,0
1991,9,21,10,0,,19.8,15.2,72,100530,0,0,368,411,282,244,52078,26343,30879,0,0,0,6,0,0,0,0,0,0,0,0,0,0,0,0
1991,9,21,11,0,,20.6,15.4,69,100560,0,0,369,561,410,266,66647,38518,34965,0,230,1.8,4,0,0,0,0,0,0,0,0,0,0,0,0
1991,9,21,12,0,,22.3,15.7,66,100580,0,0,374,653,460,287,70871,42879,37224,0,340,1.7,3,0,0,0,0,0,0,0,0,0,0,0,0
1991,9,21,13,0,,23,14.8,60,100550,0,0,375,683,474,293,67987,44110,37382,0,360,2.3,3,0,0,0,0,0,0,0,0,0,0,0,0
1991,9,21,14,0,,23.3,13.9,55,100510,0,0,374,703,595,231,60405,54505,30095,0,320,4,2,0,0,0,0,0,0,0,0,0,0,0,0
1991,9,21,15,0,,24.4,13,49,100480,0,0,378,620,597,197,44566,50577,25303,0,340,3,2,0,0,0,0,0,0,0,0,0,0,0,0
1991,9,21,16,0,,23.5,13,51,100520,0,0,370,493,594,150,24744,35461,18360,0,340,3.8,1,0,0,0,0,0,0,0,0,0,0,0,0
1991,9,21,17,0,,23.2,13.1,54,100560,0,0,364,339,601,96,0,0,0,0,320,3.8,1,0,0,0,0,0,0,0,0,0,0,0,0
1991,9,21,18,0,,22.3,13.1,56,100600,0,0,355,156,499,54,0,0,0,0,320,3,0,0,0,0,0,0,0,0,0,0,0,0,0
1991,9,21,19,0,,20.7,13.4,63,100670,0,0,348,30,18,12,0,0,0,0,320,2,0,0,0,0,0,0,0,0,0,0,0,0,0
1991,9,21,20,0,,19.5,13.6,70,100730,0,0,342,0,0,0,0,0,0,0,320,1.7,0,0,0,0,0,0,0,0,0,0,0,0,0
1991,9,21,21,0,,18,13.9,77,100800,0,0,336,0,0,0,0,0,0,0,140,0.8,0,0,0,0,0,0,0,0,0,0,0,0,0
1991,9,21,22,0,,17.8,13.7,80,100830,0,0,335,0,0,0,0,0,0,0,50,1.8,0,0,0,0,0,0,0,0,0,0,0,0,0
1991,9,21,23,0,,17.3,13.6,82,100870,0,0,332,0,0,0,0,0,0,0,0,0,0,0,0,0,0,0,0,0,0,0,0,0,0
1991,9,21,24,0,,16.1,13.4,85,100900,0,0,326,0,0,0,0,0,0,0,140,1.2,0,0,0,0,0,0,0,0,0,0,0,0,0
1991,9,22,1,0,,15.7,13.4,87,100900,0,0,334,0,0,0,0,0,0,0,140,1,2,0,0,0,0,0,0,0,0,0,0,0,0
1991,9,22,2,0,,15.3,13.3,88,100910,0,0,338,0,0,0,0,0,0,0,140,0.8,3,0,0,0,0,0,0,0,0,0,0,0,0
1991,9,22,3,0,,15,13.3,90,100910,0,0,341,0,0,0,0,0,0,0,160,1.5,5,0,0,0,0,0,0,0,0,0,0,0,0
1991,9,22,4,0,,15,13.4,91,100910,0,0,343,0,0,0,0,0,0,0,140,1.8,6,0,0,0,0,0,0,0,0,0,0,0,0
1991,9,22,5,0,,14.9,13.4,91,100900,0,0,345,0,0,0,0,0,0,0,0,0,6,0,0,0,0,0,0,0,0,0,0,0,0
1991,9,22,6,0,,14.8,13.5,92,100900,0,0,347,0,0,0,0,0,0,0,0,0,7,0,0,0,0,0,0,0,0,0,0,0,0
1991,9,22,7,0,,15,13.6,87,100930,0,0,350,23,5,18,2369,441,2173,0,0,0,7,0,0,0,0,0,0,0,0,0,0,0,0
1991,9,22,8,0,,16.3,13.7,81,100970,0,0,358,98,109,74,16573,10212,10367,0,0,0,8,0,0,0,0,0,0,0,0,0,0,0,0
1991,9,22,9,0,,18.2,13.8,76,101000,0,0,370,216,139,158,30261,13218,20622,0,0,0,8,0,0,0,0,0,0,0,0,0,0,0,0
1991,9,22,10,0,,21.2,14.2,69,100990,0,0,388,352,180,247,44500,16969,30906,0,360,0.5,8,0,0,0,0,0,0,0,0,0,0,0,0
1991,9,22,11,0,,23.1,14.5,63,100980,0,0,402,403,132,309,46949,12480,36733,0,340,2,9,0,0,0,0,0,0,0,0,0,0,0,0
1991,9,22,12,0,,24.2,14.9,56,100970,0,0,411,433,112,344,48756,10469,40585,0,320,1.7,9,0,0,0,0,0,0,0,0,0,0,0,0
1991,9,22,13,0,,24.3,15,55,100930,0,0,412,404,83,335,43796,7805,38417,0,340,1.3,9,0,0,0,0,0,0,0,0,0,0,0,0
1991,9,22,14,0,,24.2,15,55,100880,0,0,412,356,67,303,37957,6244,34515,0,320,1.5,9,0,0,0,0,0,0,0,0,0,0,0,0
1991,9,22,15,0,,25,15.1,54,100840,0,0,416,302,63,257,31235,5606,29128,0,0,0.2,9,0,0,0,0,0,0,0,0,0,0,0,0
1991,9,22,16,0,,24.5,15.1,56,100840,0,0,410,235,64,199,22905,4835,22059,0,0,0,9,0,0,0,0,0,0,0,0,0,0,0,0
1991,9,22,17,0,,23.6,15,59,100840,0,0,402,194,121,145,0,0,0,0,160,2,8,0,0,0,0,0,0,0,0,0,0,0,0
1991,9,22,18,0,,22.9,15,61,100840,0,0,396,86,104,65,0,0,0,0,180,1,8,0,0,0,0,0,0,0,0,0,0,0,0
1991,9,22,19,0,,21.6,15.7,68,100890,0,0,387,13,2,11,0,0,0,0,160,2,8,0,0,0,0,0,0,0,0,0,0,0,0
1991,9,22,20,0,,20.8,16.4,75,100950,0,0,382,0,0,0,0,0,0,0,110,0.5,7,0,0,0,0,0,0,0,0,0,0,0,0
1991,9,22,21,0,,20.3,17.1,82,101000,0,0,379,0,0,0,0,0,0,0,140,1.8,7,0,0,0,0,0,0,0,0,0,0,0,0
1991,9,22,22,0,,20,16.8,83,101000,0,0,375,0,0,0,0,0,0,0,140,2.2,7,0,0,0,0,0,0,0,0,0,0,0,0
1991,9,22,23,0,,19.6,16.6,84,101010,0,0,371,0,0,0,0,0,0,0,140,2,6,0,0,0,0,0,0,0,0,0,0,0,0
1991,9,22,24,0,,18.9,16.3,85,101010,0,0,366,0,0,0,0,0,0,0,140,1.5,6,0,0,0,0,0,0,0,0,0,0,0,0
1991,9,23,1,0,,18.4,16.1,87,100990,0,0,369,0,0,0,0,0,0,0,140,0.8,7,0,0,0,0,0,0,0,0,0,0,0,0
1991,9,23,2,0,,17.8,15.9,88,100960,0,0,376,0,0,0,0,0,0,0,140,1.8,9,0,0,0,0,0,0,0,0,0,0,0,0
1991,9,23,3,0,,17.3,15.7,90,100940,0,0,386,0,0,0,0,0,0,0,0,0,10,0,0,0,0,0,0,0,0,0,0,0,0
1991,9,23,4,0,,17.1,15.6,90,100920,0,0,369,0,0,0,0,0,0,0,140,1,8,0,0,0,0,0,0,0,0,0,0,0,0
1991,9,23,5,0,,17,15.4,90,100900,0,0,358,0,0,0,0,0,0,0,0,0,7,0,0,0,0,0,0,0,0,0,0,0,0
1991,9,23,6,0,,16.9,15.3,90,100880,0,0,352,0,0,0,0,0,0,0,0,0,5,0,0,0,0,0,0,0,0,0,0,0,0
1991,9,23,7,0,,16.6,15.5,87,100900,0,0,354,25,7,18,2472,579,2215,0,140,0.5,6,0,0,0,0,0,0,0,0,0,0,0,0
1991,9,23,8,0,,17.4,15.7,85,100920,0,0,362,107,144,75,20007,13318,11953,0,0,0,7,0,0,0,0,0,0,0,0,0,0,0,0
1991,9,23,9,0,,19,15.9,82,100940,0,0,376,197,109,152,26484,10290,19015,0,0,0,8,0,0,0,0,0,0,0,0,0,0,0,0
1991,9,23,10,0,,20.4,16.1,80,100950,0,0,389,259,77,214,32066,7200,26324,0,0,0.2,9,0,0,0,0,0,0,0,0,0,0,0,0
1991,9,23,11,0,,21.1,16.4,77,100960,0,0,400,327,75,273,37413,6887,31803,0,340,0.3,9,0,0,0,0,0,0,0,0,0,0,0,0
1991,9,23,12,0,,21.2,16.6,75,100970,0,0,408,261,28,238,29815,2586,27807,0,360,1.2,10,0,0,0,0,0,0,0,0,0,0,0,0
1991,9,23,13,0,,21.7,16.6,74,100900,0,0,411,265,27,243,29885,2440,28215,0,50,2.3,10,0,0,0,0,0,0,0,0,0,0,0,0
1991,9,23,14,0,,21.8,16.5,72,100840,0,0,412,237,23,220,25777,1654,24873,0,90,1.2,10,0,0,0,0,0,0,0,0,0,0,0,0
1991,9,23,15,0,,22,16.5,71,100770,0,0,413,217,26,199,22280,1870,21586,0,0,0.2,10,0,0,0,0,0,0,0,0,0,0,0,0
1991,9,23,16,0,,21.6,16.4,72,100760,0,0,410,169,26,154,15972,1583,15703,0,250,2,10,0,0,0,0,0,0,0,0,0,0,0,0
1991,9,23,17,0,,21.3,16.2,72,100760,0,0,408,110,26,100,0,0,0,0,290,1.7,10,0,0,0,0,0,0,0,0,0,0,0,0
1991,9,23,18,0,,21.2,16.1,73,100750,0,0,408,45,18,42,0,0,0,0,0,0,10,0,0,0,0,0,0,0,0,0,0,0,0
1991,9,23,19,0,,20.8,16.4,76,100780,0,0,402,4,0,4,0,0,0,0,50,1.2,10,0,0,0,0,0,0,0,0,0,0,0,0
1991,9,23,20,0,,20.4,16.8,80,100810,0,0,396,0,0,0,0,0,0,0,0,0,9,0,0,0,0,0,0,0,0,0,0,0,0
1991,9,23,21,0,,20,17.1,83,100840,0,0,391,0,0,0,0,0,0,0,0,0,9,0,0,0,0,0,0,0,0,0,0,0,0
1991,9,23,22,0,,19.2,16.8,86,100830,0,0,376,0,0,0,0,0,0,0,230,1,8,0,0,0,0,0,0,0,0,0,0,0,0
1991,9,23,23,0,,18.4,16.6,89,100830,0,0,365,0,0,0,0,0,0,0,140,1.7,6,0,0,0,0,0,0,0,0,0,0,0,0
1991,9,23,24,0,,17.7,16.3,92,100820,0,0,357,0,0,0,0,0,0,0,140,1.7,5,0,0,0,0,0,0,0,0,0,0,0,0
1991,9,24,1,0,,17.4,16,92,100810,0,0,359,0,0,0,0,0,0,0,0,0,6,0,0,0,0,0,0,0,0,0,0,0,0
1991,9,24,2,0,,17.2,15.8,91,100810,0,0,361,0,0,0,0,0,0,0,140,1,7,0,0,0,0,0,0,0,0,0,0,0,0
1991,9,24,3,0,,16.9,15.5,91,100800,0,0,365,0,0,0,0,0,0,0,0,0,8,0,0,0,0,0,0,0,0,0,0,0,0
1991,9,24,4,0,,16.6,15.4,91,100790,0,0,366,0,0,0,0,0,0,0,90,0.5,8,0,0,0,0,0,0,0,0,0,0,0,0
1991,9,24,5,0,,16.2,15.2,92,100780,0,0,366,0,0,0,0,0,0,0,0,0,9,0,0,0,0,0,0,0,0,0,0,0,0
1991,9,24,6,0,,15.8,15.1,92,100770,0,0,367,0,0,0,0,0,0,0,50,0.5,9,0,0,0,0,0,0,0,0,0,0,0,0
1991,9,24,7,0,,16,15.3,91,100780,0,0,368,11,1,11,1466,28,1453,0,320,0.8,9,0,0,0,0,0,0,0,0,0,0,0,0
1991,9,24,8,0,,16.1,15.4,90,100790,0,0,369,71,46,61,10635,4323,8034,0,290,1.5,9,0,0,0,0,0,0,0,0,0,0,0,0
1991,9,24,9,0,,17.3,15.6,89,100800,0,0,375,156,57,132,20571,5409,16662,0,270,0.3,9,0,0,0,0,0,0,0,0,0,0,0,0
1991,9,24,10,0,,18.1,15.9,83,100800,0,0,377,238,62,202,29549,5827,24923,0,270,1.8,9,0,0,0,0,0,0,0,0,0,0,0,0
1991,9,24,11,0,,19.4,16.1,78,100800,0,0,381,370,107,294,43447,10010,35331,0,230,1,8,0,0,0,0,0,0,0,0,0,0,0,0
1991,9,24,12,0,,21.6,16.4,72,100800,0,0,391,435,118,343,49114,10846,40742,0,290,0.7,8,0,0,0,0,0,0,0,0,0,0,0,0
1991,9,24,13,0,,23,16.1,68,100750,0,0,398,465,127,362,49533,11880,41453,0,290,1.2,8,0,0,0,0,0,0,0,0,0,0,0,0
1991,9,24,14,0,,24.5,15.9,63,100690,0,0,406,465,146,351,47250,13564,39903,0,270,1.2,8,0,0,0,0,0,0,0,0,0,0,0,0
1991,9,24,15,0,,24.2,15.6,59,100640,0,0,404,401,145,301,38546,12929,33816,0,290,2.7,8,0,0,0,0,0,0,0,0,0,0,0,0
1991,9,24,16,0,,23.9,15.8,61,100650,0,0,402,301,134,225,26575,10205,24894,0,290,2.5,8,0,0,0,0,0,0,0,0,0,0,0,0
1991,9,24,17,0,,23.7,15.9,63,100650,0,0,401,190,124,142,0,0,0,0,320,1.8,8,0,0,0,0,0,0,0,0,0,0,0,0
1991,9,24,18,0,,23.1,16.1,65,100660,0,0,398,87,130,63,0,0,0,0,340,2.7,8,0,0,0,0,0,0,0,0,0,0,0,0
1991,9,24,19,0,,22,16.1,69,100710,0,0,395,11,1,10,0,0,0,0,340,0.8,8,0,0,0,0,0,0,0,0,0,0,0,0
1991,9,24,20,0,,21.4,16,72,100770,0,0,394,0,0,0,0,0,0,0,320,1.5,9,0,0,0,0,0,0,0,0,0,0,0,0
1991,9,24,21,0,,20.4,16,76,100820,0,0,392,0,0,0,0,0,0,0,20,1.8,9,0,0,0,0,0,0,0,0,0,0,0,0
1991,9,24,22,0,,20,16.1,79,100820,0,0,390,0,0,0,0,0,0,0,50,1.7,9,0,0,0,0,0,0,0,0,0,0,0,0
1991,9,24,23,0,,19.6,16.2,82,100820,0,0,388,0,0,0,0,0,0,0,20,1.5,9,0,0,0,0,0,0,0,0,0,0,0,0
1991,9,24,24,0,,18.9,16.3,85,100820,0,0,384,0,0,0,0,0,0,0,0,0,9,0,0,0,0,0,0,0,0,0,0,0,0
1991,9,25,1,0,,18.7,16.3,86,100810,0,0,387,0,0,0,0,0,0,0,140,0.3,9,0,0,0,0,0,0,0,0,0,0,0,0
1991,9,25,2,0,,18.4,16.4,88,100800,0,0,389,0,0,0,0,0,0,0,0,0.2,10,0,0,0,0,0,0,0,0,0,0,0,0
1991,9,25,3,0,,18.2,16.4,89,100790,0,0,392,0,0,0,0,0,0,0,0,0,10,0,0,0,0,0,0,0,0,0,0,0,0
1991,9,25,4,0,,18,16.3,90,100790,0,0,391,0,0,0,0,0,0,0,160,1,10,0,0,0,0,0,0,0,0,0,0,0,0
1991,9,25,5,0,,17.7,16.1,90,100800,0,0,389,0,0,0,0,0,0,0,200,0.8,10,0,0,0,0,0,0,0,0,0,0,0,0
1991,9,25,6,0,,17.6,16,91,100800,0,0,388,0,0,0,0,0,0,0,0,0,10,0,0,0,0,0,0,0,0,0,0,0,0
1991,9,25,7,0,,17.6,16.2,88,100810,0,0,384,6,0,6,827,3,825,0,0,0,10,0,0,0,0,0,0,0,0,0,0,0,0
1991,9,25,8,0,,18.1,16.4,86,100830,0,0,384,71,49,61,10752,4514,8050,0,0,0,9,0,0,0,0,0,0,0,0,0,0,0,0
1991,9,25,9,0,,19.7,16.6,83,100840,0,0,389,156,59,131,20635,5477,16696,0,0,0,9,0,0,0,0,0,0,0,0,0,0,0,0
1991,9,25,10,0,,21.2,16.7,81,100860,0,0,401,256,77,212,31769,7179,26097,0,270,1,9,0,0,0,0,0,0,0,0,0,0,0,0
1991,9,25,11,0,,20.8,16.9,78,100880,0,0,402,224,28,205,26112,2497,24098,0,290,1,10,0,0,0,0,0,0,0,0,0,0,0,0
1991,9,25,12,0,,21.4,17,76,100900,0,0,410,262,30,239,29986,2706,27909,0,320,0.8,10,0,0,0,0,0,0,0,0,0,0,0,0
1991,9,25,13,0,,21.4,17.4,78,100870,0,0,410,234,20,218,26340,1355,25425,0,70,0.5,10,0,0,0,0,0,0,0,0,0,0,0,0
1991,9,25,14,0,,21.1,17.7,80,100850,0,0,409,224,20,208,24362,1401,23610,0,20,1.2,10,0,0,0,0,0,0,0,0,0,0,0,0
1991,9,25,15,0,,21.2,18.1,82,100820,0,0,410,181,16,169,18908,1030,18536,0,340,0.7,10,0,0,0,0,0,0,0,0,0,0,0,0
1991,9,25,16,0,,20.9,18,84,100820,0,0,408,150,20,139,14269,1001,14109,0,200,1.7,10,0,0,0,0,0,0,0,0,0,0,0,0
1991,9,25,17,0,,20.2,17.8,86,100830,0,0,404,92,17,85,0,0,0,0,200,1.3,10,0,0,0,0,0,0,0,0,0,0,0,0
1991,9,25,18,0,,19.7,17.7,88,100830,0,0,402,34,9,32,0,0,0,0,0,0,10,0,0,0,0,0,0,0,0,0,0,0,0
1991,9,25,19,0,,19.1,17.2,86,100870,0,0,398,1,0,1,0,0,0,0,140,1.3,10,0,0,0,0,0,0,0,0,0,0,0,0
1991,9,25,20,0,,18.8,16.6,85,100900,0,0,395,0,0,0,0,0,0,0,340,1,10,0,0,0,0,0,0,0,0,0,0,0,0
1991,9,25,21,0,,19.1,16.1,83,100940,0,0,396,0,0,0,0,0,0,0,70,2,10,0,0,0,0,0,0,0,0,0,0,0,0
1991,9,25,22,0,,18.8,15.9,83,100920,0,0,394,0,0,0,0,0,0,0,70,2.3,10,0,0,0,0,0,0,0,0,0,0,0,0
1991,9,25,23,0,,18.7,15.6,82,100900,0,0,393,0,0,0,0,0,0,0,70,3,10,0,0,0,0,0,0,0,0,0,0,0,0
1991,9,25,24,0,,18.5,15.4,82,100880,0,0,392,0,0,0,0,0,0,0,70,0.7,10,0,0,0,0,0,0,0,0,0,0,0,0
1991,9,26,1,0,,18.6,15.7,83,100820,0,0,393,0,0,0,0,0,0,0,50,2.7,10,0,0,0,0,0,0,0,0,0,0,0,0
1991,9,26,2,0,,18.6,16.1,85,100760,0,0,394,0,0,0,0,0,0,0,20,2,10,0,0,0,0,0,0,0,0,0,0,0,0
1991,9,26,3,0,,18.7,16.4,86,100700,0,0,394,0,0,0,0,0,0,0,20,1.8,10,0,0,0,0,0,0,0,0,0,0,0,0
1991,9,26,4,0,,18.6,16.4,87,100690,0,0,394,0,0,0,0,0,0,0,0,0,10,0,0,0,0,0,0,0,0,0,0,0,0
1991,9,26,5,0,,18.2,16.3,89,100670,0,0,392,0,0,0,0,0,0,0,0,0,10,0,0,0,0,0,0,0,0,0,0,0,0
1991,9,26,6,0,,18,16.3,90,100660,0,0,391,0,0,0,0,0,0,0,0,0,10,0,0,0,0,0,0,0,0,0,0,0,0
1991,9,26,7,0,,18,16.7,91,100660,0,0,391,4,0,4,624,3,623,0,0,0,10,0,0,0,0,0,0,0,0,0,0,0,0
1991,9,26,8,0,,18.7,17.2,93,100650,0,0,395,52,21,48,7591,1922,6446,0,270,1.5,10,0,0,0,0,0,0,0,0,0,0,0,0
1991,9,26,9,0,,18.5,17.6,94,100650,0,0,395,101,18,94,12386,1568,11264,0,290,0.5,10,0,0,0,0,0,0,0,0,0,0,0,0
1991,9,26,10,0,,19.6,17.6,88,100610,0,0,401,169,25,154,20080,2195,18354,0,340,1.3,10,0,0,0,0,0,0,0,0,0,0,0,0
1991,9,26,11,0,,20.9,17.6,82,100580,0,0,408,224,28,204,26070,2499,24064,0,360,0.8,10,0,0,0,0,0,0,0,0,0,0,0,0
1991,9,26,12,0,,21.9,17.6,76,100540,0,0,414,278,36,251,31728,3232,29262,0,20,2.3,10,0,0,0,0,0,0,0,0,0,0,0,0
1991,9,26,13,0,,21.3,17.8,77,100470,0,0,411,256,26,236,29000,2311,27449,0,20,2.3,10,0,0,0,0,0,0,0,0,0,0,0,0
1991,9,26,14,0,,21.1,18.1,77,100410,0,0,410,225,21,209,24451,1455,23677,0,20,2.5,10,0,0,0,0,0,0,0,0,0,0,0,0
1991,9,26,15,0,,22.3,18.3,78,100340,0,0,417,208,25,191,21314,1705,20708,0,20,2.2,10,0,0,0,0,0,0,0,0,0,0,0,0
1991,9,26,16,0,,22.9,18.3,79,100300,0,0,420,181,35,162,16568,2212,16226,0,360,3,10,0,0,0,0,0,0,0,0,0,0,0,0
1991,9,26,17,0,,22.2,18.4,80,100250,0,0,416,113,31,101,0,0,0,0,20,1.7,10,0,0,0,0,0,0,0,0,0,0,0,0
1991,9,26,18,0,,21.8,18.4,81,100210,0,0,414,41,18,38,0,0,0,0,20,1.2,10,0,0,0,0,0,0,0,0,0,0,0,0
1991,9,26,19,0,,21.1,18.5,85,100200,0,0,410,1,0,1,0,0,0,0,360,1,10,0,0,0,0,0,0,0,0,0,0,0,0
1991,9,26,20,0,,20.4,18.6,88,100180,0,0,407,0,0,0,0,0,0,0,50,2.3,10,0,0,0,0,0,0,0,0,0,0,0,0
1991,9,26,21,0,,20,18.7,92,100170,0,0,405,0,0,0,0,0,0,0,360,0.7,10,0,0,0,0,0,0,0,0,0,0,0,0
1991,9,26,22,0,,19.7,18.7,92,100100,0,0,403,0,0,0,0,0,0,0,320,1.5,10,0,0,0,0,0,0,0,0,0,0,0,0
1991,9,26,23,0,,19.9,18.7,92,100040,0,0,404,0,0,0,0,0,0,0,20,0.3,10,0,0,0,0,0,0,0,0,0,0,0,0
1991,9,26,24,0,,20,18.7,92,99970,0,0,405,0,0,0,0,0,0,0,290,0.7,10,0,0,0,0,0,0,0,0,0,0,0,0
1991,9,27,1,0,,20,18.7,92,99900,0,0,405,0,0,0,0,0,0,0,0,0,10,0,0,0,0,0,0,0,0,0,0,0,0
1991,9,27,2,0,,20,18.7,92,99830,0,0,405,0,0,0,0,0,0,0,360,0.8,10,0,0,0,0,0,0,0,0,0,0,0,0
1991,9,27,3,0,,20,18.7,92,99760,0,0,405,0,0,0,0,0,0,0,360,0.5,10,0,0,0,0,0,0,0,0,0,0,0,0
1991,9,27,4,0,,20.2,18.9,92,99710,0,0,406,0,0,0,0,0,0,0,360,1.2,10,0,0,0,0,0,0,0,0,0,0,0,0
1991,9,27,5,0,,20.3,19,92,99650,0,0,407,0,0,0,0,0,0,0,0,0,10,0,0,0,0,0,0,0,0,0,0,0,0
1991,9,27,6,0,,20.5,19.2,92,99600,0,0,408,0,0,0,0,0,0,0,0,0,10,0,0,0,0,0,0,0,0,0,0,0,0
1991,9,27,7,0,,20.6,19.6,93,99560,0,0,409,5,0,5,743,3,742,0,0,0,10,0,0,0,0,0,0,0,0,0,0,0,0
1991,9,27,8,0,,20.7,19.9,95,99510,0,0,410,47,17,44,6249,1411,5413,0,20,1.8,10,0,0,0,0,0,0,0,0,0,0,0,0
1991,9,27,9,0,,21,20.3,96,99470,0,0,412,110,23,100,13545,1986,12131,0,50,3.2,10,0,0,0,0,0,0,0,0,0,0,0,0
1991,9,27,10,0,,20.7,20,95,99380,0,0,410,152,19,141,18173,1615,16909,0,50,3.2,10,0,0,0,0,0,0,0,0,0,0,0,0
1991,9,27,11,0,,20.6,19.7,95,99290,0,0,409,195,19,181,22892,1682,21548,0,50,4,10,0,0,0,0,0,0,0,0,0,0,0,0
1991,9,27,12,0,,20.5,19.4,94,99200,0,0,408,196,14,185,22842,831,22212,0,50,2.8,10,0,0,0,0,0,0,0,0,0,0,0,0
1991,9,27,13,0,,20.5,19.3,94,98990,0,0,408,227,19,212,25549,1240,24722,0,20,3.8,10,0,0,0,0,0,0,0,0,0,0,0,0
1991,9,27,14,0,,20.2,19.3,93,98790,0,0,406,206,16,193,22486,1079,21917,0,20,4,10,0,0,0,0,0,0,0,0,0,0,0,0
1991,9,27,15,0,,20.3,19.2,93,98580,0,0,407,196,21,182,20157,1394,19668,0,50,4,10,0,0,0,0,0,0,0,0,0,0,0,0
1991,9,27,16,0,,20.2,18.6,91,98570,0,0,406,147,20,136,13912,976,13766,0,50,3.5,10,0,0,0,0,0,0,0,0,0,0,0,0
1991,9,27,17,0,,20.3,17.9,90,98550,0,0,405,110,30,98,0,0,0,0,20,3.7,10,0,0,0,0,0,0,0,0,0,0,0,0
1991,9,27,18,0,,19.2,17.3,88,98540,0,0,398,46,27,41,0,0,0,0,320,6.2,10,0,0,0,0,0,0,0,0,0,0,0,0
1991,9,27,19,0,,19.4,16.7,85,98770,0,0,399,3,0,2,0,0,0,0,340,6.2,10,0,0,0,0,0,0,0,0,0,0,0,0
1991,9,27,20,0,,19.2,16.1,83,99010,0,0,397,0,0,0,0,0,0,0,340,5.8,10,0,0,0,0,0,0,0,0,0,0,0,0
1991,9,27,21,0,,18.9,15.5,80,99240,0,0,394,0,0,0,0,0,0,0,340,3.7,10,0,0,0,0,0,0,0,0,0,0,0,0
1991,9,27,22,0,,18.4,15,79,99400,0,0,368,0,0,0,0,0,0,0,320,2.7,7,0,0,0,0,0,0,0,0,0,0,0,0
1991,9,27,23,0,,17.7,14.4,78,99550,0,0,354,0,0,0,0,0,0,0,340,1.7,5,0,0,0,0,0,0,0,0,0,0,0,0
1991,9,27,24,0,,18.1,13.9,77,99710,0,0,347,0,0,0,0,0,0,0,290,2,2,0,0,0,0,0,0,0,0,0,0,0,0
1991,9,28,1,0,,17.6,14.2,78,99810,0,0,345,0,0,0,0,0,0,0,0,0,2,0,0,0,0,0,0,0,0,0,0,0,0
1991,9,28,2,0,,17.1,14.6,80,99900,0,0,343,0,0,0,0,0,0,0,0,0,2,0,0,0,0,0,0,0,0,0,0,0,0
1991,9,28,3,0,,18.2,14.9,81,100000,0,0,349,0,0,0,0,0,0,0,320,4,2,0,0,0,0,0,0,0,0,0,0,0,0
1991,9,28,4,0,,17.6,14.6,83,100100,0,0,346,0,0,0,0,0,0,0,320,2.3,2,0,0,0,0,0,0,0,0,0,0,0,0
1991,9,28,5,0,,16.7,14.3,86,100190,0,0,341,0,0,0,0,0,0,0,320,0.7,2,0,0,0,0,0,0,0,0,0,0,0,0
1991,9,28,6,0,,16,14,88,100290,0,0,338,0,0,0,0,0,0,0,270,0.7,2,0,0,0,0,0,0,0,0,0,0,0,0
1991,9,28,7,0,,15.5,13.9,83,100390,0,0,335,28,12,15,2641,1112,2165,0,0,0,2,0,0,0,0,0,0,0,0,0,0,0,0
1991,9,28,8,0,,16.6,13.7,79,100480,0,0,340,148,414,62,34384,42608,9290,0,20,0.3,2,0,0,0,0,0,0,0,0,0,0,0,0
1991,9,28,9,0,,18.5,13.6,74,100580,0,0,349,322,530,108,54148,53213,16435,0,320,1.7,2,0,0,0,0,0,0,0,0,0,0,0,0
1991,9,28,10,0,,20,12.8,66,100620,0,0,352,507,658,132,70244,67505,17674,0,340,2.8,1,0,0,0,0,0,0,0,0,0,0,0,0
1991,9,28,11,0,,20.6,12,59,100650,0,0,350,624,640,178,75169,63831,24467,0,340,3.3,1,0,0,0,0,0,0,0,0,0,0,0,0
1991,9,28,12,0,,21.7,11.2,51,100690,0,0,350,688,607,219,73641,59683,28621,0,290,2.3,0,0,0,0,0,0,0,0,0,0,0,0,0
1991,9,28,13,0,,21.8,10.6,49,100680,0,0,350,704,591,234,67483,56558,30072,0,340,3.7,0,0,0,0,0,0,0,0,0,0,0,0,0
1991,9,28,14,0,,22,10,48,100660,0,0,350,687,631,206,57190,58736,26525,0,290,4.5,0,0,0,0,0,0,0,0,0,0,0,0,0
1991,9,28,15,0,,21.8,9.4,46,100650,0,0,349,591,603,183,40561,50838,22988,0,290,5,0,0,0,0,0,0,0,0,0,0,0,0,0
1991,9,28,16,0,,21.5,9.9,50,100680,0,0,348,469,621,133,20447,33167,15663,0,320,4.7,0,0,0,0,0,0,0,0,0,0,0,0,0
1991,9,28,17,0,,20.5,10.4,55,100710,0,0,343,301,566,91,0,0,0,0,320,4.7,0,0,0,0,0,0,0,0,0,0,0,0,0
1991,9,28,18,0,,19,10.9,59,100740,0,0,337,126,468,46,0,0,0,0,320,4.2,0,0,0,0,0,0,0,0,0,0,0,0,0
1991,9,28,19,0,,17.4,10.8,63,100820,0,0,329,15,5,10,0,0,0,0,340,2.3,0,0,0,0,0,0,0,0,0,0,0,0,0
1991,9,28,20,0,,16.7,10.7,66,100890,0,0,326,0,0,0,0,0,0,0,20,1.3,0,0,0,0,0,0,0,0,0,0,0,0,0
1991,9,28,21,0,,16,10.6,70,100970,0,0,323,0,0,0,0,0,0,0,90,0.8,0,0,0,0,0,0,0,0,0,0,0,0,0
1991,9,28,22,0,,15.5,11.1,76,100990,0,0,321,0,0,0,0,0,0,0,360,1,0,0,0,0,0,0,0,0,0,0,0,0,0
1991,9,28,23,0,,15.1,11.7,81,101000,0,0,320,0,0,0,0,0,0,0,320,1,0,0,0,0,0,0,0,0,0,0,0,0,0
1991,9,28,24,0,,14.4,12.2,87,101020,0,0,318,0,0,0,0,0,0,0,0,0,0,0,0,0,0,0,0,0,0,0,0,0,0
1991,9,29,1,0,,13.7,11.7,88,101010,0,0,314,0,0,0,0,0,0,0,0,0.2,0,0,0,0,0,0,0,0,0,0,0,0,0
1991,9,29,2,0,,13,11.2,89,101010,0,0,310,0,0,0,0,0,0,0,20,0.5,0,0,0,0,0,0,0,0,0,0,0,0,0
1991,9,29,3,0,,12.3,10.7,90,101000,0,0,307,0,0,0,0,0,0,0,140,0.3,0,0,0,0,0,0,0,0,0,0,0,0,0
1991,9,29,4,0,,12.1,10.4,91,101020,0,0,308,0,0,0,0,0,0,0,200,0.7,0,0,0,0,0,0,0,0,0,0,0,0,0
1991,9,29,5,0,,11.6,10.1,91,101030,0,0,307,0,0,0,0,0,0,0,0,0.2,1,0,0,0,0,0,0,0,0,0,0,0,0
1991,9,29,6,0,,11.1,9.8,92,101050,0,0,307,0,0,0,0,0,0,0,140,0.7,1,0,0,0,0,0,0,0,0,0,0,0,0
1991,9,29,7,0,,10.8,10.6,89,101060,0,0,313,25,10,16,2543,879,2170,0,0,0,3,0,0,0,0,0,0,0,0,0,0,0,0
1991,9,29,8,0,,11.9,11.4,87,101080,0,0,323,127,322,61,29075,32324,10143,0,0,0,4,0,0,0,0,0,0,0,0,0,0,0,0
1991,9,29,9,0,,14.9,12.2,84,101090,0,0,342,260,288,144,39905,27601,20442,0,0,0,6,0,0,0,0,0,0,0,0,0,0,0,0
1991,9,29,10,0,,16.4,12.1,75,101070,0,0,349,404,316,225,53161,30361,29635,0,0,0,6,0,0,0,0,0,0,0,0,0,0,0,0
1991,9,29,11,0,,18,12,67,101060,0,0,356,508,296,303,59008,28489,36498,0,340,0.8,6,0,0,0,0,0,0,0,0,0,0,0,0
1991,9,29,12,0,,20.3,11.9,58,101040,0,0,368,579,294,353,62808,28148,41701,0,340,1.2,6,0,0,0,0,0,0,0,0,0,0,0,0
1991,9,29,13,0,,21.4,11.6,55,100990,0,0,378,547,220,373,56491,20810,42825,0,290,1.7,7,0,0,0,0,0,0,0,0,0,0,0,0
1991,9,29,14,0,,22.3,11.4,53,100950,0,0,388,464,160,343,46474,15266,38579,0,320,1.3,8,0,0,0,0,0,0,0,0,0,0,0,0
1991,9,29,15,0,,22.1,11.1,50,100900,0,0,395,321,87,262,32018,7881,29333,0,340,2.2,9,0,0,0,0,0,0,0,0,0,0,0,0
1991,9,29,16,0,,22,11.1,51,100880,0,0,394,241,84,196,22349,6288,21474,0,360,1.7,9,0,0,0,0,0,0,0,0,0,0,0,0
1991,9,29,17,0,,21.6,11.1,53,100860,0,0,392,153,84,123,0,0,0,0,340,1.8,9,0,0,0,0,0,0,0,0,0,0,0,0
1991,9,29,18,0,,20.7,11.1,54,100840,0,0,387,59,65,48,0,0,0,0,70,1.7,9,0,0,0,0,0,0,0,0,0,0,0,0
1991,9,29,19,0,,19,12,63,100900,0,0,383,2,0,2,0,0,0,0,110,1.5,9,0,0,0,0,0,0,0,0,0,0,0,0
1991,9,29,20,0,,17.8,12.8,72,100960,0,0,381,0,0,0,0,0,0,0,140,1.5,10,0,0,0,0,0,0,0,0,0,0,0,0
1991,9,29,21,0,,17,13.7,81,101020,0,0,382,0,0,0,0,0,0,0,160,1.5,10,0,0,0,0,0,0,0,0,0,0,0,0
1991,9,29,22,0,,16.6,13.7,83,101030,0,0,372,0,0,0,0,0,0,0,140,1.3,9,0,0,0,0,0,0,0,0,0,0,0,0
1991,9,29,23,0,,16.5,13.7,84,101050,0,0,366,0,0,0,0,0,0,0,140,0.7,9,0,0,0,0,0,0,0,0,0,0,0,0
1991,9,29,24,0,,16,13.7,86,101060,0,0,359,0,0,0,0,0,0,0,140,1,8,0,0,0,0,0,0,0,0,0,0,0,0
1991,9,30,1,0,,15.8,13.8,88,101040,0,0,363,0,0,0,0,0,0,0,110,0.7,9,0,0,0,0,0,0,0,0,0,0,0,0
1991,9,30,2,0,,15.6,14,90,101020,0,0,368,0,0,0,0,0,0,0,0,0.2,9,0,0,0,0,0,0,0,0,0,0,0,0
1991,9,30,3,0,,15.4,14.1,92,101000,0,0,374,0,0,0,0,0,0,0,0,0,10,0,0,0,0,0,0,0,0,0,0,0,0
1991,9,30,4,0,,15.4,13.8,91,100970,0,0,373,0,0,0,0,0,0,0,0,0,10,0,0,0,0,0,0,0,0,0,0,0,0
1991,9,30,5,0,,15.3,13.5,89,100930,0,0,373,0,0,0,0,0,0,0,0,0,10,0,0,0,0,0,0,0,0,0,0,0,0
1991,9,30,6,0,,15.2,13.2,88,100900,0,0,372,0,0,0,0,0,0,0,0,0,10,0,0,0,0,0,0,0,0,0,0,0,0
1991,9,30,7,0,,15.2,13.3,86,100940,0,0,372,5,0,5,651,3,650,0,290,1.3,10,0,0,0,0,0,0,0,0,0,0,0,0
1991,9,30,8,0,,15.4,13.4,85,100980,0,0,373,45,16,42,5899,1427,5067,0,0,0,10,0,0,0,0,0,0,0,0,0,0,0,0
1991,9,30,9,0,,16.5,13.5,83,101020,0,0,379,116,29,104,14218,2610,12387,0,0,0,10,0,0,0,0,0,0,0,0,0,0,0,0
1991,9,30,10,0,,17.4,13.8,79,100970,0,0,384,173,29,157,20538,2630,18511,0,0,0,10,0,0,0,0,0,0,0,0,0,0,0,0
1991,9,30,11,0,,18.9,14,75,100910,0,0,392,244,38,218,28148,3483,25411,0,340,1.7,10,0,0,0,0,0,0,0,0,0,0,0,0
1991,9,30,12,0,,19.6,14.3,71,100860,0,0,396,271,35,244,30751,3283,28304,0,360,1.8,10,0,0,0,0,0,0,0,0,0,0,0,0
1991,9,30,13,0,,20.2,14.3,70,100810,0,0,400,277,34,250,30893,3158,28833,0,70,1.7,10,0,0,0,0,0,0,0,0,0,0,0,0
1991,9,30,14,0,,20.5,14.4,68,100760,0,0,401,264,35,238,28878,3173,27252,0,50,2.5,10,0,0,0,0,0,0,0,0,0,0,0,0
1991,9,30,15,0,,20.7,14.4,67,100710,0,0,403,219,31,198,22050,2307,21276,0,360,1.7,10,0,0,0,0,0,0,0,0,0,0,0,0
1991,9,30,16,0,,20.2,14.3,68,100690,0,0,400,162,29,147,14932,1782,14693,0,50,2.7,10,0,0,0,0,0,0,0,0,0,0,0,0
1991,9,30,17,0,,19.8,14.2,70,100660,0,0,397,103,28,92,0,0,0,0,20,1.3,10,0,0,0,0,0,0,0,0,0,0,0,0
1991,9,30,18,0,,19.6,14.1,71,100640,0,0,396,38,21,35,0,0,0,0,110,1.3,10,0,0,0,0,0,0,0,0,0,0,0,0
1991,9,30,19,0,,19.1,14.3,75,100660,0,0,394,0,0,0,0,0,0,0,0,0,10,0,0,0,0,0,0,0,0,0,0,0,0
1991,9,30,20,0,,18.5,14.6,78,100690,0,0,391,0,0,0,0,0,0,0,70,2.7,10,0,0,0,0,0,0,0,0,0,0,0,0
1991,9,30,21,0,,17.9,14.8,82,100710,0,0,388,0,0,0,0,0,0,0,160,0.3,10,0,0,0,0,0,0,0,0,0,0,0,0
1991,9,30,22,0,,17.9,14.9,83,100700,0,0,384,0,0,0,0,0,0,0,0,0,10,0,0,0,0,0,0,0,0,0,0,0,0
1991,9,30,23,0,,17.9,15,85,100700,0,0,381,0,0,0,0,0,0,0,0,0,9,0,0,0,0,0,0,0,0,0,0,0,0
1991,9,30,24,0,,17.5,15.1,86,100690,0,0,376,0,0,0,0,0,0,0,180,0.3,9,0,0,0,0,0,0,0,0,0,0,0,0
2005,10,1,1,0,,24.2,21.4,84,100700,0,0,432,0,0,0,0,0,0,0,180,1.7,10,0,0,0,0,0,0,0,0,0,0,0,0
2005,10,1,2,0,,24.3,21.5,84,100690,0,0,433,0,0,0,0,0,0,0,200,2.4,10,0,0,0,0,0,0,0,0,0,0,0,0
2005,10,1,3,0,,24.3,21.7,85,100670,0,0,433,0,0,0,0,0,0,0,200,2.8,10,0,0,0,0,0,0,0,0,0,0,0,0
2005,10,1,4,0,,23.8,21.9,89,100670,0,0,430,0,0,0,0,0,0,0,250,1.1,10,0,0,0,0,0,0,0,0,0,0,0,0
2005,10,1,5,0,,23.7,22.2,91,100670,0,0,430,0,0,0,0,0,0,0,230,2.4,10,0,0,0,0,0,0,0,0,0,0,0,0
2005,10,1,6,0,,23.7,22.4,92,100670,0,0,430,0,0,0,0,0,0,0,200,3.7,10,0,0,0,0,0,0,0,0,0,0,0,0
2005,10,1,7,0,,23.7,22.5,92,100700,0,0,430,5,0,5,700,2,699,0,230,2.6,10,0,0,0,0,0,0,0,0,0,0,0,0
2005,10,1,8,0,,24.5,22.5,90,100740,0,0,435,49,22,45,7356,1847,6290,0,230,2,10,0,0,0,0,0,0,0,0,0,0,0,0
2005,10,1,9,0,,24.3,22.6,90,100770,0,0,434,108,24,98,13357,2015,11955,0,230,2.6,10,0,0,0,0,0,0,0,0,0,0,0,0
2005,10,1,10,0,,24.6,22.5,90,100750,0,0,431,156,22,144,18794,1849,17380,0,200,2.7,10,0,0,0,0,0,0,0,0,0,0,0,0
2005,10,1,11,0,,25.1,22.5,88,100740,0,0,430,260,46,229,30201,3910,27155,0,230,2.2,9,0,0,0,0,0,0,0,0,0,0,0,0
2005,10,1,12,0,,25.8,22.4,81,100720,0,0,430,321,57,277,36289,4935,32647,0,230,4.1,9,0,0,0,0,0,0,0,0,0,0,0,0
2005,10,1,13,0,,27.1,21.6,68,100660,0,0,437,360,71,304,39436,6213,35433,0,250,2.8,9,0,0,0,0,0,0,0,0,0,0,0,0
2005,10,1,14,0,,26.7,20.8,70,100600,0,0,434,332,66,282,35543,5783,32627,0,230,3,9,0,0,0,0,0,0,0,0,0,0,0,0
2005,10,1,15,0,,26.8,20,66,100540,0,0,433,300,76,250,30544,6354,28463,0,230,4.4,9,0,0,0,0,0,0,0,0,0,0,0,0
2005,10,1,16,0,,26.2,20.5,70,100560,0,0,434,215,65,181,20754,4292,20214,0,230,5,9,0,0,0,0,0,0,0,0,0,0,0,0
2005,10,1,17,0,,25.5,21,81,100580,0,0,434,94,23,86,0,0,0,0,270,2.3,10,0,0,0,0,0,0,0,0,0,0,0,0
2005,10,1,18,0,,23.7,21.5,87,100600,0,0,429,28,10,27,0,0,0,0,270,2.7,10,0,0,0,0,0,0,0,0,0,0,0,0
2005,10,1,19,0,,23,20.6,86,100660,0,0,424,0,0,0,0,0,0,0,270,1.6,10,0,0,0,0,0,0,0,0,0,0,0,0
2005,10,1,20,0,,22.1,19.8,86,100730,0,0,418,0,0,0,0,0,0,0,270,1.1,10,0,0,0,0,0,0,0,0,0,0,0,0
2005,10,1,21,0,,22,18.9,82,100790,0,0,416,0,0,0,0,0,0,0,290,1.7,10,0,0,0,0,0,0,0,0,0,0,0,0
2005,10,1,22,0,,21.5,18.6,85,100780,0,0,388,0,0,0,0,0,0,0,270,1.1,7,0,0,0,0,0,0,0,0,0,0,0,0
2005,10,1,23,0,,21.2,18.2,83,100780,0,0,376,0,0,0,0,0,0,0,290,1,5,0,0,0,0,0,0,0,0,0,0,0,0
2005,10,1,24,0,,20.7,17.9,83,100770,0,0,365,0,0,0,0,0,0,0,360,0.6,2,0,0,0,0,0,0,0,0,0,0,0,0
2005,10,2,1,0,,20.2,17.9,87,100760,0,0,369,0,0,0,0,0,0,0,270,0.7,4,0,0,0,0,0,0,0,0,0,0,0,0
2005,10,2,2,0,,20.2,17.9,85,100750,0,0,375,0,0,0,0,0,0,0,20,0.7,6,0,0,0,0,0,0,0,0,0,0,0,0
2005,10,2,3,0,,20.3,17.9,85,100740,0,0,386,0,0,0,0,0,0,0,360,0.4,8,0,0,0,0,0,0,0,0,0,0,0,0
2005,10,2,4,0,,20.3,18,86,100760,0,0,386,0,0,0,0,0,0,0,340,0.7,8,0,0,0,0,0,0,0,0,0,0,0,0
2005,10,2,5,0,,20.2,18.2,87,100780,0,0,385,0,0,0,0,0,0,0,270,0.6,8,0,0,0,0,0,0,0,0,0,0,0,0
2005,10,2,6,0,,20.2,18.3,88,100800,0,0,386,0,0,0,0,0,0,0,320,0.8,8,0,0,0,0,0,0,0,0,0,0,0,0
2005,10,2,7,0,,20.2,18.3,88,100850,0,0,391,8,0,7,1023,12,1018,0,250,0.4,9,0,0,0,0,0,0,0,0,0,0,0,0
2005,10,2,8,0,,20.5,18.4,87,100900,0,0,399,68,56,57,11306,4922,8482,0,340,0.9,9,0,0,0,0,0,0,0,0,0,0,0,0
2005,10,2,9,0,,21.2,18.4,83,100950,0,0,411,112,27,101,13809,2404,12146,0,20,1.4,10,0,0,0,0,0,0,0,0,0,0,0,0
2005,10,2,10,0,,21.7,17.8,80,100940,0,0,409,177,31,159,21029,2800,18899,0,20,1.3,10,0,0,0,0,0,0,0,0,0,0,0,0
2005,10,2,11,0,,24,17.3,66,100930,0,0,417,333,92,271,39491,8474,32926,0,20,3.8,9,0,0,0,0,0,0,0,0,0,0,0,0
2005,10,2,12,0,,23.2,16.7,66,100920,0,0,408,345,71,291,38508,6504,33738,0,20,2.3,9,0,0,0,0,0,0,0,0,0,0,0,0
2005,10,2,13,0,,23.7,17,65,100890,0,0,415,350,67,298,38238,6136,34314,0,20,1.4,9,0,0,0,0,0,0,0,0,0,0,0,0
2005,10,2,14,0,,22.5,17.4,73,100850,0,0,412,212,20,198,22966,1353,22291,0,360,1.5,10,0,0,0,0,0,0,0,0,0,0,0,0
2005,10,2,15,0,,21.7,17.7,77,100820,0,0,413,168,16,158,17501,940,17198,0,360,1.4,10,0,0,0,0,0,0,0,0,0,0,0,0
2005,10,2,16,0,,21.7,17.6,78,100850,0,0,412,122,14,115,11660,529,11596,0,360,0.7,10,0,0,0,0,0,0,0,0,0,0,0,0
2005,10,2,17,0,,21.7,17.4,75,100890,0,0,412,89,21,82,0,0,0,0,20,1.6,10,0,0,0,0,0,0,0,0,0,0,0,0
2005,10,2,18,0,,20.7,17.3,80,100920,0,0,406,31,2,29,0,0,0,0,340,0.4,10,0,0,0,0,0,0,0,0,0,0,0,0
2005,10,2,19,0,,20.7,17.3,81,100960,0,0,406,0,0,0,0,0,0,0,20,0.7,10,0,0,0,0,0,0,0,0,0,0,0,0
2005,10,2,20,0,,20.5,17.2,80,101010,0,0,405,0,0,0,0,0,0,0,360,0.8,10,0,0,0,0,0,0,0,0,0,0,0,0
2005,10,2,21,0,,20.2,17.2,82,101050,0,0,404,0,0,0,0,0,0,0,20,1.5,10,0,0,0,0,0,0,0,0,0,0,0,0
2005,10,2,22,0,,19.2,16.1,81,101030,0,0,383,0,0,0,0,0,0,0,20,1.1,9,0,0,0,0,0,0,0,0,0,0,0,0
2005,10,2,23,0,,18.1,14.9,77,101020,0,0,366,0,0,0,0,0,0,0,50,2.8,7,0,0,0,0,0,0,0,0,0,0,0,0
2005,10,2,24,0,,17.5,13.8,78,101000,0,0,356,0,0,0,0,0,0,0,20,0.8,6,0,0,0,0,0,0,0,0,0,0,0,0
2005,10,3,1,0,,17.3,13.2,75,101000,0,0,352,0,0,0,0,0,0,0,70,2.2,5,0,0,0,0,0,0,0,0,0,0,0,0
2005,10,3,2,0,,16.3,12.5,72,101000,0,0,345,0,0,0,0,0,0,0,50,2.6,5,0,0,0,0,0,0,0,0,0,0,0,0
2005,10,3,3,0,,16.1,11.9,75,101000,0,0,341,0,0,0,0,0,0,0,50,2.6,4,0,0,0,0,0,0,0,0,0,0,0,0
2005,10,3,4,0,,15.8,11.7,74,100990,0,0,341,0,0,0,0,0,0,0,50,3.9,4,0,0,0,0,0,0,0,0,0,0,0,0
2005,10,3,5,0,,15.8,11.6,74,100980,0,0,341,0,0,0,0,0,0,0,50,2.7,5,0,0,0,0,0,0,0,0,0,0,0,0
2005,10,3,6,0,,15.8,11.4,74,100970,0,0,342,0,0,0,0,0,0,0,20,1.8,5,0,0,0,0,0,0,0,0,0,0,0,0
2005,10,3,7,0,,15.1,11.7,79,101000,0,0,340,21,7,14,1985,622,1729,0,20,1.7,5,0,0,0,0,0,0,0,0,0,0,0,0
2005,10,3,8,0,,16.5,11.9,77,101020,0,0,348,120,323,57,28061,32338,9621,0,50,2.7,6,0,0,0,0,0,0,0,0,0,0,0,0
2005,10,3,9,0,,18,12.2,68,101050,0,0,357,259,323,134,40537,30983,19210,0,70,2.4,6,0,0,0,0,0,0,0,0,0,0,0,0
2005,10,3,10,0,,19,12.7,67,101030,0,0,362,385,295,221,50780,28244,29410,0,320,0.8,6,0,0,0,0,0,0,0,0,0,0,0,0
2005,10,3,11,0,,20.7,13.1,60,101020,0,0,371,479,266,299,55852,25316,36346,0,200,1.1,6,0,0,0,0,0,0,0,0,0,0,0,0
2005,10,3,12,0,,22.6,13.6,56,101000,0,0,382,566,297,343,61512,27877,41192,0,250,1.5,6,0,0,0,0,0,0,0,0,0,0,0,0
2005,10,3,13,0,,23,13.2,56,100940,0,0,383,567,266,361,57502,24747,41794,0,270,1.6,6,0,0,0,0,0,0,0,0,0,0,0,0
2005,10,3,14,0,,23.7,12.7,56,100880,0,0,387,549,290,335,51352,25960,38517,0,250,2.7,6,0,0,0,0,0,0,0,0,0,0,0,0
2005,10,3,15,0,,23.7,12.3,48,100820,0,0,386,453,261,283,38624,20541,32103,0,250,2.2,6,0,0,0,0,0,0,0,0,0,0,0,0
2005,10,3,16,0,,22.7,11.8,51,100850,0,0,385,311,198,209,24412,14473,22735,0,250,2.2,7,0,0,0,0,0,0,0,0,0,0,0,0
2005,10,3,17,0,,21.6,11.2,52,100870,0,0,384,159,112,121,0,0,0,0,340,1.1,8,0,0,0,0,0,0,0,0,0,0,0,0
2005,10,3,18,0,,19.8,10.7,55,100900,0,0,382,44,6,38,0,0,0,0,290,1,9,0,0,0,0,0,0,0,0,0,0,0,0
2005,10,3,19,0,,19,11.2,61,100940,0,0,373,0,0,0,0,0,0,0,250,1.6,8,0,0,0,0,0,0,0,0,0,0,0,0
2005,10,3,20,0,,18.5,11.6,63,100980,0,0,366,0,0,0,0,0,0,0,270,1.5,8,0,0,0,0,0,0,0,0,0,0,0,0
2005,10,3,21,0,,18.3,12.1,66,101020,0,0,362,0,0,0,0,0,0,0,250,0.4,7,0,0,0,0,0,0,0,0,0,0,0,0
2005,10,3,22,0,,18,12.1,68,101030,0,0,366,0,0,0,0,0,0,0,50,1.6,8,0,0,0,0,0,0,0,0,0,0,0,0
2005,10,3,23,0,,17.5,12,71,101030,0,0,372,0,0,0,0,0,0,0,50,2.4,9,0,0,0,0,0,0,0,0,0,0,0,0
2005,10,3,24,0,,17.5,12,69,101040,0,0,382,0,0,0,0,0,0,0,50,3.2,10,0,0,0,0,0,0,0,0,0,0,0,0
2005,10,4,1,0,,17.3,11.8,68,101080,0,0,381,0,0,0,0,0,0,0,50,1,10,0,0,0,0,0,0,0,0,0,0,0,0
2005,10,4,2,0,,15.8,11.7,73,101110,0,0,373,0,0,0,0,0,0,0,50,3.4,10,0,0,0,0,0,0,0,0,0,0,0,0
2005,10,4,3,0,,14.3,11.5,82,101150,0,0,365,0,0,0,0,0,0,0,20,4.1,10,0,0,0,0,0,0,0,0,0,0,0,0
2005,10,4,4,0,,12.8,11.2,89,101150,0,0,357,0,0,0,0,0,0,0,50,3.7,10,0,0,0,0,0,0,0,0,0,0,0,0
2005,10,4,5,0,,12.3,10.9,91,101140,0,0,354,0,0,0,0,0,0,0,70,3,10,0,0,0,0,0,0,0,0,0,0,0,0
2005,10,4,6,0,,12.3,10.6,88,101140,0,0,354,0,0,0,0,0,0,0,50,2.8,10,0,0,0,0,0,0,0,0,0,0,0,0
2005,10,4,7,0,,12.6,10.8,85,101150,0,0,356,4,0,4,526,0,526,0,70,1.6,10,0,0,0,0,0,0,0,0,0,0,0,0
2005,10,4,8,0,,13.5,10.9,81,101160,0,0,360,51,27,46,7519,2617,6036,0,50,2.6,10,0,0,0,0,0,0,0,0,0,0,0,0
2005,10,4,9,0,,14.1,11.1,81,101170,0,0,364,118,34,105,14610,3118,12476,0,50,2.4,10,0,0,0,0,0,0,0,0,0,0,0,0
2005,10,4,10,0,,15.1,10.6,75,101180,0,0,368,183,36,163,21620,3357,19094,0,50,2.3,10,0,0,0,0,0,0,0,0,0,0,0,0
2005,10,4,11,0,,15.8,10.1,68,101190,0,0,371,241,39,215,27762,3720,24912,0,50,3.4,10,0,0,0,0,0,0,0,0,0,0,0,0
2005,10,4,12,0,,16.7,9.6,62,101200,0,0,375,276,40,246,31054,3789,28310,0,20,1.7,10,0,0,0,0,0,0,0,0,0,0,0,0
2005,10,4,13,0,,17,9.8,62,101130,0,0,373,285,40,255,31501,3781,29119,0,50,2,10,0,0,0,0,0,0,0,0,0,0,0,0
2005,10,4,14,0,,18.7,10,57,101070,0,0,379,359,87,295,37272,8249,33234,0,20,1.6,9,0,0,0,0,0,0,0,0,0,0,0,0
2005,10,4,15,0,,19.2,10.2,55,101000,0,0,378,313,93,253,30856,8258,28276,0,50,1.7,9,0,0,0,0,0,0,0,0,0,0,0,0
2005,10,4,16,0,,18.7,10.2,51,101010,0,0,376,239,95,190,21405,6891,20641,0,20,3.2,9,0,0,0,0,0,0,0,0,0,0,0,0
2005,10,4,17,0,,17.7,10.1,59,101030,0,0,370,138,78,111,0,0,0,0,20,3.6,9,0,0,0,0,0,0,0,0,0,0,0,0
2005,10,4,18,0,,17.7,10.1,60,101040,0,0,370,48,8,40,0,0,0,0,20,1.9,9,0,0,0,0,0,0,0,0,0,0,0,0
2005,10,4,19,0,,17.1,10.5,65,101060,0,0,368,0,0,0,0,0,0,0,50,1.9,9,0,0,0,0,0,0,0,0,0,0,0,0
2005,10,4,20,0,,16.6,11,69,101080,0,0,366,0,0,0,0,0,0,0,50,1.4,9,0,0,0,0,0,0,0,0,0,0,0,0
2005,10,4,21,0,,15.8,11.4,74,101100,0,0,362,0,0,0,0,0,0,0,70,2.5,9,0,0,0,0,0,0,0,0,0,0,0,0
2005,10,4,22,0,,15.1,11.3,79,101100,0,0,346,0,0,0,0,0,0,0,50,2.5,7,0,0,0,0,0,0,0,0,0,0,0,0
2005,10,4,23,0,,14.1,11.1,85,101100,0,0,334,0,0,0,0,0,0,0,70,2.2,5,0,0,0,0,0,0,0,0,0,0,0,0
2005,10,4,24,0,,13.6,11,83,101100,0,0,326,0,0,0,0,0,0,0,50,2.2,3,0,0,0,0,0,0,0,0,0,0,0,0
2005,10,5,1,0,,14.3,10.7,79,101070,0,0,329,0,0,0,0,0,0,0,50,2.6,3,0,0,0,0,0,0,0,0,0,0,0,0
2005,10,5,2,0,,14.1,10.3,78,101050,0,0,328,0,0,0,0,0,0,0,20,1.1,3,0,0,0,0,0,0,0,0,0,0,0,0
2005,10,5,3,0,,13.3,10,79,101020,0,0,324,0,0,0,0,0,0,0,20,1.3,3,0,0,0,0,0,0,0,0,0,0,0,0
2005,10,5,4,0,,13.5,9.8,77,101020,0,0,327,0,0,0,0,0,0,0,20,1.7,4,0,0,0,0,0,0,0,0,0,0,0,0
2005,10,5,5,0,,13.3,9.5,78,101020,0,0,328,0,0,0,0,0,0,0,50,2.4,5,0,0,0,0,0,0,0,0,0,0,0,0
2005,10,5,6,0,,12.8,9.3,78,101020,0,0,329,0,0,0,0,0,0,0,50,1.4,6,0,0,0,0,0,0,0,0,0,0,0,0
2005,10,5,7,0,,12.8,9.3,82,101050,0,0,329,17,4,13,1708,349,1567,0,160,0.5,6,0,0,0,0,0,0,0,0,0,0,0,0
2005,10,5,8,0,,13.6,9.4,81,101090,0,0,332,108,251,60,24174,25175,9993,0,160,0.3,6,0,0,0,0,0,0,0,0,0,0,0,0
2005,10,5,9,0,,15.5,9.4,66,101120,0,0,341,253,317,132,39671,30846,18671,0,90,0.6,6,0,0,0,0,0,0,0,0,0,0,0,0
2005,10,5,10,0,,16.3,9.5,61,101100,0,0,351,347,223,225,43971,21943,27547,0,70,1.6,7,0,0,0,0,0,0,0,0,0,0,0,0
2005,10,5,11,0,,17.7,9.5,55,101070,0,0,367,342,105,272,39826,10283,31993,0,50,1.7,9,0,0,0,0,0,0,0,0,0,0,0,0
2005,10,5,12,0,,17.2,9.6,60,101050,0,0,377,265,36,238,29945,3470,27448,0,20,1.6,10,0,0,0,0,0,0,0,0,0,0,0,0
2005,10,5,13,0,,17.1,9.7,60,101010,0,0,367,334,63,286,36374,6003,32621,0,20,1.1,9,0,0,0,0,0,0,0,0,0,0,0,0
2005,10,5,14,0,,17.5,9.7,60,100960,0,0,361,375,101,302,38599,9559,33968,0,50,1.4,8,0,0,0,0,0,0,0,0,0,0,0,0
2005,10,5,15,0,,18.2,9.8,57,100920,0,0,359,397,184,278,35984,16594,30883,0,70,2.6,7,0,0,0,0,0,0,0,0,0,0,0,0
2005,10,5,16,0,,19.6,9.6,51,100950,0,0,367,320,230,203,22708,8952,21759,0,70,1.5,7,0,0,0,0,0,0,0,0,0,0,0,0
2005,10,5,17,0,,19.3,9.3,49,100970,0,0,368,181,178,121,0,0,0,0,360,0.8,8,0,0,0,0,0,0,0,0,0,0,0,0
2005,10,5,18,0,,17.7,9.1,56,101000,0,0,361,60,17,43,0,0,0,0,20,1.2,8,0,0,0,0,0,0,0,0,0,0,0,0
2005,10,5,19,0,,17.2,9.9,66,101030,0,0,352,0,0,0,0,0,0,0,50,1.7,7,0,0,0,0,0,0,0,0,0,0,0,0
2005,10,5,20,0,,16.2,10.6,71,101070,0,0,344,0,0,0,0,0,0,0,20,1.5,5,0,0,0,0,0,0,0,0,0,0,0,0
2005,10,5,21,0,,15.6,11.4,75,101100,0,0,338,0,0,0,0,0,0,0,20,1.9,4,0,0,0,0,0,0,0,0,0,0,0,0
2005,10,5,22,0,,14.8,11.1,78,101100,0,0,331,0,0,0,0,0,0,0,20,0.4,3,0,0,0,0,0,0,0,0,0,0,0,0
2005,10,5,23,0,,14.1,10.9,80,101100,0,0,322,0,0,0,0,0,0,0,50,1.5,1,0,0,0,0,0,0,0,0,0,0,0,0
2005,10,5,24,0,,13.5,10.6,81,101100,0,0,312,0,0,0,0,0,0,0,20,1.4,0,0,0,0,0,0,0,0,0,0,0,0,0
2005,10,6,1,0,,12.8,10.5,85,101100,0,0,309,0,0,0,0,0,0,0,110,0.9,0,0,0,0,0,0,0,0,0,0,0,0,0
2005,10,6,2,0,,12.5,10.5,83,101100,0,0,307,0,0,0,0,0,0,0,90,1.1,0,0,0,0,0,0,0,0,0,0,0,0,0
2005,10,6,3,0,,12.1,10.4,88,101100,0,0,306,0,0,0,0,0,0,0,290,0.5,0,0,0,0,0,0,0,0,0,0,0,0,0
2005,10,6,4,0,,11.6,10.1,90,101110,0,0,307,0,0,0,0,0,0,0,0,0.1,1,0,0,0,0,0,0,0,0,0,0,0,0
2005,10,6,5,0,,11.3,9.9,90,101130,0,0,309,0,0,0,0,0,0,0,70,0.5,1,0,0,0,0,0,0,0,0,0,0,0,0
2005,10,6,6,0,,10.6,9.6,92,101140,0,0,309,0,0,0,0,0,0,0,0,0.2,2,0,0,0,0,0,0,0,0,0,0,0,0
2005,10,6,7,0,,10.3,10,91,101160,0,0,308,21,8,12,2059,762,1754,0,70,0.3,2,0,0,0,0,0,0,0,0,0,0,0,0
2005,10,6,8,0,,12.8,10.3,81,101170,0,0,319,138,466,51,34541,47789,7789,0,70,0.4,2,0,0,0,0,0,0,0,0,0,0,0,0
2005,10,6,9,0,,15,10.7,74,101190,0,0,329,313,581,92,53495,59717,13067,0,320,0.6,2,0,0,0,0,0,0,0,0,0,0,0,0
2005,10,6,10,0,,17,9.2,66,101180,0,0,334,500,714,111,69727,73299,15163,0,320,0.7,1,0,0,0,0,0,0,0,0,0,0,0,0
2005,10,6,11,0,,19.3,7.8,60,101160,0,0,339,638,757,133,76169,77219,17684,0,270,0.8,1,0,0,0,0,0,0,0,0,0,0,0,0
2005,10,6,12,0,,21.8,6.3,36,101150,0,0,345,724,779,146,75702,78653,19460,0,50,1.5,0,0,0,0,0,0,0,0,0,0,0,0,0
2005,10,6,13,0,,23.5,7.3,32,101050,0,0,366,742,769,156,68590,75790,21576,0,50,3.2,2,0,0,0,0,0,0,0,0,0,0,0,0
2005,10,6,14,0,,24.2,8.2,31,100940,0,0,377,644,611,199,52603,56567,25475,0,50,1.6,4,0,0,0,0,0,0,0,0,0,0,0,0
2005,10,6,15,0,,24.6,9.2,37,100840,0,0,387,469,319,266,37531,25335,29868,0,250,1.2,6,0,0,0,0,0,0,0,0,0,0,0,0
2005,10,6,16,0,,24.2,8.5,32,100850,0,0,382,384,448,159,18980,15614,17403,0,200,1.7,5,0,0,0,0,0,0,0,0,0,0,0,0
2005,10,6,17,0,,23.7,7.7,40,100860,0,0,376,244,447,97,0,0,0,0,180,3.3,5,0,0,0,0,0,0,0,0,0,0,0,0
2005,10,6,18,0,,21.7,7,38,100870,0,0,363,90,52,38,0,0,0,0,180,3.1,4,0,0,0,0,0,0,0,0,0,0,0,0
2005,10,6,19,0,,20.8,8.3,48,100900,0,0,362,0,0,0,0,0,0,0,180,1.3,5,0,0,0,0,0,0,0,0,0,0,0,0
2005,10,6,20,0,,19.8,9.6,53,100920,0,0,360,0,0,0,0,0,0,0,230,1.2,5,0,0,0,0,0,0,0,0,0,0,0,0
2005,10,6,21,0,,19.1,10.9,58,100950,0,0,361,0,0,0,0,0,0,0,50,1.4,6,0,0,0,0,0,0,0,0,0,0,0,0
2005,10,6,22,0,,18.6,11.5,60,100920,0,0,361,0,0,0,0,0,0,0,320,0.3,7,0,0,0,0,0,0,0,0,0,0,0,0
2005,10,6,23,0,,18.2,12,66,100900,0,0,363,0,0,0,0,0,0,0,270,0.9,7,0,0,0,0,0,0,0,0,0,0,0,0
2005,10,6,24,0,,16.8,12.6,75,100870,0,0,361,0,0,0,0,0,0,0,230,0.6,8,0,0,0,0,0,0,0,0,0,0,0,0
2005,10,7,1,0,,17.6,12.5,71,100820,0,0,370,0,0,0,0,0,0,0,290,0.5,9,0,0,0,0,0,0,0,0,0,0,0,0
2005,10,7,2,0,,17,12.5,73,100770,0,0,373,0,0,0,0,0,0,0,90,0.5,9,0,0,0,0,0,0,0,0,0,0,0,0
2005,10,7,3,0,,17.7,12.4,70,100720,0,0,384,0,0,0,0,0,0,0,270,0.7,10,0,0,0,0,0,0,0,0,0,0,0,0
2005,10,7,4,0,,17.3,13,72,100700,0,0,382,0,0,0,0,0,0,0,50,1,10,0,0,0,0,0,0,0,0,0,0,0,0
2005,10,7,5,0,,16.7,13.6,83,100690,0,0,380,0,0,0,0,0,0,0,70,1.5,10,0,0,0,0,0,0,0,0,0,0,0,0
2005,10,7,6,0,,16.7,14.2,84,100670,0,0,381,0,0,0,0,0,0,0,250,0.7,10,0,0,0,0,0,0,0,0,0,0,0,0
2005,10,7,7,0,,16.2,14.7,91,100640,0,0,379,1,0,1,186,0,186,0,20,0.3,10,0,0,0,0,0,0,0,0,0,0,0,0
2005,10,7,8,0,,16,15.2,96,100620,0,0,379,39,14,36,5095,1242,4404,0,20,1.7,10,0,0,0,0,0,0,0,0,0,0,0,0
2005,10,7,9,0,,16,15.7,97,100590,0,0,379,88,16,82,10862,1424,9903,0,20,1.3,10,0,0,0,0,0,0,0,0,0,0,0,0
2005,10,7,10,0,,16.3,15.9,97,100540,0,0,381,127,14,120,15197,1235,14282,0,70,0.8,10,0,0,0,0,0,0,0,0,0,0,0,0
2005,10,7,11,0,,16.6,16.2,97,100500,0,0,383,171,16,160,20027,1430,18950,0,90,0.8,10,0,0,0,0,0,0,0,0,0,0,0,0
2005,10,7,12,0,,16.8,16.4,96,100450,0,0,385,183,13,173,21355,846,20754,0,20,1,10,0,0,0,0,0,0,0,0,0,0,0,0
2005,10,7,13,0,,16.8,16.5,97,100430,0,0,385,188,13,178,21407,865,20875,0,20,1.1,10,0,0,0,0,0,0,0,0,0,0,0,0
2005,10,7,14,0,,17,16.7,96,100420,0,0,386,185,15,174,20219,978,19755,0,20,0.6,10,0,0,0,0,0,0,0,0,0,0,0,0
2005,10,7,15,0,,17.1,16.8,97,100400,0,0,387,161,16,151,16658,917,16386,0,340,0.4,10,0,0,0,0,0,0,0,0,0,0,0,0
2005,10,7,16,0,,17.2,16.8,97,100430,0,0,387,125,17,116,11554,767,11480,0,360,0.3,10,0,0,0,0,0,0,0,0,0,0,0,0
2005,10,7,17,0,,17.2,16.7,96,100460,0,0,387,76,17,71,0,0,0,0,290,0.8,10,0,0,0,0,0,0,0,0,0,0,0,0
2005,10,7,18,0,,17.2,16.7,96,100490,0,0,387,24,1,23,0,0,0,0,20,1.1,10,0,0,0,0,0,0,0,0,0,0,0,0
2005,10,7,19,0,,17,16.3,95,100540,0,0,385,0,0,0,0,0,0,0,360,0.7,10,0,0,0,0,0,0,0,0,0,0,0,0
2005,10,7,20,0,,16.7,15.8,94,100590,0,0,383,0,0,0,0,0,0,0,20,0.7,10,0,0,0,0,0,0,0,0,0,0,0,0
2005,10,7,21,0,,16.7,15.4,91,100640,0,0,383,0,0,0,0,0,0,0,20,0.6,10,0,0,0,0,0,0,0,0,0,0,0,0
2005,10,7,22,0,,16.6,15.3,88,100650,0,0,375,0,0,0,0,0,0,0,360,1.3,9,0,0,0,0,0,0,0,0,0,0,0,0
2005,10,7,23,0,,16.2,15.1,90,100660,0,0,366,0,0,0,0,0,0,0,50,2.7,9,0,0,0,0,0,0,0,0,0,0,0,0
2005,10,7,24,0,,16.1,15,92,100670,0,0,361,0,0,0,0,0,0,0,50,0.9,8,0,0,0,0,0,0,0,0,0,0,0,0
2005,10,8,1,0,,15.3,14.9,92,100690,0,0,353,0,0,0,0,0,0,0,50,1.3,7,0,0,0,0,0,0,0,0,0,0,0,0
2005,10,8,2,0,,15.8,14.7,92,100700,0,0,352,0,0,0,0,0,0,0,250,0.7,7,0,0,0,0,0,0,0,0,0,0,0,0
2005,10,8,3,0,,15.3,14.6,94,100720,0,0,347,0,0,0,0,0,0,0,270,1.4,6,0,0,0,0,0,0,0,0,0,0,0,0
2005,10,8,4,0,,14.8,14.6,96,100740,0,0,347,0,0,0,0,0,0,0,0,0,7,0,0,0,0,0,0,0,0,0,0,0,0
2005,10,8,5,0,,15.1,14.7,95,100770,0,0,352,0,0,0,0,0,0,0,0,0.1,7,0,0,0,0,0,0,0,0,0,0,0,0
2005,10,8,6,0,,15.3,14.7,95,100790,0,0,357,0,0,0,0,0,0,0,200,0.6,8,0,0,0,0,0,0,0,0,0,0,0,0
2005,10,8,7,0,,15.1,14.8,95,100840,0,0,350,11,1,9,1291,44,1274,0,160,0.3,7,0,0,0,0,0,0,0,0,0,0,0,0
2005,10,8,8,0,,15.6,15,94,100900,0,0,349,97,213,59,21664,21106,9999,0,360,0.4,6,0,0,0,0,0,0,0,0,0,0,0,0
2005,10,8,9,0,,17.1,15.1,87,100950,0,0,353,242,298,130,37853,27893,19184,0,0,0.2,5,0,0,0,0,0,0,0,0,0,0,0,0
2005,10,8,10,0,,18.2,14.9,82,100950,0,0,359,380,320,208,50506,30076,28367,0,290,0.5,5,0,0,0,0,0,0,0,0,0,0,0,0
2005,10,8,11,0,,19.2,14.7,73,100940,0,0,365,459,258,288,53673,24154,35593,0,50,1.3,6,0,0,0,0,0,0,0,0,0,0,0,0
2005,10,8,12,0,,19.7,14.5,71,100940,0,0,368,480,199,334,52473,18615,39335,0,270,1.8,6,0,0,0,0,0,0,0,0,0,0,0,0
2005,10,8,13,0,,21.6,13.5,54,100920,0,0,373,577,316,339,58301,29175,40484,0,360,2.1,5,0,0,0,0,0,0,0,0,0,0,0,0
2005,10,8,14,0,,21.2,12.6,56,100890,0,0,367,556,402,268,48995,35815,32171,0,320,1.8,4,0,0,0,0,0,0,0,0,0,0,0,0
2005,10,8,15,0,,22,11.6,51,100870,0,0,367,536,574,175,35137,44870,22010,0,360,2,3,0,0,0,0,0,0,0,0,0,0,0,0
2005,10,8,16,0,,20.8,11.7,53,100940,0,0,358,383,473,150,17914,13736,16661,0,320,1.9,2,0,0,0,0,0,0,0,0,0,0,0,0
2005,10,8,17,0,,19.8,11.7,54,101000,0,0,348,248,513,85,0,0,0,0,340,1.9,1,0,0,0,0,0,0,0,0,0,0,0,0
2005,10,8,18,0,,18.2,11.8,65,101070,0,0,334,80,42,38,0,0,0,0,290,1.7,0,0,0,0,0,0,0,0,0,0,0,0,0
2005,10,8,19,0,,16.8,11.8,73,101120,0,0,328,0,0,0,0,0,0,0,290,1.3,0,0,0,0,0,0,0,0,0,0,0,0,0
2005,10,8,20,0,,15.8,11.8,72,101170,0,0,323,0,0,0,0,0,0,0,20,1.9,0,0,0,0,0,0,0,0,0,0,0,0,0
2005,10,8,21,0,,14.8,11.8,81,101220,0,0,319,0,0,0,0,0,0,0,70,1.5,0,0,0,0,0,0,0,0,0,0,0,0,0
2005,10,8,22,0,,14.6,11.3,76,101250,0,0,320,0,0,0,0,0,0,0,50,2.4,0,0,0,0,0,0,0,0,0,0,0,0,0
2005,10,8,23,0,,14.3,10.9,76,101290,0,0,320,0,0,0,0,0,0,0,50,2,1,0,0,0,0,0,0,0,0,0,0,0,0
2005,10,8,24,0,,14.1,10.4,77,101320,0,0,320,0,0,0,0,0,0,0,20,1.2,1,0,0,0,0,0,0,0,0,0,0,0,0
2005,10,9,1,0,,12.8,10.4,84,101330,0,0,315,0,0,0,0,0,0,0,50,1.8,1,0,0,0,0,0,0,0,0,0,0,0,0
2005,10,9,2,0,,12.8,10.5,83,101340,0,0,315,0,0,0,0,0,0,0,20,1.6,1,0,0,0,0,0,0,0,0,0,0,0,0
2005,10,9,3,0,,12.5,10.5,86,101350,0,0,313,0,0,0,0,0,0,0,20,1.6,1,0,0,0,0,0,0,0,0,0,0,0,0
2005,10,9,4,0,,11.8,10.3,88,101370,0,0,309,0,0,0,0,0,0,0,180,0.4,1,0,0,0,0,0,0,0,0,0,0,0,0
2005,10,9,5,0,,11.5,10.2,91,101400,0,0,305,0,0,0,0,0,0,0,270,0.9,0,0,0,0,0,0,0,0,0,0,0,0,0
2005,10,9,6,0,,11,10,92,101420,0,0,301,0,0,0,0,0,0,0,270,1,0,0,0,0,0,0,0,0,0,0,0,0,0
2005,10,9,7,0,,10.8,10.2,94,101460,0,0,308,18,6,11,1626,552,1411,0,90,0.4,1,0,0,0,0,0,0,0,0,0,0,0,0
2005,10,9,8,0,,12.1,10.4,87,101510,0,0,318,123,385,54,29894,39361,8281,0,250,1,3,0,0,0,0,0,0,0,0,0,0,0,0
2005,10,9,9,0,,12.8,10.6,85,101550,0,0,325,257,355,125,40835,34299,18012,0,250,0.6,4,0,0,0,0,0,0,0,0,0,0,0,0
2005,10,9,10,0,,15.1,11.4,79,101520,0,0,336,419,478,164,57734,47546,22934,0,230,1.3,4,0,0,0,0,0,0,0,0,0,0,0,0
2005,10,9,11,0,,17.7,12.1,69,101500,0,0,349,534,493,210,63255,47333,28034,0,270,0.7,4,0,0,0,0,0,0,0,0,0,0,0,0
2005,10,9,12,0,,20.7,12.9,60,101470,0,0,365,639,591,208,68188,57711,27726,0,230,1,4,0,0,0,0,0,0,0,0,0,0,0,0
2005,10,9,13,0,,21.5,10.7,48,101420,0,0,368,633,527,238,60697,49930,30446,0,250,1.4,5,0,0,0,0,0,0,0,0,0,0,0,0
2005,10,9,14,0,,22.1,8.6,36,101370,0,0,371,585,490,236,48999,45142,28016,0,270,1.3,5,0,0,0,0,0,0,0,0,0,0,0,0
2005,10,9,15,0,,22.8,6.4,34,101320,0,0,374,455,316,258,35926,25116,28701,0,360,0.9,6,0,0,0,0,0,0,0,0,0,0,0,0
2005,10,9,16,0,,21.7,8.2,47,101330,0,0,368,357,392,166,18674,11358,17693,0,360,1.3,5,0,0,0,0,0,0,0,0,0,0,0,0
2005,10,9,17,0,,21.2,9.9,51,101340,0,0,366,215,350,105,0,0,0,0,340,0.8,5,0,0,0,0,0,0,0,0,0,0,0,0
2005,10,9,18,0,,19.2,11.7,61,101350,0,0,356,71,31,40,0,0,0,0,290,0.9,4,0,0,0,0,0,0,0,0,0,0,0,0
2005,10,9,19,0,,17.7,11.7,68,101400,0,0,349,0,0,0,0,0,0,0,320,0.4,4,0,0,0,0,0,0,0,0,0,0,0,0
2005,10,9,20,0,,16.8,11.8,71,101440,0,0,345,0,0,0,0,0,0,0,270,0.8,4,0,0,0,0,0,0,0,0,0,0,0,0
2005,10,9,21,0,,16.2,11.8,74,101490,0,0,342,0,0,0,0,0,0,0,0,0,4,0,0,0,0,0,0,0,0,0,0,0,0
2005,10,9,22,0,,15.5,12,78,101490,0,0,337,0,0,0,0,0,0,0,250,0.8,3,0,0,0,0,0,0,0,0,0,0,0,0
2005,10,9,23,0,,14.8,12.2,82,101500,0,0,332,0,0,0,0,0,0,0,270,0.5,3,0,0,0,0,0,0,0,0,0,0,0,0
2005,10,9,24,0,,14.8,12.4,84,101500,0,0,330,0,0,0,0,0,0,0,230,0.3,2,0,0,0,0,0,0,0,0,0,0,0,0
2005,10,10,1,0,,14.3,12.4,88,101490,0,0,330,0,0,0,0,0,0,0,250,0.7,3,0,0,0,0,0,0,0,0,0,0,0,0
2005,10,10,2,0,,14.1,12.4,87,101480,0,0,331,0,0,0,0,0,0,0,340,0.3,3,0,0,0,0,0,0,0,0,0,0,0,0
2005,10,10,3,0,,14,12.4,89,101470,0,0,332,0,0,0,0,0,0,0,70,0.5,4,0,0,0,0,0,0,0,0,0,0,0,0
2005,10,10,4,0,,14,12.2,89,101480,0,0,331,0,0,0,0,0,0,0,70,1,4,0,0,0,0,0,0,0,0,0,0,0,0
2005,10,10,5,0,,13.3,12,91,101480,0,0,327,0,0,0,0,0,0,0,270,0.3,3,0,0,0,0,0,0,0,0,0,0,0,0
2005,10,10,6,0,,12.8,11.8,92,101490,0,0,324,0,0,0,0,0,0,0,0,0.2,3,0,0,0,0,0,0,0,0,0,0,0,0
2005,10,10,7,0,,12.8,11.7,92,101520,0,0,324,16,5,11,1533,435,1364,0,250,0.5,3,0,0,0,0,0,0,0,0,0,0,0,0
2005,10,10,8,0,,14.5,11.6,86,101540,0,0,331,125,430,50,31772,44080,7728,0,50,2.1,3,0,0,0,0,0,0,0,0,0,0,0,0
2005,10,10,9,0,,17.2,11.5,68,101570,0,0,343,312,627,82,54514,64649,11750,0,50,3.8,3,0,0,0,0,0,0,0,0,0,0,0,0
2005,10,10,10,0,,19.6,10.9,59,101550,0,0,354,488,720,106,68537,74038,14658,0,70,3.5,3,0,0,0,0,0,0,0,0,0,0,0,0
2005,10,10,11,0,,20.8,10.4,54,101540,0,0,360,601,695,147,72447,69631,20944,0,70,3.2,3,0,0,0,0,0,0,0,0,0,0,0,0
2005,10,10,12,0,,22,9.8,45,101520,0,0,365,662,663,181,70249,65509,24626,0,50,2.9,3,0,0,0,0,0,0,0,0,0,0,0,0
2005,10,10,13,0,,23.5,8.3,32,101460,0,0,370,678,653,191,63430,63205,25441,0,50,3.2,3,0,0,0,0,0,0,0,0,0,0,0,0
2005,10,10,14,0,,23.6,6.8,28,101410,0,0,367,639,648,180,50775,59980,23186,0,20,1.5,2,0,0,0,0,0,0,0,0,0,0,0,0
2005,10,10,15,0,,24.2,5.3,29,101350,0,0,367,563,682,141,33274,54816,17773,0,70,2.5,2,0,0,0,0,0,0,0,0,0,0,0,0
2005,10,10,16,0,,23.7,6.5,33,101350,0,0,366,423,649,109,13926,22973,12051,0,50,3.3,2,0,0,0,0,0,0,0,0,0,0,0,0
2005,10,10,17,0,,23,7.6,36,101350,0,0,364,254,590,72,0,0,0,0,50,2.8,2,0,0,0,0,0,0,0,0,0,0,0,0
2005,10,10,18,0,,20.6,8.8,46,101350,0,0,353,76,43,33,0,0,0,0,50,2.2,2,0,0,0,0,0,0,0,0,0,0,0,0
2005,10,10,19,0,,19.7,9.4,53,101380,0,0,351,0,0,0,0,0,0,0,50,1.1,2,0,0,0,0,0,0,0,0,0,0,0,0
2005,10,10,20,0,,18.6,10.1,62,101410,0,0,347,0,0,0,0,0,0,0,230,0.8,3,0,0,0,0,0,0,0,0,0,0,0,0
2005,10,10,21,0,,17.8,10.7,62,101440,0,0,345,0,0,0,0,0,0,0,20,0.5,3,0,0,0,0,0,0,0,0,0,0,0,0
2005,10,10,22,0,,17,10.7,66,101440,0,0,341,0,0,0,0,0,0,0,90,0.3,3,0,0,0,0,0,0,0,0,0,0,0,0
2005,10,10,23,0,,15.6,10.6,71,101450,0,0,335,0,0,0,0,0,0,0,90,1.6,3,0,0,0,0,0,0,0,0,0,0,0,0
2005,10,10,24,0,,15.8,10.6,70,101450,0,0,336,0,0,0,0,0,0,0,50,2.5,3,0,0,0,0,0,0,0,0,0,0,0,0
2005,10,11,1,0,,15,10.3,74,101430,0,0,331,0,0,0,0,0,0,0,50,5.1,3,0,0,0,0,0,0,0,0,0,0,0,0
2005,10,11,2,0,,14.5,10.1,75,101420,0,0,327,0,0,0,0,0,0,0,50,4.6,2,0,0,0,0,0,0,0,0,0,0,0,0
2005,10,11,3,0,,14.3,9.8,73,101400,0,0,325,0,0,0,0,0,0,0,70,3.6,2,0,0,0,0,0,0,0,0,0,0,0,0
2005,10,11,4,0,,13.8,9.5,73,101420,0,0,319,0,0,0,0,0,0,0,50,1.6,1,0,0,0,0,0,0,0,0,0,0,0,0
2005,10,11,5,0,,13,9.3,77,101430,0,0,312,0,0,0,0,0,0,0,50,2.9,1,0,0,0,0,0,0,0,0,0,0,0,0
2005,10,11,6,0,,13.1,9,75,101450,0,0,308,0,0,0,0,0,0,0,70,2,0,0,0,0,0,0,0,0,0,0,0,0,0
2005,10,11,7,0,,12.6,9.3,79,101470,0,0,306,18,7,10,1710,669,1453,0,110,0.9,0,0,0,0,0,0,0,0,0,0,0,0,0
2005,10,11,8,0,,14.6,9.6,74,101500,0,0,315,133,532,42,35502,53804,6350,0,70,1.7,0,0,0,0,0,0,0,0,0,0,0,0,0
2005,10,11,9,0,,17,9.9,62,101520,0,0,326,320,680,73,56141,69555,10406,0,70,2.7,0,0,0,0,0,0,0,0,0,0,0,0,0
2005,10,11,10,0,,18.6,9.8,54,101480,0,0,336,488,730,103,68544,75051,14245,0,70,2.4,0,0,0,0,0,0,0,0,0,0,0,0,0
2005,10,11,11,0,,20.3,9.8,50,101440,0,0,346,609,728,136,72755,74115,18267,0,320,1.3,1,0,0,0,0,0,0,0,0,0,0,0,0
2005,10,11,12,0,,22.3,9.7,44,101400,0,0,358,682,726,158,72062,72192,22121,0,50,3.3,1,0,0,0,0,0,0,0,0,0,0,0,0
2005,10,11,13,0,,22.7,9.5,41,101320,0,0,358,696,711,169,64427,69154,23194,0,50,3.1,1,0,0,0,0,0,0,0,0,0,0,0,0
2005,10,11,14,0,,23.1,9.4,40,101250,0,0,357,637,654,177,50247,59700,23077,0,70,1.9,0,0,0,0,0,0,0,0,0,0,0,0,0
2005,10,11,15,0,,23.3,9.2,40,101170,0,0,356,549,653,147,32936,50954,18774,0,50,4.2,0,0,0,0,0,0,0,0,0,0,0,0,0
2005,10,11,16,0,,23.3,9.6,44,101180,0,0,356,416,640,109,13786,20506,12210,0,70,3,0,0,0,0,0,0,0,0,0,0,0,0,0
2005,10,11,17,0,,22.3,9.9,44,101190,0,0,352,247,571,73,0,0,0,0,70,2.5,0,0,0,0,0,0,0,0,0,0,0,0,0
2005,10,11,18,0,,20.2,10.3,52,101200,0,0,342,73,42,31,0,0,0,0,70,2.1,0,0,0,0,0,0,0,0,0,0,0,0,0
2005,10,11,19,0,,18.7,10.2,60,101240,0,0,341,0,0,0,0,0,0,0,50,2.8,1,0,0,0,0,0,0,0,0,0,0,0,0
2005,10,11,20,0,,18.7,10.2,58,101280,0,0,346,0,0,0,0,0,0,0,50,3,2,0,0,0,0,0,0,0,0,0,0,0,0
2005,10,11,21,0,,17.5,10.1,61,101320,0,0,343,0,0,0,0,0,0,0,50,2.9,3,0,0,0,0,0,0,0,0,0,0,0,0
2005,10,11,22,0,,16.7,10.2,67,101300,0,0,336,0,0,0,0,0,0,0,50,3.1,2,0,0,0,0,0,0,0,0,0,0,0,0
2005,10,11,23,0,,15.5,10.2,71,101290,0,0,326,0,0,0,0,0,0,0,50,3.8,1,0,0,0,0,0,0,0,0,0,0,0,0
2005,10,11,24,0,,15.1,10.3,72,101270,0,0,318,0,0,0,0,0,0,0,90,1.5,0,0,0,0,0,0,0,0,0,0,0,0,0
2005,10,12,1,0,,15.1,10.2,72,101280,0,0,318,0,0,0,0,0,0,0,0,0.1,0,0,0,0,0,0,0,0,0,0,0,0,0
2005,10,12,2,0,,14.1,10.2,78,101280,0,0,314,0,0,0,0,0,0,0,90,1.7,0,0,0,0,0,0,0,0,0,0,0,0,0
2005,10,12,3,0,,13.8,10.1,77,101290,0,0,313,0,0,0,0,0,0,0,90,1,0,0,0,0,0,0,0,0,0,0,0,0,0
2005,10,12,4,0,,13.6,10.2,81,101310,0,0,314,0,0,0,0,0,0,0,70,0.6,0,0,0,0,0,0,0,0,0,0,0,0,0
2005,10,12,5,0,,12.8,10.3,86,101320,0,0,313,0,0,0,0,0,0,0,230,0.3,1,0,0,0,0,0,0,0,0,0,0,0,0
2005,10,12,6,0,,12.3,10.4,87,101340,0,0,312,0,0,0,0,0,0,0,0,0.1,1,0,0,0,0,0,0,0,0,0,0,0,0
2005,10,12,7,0,,12.8,10.5,84,101330,0,0,313,16,6,10,1429,497,1240,0,70,0.3,1,0,0,0,0,0,0,0,0,0,0,0,0
2005,10,12,8,0,,13.8,10.7,79,101330,0,0,315,125,467,46,32840,47823,7104,0,290,0.8,0,0,0,0,0,0,0,0,0,0,0,0,0
2005,10,12,9,0,,17.2,10.8,65,101320,0,0,328,318,682,72,55944,69863,10283,0,20,1.4,0,0,0,0,0,0,0,0,0,0,0,0,0
2005,10,12,10,0,,19.5,11.2,57,101260,0,0,342,493,760,95,69449,78165,13229,0,70,2.7,0,0,0,0,0,0,0,0,0,0,0,0,0
2005,10,12,11,0,,20.7,11.5,54,101210,0,0,350,607,735,133,72778,75017,17964,0,20,1.7,1,0,0,0,0,0,0,0,0,0,0,0,0
2005,10,12,12,0,,22.3,11.9,51,101150,0,0,361,646,641,186,68553,62947,25302,0,0,0.2,1,0,0,0,0,0,0,0,0,0,0,0,0
2005,10,12,13,0,,23.5,11.7,48,101070,0,0,366,675,668,183,62903,64345,24846,0,50,2.5,1,0,0,0,0,0,0,0,0,0,0,0,0
2005,10,12,14,0,,24.3,11.4,44,101000,0,0,370,644,683,165,49823,61476,22142,0,70,2.4,1,0,0,0,0,0,0,0,0,0,0,0,0
2005,10,12,15,0,,24.3,11.2,43,100920,0,0,370,539,638,150,32546,48664,19255,0,50,1.7,1,0,0,0,0,0,0,0,0,0,0,0,0
2005,10,12,16,0,,24.6,11.5,42,100940,0,0,372,411,638,108,13522,18517,12186,0,200,2.9,1,0,0,0,0,0,0,0,0,0,0,0,0
2005,10,12,17,0,,24.7,11.9,44,100950,0,0,373,248,599,68,0,0,0,0,180,2.1,1,0,0,0,0,0,0,0,0,0,0,0,0
2005,10,12,18,0,,22.3,12.2,52,100970,0,0,361,74,45,29,0,0,0,0,160,2,1,0,0,0,0,0,0,0,0,0,0,0,0
2005,10,12,19,0,,21.6,12.7,59,101000,0,0,361,0,0,0,0,0,0,0,180,2.3,2,0,0,0,0,0,0,0,0,0,0,0,0
2005,10,12,20,0,,20.2,13.2,65,101040,0,0,358,0,0,0,0,0,0,0,160,2.1,2,0,0,0,0,0,0,0,0,0,0,0,0
2005,10,12,21,0,,19.5,13.7,68,101070,0,0,357,0,0,0,0,0,0,0,200,1,3,0,0,0,0,0,0,0,0,0,0,0,0
2005,10,12,22,0,,19.1,13.9,71,101060,0,0,360,0,0,0,0,0,0,0,250,0.9,5,0,0,0,0,0,0,0,0,0,0,0,0
2005,10,12,23,0,,17.7,14,77,101060,0,0,359,0,0,0,0,0,0,0,250,1,6,0,0,0,0,0,0,0,0,0,0,0,0
2005,10,12,24,0,,18.3,14.2,76,101050,0,0,371,0,0,0,0,0,0,0,250,0.4,8,0,0,0,0,0,0,0,0,0,0,0,0
2005,10,13,1,0,,17.6,13.6,74,101030,0,0,354,0,0,0,0,0,0,0,20,1.1,5,0,0,0,0,0,0,0,0,0,0,0,0
2005,10,13,2,0,,16.5,13.1,77,101020,0,0,341,0,0,0,0,0,0,0,50,1.1,3,0,0,0,0,0,0,0,0,0,0,0,0
2005,10,13,3,0,,15.5,12.5,81,101000,0,0,323,0,0,0,0,0,0,0,20,2.1,0,0,0,0,0,0,0,0,0,0,0,0,0
2005,10,13,4,0,,15.3,12.4,80,101000,0,0,331,0,0,0,0,0,0,0,70,1.3,2,0,0,0,0,0,0,0,0,0,0,0,0
2005,10,13,5,0,,14.8,12.2,81,100990,0,0,334,0,0,0,0,0,0,0,50,2.4,3,0,0,0,0,0,0,0,0,0,0,0,0
2005,10,13,6,0,,15.1,12.1,81,100990,0,0,340,0,0,0,0,0,0,0,70,2.6,5,0,0,0,0,0,0,0,0,0,0,0,0
2005,10,13,7,0,,14.8,12.2,83,101010,0,0,337,13,4,10,1315,322,1194,0,70,1.4,4,0,0,0,0,0,0,0,0,0,0,0,0
2005,10,13,8,0,,16.8,12.4,78,101030,0,0,344,116,401,49,29603,41068,7655,0,50,1.1,4,0,0,0,0,0,0,0,0,0,0,0,0
2005,10,13,9,0,,18.7,12.5,66,101050,0,0,352,293,579,86,51096,59542,12418,0,50,1.4,3,0,0,0,0,0,0,0,0,0,0,0,0
2005,10,13,10,0,,20.6,12.6,61,101000,0,0,363,435,574,137,60847,57292,19884,0,20,1,4,0,0,0,0,0,0,0,0,0,0,0,0
2005,10,13,11,0,,21.8,12.7,56,100950,0,0,371,536,541,189,64490,53302,25782,0,70,1.1,4,0,0,0,0,0,0,0,0,0,0,0,0
2005,10,13,12,0,,23.3,12.8,51,100900,0,0,381,565,437,254,60976,41263,32817,0,320,0.6,5,0,0,0,0,0,0,0,0,0,0,0,0
2005,10,13,13,0,,23.7,12.6,50,100840,0,0,379,606,501,240,58328,46595,30992,0,20,1.5,4,0,0,0,0,0,0,0,0,0,0,0,0
2005,10,13,14,0,,25.2,12.4,46,100780,0,0,382,616,621,184,48935,55258,24321,0,70,1.5,2,0,0,0,0,0,0,0,0,0,0,0,0
2005,10,13,15,0,,24.7,12.2,45,100720,0,0,373,515,579,165,32496,43346,20864,0,290,0.9,1,0,0,0,0,0,0,0,0,0,0,0,0
2005,10,13,16,0,,24.8,12.8,47,100720,0,0,383,381,544,126,14790,9726,14134,0,290,1.2,3,0,0,0,0,0,0,0,0,0,0,0,0
2005,10,13,17,0,,24.3,13.5,49,100720,0,0,387,204,368,95,0,0,0,0,320,0.8,5,0,0,0,0,0,0,0,0,0,0,0,0
2005,10,13,18,0,,22.8,14.1,57,100720,0,0,388,48,16,32,0,0,0,0,340,0.9,7,0,0,0,0,0,0,0,0,0,0,0,0
2005,10,13,19,0,,21.5,14.3,62,100760,0,0,385,0,0,0,0,0,0,0,20,0.7,8,0,0,0,0,0,0,0,0,0,0,0,0
2005,10,13,20,0,,20.8,14.6,67,100800,0,0,386,0,0,0,0,0,0,0,290,0.9,8,0,0,0,0,0,0,0,0,0,0,0,0
2005,10,13,21,0,,20.7,14.8,68,100840,0,0,392,0,0,0,0,0,0,0,320,0.6,9,0,0,0,0,0,0,0,0,0,0,0,0
2005,10,13,22,0,,20.3,15,69,100850,0,0,390,0,0,0,0,0,0,0,290,1.2,9,0,0,0,0,0,0,0,0,0,0,0,0
2005,10,13,23,0,,19.6,15.1,75,100860,0,0,387,0,0,0,0,0,0,0,340,0.5,9,0,0,0,0,0,0,0,0,0,0,0,0
2005,10,13,24,0,,19.2,15.3,77,100870,0,0,385,0,0,0,0,0,0,0,20,0.6,9,0,0,0,0,0,0,0,0,0,0,0,0
2005,10,14,1,0,,19.1,15.2,75,100830,0,0,381,0,0,0,0,0,0,0,90,0.7,9,0,0,0,0,0,0,0,0,0,0,0,0
2005,10,14,2,0,,18.8,15.1,72,100790,0,0,377,0,0,0,0,0,0,0,70,1,8,0,0,0,0,0,0,0,0,0,0,0,0
2005,10,14,3,0,,18.5,15,79,100750,0,0,373,0,0,0,0,0,0,0,320,0.8,8,0,0,0,0,0,0,0,0,0,0,0,0
2005,10,14,4,0,,18.2,14.9,79,100750,0,0,373,0,0,0,0,0,0,0,20,1.3,8,0,0,0,0,0,0,0,0,0,0,0,0
2005,10,14,5,0,,18.5,14.9,77,100750,0,0,378,0,0,0,0,0,0,0,360,0.8,9,0,0,0,0,0,0,0,0,0,0,0,0
2005,10,14,6,0,,17.7,14.8,82,100750,0,0,376,0,0,0,0,0,0,0,20,1.5,9,0,0,0,0,0,0,0,0,0,0,0,0
2005,10,14,7,0,,17.3,14.8,86,100780,0,0,374,2,0,2,257,0,257,0,0,0,9,0,0,0,0,0,0,0,0,0,0,0,0
2005,10,14,8,0,,17.8,14.9,83,100810,0,0,377,49,41,43,7764,3812,5741,0,0,0.2,9,0,0,0,0,0,0,0,0,0,0,0,0
2005,10,14,9,0,,19.2,14.9,75,100840,0,0,384,141,72,115,18993,6792,14609,0,360,0.7,9,0,0,0,0,0,0,0,0,0,0,0,0
2005,10,14,10,0,,19.3,14.4,71,100840,0,0,378,266,126,201,33008,11949,24515,0,320,1.1,8,0,0,0,0,0,0,0,0,0,0,0,0
2005,10,14,11,0,,19.7,13.9,66,100840,0,0,375,341,123,262,39794,11711,31343,0,20,3.7,8,0,0,0,0,0,0,0,0,0,0,0,0
2005,10,14,12,0,,19.7,13.4,66,100840,0,0,371,402,136,306,44685,12784,36020,0,360,1.8,7,0,0,0,0,0,0,0,0,0,0,0,0
2005,10,14,13,0,,20.3,12,58,100800,0,0,367,499,230,331,50795,21463,38306,0,340,2.6,6,0,0,0,0,0,0,0,0,0,0,0,0
2005,10,14,14,0,,20.2,10.6,42,100760,0,0,361,533,405,253,46061,36255,30085,0,340,2.8,4,0,0,0,0,0,0,0,0,0,0,0,0
2005,10,14,15,0,,20.6,9.2,47,100720,0,0,357,501,548,172,32030,41584,21067,0,20,3.2,3,0,0,0,0,0,0,0,0,0,0,0,0
2005,10,14,16,0,,20,7.6,29,100720,0,0,354,353,449,144,15715,8593,15175,0,340,1.8,4,0,0,0,0,0,0,0,0,0,0,0,0
2005,10,14,17,0,,19,5.9,37,100720,0,0,349,219,476,81,0,0,0,0,20,2.4,4,0,0,0,0,0,0,0,0,0,0,0,0
2005,10,14,18,0,,16.7,4.3,43,100720,0,0,338,58,31,27,0,0,0,0,20,2.7,5,0,0,0,0,0,0,0,0,0,0,0,0
2005,10,14,19,0,,15.3,3.9,47,100780,0,0,329,0,0,0,0,0,0,0,20,1.7,4,0,0,0,0,0,0,0,0,0,0,0,0
2005,10,14,20,0,,14,3.5,47,100840,0,0,321,0,0,0,0,0,0,0,50,1.9,4,0,0,0,0,0,0,0,0,0,0,0,0
2005,10,14,21,0,,13,3.1,50,100900,0,0,314,0,0,0,0,0,0,0,70,1.3,3,0,0,0,0,0,0,0,0,0,0,0,0
2005,10,14,22,0,,12.6,2.5,44,100880,0,0,313,0,0,0,0,0,0,0,50,3,3,0,0,0,0,0,0,0,0,0,0,0,0
2005,10,14,23,0,,12.1,2,48,100870,0,0,311,0,0,0,0,0,0,0,50,3.5,4,0,0,0,0,0,0,0,0,0,0,0,0
2005,10,14,24,0,,11.8,1.4,48,100850,0,0,309,0,0,0,0,0,0,0,50,2.5,4,0,0,0,0,0,0,0,0,0,0,0,0
2005,10,15,1,0,,12,1.8,48,100820,0,0,312,0,0,0,0,0,0,0,50,2.5,4,0,0,0,0,0,0,0,0,0,0,0,0
2005,10,15,2,0,,12.1,2.3,49,100800,0,0,313,0,0,0,0,0,0,0,50,2.6,5,0,0,0,0,0,0,0,0,0,0,0,0
2005,10,15,3,0,,12.6,2.7,50,100770,0,0,317,0,0,0,0,0,0,0,70,3.7,5,0,0,0,0,0,0,0,0,0,0,0,0
2005,10,15,4,0,,12.5,2.7,50,100770,0,0,316,0,0,0,0,0,0,0,50,2.1,5,0,0,0,0,0,0,0,0,0,0,0,0
2005,10,15,5,0,,12.3,2.7,52,100770,0,0,314,0,0,0,0,0,0,0,50,3.1,4,0,0,0,0,0,0,0,0,0,0,0,0
2005,10,15,6,0,,12.3,2.7,51,100770,0,0,313,0,0,0,0,0,0,0,50,3.5,4,0,0,0,0,0,0,0,0,0,0,0,0
2005,10,15,7,0,,12.6,3.4,52,100790,0,0,314,15,6,8,1403,600,1180,0,50,3.4,3,0,0,0,0,0,0,0,0,0,0,0,0
2005,10,15,8,0,,13.1,4.2,52,100800,0,0,315,123,527,39,33725,52692,5958,0,50,2.5,3,0,0,0,0,0,0,0,0,0,0,0,0
2005,10,15,9,0,,15.6,4.9,48,100820,0,0,325,310,687,69,54572,69673,9874,0,50,3.3,2,0,0,0,0,0,0,0,0,0,0,0,0
2005,10,15,10,0,,17.1,5.1,47,100780,0,0,329,481,754,94,67251,76668,13090,0,50,3.3,1,0,0,0,0,0,0,0,0,0,0,0,0
2005,10,15,11,0,,18.6,5.2,45,100740,0,0,333,603,758,123,71936,77061,16668,0,70,3.4,1,0,0,0,0,0,0,0,0,0,0,0,0
2005,10,15,12,0,,19,5.4,40,100700,0,0,331,651,687,166,68686,68394,22649,0,20,2.9,0,0,0,0,0,0,0,0,0,0,0,0,0
2005,10,15,13,0,,19.2,5.4,35,100650,0,0,336,661,667,179,61187,64697,23846,0,20,3.4,1,0,0,0,0,0,0,0,0,0,0,0,0
2005,10,15,14,0,,19.8,5.5,38,100590,0,0,343,614,639,175,48021,58869,22360,0,20,2.9,1,0,0,0,0,0,0,0,0,0,0,0,0
2005,10,15,15,0,,20,5.5,38,100540,0,0,347,514,602,155,31029,46420,19009,0,340,1.9,2,0,0,0,0,0,0,0,0,0,0,0,0
2005,10,15,16,0,,19.7,5.5,40,100580,0,0,342,385,590,114,12640,14998,11766,0,340,1.4,1,0,0,0,0,0,0,0,0,0,0,0,0
2005,10,15,17,0,,18.2,5.6,42,100610,0,0,332,227,544,71,0,0,0,0,360,1.8,1,0,0,0,0,0,0,0,0,0,0,0,0
2005,10,15,18,0,,16.7,5.6,47,100650,0,0,320,67,39,28,0,0,0,0,340,1.5,0,0,0,0,0,0,0,0,0,0,0,0,0
2005,10,15,19,0,,15.8,5.9,50,100700,0,0,317,0,0,0,0,0,0,0,20,1.5,0,0,0,0,0,0,0,0,0,0,0,0,0
2005,10,15,20,0,,14.5,6.2,57,100740,0,0,311,0,0,0,0,0,0,0,20,1.3,0,0,0,0,0,0,0,0,0,0,0,0,0
2005,10,15,21,0,,13.6,6.5,61,100790,0,0,308,0,0,0,0,0,0,0,20,1.2,0,0,0,0,0,0,0,0,0,0,0,0,0
2005,10,15,22,0,,13.8,7,62,100810,0,0,309,0,0,0,0,0,0,0,0,0.2,0,0,0,0,0,0,0,0,0,0,0,0,0
2005,10,15,23,0,,12.6,7.6,70,100830,0,0,304,0,0,0,0,0,0,0,270,0.7,0,0,0,0,0,0,0,0,0,0,0,0,0
2005,10,15,24,0,,12.1,8.1,75,100850,0,0,303,0,0,0,0,0,0,0,250,0.7,0,0,0,0,0,0,0,0,0,0,0,0,0
2005,10,16,1,0,,11.5,8.1,79,100850,0,0,308,0,0,0,0,0,0,0,270,0.6,1,0,0,0,0,0,0,0,0,0,0,0,0
2005,10,16,2,0,,11.1,8.2,80,100840,0,0,311,0,0,0,0,0,0,0,250,0.8,3,0,0,0,0,0,0,0,0,0,0,0,0
2005,10,16,3,0,,11.3,8.2,80,100840,0,0,315,0,0,0,0,0,0,0,250,0.6,4,0,0,0,0,0,0,0,0,0,0,0,0
2005,10,16,4,0,,10.3,8,85,100860,0,0,307,0,0,0,0,0,0,0,270,0.7,3,0,0,0,0,0,0,0,0,0,0,0,0
2005,10,16,5,0,,10.1,7.8,85,100880,0,0,302,0,0,0,0,0,0,0,270,0.3,1,0,0,0,0,0,0,0,0,0,0,0,0
2005,10,16,6,0,,9.6,7.6,86,100900,0,0,292,0,0,0,0,0,0,0,270,1.1,0,0,0,0,0,0,0,0,0,0,0,0,0
2005,10,16,7,0,,8.8,7.4,89,100920,0,0,289,11,3,8,1074,224,992,0,230,0.6,0,0,0,0,0,0,0,0,0,0,0,0,0
2005,10,16,8,0,,11.5,7.1,81,100930,0,0,299,118,493,41,32069,49503,6168,0,50,0.7,0,0,0,0,0,0,0,0,0,0,0,0,0
2005,10,16,9,0,,15.6,6.9,55,100950,0,0,317,321,755,58,57436,76776,8492,0,50,2.4,0,0,0,0,0,0,0,0,0,0,0,0,0
2005,10,16,10,0,,17.3,6.7,46,100920,0,0,324,505,848,73,71137,86569,10354,0,50,2.9,0,0,0,0,0,0,0,0,0,0,0,0,0
2005,10,16,11,0,,18.5,6.4,44,100900,0,0,329,610,787,114,72836,80323,15590,0,90,2.1,0,0,0,0,0,0,0,0,0,0,0,0,0
2005,10,16,12,0,,18.8,6.2,43,100870,0,0,331,634,655,175,67046,64882,23675,0,20,2,0,0,0,0,0,0,0,0,0,0,0,0,0
2005,10,16,13,0,,20,5.8,37,100810,0,0,336,651,652,182,60329,63062,24230,0,320,2,0,0,0,0,0,0,0,0,0,0,0,0,0
2005,10,16,14,0,,21.2,5.5,34,100760,0,0,341,621,672,163,47733,61748,21109,0,230,1.9,0,0,0,0,0,0,0,0,0,0,0,0,0
2005,10,16,15,0,,21.3,5.1,34,100700,0,0,341,532,672,135,30051,51733,16897,0,270,2.3,0,0,0,0,0,0,0,0,0,0,0,0,0
2005,10,16,16,0,,21.1,5.7,34,100720,0,0,341,396,648,101,11455,15516,10620,0,270,1.4,0,0,0,0,0,0,0,0,0,0,0,0,0
2005,10,16,17,0,,20.1,6.3,41,100730,0,0,337,226,562,68,0,0,0,0,320,1.4,0,0,0,0,0,0,0,0,0,0,0,0,0
2005,10,16,18,0,,17.5,6.9,49,100750,0,0,325,65,38,27,0,0,0,0,320,2,0,0,0,0,0,0,0,0,0,0,0,0,0
2005,10,16,19,0,,16.1,7.1,52,100800,0,0,319,0,0,0,0,0,0,0,360,1.4,0,0,0,0,0,0,0,0,0,0,0,0,0
2005,10,16,20,0,,15.1,7.4,56,100840,0,0,315,0,0,0,0,0,0,0,20,0.8,0,0,0,0,0,0,0,0,0,0,0,0,0
2005,10,16,21,0,,14,7.6,64,100890,0,0,311,0,0,0,0,0,0,0,70,1.8,0,0,0,0,0,0,0,0,0,0,0,0,0
2005,10,16,22,0,,13.3,7.8,67,100920,0,0,308,0,0,0,0,0,0,0,50,1.5,0,0,0,0,0,0,0,0,0,0,0,0,0
2005,10,16,23,0,,12.6,7.9,71,100940,0,0,305,0,0,0,0,0,0,0,20,1.2,0,0,0,0,0,0,0,0,0,0,0,0,0
2005,10,16,24,0,,12.5,8.1,73,100970,0,0,305,0,0,0,0,0,0,0,20,0.4,0,0,0,0,0,0,0,0,0,0,0,0,0
2005,10,17,1,0,,11.3,8,80,100970,0,0,300,0,0,0,0,0,0,0,0,0,0,0,0,0,0,0,0,0,0,0,0,0,0
2005,10,17,2,0,,11,8,82,100970,0,0,298,0,0,0,0,0,0,0,250,0.4,0,0,0,0,0,0,0,0,0,0,0,0,0
2005,10,17,3,0,,10,7.9,85,100970,0,0,294,0,0,0,0,0,0,0,230,0.3,0,0,0,0,0,0,0,0,0,0,0,0,0
2005,10,17,4,0,,9.6,7.7,86,101020,0,0,292,0,0,0,0,0,0,0,250,0.8,0,0,0,0,0,0,0,0,0,0,0,0,0
2005,10,17,5,0,,9.3,7.5,88,101070,0,0,291,0,0,0,0,0,0,0,270,0.5,0,0,0,0,0,0,0,0,0,0,0,0,0
2005,10,17,6,0,,9.1,7.3,87,101120,0,0,290,0,0,0,0,0,0,0,250,0.9,0,0,0,0,0,0,0,0,0,0,0,0,0
2005,10,17,7,0,,8.8,7.6,89,101160,0,0,289,10,3,8,1022,215,943,0,200,0.7,0,0,0,0,0,0,0,0,0,0,0,0,0
2005,10,17,8,0,,10.1,8,84,101210,0,0,295,109,425,44,29365,43305,6872,0,230,0.7,0,0,0,0,0,0,0,0,0,0,0,0,0
2005,10,17,9,0,,12.3,8.3,75,101250,0,0,304,283,584,82,49671,59813,11783,0,200,1,0,0,0,0,0,0,0,0,0,0,0,0,0
2005,10,17,10,0,,15.6,6.7,64,101240,0,0,317,473,752,93,66396,76569,12964,0,270,0.9,0,0,0,0,0,0,0,0,0,0,0,0,0
2005,10,17,11,0,,18.3,5.2,50,101230,0,0,327,624,839,99,74129,85255,13753,0,270,1.2,0,0,0,0,0,0,0,0,0,0,0,0,0
2005,10,17,12,0,,20.1,3.6,33,101220,0,0,334,698,834,117,72009,84312,16041,0,360,1.3,0,0,0,0,0,0,0,0,0,0,0,0,0
2005,10,17,13,0,,22,3.5,28,101160,0,0,342,712,823,124,63992,81417,17769,0,20,1.4,0,0,0,0,0,0,0,0,0,0,0,0,0
2005,10,17,14,0,,22.2,3.3,26,101110,0,0,343,646,753,137,48561,69943,18732,0,20,2.8,0,0,0,0,0,0,0,0,0,0,0,0,0
2005,10,17,15,0,,22.3,3.2,28,101050,0,0,343,542,714,122,29230,55146,15462,0,50,2.6,0,0,0,0,0,0,0,0,0,0,0,0,0
2005,10,17,16,0,,22.6,4.7,30,101110,0,0,347,397,669,96,10751,15027,10009,0,20,2.6,0,0,0,0,0,0,0,0,0,0,0,0,0
2005,10,17,17,0,,21.5,6.1,33,101160,0,0,343,233,627,59,0,0,0,0,20,2.4,0,0,0,0,0,0,0,0,0,0,0,0,0
2005,10,17,18,0,,19.2,7.6,46,101220,0,0,334,64,37,27,0,0,0,0,20,1.1,0,0,0,0,0,0,0,0,0,0,0,0,0
2005,10,17,19,0,,17.7,8.3,54,101270,0,0,328,0,0,0,0,0,0,0,20,0.8,0,0,0,0,0,0,0,0,0,0,0,0,0
2005,10,17,20,0,,16.5,9,62,101320,0,0,323,0,0,0,0,0,0,0,50,2.3,0,0,0,0,0,0,0,0,0,0,0,0,0
2005,10,17,21,0,,15.5,9.7,67,101370,0,0,320,0,0,0,0,0,0,0,50,1,0,0,0,0,0,0,0,0,0,0,0,0,0
2005,10,17,22,0,,15,10,70,101390,0,0,318,0,0,0,0,0,0,0,20,1.3,0,0,0,0,0,0,0,0,0,0,0,0,0
2005,10,17,23,0,,14.1,10.4,76,101420,0,0,314,0,0,0,0,0,0,0,50,1.9,0,0,0,0,0,0,0,0,0,0,0,0,0
2005,10,17,24,0,,14.8,10.7,75,101440,0,0,318,0,0,0,0,0,0,0,50,0.6,0,0,0,0,0,0,0,0,0,0,0,0,0
2005,10,18,1,0,,13.6,10.6,80,101470,0,0,312,0,0,0,0,0,0,0,0,0.1,0,0,0,0,0,0,0,0,0,0,0,0,0
2005,10,18,2,0,,12.8,10.4,83,101490,0,0,309,0,0,0,0,0,0,0,290,0.8,0,0,0,0,0,0,0,0,0,0,0,0,0
2005,10,18,3,0,,12.1,10.3,87,101520,0,0,306,0,0,0,0,0,0,0,0,0.2,0,0,0,0,0,0,0,0,0,0,0,0,0
2005,10,18,4,0,,11.8,10.1,86,101560,0,0,304,0,0,0,0,0,0,0,250,1.2,0,0,0,0,0,0,0,0,0,0,0,0,0
2005,10,18,5,0,,11,9.9,90,101610,0,0,301,0,0,0,0,0,0,0,270,1.3,0,0,0,0,0,0,0,0,0,0,0,0,0
2005,10,18,6,0,,11,9.7,90,101650,0,0,300,0,0,0,0,0,0,0,110,0.7,0,0,0,0,0,0,0,0,0,0,0,0,0
2005,10,18,7,0,,11.3,10,89,101670,0,0,302,9,2,7,933,170,872,0,0,0.2,0,0,0,0,0,0,0,0,0,0,0,0,0
2005,10,18,8,0,,12.6,10.2,84,101700,0,0,308,111,469,40,30569,47351,6154,0,360,0.5,0,0,0,0,0,0,0,0,0,0,0,0,0
2005,10,18,9,0,,13.6,10.5,80,101720,0,0,312,268,524,90,47048,52577,13958,0,270,0.9,0,0,0,0,0,0,0,0,0,0,0,0,0
2005,10,18,10,0,,16.6,10,72,101680,0,0,325,448,678,108,63065,69343,14975,0,320,1.1,0,0,0,0,0,0,0,0,0,0,0,0,0
2005,10,18,11,0,,18.3,9.5,64,101640,0,0,332,571,697,137,68881,69877,19710,0,340,1.6,0,0,0,0,0,0,0,0,0,0,0,0,0
2005,10,18,12,0,,19.8,9,49,101600,0,0,338,664,756,140,69607,75301,19970,0,20,1.5,0,0,0,0,0,0,0,0,0,0,0,0,0
2005,10,18,13,0,,20.3,7.8,41,101520,0,0,342,649,671,173,59820,64747,23364,0,290,1.5,0,0,0,0,0,0,0,0,0,0,0,0,0
2005,10,18,14,0,,21.1,6.6,34,101450,0,0,346,608,660,164,46570,60059,21236,0,340,2.1,1,0,0,0,0,0,0,0,0,0,0,0,0
2005,10,18,15,0,,21.2,5.4,35,101370,0,0,347,512,638,141,29252,48102,17462,0,360,2.2,1,0,0,0,0,0,0,0,0,0,0,0,0
2005,10,18,16,0,,20.3,5.6,39,101410,0,0,341,381,622,104,11075,12022,10534,0,340,1.9,1,0,0,0,0,0,0,0,0,0,0,0,0
2005,10,18,17,0,,19.2,5.7,39,101460,0,0,334,218,562,65,0,0,0,0,360,1.6,0,0,0,0,0,0,0,0,0,0,0,0,0
2005,10,18,18,0,,16.7,5.9,48,101500,0,0,321,58,30,29,0,0,0,0,20,0.9,0,0,0,0,0,0,0,0,0,0,0,0,0
2005,10,18,19,0,,15.5,6.6,56,101530,0,0,316,0,0,0,0,0,0,0,20,1.1,0,0,0,0,0,0,0,0,0,0,0,0,0
2005,10,18,20,0,,14.1,7.2,60,101570,0,0,311,0,0,0,0,0,0,0,20,1.7,0,0,0,0,0,0,0,0,0,0,0,0,0
2005,10,18,21,0,,13.6,7.9,67,101600,0,0,309,0,0,0,0,0,0,0,70,1.3,0,0,0,0,0,0,0,0,0,0,0,0,0
2005,10,18,22,0,,13.1,8.2,73,101610,0,0,307,0,0,0,0,0,0,0,50,2.8,0,0,0,0,0,0,0,0,0,0,0,0,0
2005,10,18,23,0,,13.3,8.4,72,101630,0,0,308,0,0,0,0,0,0,0,20,1.2,0,0,0,0,0,0,0,0,0,0,0,0,0
2005,10,18,24,0,,12.6,8.7,76,101640,0,0,306,0,0,0,0,0,0,0,20,1.6,0,0,0,0,0,0,0,0,0,0,0,0,0
2005,10,19,1,0,,12.6,8.7,76,101630,0,0,306,0,0,0,0,0,0,0,50,1.4,0,0,0,0,0,0,0,0,0,0,0,0,0
2005,10,19,2,0,,11.8,8.8,80,101630,0,0,303,0,0,0,0,0,0,0,20,2.3,0,0,0,0,0,0,0,0,0,0,0,0,0
2005,10,19,3,0,,11.1,8.8,84,101620,0,0,300,0,0,0,0,0,0,0,20,1.8,0,0,0,0,0,0,0,0,0,0,0,0,0
2005,10,19,4,0,,10.6,8.7,85,101640,0,0,303,0,0,0,0,0,0,0,230,0.6,1,0,0,0,0,0,0,0,0,0,0,0,0
2005,10,19,5,0,,10,8.6,87,101650,0,0,305,0,0,0,0,0,0,0,230,0.9,2,0,0,0,0,0,0,0,0,0,0,0,0
2005,10,19,6,0,,10,8.5,89,101670,0,0,308,0,0,0,0,0,0,0,270,0.7,3,0,0,0,0,0,0,0,0,0,0,0,0
2005,10,19,7,0,,9.6,8.7,89,101730,0,0,304,8,1,6,815,119,773,0,230,1.1,2,0,0,0,0,0,0,0,0,0,0,0,0
2005,10,19,8,0,,11,9,84,101790,0,0,308,104,62,43,9125,5861,6125,0,230,0.5,2,0,0,0,0,0,0,0,0,0,0,0,0
2005,10,19,9,0,,13.5,9.2,74,101850,0,0,316,274,567,82,48172,58014,11899,0,20,0.3,1,0,0,0,0,0,0,0,0,0,0,0,0
2005,10,19,10,0,,15.8,9.5,69,101820,0,0,325,446,683,106,62851,69866,14701,0,270,1.2,1,0,0,0,0,0,0,0,0,0,0,0,0
2005,10,19,11,0,,17.7,9.7,59,101800,0,0,332,570,708,133,68863,70980,19235,0,270,1.1,0,0,0,0,0,0,0,0,0,0,0,0,0
2005,10,19,12,0,,20.2,10,51,101770,0,0,341,648,726,148,68072,71953,20973,0,250,1.3,0,0,0,0,0,0,0,0,0,0,0,0,0
2005,10,19,13,0,,21.7,8.6,45,101700,0,0,350,674,747,147,61088,72615,20540,0,180,0.9,0,0,0,0,0,0,0,0,0,0,0,0,0
2005,10,19,14,0,,22.3,7.3,37,101640,0,0,353,621,708,148,47091,64740,20081,0,50,1.1,1,0,0,0,0,0,0,0,0,0,0,0,0
2005,10,19,15,0,,22.7,5.9,33,101570,0,0,355,527,697,124,28310,52204,15749,0,340,1.4,1,0,0,0,0,0,0,0,0,0,0,0,0
2005,10,19,16,0,,23.2,7.9,32,101580,0,0,365,379,630,101,10750,10157,10337,0,360,0.6,2,0,0,0,0,0,0,0,0,0,0,0,0
2005,10,19,17,0,,21.6,10,43,101590,0,0,363,204,495,72,0,0,0,0,360,1.1,3,0,0,0,0,0,0,0,0,0,0,0,0
2005,10,19,18,0,,19,12,63,101600,0,0,355,49,24,25,0,0,0,0,360,1.1,4,0,0,0,0,0,0,0,0,0,0,0,0
2005,10,19,19,0,,18.2,12,68,101650,0,0,353,0,0,0,0,0,0,0,250,0.3,5,0,0,0,0,0,0,0,0,0,0,0,0
2005,10,19,20,0,,17.1,12,71,101700,0,0,350,0,0,0,0,0,0,0,50,3.2,5,0,0,0,0,0,0,0,0,0,0,0,0
2005,10,19,21,0,,17.5,12,69,101750,0,0,354,0,0,0,0,0,0,0,70,1.1,6,0,0,0,0,0,0,0,0,0,0,0,0
2005,10,19,22,0,,16.7,12.1,72,101770,0,0,348,0,0,0,0,0,0,0,340,0.6,5,0,0,0,0,0,0,0,0,0,0,0,0
2005,10,19,23,0,,16.3,12.1,75,101780,0,0,344,0,0,0,0,0,0,0,360,0.5,5,0,0,0,0,0,0,0,0,0,0,0,0
2005,10,19,24,0,,15.8,12.2,78,101800,0,0,340,0,0,0,0,0,0,0,270,0.3,4,0,0,0,0,0,0,0,0,0,0,0,0
2005,10,20,1,0,,15.6,12.2,79,101790,0,0,339,0,0,0,0,0,0,0,250,0.6,4,0,0,0,0,0,0,0,0,0,0,0,0
2005,10,20,2,0,,14.8,12.1,83,101780,0,0,334,0,0,0,0,0,0,0,250,0.7,3,0,0,0,0,0,0,0,0,0,0,0,0
2005,10,20,3,0,,13.8,12.1,88,101770,0,0,329,0,0,0,0,0,0,0,250,0.4,3,0,0,0,0,0,0,0,0,0,0,0,0
2005,10,20,4,0,,13.3,11.9,90,101750,0,0,323,0,0,0,0,0,0,0,270,0.6,2,0,0,0,0,0,0,0,0,0,0,0,0
2005,10,20,5,0,,13.1,11.8,91,101740,0,0,318,0,0,0,0,0,0,0,20,0.3,1,0,0,0,0,0,0,0,0,0,0,0,0
2005,10,20,6,0,,12.6,11.6,92,101720,0,0,309,0,0,0,0,0,0,0,250,0.6,0,0,0,0,0,0,0,0,0,0,0,0,0
2005,10,20,7,0,,12.1,11.7,94,101770,0,0,313,7,1,6,782,28,772,0,20,0.3,1,0,0,0,0,0,0,0,0,0,0,0,0
2005,10,20,8,0,,13.8,11.9,87,101820,0,0,325,99,55,44,8965,5097,6376,0,0,0.1,2,0,0,0,0,0,0,0,0,0,0,0,0
2005,10,20,9,0,,14.8,12,82,101870,0,0,333,250,458,97,43317,45665,14952,0,250,0.7,3,0,0,0,0,0,0,0,0,0,0,0,0
2005,10,20,10,0,,16.7,11.9,74,101800,0,0,341,402,537,136,56407,53526,19750,0,290,0.5,3,0,0,0,0,0,0,0,0,0,0,0,0
2005,10,20,11,0,,18.6,11.8,67,101740,0,0,348,529,597,163,63842,59137,22761,0,290,0.8,2,0,0,0,0,0,0,0,0,0,0,0,0
2005,10,20,12,0,,20.3,11.7,57,101670,0,0,355,622,665,166,65562,65312,23111,0,320,1.4,2,0,0,0,0,0,0,0,0,0,0,0,0
2005,10,20,13,0,,22.2,10.4,43,101600,0,0,366,640,670,170,58869,64323,23248,0,50,2.1,3,0,0,0,0,0,0,0,0,0,0,0,0
2005,10,20,14,0,,21.7,9.1,41,101540,0,0,364,571,583,185,45098,51958,23659,0,320,1.2,3,0,0,0,0,0,0,0,0,0,0,0,0
2005,10,20,15,0,,22.1,7.8,39,101470,0,0,366,467,521,168,28467,37047,19718,0,320,1.4,4,0,0,0,0,0,0,0,0,0,0,0,0
2005,10,20,16,0,,21.2,8.5,45,101440,0,0,363,328,442,135,13874,1693,13813,0,20,1.9,4,0,0,0,0,0,0,0,0,0,0,0,0
2005,10,20,17,0,,20.1,9.3,51,101400,0,0,359,176,333,88,0,0,0,0,360,1.5,5,0,0,0,0,0,0,0,0,0,0,0,0
2005,10,20,18,0,,18.7,10,56,101370,0,0,354,47,22,25,0,0,0,0,360,1.4,5,0,0,0,0,0,0,0,0,0,0,0,0
2005,10,20,19,0,,17.2,10,63,101360,0,0,347,0,0,0,0,0,0,0,20,0.5,5,0,0,0,0,0,0,0,0,0,0,0,0
2005,10,20,20,0,,16.5,10.1,67,101360,0,0,344,0,0,0,0,0,0,0,70,2.6,5,0,0,0,0,0,0,0,0,0,0,0,0
2005,10,20,21,0,,16,10.1,67,101350,0,0,341,0,0,0,0,0,0,0,50,1.1,5,0,0,0,0,0,0,0,0,0,0,0,0
2005,10,20,22,0,,15.3,10.4,70,101360,0,0,339,0,0,0,0,0,0,0,0,0.2,5,0,0,0,0,0,0,0,0,0,0,0,0
2005,10,20,23,0,,14.6,10.7,77,101360,0,0,337,0,0,0,0,0,0,0,230,0.4,6,0,0,0,0,0,0,0,0,0,0,0,0
2005,10,20,24,0,,14,11,81,101370,0,0,336,0,0,0,0,0,0,0,270,1,6,0,0,0,0,0,0,0,0,0,0,0,0
2005,10,21,1,0,,13.5,10.9,83,101340,0,0,336,0,0,0,0,0,0,0,160,0.3,7,0,0,0,0,0,0,0,0,0,0,0,0
2005,10,21,2,0,,14.1,10.9,79,101300,0,0,342,0,0,0,0,0,0,0,110,0.3,7,0,0,0,0,0,0,0,0,0,0,0,0
2005,10,21,3,0,,12.8,10.8,86,101270,0,0,340,0,0,0,0,0,0,0,270,0.9,8,0,0,0,0,0,0,0,0,0,0,0,0
2005,10,21,4,0,,13,10.8,86,101250,0,0,343,0,0,0,0,0,0,0,0,0,8,0,0,0,0,0,0,0,0,0,0,0,0
2005,10,21,5,0,,13,10.8,86,101220,0,0,345,0,0,0,0,0,0,0,290,0.6,9,0,0,0,0,0,0,0,0,0,0,0,0
2005,10,21,6,0,,12.5,10.8,88,101200,0,0,346,0,0,0,0,0,0,0,0,0,9,0,0,0,0,0,0,0,0,0,0,0,0
2005,10,21,7,0,,12.6,11,87,101250,0,0,349,0,0,0,0,0,0,0,230,0.6,9,0,0,0,0,0,0,0,0,0,0,0,0
2005,10,21,8,0,,13.3,11.3,84,101300,0,0,356,30,2,28,3716,99,3666,0,0,0.2,10,0,0,0,0,0,0,0,0,0,0,0,0
2005,10,21,9,0,,13.6,11.5,86,101350,0,0,362,84,21,77,10389,1926,9201,0,270,0.4,10,0,0,0,0,0,0,0,0,0,0,0,0
2005,10,21,10,0,,13.8,11.4,89,101300,0,0,362,138,24,127,16417,2229,14900,0,70,0.4,10,0,0,0,0,0,0,0,0,0,0,0,0
2005,10,21,11,0,,14.6,11.3,82,101250,0,0,366,187,27,170,21585,2527,19842,0,50,2.5,10,0,0,0,0,0,0,0,0,0,0,0,0
2005,10,21,12,0,,15,11.2,77,101200,0,0,368,217,28,197,24568,2665,22848,0,20,1.6,10,0,0,0,0,0,0,0,0,0,0,0,0
2005,10,21,13,0,,15.3,11.5,77,101110,0,0,370,215,26,197,23659,1872,22631,0,360,0.6,10,0,0,0,0,0,0,0,0,0,0,0,0
2005,10,21,14,0,,16.6,11.7,73,101010,0,0,377,217,32,196,22666,2377,21696,0,320,0.8,10,0,0,0,0,0,0,0,0,0,0,0,0
2005,10,21,15,0,,16.2,12,75,100920,0,0,375,176,29,159,17199,1822,16777,0,230,2,10,0,0,0,0,0,0,0,0,0,0,0,0
2005,10,21,16,0,,15.5,11.8,81,100920,0,0,372,124,27,113,10474,2985,10378,0,250,2.7,10,0,0,0,0,0,0,0,0,0,0,0,0
2005,10,21,17,0,,14.6,11.7,90,100920,0,0,367,57,15,53,0,0,0,0,290,1.9,10,0,0,0,0,0,0,0,0,0,0,0,0
2005,10,21,18,0,,14.5,11.5,81,100920,0,0,366,13,1,12,0,0,0,0,320,1.9,10,0,0,0,0,0,0,0,0,0,0,0,0
2005,10,21,19,0,,14.3,10.7,79,100940,0,0,345,0,0,0,0,0,0,0,290,1,8,0,0,0,0,0,0,0,0,0,0,0,0
2005,10,21,20,0,,13.8,10,73,100950,0,0,332,0,0,0,0,0,0,0,290,1.9,5,0,0,0,0,0,0,0,0,0,0,0,0
2005,10,21,21,0,,13.1,9.2,76,100970,0,0,322,0,0,0,0,0,0,0,270,2.2,3,0,0,0,0,0,0,0,0,0,0,0,0
2005,10,21,22,0,,12.6,8,74,100980,0,0,319,0,0,0,0,0,0,0,290,1,3,0,0,0,0,0,0,0,0,0,0,0,0
2005,10,21,23,0,,12.3,6.7,68,100990,0,0,317,0,0,0,0,0,0,0,340,1.6,4,0,0,0,0,0,0,0,0,0,0,0,0
2005,10,21,24,0,,11.6,5.5,65,101000,0,0,313,0,0,0,0,0,0,0,340,1.4,4,0,0,0,0,0,0,0,0,0,0,0,0
2005,10,22,1,0,,10.6,5,63,101010,0,0,308,0,0,0,0,0,0,0,20,1.1,4,0,0,0,0,0,0,0,0,0,0,0,0
2005,10,22,2,0,,10,4.5,62,101010,0,0,305,0,0,0,0,0,0,0,20,2,4,0,0,0,0,0,0,0,0,0,0,0,0
2005,10,22,3,0,,9.3,4,68,101020,0,0,302,0,0,0,0,0,0,0,50,0.8,4,0,0,0,0,0,0,0,0,0,0,0,0
2005,10,22,4,0,,8.6,4,73,101060,0,0,299,0,0,0,0,0,0,0,90,1.3,4,0,0,0,0,0,0,0,0,0,0,0,0
2005,10,22,5,0,,8.8,4.1,70,101100,0,0,300,0,0,0,0,0,0,0,320,1,4,0,0,0,0,0,0,0,0,0,0,0,0
2005,10,22,6,0,,8,4.1,75,101140,0,0,296,0,0,0,0,0,0,0,70,2.6,4,0,0,0,0,0,0,0,0,0,0,0,0
2005,10,22,7,0,,6.5,4,82,101190,0,0,287,0,0,0,0,0,0,0,90,1.3,3,0,0,0,0,0,0,0,0,0,0,0,0
2005,10,22,8,0,,9.3,4,73,101240,0,0,294,105,71,34,8405,6980,4914,0,50,2.6,1,0,0,0,0,0,0,0,0,0,0,0,0
2005,10,22,9,0,,10.8,3.9,61,101290,0,0,293,276,622,72,49384,63447,10495,0,360,1.7,0,0,0,0,0,0,0,0,0,0,0,0,0
2005,10,22,10,0,,11.8,2.4,49,101280,0,0,295,468,798,79,65804,80774,11185,0,20,6.7,0,0,0,0,0,0,0,0,0,0,0,0,0
2005,10,22,11,0,,12.3,1,40,101260,0,0,296,548,676,138,66217,68323,19366,0,20,3.8,0,0,0,0,0,0,0,0,0,0,0,0,0
2005,10,22,12,0,,13.3,-0.5,38,101250,0,0,299,632,717,147,66311,71826,20282,0,20,4.5,0,0,0,0,0,0,0,0,0,0,0,0,0
2005,10,22,13,0,,13.8,-1.6,30,101210,0,0,300,632,671,167,57683,65148,22202,0,340,2.5,0,0,0,0,0,0,0,0,0,0,0,0,0
2005,10,22,14,0,,14.1,-2.6,33,101180,0,0,300,590,660,158,44585,61291,19847,0,20,2.3,0,0,0,0,0,0,0,0,0,0,0,0,0
2005,10,22,15,0,,13.8,-3.7,29,101140,0,0,298,514,698,120,26729,52777,14727,0,20,4.7,0,0,0,0,0,0,0,0,0,0,0,0,0
2005,10,22,16,0,,13.6,-1.8,37,101150,0,0,299,362,612,100,9566,7340,9360,0,20,1.9,0,0,0,0,0,0,0,0,0,0,0,0,0
2005,10,22,17,0,,12.6,0.2,43,101160,0,0,296,205,567,60,0,0,0,0,20,1.8,0,0,0,0,0,0,0,0,0,0,0,0,0
2005,10,22,18,0,,11,2.1,53,101170,0,0,292,54,30,24,0,0,0,0,360,1.4,0,0,0,0,0,0,0,0,0,0,0,0,0
2005,10,22,19,0,,10.1,1.8,57,101200,0,0,288,0,0,0,0,0,0,0,20,1.1,0,0,0,0,0,0,0,0,0,0,0,0,0
2005,10,22,20,0,,10,1.5,55,101240,0,0,287,0,0,0,0,0,0,0,290,1,0,0,0,0,0,0,0,0,0,0,0,0,0
2005,10,22,21,0,,9.3,1.2,56,101270,0,0,284,0,0,0,0,0,0,0,290,0.6,0,0,0,0,0,0,0,0,0,0,0,0,0
2005,10,22,22,0,,8.5,1.3,61,101250,0,0,281,0,0,0,0,0,0,0,20,1.7,0,0,0,0,0,0,0,0,0,0,0,0,0
2005,10,22,23,0,,7.5,1.3,66,101220,0,0,277,0,0,0,0,0,0,0,50,2.8,0,0,0,0,0,0,0,0,0,0,0,0,0
2005,10,22,24,0,,6.8,1.4,67,101200,0,0,274,0,0,0,0,0,0,0,70,3,0,0,0,0,0,0,0,0,0,0,0,0,0
2005,10,23,1,0,,7,1.4,60,101200,0,0,275,0,0,0,0,0,0,0,20,0.9,0,0,0,0,0,0,0,0,0,0,0,0,0
2005,10,23,2,0,,6.6,1.5,60,101190,0,0,273,0,0,0,0,0,0,0,20,0.6,0,0,0,0,0,0,0,0,0,0,0,0,0
2005,10,23,3,0,,5.5,1.5,74,101190,0,0,269,0,0,0,0,0,0,0,270,1.3,0,0,0,0,0,0,0,0,0,0,0,0,0
2005,10,23,4,0,,4.5,1.5,82,101190,0,0,265,0,0,0,0,0,0,0,270,0.5,0,0,0,0,0,0,0,0,0,0,0,0,0
2005,10,23,5,0,,4.5,1.5,80,101200,0,0,265,0,0,0,0,0,0,0,250,0.8,0,0,0,0,0,0,0,0,0,0,0,0,0
2005,10,23,6,0,,4,1.5,82,101200,0,0,264,0,0,0,0,0,0,0,250,0.8,0,0,0,0,0,0,0,0,0,0,0,0,0
2005,10,23,7,0,,4,1.7,83,101230,0,0,273,0,0,0,0,0,0,0,270,0.6,2,0,0,0,0,0,0,0,0,0,0,0,0
2005,10,23,8,0,,5.3,1.8,78,101270,0,0,283,91,49,42,8240,4797,5859,0,270,0.9,4,0,0,0,0,0,0,0,0,0,0,0,0
2005,10,23,9,0,,6,2,74,101300,0,0,290,204,292,109,33072,29074,15372,0,200,0.7,6,0,0,0,0,0,0,0,0,0,0,0,0
2005,10,23,10,0,,8,2.7,69,101260,0,0,299,330,308,181,44197,30739,23544,0,230,1.1,6,0,0,0,0,0,0,0,0,0,0,0,0
2005,10,23,11,0,,10.6,3.5,60,101210,0,0,312,438,323,243,50905,32766,28583,0,230,0.9,6,0,0,0,0,0,0,0,0,0,0,0,0
2005,10,23,12,0,,13.3,4.2,53,101170,0,0,325,527,435,235,56344,42789,29117,0,200,1.2,6,0,0,0,0,0,0,0,0,0,0,0,0
2005,10,23,13,0,,16.3,4.2,46,101100,0,0,339,580,540,208,54196,52056,26081,0,250,2.5,6,0,0,0,0,0,0,0,0,0,0,0,0
2005,10,23,14,0,,15.8,4.3,47,101040,0,0,336,495,399,236,41637,36365,27121,0,340,1.3,6,0,0,0,0,0,0,0,0,0,0,0,0
2005,10,23,15,0,,16.3,4.3,44,100970,0,0,339,409,348,214,29245,25165,23630,0,320,2,6,0,0,0,0,0,0,0,0,0,0,0,0
2005,10,23,16,0,,16.3,4.2,45,100980,0,0,335,306,394,139,13426,0,13426,0,20,1.3,5,0,0,0,0,0,0,0,0,0,0,0,0
2005,10,23,17,0,,15.1,4,50,100990,0,0,326,192,508,65,0,0,0,0,340,1.7,3,0,0,0,0,0,0,0,0,0,0,0,0
2005,10,23,18,0,,13.3,3.9,52,101000,0,0,313,52,27,25,0,0,0,0,20,1.1,2,0,0,0,0,0,0,0,0,0,0,0,0
2005,10,23,19,0,,12.1,4.5,60,101020,0,0,313,0,0,0,0,0,0,0,20,0.5,3,0,0,0,0,0,0,0,0,0,0,0,0
2005,10,23,20,0,,12,5.1,62,101030,0,0,316,0,0,0,0,0,0,0,290,0.4,5,0,0,0,0,0,0,0,0,0,0,0,0
2005,10,23,21,0,,11.6,5.7,66,101050,0,0,319,0,0,0,0,0,0,0,20,0.5,6,0,0,0,0,0,0,0,0,0,0,0,0
2005,10,23,22,0,,11.1,5.9,67,101060,0,0,314,0,0,0,0,0,0,0,20,0.3,5,0,0,0,0,0,0,0,0,0,0,0,0
2005,10,23,23,0,,10.1,6.1,75,101060,0,0,307,0,0,0,0,0,0,0,180,0.6,4,0,0,0,0,0,0,0,0,0,0,0,0
2005,10,23,24,0,,9.3,6.3,80,101070,0,0,302,0,0,0,0,0,0,0,270,1,3,0,0,0,0,0,0,0,0,0,0,0,0
2005,10,24,1,0,,8.6,6.1,83,101080,0,0,296,0,0,0,0,0,0,0,270,0.9,2,0,0,0,0,0,0,0,0,0,0,0,0
2005,10,24,2,0,,8,5.9,85,101080,0,0,289,0,0,0,0,0,0,0,230,0.6,1,0,0,0,0,0,0,0,0,0,0,0,0
2005,10,24,3,0,,7.5,5.7,87,101090,0,0,282,0,0,0,0,0,0,0,270,0.6,0,0,0,0,0,0,0,0,0,0,0,0,0
2005,10,24,4,0,,7,5.7,89,101090,0,0,289,0,0,0,0,0,0,0,200,0.6,2,0,0,0,0,0,0,0,0,0,0,0,0
2005,10,24,5,0,,7,5.7,89,101100,0,0,294,0,0,0,0,0,0,0,0,0.1,4,0,0,0,0,0,0,0,0,0,0,0,0
2005,10,24,6,0,,7.5,5.7,87,101100,0,0,301,0,0,0,0,0,0,0,230,0.6,6,0,0,0,0,0,0,0,0,0,0,0,0
2005,10,24,7,0,,8.1,6,84,101150,0,0,306,0,0,0,0,0,0,0,290,0.6,7,0,0,0,0,0,0,0,0,0,0,0,0
2005,10,24,8,0,,8.5,6.4,85,101190,0,0,311,64,22,42,6035,1968,5065,0,270,0.5,7,0,0,0,0,0,0,0,0,0,0,0,0
2005,10,24,9,0,,9.3,6.7,82,101240,0,0,319,151,122,112,21805,12044,14523,0,250,0.3,8,0,0,0,0,0,0,0,0,0,0,0,0
2005,10,24,10,0,,11.5,7,72,101230,0,0,320,325,301,180,43571,29492,23884,0,230,0.8,6,0,0,0,0,0,0,0,0,0,0,0,0
2005,10,24,11,0,,14.1,7.4,64,101210,0,0,327,493,533,175,59437,52855,23664,0,250,0.9,4,0,0,0,0,0,0,0,0,0,0,0,0
2005,10,24,12,0,,16.2,7.7,56,101200,0,0,331,613,688,154,64358,68002,21393,0,200,0.8,2,0,0,0,0,0,0,0,0,0,0,0,0
2005,10,24,13,0,,17.7,7.1,53,101150,0,0,337,643,724,147,57994,70077,20459,0,250,1.9,2,0,0,0,0,0,0,0,0,0,0,0,0
2005,10,24,14,0,,19.3,6.5,38,101100,0,0,344,604,726,136,44632,65827,18644,0,360,1.5,2,0,0,0,0,0,0,0,0,0,0,0,0
2005,10,24,15,0,,19.6,5.9,40,101050,0,0,345,495,664,126,26100,47468,15709,0,290,1.7,2,0,0,0,0,0,0,0,0,0,0,0,0
2005,10,24,16,0,,18.2,7.4,52,101070,0,0,340,347,583,103,9713,2008,9673,0,290,2,2,0,0,0,0,0,0,0,0,0,0,0,0
2005,10,24,17,0,,17.3,8.9,60,101100,0,0,338,184,474,67,0,0,0,0,270,3.3,2,0,0,0,0,0,0,0,0,0,0,0,0
2005,10,24,18,0,,16.3,10.4,67,101120,0,0,335,46,20,27,0,0,0,0,270,1.1,2,0,0,0,0,0,0,0,0,0,0,0,0
2005,10,24,19,0,,16.1,10.5,70,101150,0,0,334,0,0,0,0,0,0,0,270,0.6,2,0,0,0,0,0,0,0,0,0,0,0,0
2005,10,24,20,0,,15.6,10.7,74,101190,0,0,332,0,0,0,0,0,0,0,250,1,2,0,0,0,0,0,0,0,0,0,0,0,0
2005,10,24,21,0,,14.1,10.8,79,101220,0,0,325,0,0,0,0,0,0,0,180,0.5,2,0,0,0,0,0,0,0,0,0,0,0,0
2005,10,24,22,0,,13.6,10.7,83,101250,0,0,323,0,0,0,0,0,0,0,230,0.5,2,0,0,0,0,0,0,0,0,0,0,0,0
2005,10,24,23,0,,13.1,10.7,85,101290,0,0,320,0,0,0,0,0,0,0,250,0.6,2,0,0,0,0,0,0,0,0,0,0,0,0
2005,10,24,24,0,,12.3,10.6,88,101320,0,0,317,0,0,0,0,0,0,0,270,0.9,2,0,0,0,0,0,0,0,0,0,0,0,0
2005,10,25,1,0,,11.6,10.3,91,101340,0,0,318,0,0,0,0,0,0,0,250,0.5,3,0,0,0,0,0,0,0,0,0,0,0,0
2005,10,25,2,0,,11.3,9.9,93,101350,0,0,319,0,0,0,0,0,0,0,0,0,5,0,0,0,0,0,0,0,0,0,0,0,0
2005,10,25,3,0,,10.8,9.6,91,101370,0,0,320,0,0,0,0,0,0,0,0,0,6,0,0,0,0,0,0,0,0,0,0,0,0
2005,10,25,4,0,,10.3,9.4,92,101390,0,0,318,0,0,0,0,0,0,0,0,0,6,0,0,0,0,0,0,0,0,0,0,0,0
2005,10,25,5,0,,9.5,9.2,93,101400,0,0,314,0,0,0,0,0,0,0,270,0.7,6,0,0,0,0,0,0,0,0,0,0,0,0
2005,10,25,6,0,,9.8,9,93,101420,0,0,315,0,0,0,0,0,0,0,0,0,6,0,0,0,0,0,0,0,0,0,0,0,0
2005,10,25,7,0,,9.1,9.2,95,101460,0,0,312,0,0,0,0,0,0,0,270,0.7,6,0,0,0,0,0,0,0,0,0,0,0,0
2005,10,25,8,0,,9.6,9.4,95,101510,0,0,315,64,23,41,6462,2151,5411,0,0,0,6,0,0,0,0,0,0,0,0,0,0,0,0
2005,10,25,9,0,,11.3,9.6,88,101550,0,0,322,182,218,113,28847,20941,16271,0,270,0.6,6,0,0,0,0,0,0,0,0,0,0,0,0
2005,10,25,10,0,,12.3,10.2,86,101530,0,0,327,306,256,184,39567,24782,23130,0,250,0.9,6,0,0,0,0,0,0,0,0,0,0,0,0
2005,10,25,11,0,,14.6,10.9,77,101520,0,0,339,410,276,246,47944,26632,30036,0,270,0.5,6,0,0,0,0,0,0,0,0,0,0,0,0
2005,10,25,12,0,,17,11.5,69,101500,0,0,351,487,307,283,52310,29190,33997,0,270,1.1,6,0,0,0,0,0,0,0,0,0,0,0,0
2005,10,25,13,0,,18.6,11.5,63,101460,0,0,361,464,240,301,46603,22208,34806,0,230,1.5,7,0,0,0,0,0,0,0,0,0,0,0,0
2005,10,25,14,0,,19.2,11.4,62,101430,0,0,368,437,249,277,40093,21473,31708,0,250,1.9,7,0,0,0,0,0,0,0,0,0,0,0,0
2005,10,25,15,0,,18.8,11.4,61,101390,0,0,370,288,127,218,26436,10454,24191,0,250,1.1,8,0,0,0,0,0,0,0,0,0,0,0,0
2005,10,25,16,0,,18.5,11.7,63,101410,0,0,363,229,173,157,16710,12143,16515,0,290,0.5,7,0,0,0,0,0,0,0,0,0,0,0,0
2005,10,25,17,0,,18.1,11.9,66,101420,0,0,357,143,265,79,0,0,0,0,270,1.5,6,0,0,0,0,0,0,0,0,0,0,0,0
2005,10,25,18,0,,17,12.2,72,101440,0,0,349,41,19,21,0,0,0,0,250,2,5,0,0,0,0,0,0,0,0,0,0,0,0
2005,10,25,19,0,,16.1,12,79,101470,0,0,347,0,0,0,0,0,0,0,160,0.3,6,0,0,0,0,0,0,0,0,0,0,0,0
2005,10,25,20,0,,15.1,11.8,81,101490,0,0,346,0,0,0,0,0,0,0,160,1.6,7,0,0,0,0,0,0,0,0,0,0,0,0
2005,10,25,21,0,,14.6,11.6,81,101520,0,0,349,0,0,0,0,0,0,0,90,0.9,8,0,0,0,0,0,0,0,0,0,0,0,0
2005,10,25,22,0,,14.8,11.5,79,101540,0,0,346,0,0,0,0,0,0,0,180,0.8,7,0,0,0,0,0,0,0,0,0,0,0,0
2005,10,25,23,0,,14.3,11.5,86,101550,0,0,341,0,0,0,0,0,0,0,50,0.5,7,0,0,0,0,0,0,0,0,0,0,0,0
2005,10,25,24,0,,13.3,11.4,87,101570,0,0,333,0,0,0,0,0,0,0,140,0.9,6,0,0,0,0,0,0,0,0,0,0,0,0
2005,10,26,1,0,,12.3,10.9,88,101560,0,0,328,0,0,0,0,0,0,0,180,0.4,6,0,0,0,0,0,0,0,0,0,0,0,0
2005,10,26,2,0,,11.8,10.5,93,101560,0,0,326,0,0,0,0,0,0,0,90,0.8,6,0,0,0,0,0,0,0,0,0,0,0,0
2005,10,26,3,0,,11.3,10,90,101550,0,0,323,0,0,0,0,0,0,0,70,0.6,6,0,0,0,0,0,0,0,0,0,0,0,0
2005,10,26,4,0,,10.6,9.5,88,101560,0,0,319,0,0,0,0,0,0,0,160,0.5,6,0,0,0,0,0,0,0,0,0,0,0,0
2005,10,26,5,0,,10.1,9.1,93,101580,0,0,316,0,0,0,0,0,0,0,250,0.5,6,0,0,0,0,0,0,0,0,0,0,0,0
2005,10,26,6,0,,9.3,8.6,94,101590,0,0,312,0,0,0,0,0,0,0,250,0.7,6,0,0,0,0,0,0,0,0,0,0,0,0
2005,10,26,7,0,,9.1,8.8,93,101620,0,0,311,0,0,0,0,0,0,0,270,0.5,6,0,0,0,0,0,0,0,0,0,0,0,0
2005,10,26,8,0,,9.5,9,91,101660,0,0,312,68,29,39,6465,2777,5119,0,250,0.6,5,0,0,0,0,0,0,0,0,0,0,0,0
2005,10,26,9,0,,12.1,9.2,81,101690,0,0,322,214,350,104,36456,34798,15702,0,290,0.3,5,0,0,0,0,0,0,0,0,0,0,0,0
2005,10,26,10,0,,14.1,9.3,73,101640,0,0,330,370,491,138,52021,48953,19764,0,250,0.7,4,0,0,0,0,0,0,0,0,0,0,0,0
2005,10,26,11,0,,18.2,9.3,56,101600,0,0,348,532,677,133,64376,67614,19212,0,360,0.3,4,0,0,0,0,0,0,0,0,0,0,0,0
2005,10,26,12,0,,20.2,9.4,49,101550,0,0,356,614,714,143,64257,70541,20317,0,320,1,3,0,0,0,0,0,0,0,0,0,0,0,0
2005,10,26,13,0,,20.6,8.1,45,101490,0,0,357,630,713,148,56767,68613,20622,0,320,1.3,3,0,0,0,0,0,0,0,0,0,0,0,0
2005,10,26,14,0,,21.6,6.8,40,101430,0,0,361,536,554,183,42014,49110,23048,0,200,1,4,0,0,0,0,0,0,0,0,0,0,0,0
2005,10,26,15,0,,22.3,5.5,33,101370,0,0,364,453,552,151,26139,38372,18055,0,290,0.8,4,0,0,0,0,0,0,0,0,0,0,0,0
2005,10,26,16,0,,22.3,6.4,22,101400,0,0,361,347,611,96,8804,0,8804,0,360,1,3,0,0,0,0,0,0,0,0,0,0,0,0
2005,10,26,17,0,,21.2,7.2,28,101420,0,0,351,192,571,56,0,0,0,0,320,0.7,1,0,0,0,0,0,0,0,0,0,0,0,0
2005,10,26,18,0,,18.5,8.1,50,101450,0,0,331,46,23,24,0,0,0,0,20,1.4,0,0,0,0,0,0,0,0,0,0,0,0,0
2005,10,26,19,0,,17.5,8.1,54,101500,0,0,327,0,0,0,0,0,0,0,70,1.1,0,0,0,0,0,0,0,0,0,0,0,0,0
2005,10,26,20,0,,16.1,8.1,58,101550,0,0,320,0,0,0,0,0,0,0,20,1.6,0,0,0,0,0,0,0,0,0,0,0,0,0
2005,10,26,21,0,,15.3,8.1,61,101600,0,0,317,0,0,0,0,0,0,0,110,0.7,0,0,0,0,0,0,0,0,0,0,0,0,0
2005,10,26,22,0,,14.3,8.1,67,101620,0,0,312,0,0,0,0,0,0,0,0,0,0,0,0,0,0,0,0,0,0,0,0,0,0
2005,10,26,23,0,,13.5,8.2,67,101630,0,0,309,0,0,0,0,0,0,0,110,0.9,0,0,0,0,0,0,0,0,0,0,0,0,0
2005,10,26,24,0,,13.1,8.2,71,101650,0,0,307,0,0,0,0,0,0,0,200,0.7,0,0,0,0,0,0,0,0,0,0,0,0,0
2005,10,27,1,0,,12.3,8.4,79,101630,0,0,304,0,0,0,0,0,0,0,270,0.7,0,0,0,0,0,0,0,0,0,0,0,0,0
2005,10,27,2,0,,11,8.6,83,101620,0,0,299,0,0,0,0,0,0,0,0,0.2,0,0,0,0,0,0,0,0,0,0,0,0,0
2005,10,27,3,0,,11.1,8.8,84,101600,0,0,300,0,0,0,0,0,0,0,270,0.9,0,0,0,0,0,0,0,0,0,0,0,0,0
2005,10,27,4,0,,10.6,8.5,85,101620,0,0,297,0,0,0,0,0,0,0,0,0.1,0,0,0,0,0,0,0,0,0,0,0,0,0
2005,10,27,5,0,,10.5,8.3,87,101630,0,0,297,0,0,0,0,0,0,0,50,0.8,0,0,0,0,0,0,0,0,0,0,0,0,0
2005,10,27,6,0,,9.8,8,87,101650,0,0,293,0,0,0,0,0,0,0,270,0.8,0,0,0,0,0,0,0,0,0,0,0,0,0
2005,10,27,7,0,,9.3,8.6,90,101680,0,0,292,0,0,0,0,0,0,0,0,0.2,0,0,0,0,0,0,0,0,0,0,0,0,0
2005,10,27,8,0,,10.8,9.1,84,101720,0,0,299,81,43,38,7043,4087,5078,0,0,0.2,0,0,0,0,0,0,0,0,0,0,0,0,0
2005,10,27,9,0,,13.6,9.7,76,101750,0,0,311,248,551,77,44563,56243,11251,0,270,0.5,0,0,0,0,0,0,0,0,0,0,0,0,0
2005,10,27,10,0,,15.3,9.3,72,101710,0,0,318,423,704,94,60423,72033,13267,0,250,1.1,0,0,0,0,0,0,0,0,0,0,0,0,0
2005,10,27,11,0,,19,9,60,101660,0,0,335,567,795,101,68109,81179,14239,0,20,0.8,0,0,0,0,0,0,0,0,0,0,0,0,0
2005,10,27,12,0,,20.7,8.6,45,101620,0,0,342,627,761,128,65267,75554,18536,0,340,0.6,0,0,0,0,0,0,0,0,0,0,0,0,0
2005,10,27,13,0,,22.2,7.5,35,101550,0,0,357,651,783,126,57720,75942,18044,0,20,1,1,0,0,0,0,0,0,0,0,0,0,0,0
2005,10,27,14,0,,22.7,6.3,34,101470,0,0,363,567,656,152,41992,58259,19739,0,230,0.8,3,0,0,0,0,0,0,0,0,0,0,0,0
2005,10,27,15,0,,23,5.2,31,101400,0,0,367,456,575,144,25494,39746,17280,0,250,2.1,4,0,0,0,0,0,0,0,0,0,0,0,0
2005,10,27,16,0,,22.3,5.5,33,101390,0,0,360,332,565,103,9044,0,9044,0,20,1.6,3,0,0,0,0,0,0,0,0,0,0,0,0
2005,10,27,17,0,,21.5,5.8,36,101380,0,0,351,189,573,54,0,0,0,0,290,0.6,1,0,0,0,0,0,0,0,0,0,0,0,0
2005,10,27,18,0,,19.8,6.1,40,101370,0,0,335,47,26,21,0,0,0,0,270,0.3,0,0,0,0,0,0,0,0,0,0,0,0,0
2005,10,27,19,0,,17.7,7.4,56,101400,0,0,327,0,0,0,0,0,0,0,180,1.7,0,0,0,0,0,0,0,0,0,0,0,0,0
2005,10,27,20,0,,17.2,8.7,59,101440,0,0,326,0,0,0,0,0,0,0,180,1.1,0,0,0,0,0,0,0,0,0,0,0,0,0
2005,10,27,21,0,,16.3,10,65,101470,0,0,323,0,0,0,0,0,0,0,230,1.1,0,0,0,0,0,0,0,0,0,0,0,0,0
2005,10,27,22,0,,15.6,10.3,72,101440,0,0,327,0,0,0,0,0,0,0,250,0.5,1,0,0,0,0,0,0,0,0,0,0,0,0
2005,10,27,23,0,,15.1,10.5,74,101400,0,0,329,0,0,0,0,0,0,0,340,0.6,2,0,0,0,0,0,0,0,0,0,0,0,0
2005,10,27,24,0,,14.3,10.8,78,101370,0,0,329,0,0,0,0,0,0,0,290,1,3,0,0,0,0,0,0,0,0,0,0,0,0
2005,10,28,1,0,,13.5,10.4,81,101340,0,0,328,0,0,0,0,0,0,0,20,0.8,4,0,0,0,0,0,0,0,0,0,0,0,0
2005,10,28,2,0,,13,9.9,80,101300,0,0,327,0,0,0,0,0,0,0,0,0.2,5,0,0,0,0,0,0,0,0,0,0,0,0
2005,10,28,3,0,,12.8,9.5,79,101270,0,0,329,0,0,0,0,0,0,0,0,0.2,6,0,0,0,0,0,0,0,0,0,0,0,0
2005,10,28,4,0,,13.5,10.4,78,101240,0,0,339,0,0,0,0,0,0,0,0,0.2,7,0,0,0,0,0,0,0,0,0,0,0,0
2005,10,28,5,0,,12.6,11.2,89,101200,0,0,344,0,0,0,0,0,0,0,20,0.4,9,0,0,0,0,0,0,0,0,0,0,0,0
2005,10,28,6,0,,12.6,12.1,95,101170,0,0,358,0,0,0,0,0,0,0,90,0.9,10,0,0,0,0,0,0,0,0,0,0,0,0
2005,10,28,7,0,,13.1,12.4,95,101190,0,0,360,0,0,0,0,0,0,0,0,0.1,10,0,0,0,0,0,0,0,0,0,0,0,0
2005,10,28,8,0,,13.1,12.6,94,101200,0,0,361,24,2,22,2949,62,2919,0,70,0.8,10,0,0,0,0,0,0,0,0,0,0,0,0
2005,10,28,9,0,,14.1,12.9,91,101220,0,0,366,76,20,70,9465,1837,8385,0,20,0.7,10,0,0,0,0,0,0,0,0,0,0,0,0
2005,10,28,10,0,,15.5,13,84,101200,0,0,373,142,31,128,16871,2838,15025,0,270,0.8,10,0,0,0,0,0,0,0,0,0,0,0,0
2005,10,28,11,0,,17.5,13.2,71,101170,0,0,384,214,46,187,24590,4283,21767,0,200,0.8,10,0,0,0,0,0,0,0,0,0,0,0,0
2005,10,28,12,0,,18.2,13.3,72,101150,0,0,388,250,49,219,28038,4559,25238,0,230,1.8,10,0,0,0,0,0,0,0,0,0,0,0,0
2005,10,28,13,0,,17.8,12.4,72,101090,0,0,384,232,37,208,25619,3398,23858,0,250,1.9,10,0,0,0,0,0,0,0,0,0,0,0,0
2005,10,28,14,0,,18.2,11.5,70,101030,0,0,385,205,32,185,21234,2300,20365,0,320,2.2,10,0,0,0,0,0,0,0,0,0,0,0,0
2005,10,28,15,0,,16.7,10.6,66,100970,0,0,376,148,21,136,14590,1165,14354,0,340,2,10,0,0,0,0,0,0,0,0,0,0,0,0
2005,10,28,16,0,,16.6,9.6,54,101000,0,0,354,190,112,145,15157,8154,15118,0,20,2.2,8,0,0,0,0,0,0,0,0,0,0,0,0
2005,10,28,17,0,,15.3,8.6,57,101040,0,0,337,142,310,71,0,0,0,0,340,1.3,5,0,0,0,0,0,0,0,0,0,0,0,0
2005,10,28,18,0,,14,7.6,64,101070,0,0,324,40,23,18,0,0,0,0,340,1.1,3,0,0,0,0,0,0,0,0,0,0,0,0
2005,10,28,19,0,,13.3,7.2,63,101100,0,0,322,0,0,0,0,0,0,0,320,1.7,4,0,0,0,0,0,0,0,0,0,0,0,0
2005,10,28,20,0,,12.6,6.8,67,101140,0,0,320,0,0,0,0,0,0,0,340,1.3,4,0,0,0,0,0,0,0,0,0,0,0,0
2005,10,28,21,0,,12.3,6.4,66,101170,0,0,320,0,0,0,0,0,0,0,320,1.4,5,0,0,0,0,0,0,0,0,0,0,0,0
2005,10,28,22,0,,12.1,5.8,63,101160,0,0,319,0,0,0,0,0,0,0,20,1.8,5,0,0,0,0,0,0,0,0,0,0,0,0
2005,10,28,23,0,,11.8,5.3,61,101160,0,0,318,0,0,0,0,0,0,0,20,1.2,6,0,0,0,0,0,0,0,0,0,0,0,0
2005,10,28,24,0,,12,4.7,60,101150,0,0,319,0,0,0,0,0,0,0,20,2.1,6,0,0,0,0,0,0,0,0,0,0,0,0
2005,10,29,1,0,,11.8,4.8,62,101120,0,0,318,0,0,0,0,0,0,0,360,0.9,6,0,0,0,0,0,0,0,0,0,0,0,0
2005,10,29,2,0,,11.5,4.9,65,101080,0,0,317,0,0,0,0,0,0,0,20,1.2,6,0,0,0,0,0,0,0,0,0,0,0,0
2005,10,29,3,0,,11.5,5,63,101050,0,0,317,0,0,0,0,0,0,0,20,2,6,0,0,0,0,0,0,0,0,0,0,0,0
2005,10,29,4,0,,11.3,4.5,60,101050,0,0,315,0,0,0,0,0,0,0,50,2.9,6,0,0,0,0,0,0,0,0,0,0,0,0
2005,10,29,5,0,,11,3.9,59,101050,0,0,312,0,0,0,0,0,0,0,20,2,5,0,0,0,0,0,0,0,0,0,0,0,0
2005,10,29,6,0,,10.6,3.4,60,101050,0,0,309,0,0,0,0,0,0,0,50,3,5,0,0,0,0,0,0,0,0,0,0,0,0
2005,10,29,7,0,,9.1,3.4,67,101060,0,0,299,0,0,0,0,0,0,0,50,2.6,4,0,0,0,0,0,0,0,0,0,0,0,0
2005,10,29,8,0,,10.1,3.5,61,101080,0,0,300,82,50,32,6940,4878,4634,0,50,1.9,2,0,0,0,0,0,0,0,0,0,0,0,0
2005,10,29,9,0,,12.8,3.5,52,101090,0,0,307,254,620,66,46618,63073,9782,0,70,1,1,0,0,0,0,0,0,0,0,0,0,0,0
2005,10,29,10,0,,13.8,3.8,49,101030,0,0,316,413,693,94,58772,70489,13229,0,290,1.1,2,0,0,0,0,0,0,0,0,0,0,0,0
2005,10,29,11,0,,15.1,4.1,43,100980,0,0,325,517,665,133,62587,66787,18850,0,360,2.3,3,0,0,0,0,0,0,0,0,0,0,0,0
2005,10,29,12,0,,15.1,4.4,48,100920,0,0,328,540,537,192,56844,52659,24732,0,20,3.9,4,0,0,0,0,0,0,0,0,0,0,0,0
2005,10,29,13,0,,15.3,4.5,49,100890,0,0,331,512,417,236,48393,40435,27613,0,20,3.8,5,0,0,0,0,0,0,0,0,0,0,0,0
2005,10,29,14,0,,14.8,4.5,49,100850,0,0,330,451,307,259,39357,27357,29133,0,290,1.5,5,0,0,0,0,0,0,0,0,0,0,0,0
2005,10,29,15,0,,15,4.6,49,100820,0,0,333,367,293,210,27033,19839,23088,0,20,3.7,6,0,0,0,0,0,0,0,0,0,0,0,0
2005,10,29,16,0,,14.3,4.7,53,100850,0,0,330,254,275,144,13964,0,13964,0,340,1.9,6,0,0,0,0,0,0,0,0,0,0,0,0
2005,10,29,17,0,,13.6,4.9,57,100870,0,0,327,135,280,72,0,0,0,0,360,1.5,6,0,0,0,0,0,0,0,0,0,0,0,0
2005,10,29,18,0,,13.1,5,57,100900,0,0,325,33,13,20,0,0,0,0,320,1.5,6,0,0,0,0,0,0,0,0,0,0,0,0
2005,10,29,19,0,,12.1,5,59,100930,0,0,318,0,0,0,0,0,0,0,340,1.4,5,0,0,0,0,0,0,0,0,0,0,0,0
2005,10,29,20,0,,11.3,5,63,100970,0,0,313,0,0,0,0,0,0,0,20,0.6,5,0,0,0,0,0,0,0,0,0,0,0,0
2005,10,29,21,0,,11.3,5,64,101000,0,0,311,0,0,0,0,0,0,0,360,0.7,4,0,0,0,0,0,0,0,0,0,0,0,0
2005,10,29,22,0,,10.3,5,69,101020,0,0,310,0,0,0,0,0,0,0,290,0.4,5,0,0,0,0,0,0,0,0,0,0,0,0
2005,10,29,23,0,,9.8,4.9,71,101050,0,0,312,0,0,0,0,0,0,0,180,0.4,7,0,0,0,0,0,0,0,0,0,0,0,0
2005,10,29,24,0,,10.3,4.9,68,101070,0,0,321,0,0,0,0,0,0,0,270,0.5,8,0,0,0,0,0,0,0,0,0,0,0,0
2005,10,30,1,0,,9.8,5.1,71,101050,0,0,308,0,0,0,0,0,0,0,200,1.1,5,0,0,0,0,0,0,0,0,0,0,0,0
2005,10,30,2,0,,9.5,5.4,72,101040,0,0,301,0,0,0,0,0,0,0,160,1,3,0,0,0,0,0,0,0,0,0,0,0,0
2005,10,30,3,0,,8.8,5.6,79,101020,0,0,287,0,0,0,0,0,0,0,110,0.6,0,0,0,0,0,0,0,0,0,0,0,0,0
2005,10,30,4,0,,8.5,5.6,81,101030,0,0,289,0,0,0,0,0,0,0,270,1.2,1,0,0,0,0,0,0,0,0,0,0,0,0
2005,10,30,5,0,,7,5.5,88,101040,0,0,286,0,0,0,0,0,0,0,250,0.7,1,0,0,0,0,0,0,0,0,0,0,0,0
2005,10,30,6,0,,7.4,5.5,86,101050,0,0,290,0,0,0,0,0,0,0,250,0.6,2,0,0,0,0,0,0,0,0,0,0,0,0
2005,10,30,7,0,,7.4,5.7,86,101120,0,0,297,0,0,0,0,0,0,0,290,0.6,5,0,0,0,0,0,0,0,0,0,0,0,0
2005,10,30,8,0,,8.3,5.8,85,101180,0,0,310,53,18,36,5040,1630,4276,0,180,0.8,7,0,0,0,0,0,0,0,0,0,0,0,0
2005,10,30,9,0,,8.6,6,82,101250,0,0,330,82,27,74,10192,2500,8743,0,270,1.5,10,0,0,0,0,0,0,0,0,0,0,0,0
2005,10,30,10,0,,10,6.9,76,101240,0,0,326,194,79,158,24121,7817,19103,0,200,1.4,9,0,0,0,0,0,0,0,0,0,0,0,0
2005,10,30,11,0,,9.5,7.7,90,101230,0,0,317,309,135,232,35915,13275,27278,0,160,1.2,7,0,0,0,0,0,0,0,0,0,0,0,0
2005,10,30,12,0,,11.5,8.6,81,101220,0,0,322,426,229,279,45750,22143,32342,0,230,1.6,6,0,0,0,0,0,0,0,0,0,0,0,0
2005,10,30,13,0,,12.3,8.1,70,101180,0,0,324,427,211,288,43133,19874,33003,0,270,1.2,6,0,0,0,0,0,0,0,0,0,0,0,0
2005,10,30,14,0,,12.6,7.5,72,101130,0,0,323,457,330,252,39281,28856,28613,0,270,1.8,5,0,0,0,0,0,0,0,0,0,0,0,0
2005,10,30,15,0,,14.1,7,61,101090,0,0,329,385,373,188,25792,23720,21166,0,270,2.3,5,0,0,0,0,0,0,0,0,0,0,0,0
2005,10,30,16,0,,12.6,5.4,51,101120,0,0,325,231,212,147,0,0,0,0,340,2.2,7,0,0,0,0,0,0,0,0,0,0,0,0
2005,10,30,17,0,,12.1,3.7,50,101160,0,0,330,107,142,75,0,0,0,0,290,1.2,8,0,0,0,0,0,0,0,0,0,0,0,0
2005,10,30,18,0,,11.6,2.1,51,101190,0,0,339,11,1,10,0,0,0,0,290,1.2,10,0,0,0,0,0,0,0,0,0,0,0,0
2005,10,30,19,0,,10.8,2.7,57,101230,0,0,322,0,0,0,0,0,0,0,290,0.8,8,0,0,0,0,0,0,0,0,0,0,0,0
2005,10,30,20,0,,10.5,3.2,61,101280,0,0,313,0,0,0,0,0,0,0,270,0.7,7,0,0,0,0,0,0,0,0,0,0,0,0
2005,10,30,21,0,,10,3.8,64,101320,0,0,307,0,0,0,0,0,0,0,250,1,5,0,0,0,0,0,0,0,0,0,0,0,0
2005,10,30,22,0,,9.5,4.1,65,101320,0,0,305,0,0,0,0,0,0,0,250,1.1,5,0,0,0,0,0,0,0,0,0,0,0,0
2005,10,30,23,0,,9.1,4.4,64,101320,0,0,303,0,0,0,0,0,0,0,250,1.5,5,0,0,0,0,0,0,0,0,0,0,0,0
2005,10,30,24,0,,9,4.7,73,101320,0,0,303,0,0,0,0,0,0,0,140,0.8,5,0,0,0,0,0,0,0,0,0,0,0,0
2005,10,31,1,0,,8.6,5,73,101330,0,0,305,0,0,0,0,0,0,0,70,0.7,6,0,0,0,0,0,0,0,0,0,0,0,0
2005,10,31,2,0,,8.1,5.3,78,101340,0,0,307,0,0,0,0,0,0,0,0,0.1,7,0,0,0,0,0,0,0,0,0,0,0,0
2005,10,31,3,0,,8.6,5.6,80,101350,0,0,314,0,0,0,0,0,0,0,50,1.2,8,0,0,0,0,0,0,0,0,0,0,0,0
2005,10,31,4,0,,7.6,4.7,83,101380,0,0,298,0,0,0,0,0,0,0,360,0.4,5,0,0,0,0,0,0,0,0,0,0,0,0
2005,10,31,5,0,,7,3.9,83,101420,0,0,289,0,0,0,0,0,0,0,0,0.1,3,0,0,0,0,0,0,0,0,0,0,0,0
2005,10,31,6,0,,7.4,3,72,101450,0,0,278,0,0,0,0,0,0,0,50,2.6,0,0,0,0,0,0,0,0,0,0,0,0,0
2005,10,31,7,0,,7.8,2.9,66,101530,0,0,279,0,0,0,0,0,0,0,50,3,0,0,0,0,0,0,0,0,0,0,0,0,0
2005,10,31,8,0,,8,2.7,69,101610,0,0,280,79,49,30,6506,4782,4282,0,70,1.3,0,0,0,0,0,0,0,0,0,0,0,0,0
2005,10,31,9,0,,11,2.6,55,101690,0,0,292,261,697,55,48448,69979,8153,0,70,3,0,0,0,0,0,0,0,0,0,0,0,0,0
2005,10,31,10,0,,12.6,1.3,48,101680,0,0,297,424,763,79,60245,76851,11243,0,70,2.8,0,0,0,0,0,0,0,0,0,0,0,0,0
2005,10,31,11,0,,14.1,0.1,41,101680,0,0,303,553,803,96,66089,81468,13435,0,50,2.6,0,0,0,0,0,0,0,0,0,0,0,0,0
2005,10,31,12,0,,15.6,-1.2,31,101670,0,0,308,618,785,117,63286,78283,16216,0,50,3.8,0,0,0,0,0,0,0,0,0,0,0,0,0
2005,10,31,13,0,,15.8,-0.9,31,101630,0,0,309,614,728,138,54624,70566,18947,0,20,3.6,0,0,0,0,0,0,0,0,0,0,0,0,0
2005,10,31,14,0,,15.8,-0.6,33,101590,0,0,309,556,671,143,40246,60480,18125,0,320,2.5,0,0,0,0,0,0,0,0,0,0,0,0,0
2005,10,31,15,0,,16.1,-0.3,32,101550,0,0,311,470,674,115,22830,46238,13984,0,20,3.7,0,0,0,0,0,0,0,0,0,0,0,0,0
2005,10,31,16,0,,15.8,0.8,36,101540,0,0,311,334,633,87,0,0,0,0,20,3.2,0,0,0,0,0,0,0,0,0,0,0,0,0
2005,10,31,17,0,,14.8,1.9,40,101530,0,0,308,183,629,46,0,0,0,0,20,3.8,0,0,0,0,0,0,0,0,0,0,0,0,0
2005,10,31,18,0,,12.6,3,51,101520,0,0,299,40,20,20,0,0,0,0,20,2.2,0,0,0,0,0,0,0,0,0,0,0,0,0
2005,10,31,19,0,,12.3,3.4,54,101550,0,0,299,0,0,0,0,0,0,0,20,1.7,0,0,0,0,0,0,0,0,0,0,0,0,0
2005,10,31,20,0,,10.8,3.9,62,101590,0,0,293,0,0,0,0,0,0,0,320,0.5,0,0,0,0,0,0,0,0,0,0,0,0,0
2005,10,31,21,0,,10.1,4.3,66,101620,0,0,290,0,0,0,0,0,0,0,180,0.7,0,0,0,0,0,0,0,0,0,0,0,0,0
2005,10,31,22,0,,9.1,4.5,71,101630,0,0,287,0,0,0,0,0,0,0,180,0.6,0,0,0,0,0,0,0,0,0,0,0,0,0
2005,10,31,23,0,,8.8,4.7,76,101640,0,0,286,0,0,0,0,0,0,0,200,0.8,0,0,0,0,0,0,0,0,0,0,0,0,0
2005,10,31,24,0,,7.9,4.9,80,101650,0,0,282,0,0,0,0,0,0,0,200,0.6,0,0,0,0,0,0,0,0,0,0,0,0,0
1999,11,1,1,0,,12.2,10.5,95,99910,0,0,353,0,0,0,0,0,0,0,20,6.3,10,0,0,0,0,0,0,0,0,0,0,0,0
1999,11,1,2,0,,10.8,9.4,93,99950,0,0,345,0,0,0,0,0,0,0,320,2.2,10,0,0,0,0,0,0,0,0,0,0,0,0
1999,11,1,3,0,,9.7,8.4,91,99990,0,0,339,0,0,0,0,0,0,0,360,2.3,10,0,0,0,0,0,0,0,0,0,0,0,0
1999,11,1,4,0,,10,8.4,91,100080,0,0,340,0,0,0,0,0,0,0,20,1.7,10,0,0,0,0,0,0,0,0,0,0,0,0
1999,11,1,5,0,,10,8.5,91,100170,0,0,340,0,0,0,0,0,0,0,360,2.2,10,0,0,0,0,0,0,0,0,0,0,0,0
1999,11,1,6,0,,9.9,8.5,91,100260,0,0,340,0,0,0,0,0,0,0,360,2,10,0,0,0,0,0,0,0,0,0,0,0,0
1999,11,1,7,0,,10.2,8.3,90,100390,0,0,341,0,0,0,0,0,0,0,320,1.8,10,0,0,0,0,0,0,0,0,0,0,0,0
1999,11,1,8,0,,9.9,8.2,89,100510,0,0,339,21,1,20,2626,61,2598,0,360,1.5,10,0,0,0,0,0,0,0,0,0,0,0,0
1999,11,1,9,0,,9.9,8,88,100640,0,0,339,74,21,67,9132,1964,8005,0,270,1.5,10,0,0,0,0,0,0,0,0,0,0,0,0
1999,11,1,10,0,,10.4,6.6,78,100680,0,0,330,175,62,147,21727,6136,17826,0,270,1,9,0,0,0,0,0,0,0,0,0,0,0,0
1999,11,1,11,0,,10.8,5.3,69,100710,0,0,323,284,111,221,33057,11078,25919,0,360,2.3,8,0,0,0,0,0,0,0,0,0,0,0,0
1999,11,1,12,0,,11.7,3.9,59,100750,0,0,321,392,187,273,42423,18504,31332,0,360,2,7,0,0,0,0,0,0,0,0,0,0,0,0
1999,11,1,13,0,,12.2,3.3,57,100760,0,0,324,413,200,283,41807,19326,32072,0,290,2.7,7,0,0,0,0,0,0,0,0,0,0,0,0
1999,11,1,14,0,,11.8,2.7,56,100780,0,0,323,336,137,252,32747,12830,28077,0,290,2.5,8,0,0,0,0,0,0,0,0,0,0,0,0
1999,11,1,15,0,,11,2.1,54,100790,0,0,320,270,128,204,24323,10577,22317,0,320,2.5,8,0,0,0,0,0,0,0,0,0,0,0,0
1999,11,1,16,0,,10.7,1.9,54,100880,0,0,317,184,116,139,0,0,0,0,320,2,8,0,0,0,0,0,0,0,0,0,0,0,0
1999,11,1,17,0,,10.4,1.7,55,100960,0,0,314,119,220,71,0,0,0,0,320,1.8,7,0,0,0,0,0,0,0,0,0,0,0,0
1999,11,1,18,0,,10,1.5,55,101050,0,0,310,27,8,19,0,0,0,0,290,1.8,7,0,0,0,0,0,0,0,0,0,0,0,0
1999,11,1,19,0,,9.8,1.3,56,101110,0,0,309,0,0,0,0,0,0,0,290,1.5,7,0,0,0,0,0,0,0,0,0,0,0,0
1999,11,1,20,0,,9.5,1.1,56,101170,0,0,308,0,0,0,0,0,0,0,340,1.3,7,0,0,0,0,0,0,0,0,0,0,0,0
1999,11,1,21,0,,9.2,0.9,57,101230,0,0,306,0,0,0,0,0,0,0,20,0.8,7,0,0,0,0,0,0,0,0,0,0,0,0
1999,11,1,22,0,,9,1.2,58,101240,0,0,307,0,0,0,0,0,0,0,0,0,7,0,0,0,0,0,0,0,0,0,0,0,0
1999,11,1,23,0,,9,1.6,60,101260,0,0,309,0,0,0,0,0,0,0,0,0,8,0,0,0,0,0,0,0,0,0,0,0,0
1999,11,1,24,0,,9.1,1.9,61,101270,0,0,312,0,0,0,0,0,0,0,0,0.2,8,0,0,0,0,0,0,0,0,0,0,0,0
1999,11,2,1,0,,8.8,1.8,61,101250,0,0,308,0,0,0,0,0,0,0,0,0.2,8,0,0,0,0,0,0,0,0,0,0,0,0
1999,11,2,2,0,,8.5,1.8,62,101240,0,0,305,0,0,0,0,0,0,0,90,1.3,7,0,0,0,0,0,0,0,0,0,0,0,0
1999,11,2,3,0,,8.6,1.7,62,101220,0,0,304,0,0,0,0,0,0,0,0,0,7,0,0,0,0,0,0,0,0,0,0,0,0
1999,11,2,4,0,,7.6,2.3,67,101220,0,0,301,0,0,0,0,0,0,0,70,0.3,7,0,0,0,0,0,0,0,0,0,0,0,0
1999,11,2,5,0,,7.3,2.8,72,101230,0,0,300,0,0,0,0,0,0,0,0,0,7,0,0,0,0,0,0,0,0,0,0,0,0
1999,11,2,6,0,,7.3,3.4,77,101230,0,0,301,0,0,0,0,0,0,0,20,0.5,7,0,0,0,0,0,0,0,0,0,0,0,0
1999,11,2,7,0,,7.4,3.5,74,101290,0,0,301,0,0,0,0,0,0,0,180,0.8,7,0,0,0,0,0,0,0,0,0,0,0,0
1999,11,2,8,0,,7.8,3.5,72,101360,0,0,303,50,18,32,5052,1784,4233,0,250,1.3,7,0,0,0,0,0,0,0,0,0,0,0,0
1999,11,2,9,0,,8.9,3.6,69,101420,0,0,308,163,216,101,26484,21203,14402,0,0,0,7,0,0,0,0,0,0,0,0,0,0,0,0
1999,11,2,10,0,,10.3,3.3,65,101460,0,0,308,357,531,121,51210,53361,17512,0,20,5.7,5,0,0,0,0,0,0,0,0,0,0,0,0
1999,11,2,11,0,,8.6,3,60,101490,0,0,297,431,435,186,51722,43179,24081,0,20,5.7,4,0,0,0,0,0,0,0,0,0,0,0,0
1999,11,2,12,0,,11.1,2.7,56,101530,0,0,302,538,576,175,56507,56796,22703,0,360,2.7,2,0,0,0,0,0,0,0,0,0,0,0,0
1999,11,2,13,0,,11.2,1.7,51,101490,0,0,300,549,567,183,50420,54517,23179,0,360,4,2,0,0,0,0,0,0,0,0,0,0,0,0
1999,11,2,14,0,,11.9,0.8,46,101440,0,0,301,555,693,134,40277,61675,18066,0,320,3.5,1,0,0,0,0,0,0,0,0,0,0,0,0
1999,11,2,15,0,,12.4,-0.2,41,101400,0,0,301,452,640,121,22541,43179,14507,0,320,3.3,1,0,0,0,0,0,0,0,0,0,0,0,0
1999,11,2,16,0,,11.3,0.2,45,101420,0,0,299,314,573,94,0,0,0,0,360,2.2,2,0,0,0,0,0,0,0,0,0,0,0,0
1999,11,2,17,0,,11.2,0.5,48,101450,0,0,302,171,580,48,0,0,0,0,20,3.8,2,0,0,0,0,0,0,0,0,0,0,0,0
1999,11,2,18,0,,10.1,0.9,52,101470,0,0,299,35,21,14,0,0,0,0,50,0.3,3,0,0,0,0,0,0,0,0,0,0,0,0
1999,11,2,19,0,,9.3,1.2,54,101500,0,0,300,0,0,0,0,0,0,0,0,0,5,0,0,0,0,0,0,0,0,0,0,0,0
1999,11,2,20,0,,9.5,1.4,56,101520,0,0,305,0,0,0,0,0,0,0,20,1.2,6,0,0,0,0,0,0,0,0,0,0,0,0
1999,11,2,21,0,,9.2,1.7,58,101550,0,0,312,0,0,0,0,0,0,0,20,1,8,0,0,0,0,0,0,0,0,0,0,0,0
1999,11,2,22,0,,8,2.5,65,101550,0,0,307,0,0,0,0,0,0,0,70,1.5,8,0,0,0,0,0,0,0,0,0,0,0,0
1999,11,2,23,0,,8.2,3.3,72,101540,0,0,309,0,0,0,0,0,0,0,50,1.3,8,0,0,0,0,0,0,0,0,0,0,0,0
1999,11,2,24,0,,7.6,4.1,79,101540,0,0,308,0,0,0,0,0,0,0,230,1,8,0,0,0,0,0,0,0,0,0,0,0,0
1999,11,3,1,0,,7.3,4,79,101540,0,0,305,0,0,0,0,0,0,0,230,1.3,8,0,0,0,0,0,0,0,0,0,0,0,0
1999,11,3,2,0,,7.3,3.9,78,101540,0,0,303,0,0,0,0,0,0,0,20,2,7,0,0,0,0,0,0,0,0,0,0,0,0
1999,11,3,3,0,,7.3,3.8,78,101540,0,0,301,0,0,0,0,0,0,0,230,1,7,0,0,0,0,0,0,0,0,0,0,0,0
1999,11,3,4,0,,7,3.8,82,101530,0,0,293,0,0,0,0,0,0,0,270,0.3,5,0,0,0,0,0,0,0,0,0,0,0,0
1999,11,3,5,0,,6.4,3.9,85,101520,0,0,285,0,0,0,0,0,0,0,0,0,2,0,0,0,0,0,0,0,0,0,0,0,0
1999,11,3,6,0,,5.6,3.9,89,101510,0,0,272,0,0,0,0,0,0,0,230,1.5,0,0,0,0,0,0,0,0,0,0,0,0,0
1999,11,3,7,0,,5.6,4.1,87,101580,0,0,276,0,0,0,0,0,0,0,250,1.5,1,0,0,0,0,0,0,0,0,0,0,0,0
1999,11,3,8,0,,6,4.3,84,101640,0,0,281,66,34,32,5675,3310,4167,0,0,0,1,0,0,0,0,0,0,0,0,0,0,0,0
1999,11,3,9,0,,7.4,4.5,82,101710,0,0,289,213,468,80,39051,46981,12470,0,50,0.7,2,0,0,0,0,0,0,0,0,0,0,0,0
1999,11,3,10,0,,9.7,4,71,101680,0,0,303,348,506,125,49788,50770,17938,0,180,0.8,4,0,0,0,0,0,0,0,0,0,0,0,0
1999,11,3,11,0,,12.5,3.4,60,101650,0,0,320,436,464,177,52364,45906,23170,0,180,1,6,0,0,0,0,0,0,0,0,0,0,0,0
1999,11,3,12,0,,13.4,2.9,49,101620,0,0,332,403,214,270,43406,21208,30870,0,270,2.2,8,0,0,0,0,0,0,0,0,0,0,0,0
1999,11,3,13,0,,12.8,3.1,50,101580,0,0,328,371,154,273,38284,14823,30936,0,230,1.5,8,0,0,0,0,0,0,0,0,0,0,0,0
1999,11,3,14,0,,13.3,3.4,51,101530,0,0,329,369,188,256,34541,16608,28623,0,360,1.7,7,0,0,0,0,0,0,0,0,0,0,0,0
1999,11,3,15,0,,13.1,3.6,52,101490,0,0,327,312,205,207,25027,13267,22605,0,20,2.7,7,0,0,0,0,0,0,0,0,0,0,0,0
1999,11,3,16,0,,13.2,3,52,101510,0,0,320,279,428,117,0,0,0,0,320,3,5,0,0,0,0,0,0,0,0,0,0,0,0
1999,11,3,17,0,,12.4,2.5,53,101520,0,0,311,154,464,57,0,0,0,0,320,1.7,3,0,0,0,0,0,0,0,0,0,0,0,0
1999,11,3,18,0,,11.1,1.9,53,101540,0,0,297,37,18,19,0,0,0,0,270,1.7,1,0,0,0,0,0,0,0,0,0,0,0,0
1999,11,3,19,0,,10.6,2.4,57,101590,0,0,294,0,0,0,0,0,0,0,270,1,1,0,0,0,0,0,0,0,0,0,0,0,0
1999,11,3,20,0,,10,2.9,61,101650,0,0,290,0,0,0,0,0,0,0,360,1,0,0,0,0,0,0,0,0,0,0,0,0,0
1999,11,3,21,0,,9.7,3.4,65,101700,0,0,288,0,0,0,0,0,0,0,360,0.7,0,0,0,0,0,0,0,0,0,0,0,0,0
1999,11,3,22,0,,9.2,3.3,67,101710,0,0,286,0,0,0,0,0,0,0,360,0.7,0,0,0,0,0,0,0,0,0,0,0,0,0
1999,11,3,23,0,,8.7,3.3,69,101710,0,0,283,0,0,0,0,0,0,0,20,1.2,0,0,0,0,0,0,0,0,0,0,0,0,0
1999,11,3,24,0,,8,3.2,71,101720,0,0,281,0,0,0,0,0,0,0,360,1.8,0,0,0,0,0,0,0,0,0,0,0,0,0
1999,11,4,1,0,,7.3,3.3,76,101740,0,0,278,0,0,0,0,0,0,0,320,0.8,0,0,0,0,0,0,0,0,0,0,0,0,0
1999,11,4,2,0,,6.3,3.3,80,101770,0,0,274,0,0,0,0,0,0,0,320,0.5,0,0,0,0,0,0,0,0,0,0,0,0,0
1999,11,4,3,0,,5.8,3.4,85,101790,0,0,272,0,0,0,0,0,0,0,290,0.3,0,0,0,0,0,0,0,0,0,0,0,0,0
1999,11,4,4,0,,5.1,3,86,101790,0,0,269,0,0,0,0,0,0,0,0,0.2,0,0,0,0,0,0,0,0,0,0,0,0,0
1999,11,4,5,0,,4.5,2.5,88,101790,0,0,267,0,0,0,0,0,0,0,270,1.2,0,0,0,0,0,0,0,0,0,0,0,0,0
1999,11,4,6,0,,3.7,2.1,89,101790,0,0,263,0,0,0,0,0,0,0,230,1,0,0,0,0,0,0,0,0,0,0,0,0,0
1999,11,4,7,0,,4,2.5,85,101830,0,0,267,0,0,0,0,0,0,0,250,0.8,0,0,0,0,0,0,0,0,0,0,0,0,0
1999,11,4,8,0,,4,2.8,81,101870,0,0,269,63,31,32,5578,3069,4192,0,50,0.7,1,0,0,0,0,0,0,0,0,0,0,0,0
1999,11,4,9,0,,6.8,3.2,77,101910,0,0,281,223,548,69,41431,55528,10240,0,360,0.5,1,0,0,0,0,0,0,0,0,0,0,0,0
1999,11,4,10,0,,10.1,3.1,67,101860,0,0,297,396,712,85,57258,72405,12135,0,50,2.2,2,0,0,0,0,0,0,0,0,0,0,0,0
1999,11,4,11,0,,12.4,3,56,101820,0,0,309,541,817,89,64670,82296,12673,0,50,3.3,2,0,0,0,0,0,0,0,0,0,0,0,0
1999,11,4,12,0,,14.2,2.9,46,101770,0,0,319,589,749,123,61426,74570,17654,0,20,1.8,3,0,0,0,0,0,0,0,0,0,0,0,0
1999,11,4,13,0,,15,2.2,43,101730,0,0,321,575,665,151,51837,63603,20558,0,290,1.7,3,0,0,0,0,0,0,0,0,0,0,0,0
1999,11,4,14,0,,15.2,1.6,40,101700,0,0,320,532,646,144,38591,57267,18395,0,270,2.3,2,0,0,0,0,0,0,0,0,0,0,0,0
1999,11,4,15,0,,15.6,0.9,37,101660,0,0,320,448,651,116,21690,42863,14014,0,360,3,2,0,0,0,0,0,0,0,0,0,0,0,0
1999,11,4,16,0,,15.1,0.1,37,101660,0,0,315,325,656,79,0,0,0,0,20,3.8,1,0,0,0,0,0,0,0,0,0,0,0,0
1999,11,4,17,0,,14.5,-0.6,36,101660,0,0,308,174,647,41,0,0,0,0,360,4.5,1,0,0,0,0,0,0,0,0,0,0,0,0
1999,11,4,18,0,,13.2,-1.4,36,101660,0,0,297,39,23,16,0,0,0,0,20,4.5,0,0,0,0,0,0,0,0,0,0,0,0,0
1999,11,4,19,0,,11.8,-0.3,42,101680,0,0,293,0,0,0,0,0,0,0,20,1.8,0,0,0,0,0,0,0,0,0,0,0,0,0
1999,11,4,20,0,,11.2,0.8,48,101690,0,0,291,0,0,0,0,0,0,0,20,1.3,0,0,0,0,0,0,0,0,0,0,0,0,0
1999,11,4,21,0,,10.9,1.9,54,101710,0,0,291,0,0,0,0,0,0,0,0,0.2,0,0,0,0,0,0,0,0,0,0,0,0,0
1999,11,4,22,0,,9.9,2.5,63,101710,0,0,287,0,0,0,0,0,0,0,0,0,0,0,0,0,0,0,0,0,0,0,0,0,0
1999,11,4,23,0,,8.8,3.2,71,101720,0,0,284,0,0,0,0,0,0,0,250,1,0,0,0,0,0,0,0,0,0,0,0,0,0
1999,11,4,24,0,,6.9,3.8,80,101720,0,0,277,0,0,0,0,0,0,0,230,1.7,0,0,0,0,0,0,0,0,0,0,0,0,0
1999,11,5,1,0,,6.9,3.7,81,101730,0,0,277,0,0,0,0,0,0,0,0,0.2,0,0,0,0,0,0,0,0,0,0,0,0,0
1999,11,5,2,0,,6.9,3.5,83,101750,0,0,277,0,0,0,0,0,0,0,20,0.3,0,0,0,0,0,0,0,0,0,0,0,0,0
1999,11,5,3,0,,6,3.4,84,101760,0,0,273,0,0,0,0,0,0,0,0,0,0,0,0,0,0,0,0,0,0,0,0,0,0
1999,11,5,4,0,,6.2,3.3,86,101730,0,0,274,0,0,0,0,0,0,0,230,1,0,0,0,0,0,0,0,0,0,0,0,0,0
1999,11,5,5,0,,5.4,3.1,88,101700,0,0,271,0,0,0,0,0,0,0,0,0,0,0,0,0,0,0,0,0,0,0,0,0,0
1999,11,5,6,0,,4.6,3,90,101670,0,0,268,0,0,0,0,0,0,0,270,1,0,0,0,0,0,0,0,0,0,0,0,0,0
1999,11,5,7,0,,4.5,3.5,86,101680,0,0,268,0,0,0,0,0,0,0,250,0.7,0,0,0,0,0,0,0,0,0,0,0,0,0
1999,11,5,8,0,,5.2,4.1,82,101690,0,0,271,62,30,31,5463,2931,4151,0,0,0.2,0,0,0,0,0,0,0,0,0,0,0,0,0
1999,11,5,9,0,,8.3,4.6,78,101700,0,0,283,225,579,65,42402,58716,9657,0,20,0.7,0,0,0,0,0,0,0,0,0,0,0,0,0
1999,11,5,10,0,,10.5,5.3,69,101640,0,0,295,387,688,88,55932,69985,12606,0,200,1,0,0,0,0,0,0,0,0,0,0,0,0,0
1999,11,5,11,0,,14,6.1,61,101590,0,0,313,525,779,97,63373,79031,13764,0,20,0.7,1,0,0,0,0,0,0,0,0,0,0,0,0
1999,11,5,12,0,,17,6.8,52,101530,0,0,329,621,854,93,63653,86143,13433,0,20,3.3,1,0,0,0,0,0,0,0,0,0,0,0,0
1999,11,5,13,0,,17.8,7,51,101490,0,0,341,591,721,134,52537,69004,18868,0,50,1.7,3,0,0,0,0,0,0,0,0,0,0,0,0
1999,11,5,14,0,,18,7.3,50,101440,0,0,348,465,453,196,36728,38894,23153,0,290,1.2,5,0,0,0,0,0,0,0,0,0,0,0,0
1999,11,5,15,0,,18.2,7.5,49,101400,0,0,356,314,221,203,24731,13562,22348,0,270,1.3,7,0,0,0,0,0,0,0,0,0,0,0,0
1999,11,5,16,0,,18.2,7.6,52,101420,0,0,358,223,236,136,0,0,0,0,250,1.2,7,0,0,0,0,0,0,0,0,0,0,0,0
1999,11,5,17,0,,16.9,7.7,56,101430,0,0,353,94,133,67,0,0,0,0,360,1.3,8,0,0,0,0,0,0,0,0,0,0,0,0
1999,11,5,18,0,,15.7,7.8,59,101450,0,0,350,17,3,14,0,0,0,0,290,1.3,8,0,0,0,0,0,0,0,0,0,0,0,0
1999,11,5,19,0,,14.6,7.9,63,101480,0,0,342,0,0,0,0,0,0,0,270,0.8,8,0,0,0,0,0,0,0,0,0,0,0,0
1999,11,5,20,0,,13.7,8,67,101520,0,0,336,0,0,0,0,0,0,0,270,0.8,7,0,0,0,0,0,0,0,0,0,0,0,0
1999,11,5,21,0,,13.1,8.1,71,101550,0,0,332,0,0,0,0,0,0,0,90,1.3,7,0,0,0,0,0,0,0,0,0,0,0,0
1999,11,5,22,0,,13,8.4,74,101540,0,0,331,0,0,0,0,0,0,0,50,2.3,7,0,0,0,0,0,0,0,0,0,0,0,0
1999,11,5,23,0,,12.6,8.7,77,101540,0,0,328,0,0,0,0,0,0,0,20,3,6,0,0,0,0,0,0,0,0,0,0,0,0
1999,11,5,24,0,,12.5,9,80,101530,0,0,327,0,0,0,0,0,0,0,20,0.5,6,0,0,0,0,0,0,0,0,0,0,0,0
1999,11,6,1,0,,12.2,8.7,82,101510,0,0,325,0,0,0,0,0,0,0,20,1,6,0,0,0,0,0,0,0,0,0,0,0,0
1999,11,6,2,0,,11.3,8.4,84,101480,0,0,321,0,0,0,0,0,0,0,0,0,6,0,0,0,0,0,0,0,0,0,0,0,0
1999,11,6,3,0,,10.4,8.1,86,101460,0,0,316,0,0,0,0,0,0,0,230,0.7,6,0,0,0,0,0,0,0,0,0,0,0,0
1999,11,6,4,0,,10.1,8.3,87,101460,0,0,315,0,0,0,0,0,0,0,0,0.2,6,0,0,0,0,0,0,0,0,0,0,0,0
1999,11,6,5,0,,10.2,8.4,88,101470,0,0,316,0,0,0,0,0,0,0,50,1.2,6,0,0,0,0,0,0,0,0,0,0,0,0
1999,11,6,6,0,,10.3,8.6,89,101470,0,0,317,0,0,0,0,0,0,0,320,0.3,6,0,0,0,0,0,0,0,0,0,0,0,0
1999,11,6,7,0,,9.2,8.6,87,101490,0,0,307,0,0,0,0,0,0,0,250,1,4,0,0,0,0,0,0,0,0,0,0,0,0
1999,11,6,8,0,,9.3,8.6,86,101510,0,0,302,59,27,32,5397,2515,4281,0,0,0.2,2,0,0,0,0,0,0,0,0,0,0,0,0
1999,11,6,9,0,,11.2,8.6,84,101530,0,0,300,200,437,80,36706,43514,12614,0,0,0,0,0,0,0,0,0,0,0,0,0,0,0,0
1999,11,6,10,0,,13.3,7.9,72,101490,0,0,308,361,598,104,52472,59943,15607,0,50,0.5,0,0,0,0,0,0,0,0,0,0,0,0,0
1999,11,6,11,0,,15.9,7.1,60,101460,0,0,318,509,738,106,61485,74705,14894,0,70,0.3,0,0,0,0,0,0,0,0,0,0,0,0,0
1999,11,6,12,0,,17.3,6.4,48,101420,0,0,324,573,728,126,59860,71926,18213,0,50,1,0,0,0,0,0,0,0,0,0,0,0,0,0
1999,11,6,13,0,,18.9,6,45,101340,0,0,333,594,742,127,52461,71109,18034,0,270,0.8,0,0,0,0,0,0,0,0,0,0,0,0,0
1999,11,6,14,0,,20,5.7,41,101260,0,0,340,544,707,126,38720,61912,17330,0,200,1.5,1,0,0,0,0,0,0,0,0,0,0,0,0
1999,11,6,15,0,,19.9,5.3,38,101180,0,0,341,450,684,107,20706,43178,13260,0,250,1.8,1,0,0,0,0,0,0,0,0,0,0,0,0
1999,11,6,16,0,,20.2,6.6,46,101210,0,0,342,314,632,81,0,0,0,0,270,1.8,1,0,0,0,0,0,0,0,0,0,0,0,0
1999,11,6,17,0,,19.1,8,53,101240,0,0,336,152,515,50,0,0,0,0,270,0.3,0,0,0,0,0,0,0,0,0,0,0,0,0
1999,11,6,18,0,,17,9.3,61,101270,0,0,326,31,13,19,0,0,0,0,270,1,0,0,0,0,0,0,0,0,0,0,0,0,0
1999,11,6,19,0,,15.4,8.9,63,101290,0,0,322,0,0,0,0,0,0,0,200,1.3,1,0,0,0,0,0,0,0,0,0,0,0,0
1999,11,6,20,0,,14.8,8.5,66,101320,0,0,323,0,0,0,0,0,0,0,200,1,1,0,0,0,0,0,0,0,0,0,0,0,0
1999,11,6,21,0,,14,8.1,68,101340,0,0,321,0,0,0,0,0,0,0,200,1,2,0,0,0,0,0,0,0,0,0,0,0,0
1999,11,6,22,0,,12.9,8.2,73,101330,0,0,314,0,0,0,0,0,0,0,250,0.7,1,0,0,0,0,0,0,0,0,0,0,0,0
1999,11,6,23,0,,12.4,8.3,77,101320,0,0,309,0,0,0,0,0,0,0,230,1,1,0,0,0,0,0,0,0,0,0,0,0,0
1999,11,6,24,0,,11.4,8.4,82,101310,0,0,300,0,0,0,0,0,0,0,230,0.8,0,0,0,0,0,0,0,0,0,0,0,0,0
1999,11,7,1,0,,10.8,8,83,101280,0,0,298,0,0,0,0,0,0,0,0,0,0,0,0,0,0,0,0,0,0,0,0,0,0
1999,11,7,2,0,,10.5,7.7,85,101260,0,0,296,0,0,0,0,0,0,0,0,0,0,0,0,0,0,0,0,0,0,0,0,0,0
1999,11,7,3,0,,9.4,7.3,86,101230,0,0,291,0,0,0,0,0,0,0,0,0,0,0,0,0,0,0,0,0,0,0,0,0,0
1999,11,7,4,0,,8.3,6.9,87,101220,0,0,286,0,0,0,0,0,0,0,0,0,0,0,0,0,0,0,0,0,0,0,0,0,0
1999,11,7,5,0,,8.3,6.6,89,101200,0,0,286,0,0,0,0,0,0,0,0,0,0,0,0,0,0,0,0,0,0,0,0,0,0
1999,11,7,6,0,,7.8,6.2,90,101190,0,0,283,0,0,0,0,0,0,0,250,1,0,0,0,0,0,0,0,0,0,0,0,0,0
1999,11,7,7,0,,7.2,6.5,88,101190,0,0,282,0,0,0,0,0,0,0,230,1.2,0,0,0,0,0,0,0,0,0,0,0,0,0
1999,11,7,8,0,,8.4,6.8,85,101190,0,0,287,60,29,30,5244,2808,4009,0,0,0.2,0,0,0,0,0,0,0,0,0,0,0,0,0
1999,11,7,9,0,,9.8,7.1,83,101190,0,0,292,213,536,68,39950,54286,10111,0,230,0.8,0,0,0,0,0,0,0,0,0,0,0,0,0
1999,11,7,10,0,,12,8,75,101120,0,0,306,365,628,97,52761,63706,13839,0,200,0.8,1,0,0,0,0,0,0,0,0,0,0,0,0
1999,11,7,11,0,,15.2,8.8,66,101050,0,0,325,487,680,119,59447,67750,17466,0,0,0,1,0,0,0,0,0,0,0,0,0,0,0,0
1999,11,7,12,0,,17.8,9.7,58,100980,0,0,341,571,734,124,59587,72206,18059,0,230,1.8,2,0,0,0,0,0,0,0,0,0,0,0,0
1999,11,7,13,0,,18.8,9.4,55,100880,0,0,351,558,648,152,50401,61095,21049,0,250,3,4,0,0,0,0,0,0,0,0,0,0,0,0
1999,11,7,14,0,,19.4,9.2,53,100790,0,0,360,446,415,203,36007,34733,24129,0,200,3,6,0,0,0,0,0,0,0,0,0,0,0,0
1999,11,7,15,0,,19.7,8.9,50,100690,0,0,371,281,166,198,23977,12994,21777,0,250,2.5,8,0,0,0,0,0,0,0,0,0,0,0,0
1999,11,7,16,0,,18.9,9,53,100680,0,0,372,154,85,123,0,0,0,0,250,1.7,9,0,0,0,0,0,0,0,0,0,0,0,0
1999,11,7,17,0,,17.8,9.1,57,100660,0,0,373,70,64,58,0,0,0,0,270,1.2,9,0,0,0,0,0,0,0,0,0,0,0,0
1999,11,7,18,0,,17.1,9.2,60,100650,0,0,376,6,0,6,0,0,0,0,250,1.8,10,0,0,0,0,0,0,0,0,0,0,0,0
1999,11,7,19,0,,16.7,9.6,65,100660,0,0,368,0,0,0,0,0,0,0,250,1.7,9,0,0,0,0,0,0,0,0,0,0,0,0
1999,11,7,20,0,,15.8,10,70,100660,0,0,358,0,0,0,0,0,0,0,0,0.2,9,0,0,0,0,0,0,0,0,0,0,0,0
1999,11,7,21,0,,14.8,10.4,75,100670,0,0,349,0,0,0,0,0,0,0,250,1.2,8,0,0,0,0,0,0,0,0,0,0,0,0
1999,11,7,22,0,,14.5,10.4,76,100660,0,0,345,0,0,0,0,0,0,0,250,1.3,8,0,0,0,0,0,0,0,0,0,0,0,0
1999,11,7,23,0,,14.2,10.5,78,100650,0,0,342,0,0,0,0,0,0,0,0,0.2,7,0,0,0,0,0,0,0,0,0,0,0,0
1999,11,7,24,0,,14,10.5,79,100640,0,0,339,0,0,0,0,0,0,0,200,0.8,7,0,0,0,0,0,0,0,0,0,0,0,0
1999,11,8,1,0,,13.4,10.6,82,100600,0,0,342,0,0,0,0,0,0,0,250,1.5,8,0,0,0,0,0,0,0,0,0,0,0,0
1999,11,8,2,0,,12.7,10.8,85,100550,0,0,346,0,0,0,0,0,0,0,230,1.2,9,0,0,0,0,0,0,0,0,0,0,0,0
1999,11,8,3,0,,12.8,10.9,88,100510,0,0,357,0,0,0,0,0,0,0,0,0,10,0,0,0,0,0,0,0,0,0,0,0,0
1999,11,8,4,0,,12.7,10.7,89,100500,0,0,349,0,0,0,0,0,0,0,20,0.5,9,0,0,0,0,0,0,0,0,0,0,0,0
1999,11,8,5,0,,12,10.6,90,100490,0,0,340,0,0,0,0,0,0,0,290,0.3,9,0,0,0,0,0,0,0,0,0,0,0,0
1999,11,8,6,0,,11.8,10.4,91,100480,0,0,335,0,0,0,0,0,0,0,0,0.2,8,0,0,0,0,0,0,0,0,0,0,0,0
1999,11,8,7,0,,11.7,10.3,88,100540,0,0,332,0,0,0,0,0,0,0,50,0.5,8,0,0,0,0,0,0,0,0,0,0,0,0
1999,11,8,8,0,,12.1,10.1,84,100600,0,0,332,40,11,28,3859,1006,3420,0,20,0.8,7,0,0,0,0,0,0,0,0,0,0,0,0
1999,11,8,9,0,,13.2,10,81,100660,0,0,335,150,220,92,25034,20875,13643,0,50,2.2,7,0,0,0,0,0,0,0,0,0,0,0,0
1999,11,8,10,0,,14.1,10,75,100640,0,0,334,278,295,153,38285,28277,21122,0,50,3,6,0,0,0,0,0,0,0,0,0,0,0,0
1999,11,8,11,0,,15,10,69,100630,0,0,335,412,439,175,49567,42087,23654,0,70,1.8,4,0,0,0,0,0,0,0,0,0,0,0,0
1999,11,8,12,0,,16.9,10,63,100610,0,0,340,501,533,178,52696,50577,23802,0,270,1.7,3,0,0,0,0,0,0,0,0,0,0,0,0
1999,11,8,13,0,,17.2,8.5,57,100590,0,0,338,540,606,163,48464,56301,21621,0,320,1.7,2,0,0,0,0,0,0,0,0,0,0,0,0
1999,11,8,14,0,,17.5,7.1,50,100560,0,0,335,516,644,140,36926,55087,18272,0,290,3,2,0,0,0,0,0,0,0,0,0,0,0,0
1999,11,8,15,0,,17.6,5.6,44,100540,0,0,331,422,607,121,20824,37195,14642,0,320,1,1,0,0,0,0,0,0,0,0,0,0,0,0
1999,11,8,16,0,,17.1,6.3,50,100570,0,0,327,299,591,86,0,0,0,0,360,2,1,0,0,0,0,0,0,0,0,0,0,0,0
1999,11,8,17,0,,16.3,7,56,100610,0,0,322,147,507,49,0,0,0,0,20,2,0,0,0,0,0,0,0,0,0,0,0,0,0
1999,11,8,18,0,,14.9,7.7,62,100640,0,0,315,29,16,13,0,0,0,0,320,1.2,0,0,0,0,0,0,0,0,0,0,0,0,0
1999,11,8,19,0,,14.1,8.1,68,100690,0,0,312,0,0,0,0,0,0,0,20,1,0,0,0,0,0,0,0,0,0,0,0,0,0
1999,11,8,20,0,,13.1,8.6,73,100740,0,0,308,0,0,0,0,0,0,0,20,1.7,0,0,0,0,0,0,0,0,0,0,0,0,0
1999,11,8,21,0,,12.6,9,79,100790,0,0,306,0,0,0,0,0,0,0,20,2.3,0,0,0,0,0,0,0,0,0,0,0,0,0
1999,11,8,22,0,,12.4,9,81,100820,0,0,305,0,0,0,0,0,0,0,20,1,0,0,0,0,0,0,0,0,0,0,0,0,0
1999,11,8,23,0,,11.9,9,83,100840,0,0,303,0,0,0,0,0,0,0,20,0.7,0,0,0,0,0,0,0,0,0,0,0,0,0
1999,11,8,24,0,,11.5,9,85,100870,0,0,302,0,0,0,0,0,0,0,270,0.3,0,0,0,0,0,0,0,0,0,0,0,0,0
1999,11,9,1,0,,10.3,8.7,86,100890,0,0,296,0,0,0,0,0,0,0,270,1,0,0,0,0,0,0,0,0,0,0,0,0,0
1999,11,9,2,0,,9.8,8.5,88,100910,0,0,294,0,0,0,0,0,0,0,270,1.2,0,0,0,0,0,0,0,0,0,0,0,0,0
1999,11,9,3,0,,9.9,8.2,89,100930,0,0,294,0,0,0,0,0,0,0,0,0,0,0,0,0,0,0,0,0,0,0,0,0,0
1999,11,9,4,0,,9.6,8.2,90,100930,0,0,293,0,0,0,0,0,0,0,250,0.8,0,0,0,0,0,0,0,0,0,0,0,0,0
1999,11,9,5,0,,9.4,8.2,90,100930,0,0,292,0,0,0,0,0,0,0,70,0.7,0,0,0,0,0,0,0,0,0,0,0,0,0
1999,11,9,6,0,,9.6,8.2,91,100930,0,0,293,0,0,0,0,0,0,0,250,0.7,0,0,0,0,0,0,0,0,0,0,0,0,0
1999,11,9,7,0,,8.3,8.2,90,100990,0,0,297,0,0,0,0,0,0,0,230,1,2,0,0,0,0,0,0,0,0,0,0,0,0
1999,11,9,8,0,,8.4,8.1,89,101050,0,0,303,48,22,26,4439,2037,3558,0,0,0,4,0,0,0,0,0,0,0,0,0,0,0,0
1999,11,9,9,0,,10,8.1,88,101110,0,0,315,150,227,90,25074,21745,13294,0,0,0.2,6,0,0,0,0,0,0,0,0,0,0,0,0
1999,11,9,10,0,,12.2,8.4,82,101100,0,0,324,278,306,150,38369,29541,20556,0,0,0,6,0,0,0,0,0,0,0,0,0,0,0,0
1999,11,9,11,0,,13.4,8.7,75,101100,0,0,328,407,433,175,48994,41740,23458,0,230,0.8,5,0,0,0,0,0,0,0,0,0,0,0,0
1999,11,9,12,0,,14.7,9,69,101090,0,0,334,452,392,216,47588,37639,26228,0,320,1.2,5,0,0,0,0,0,0,0,0,0,0,0,0
1999,11,9,13,0,,15.8,8.8,64,101060,0,0,337,483,447,207,44696,41540,25038,0,0,0,4,0,0,0,0,0,0,0,0,0,0,0,0
1999,11,9,14,0,,17.4,8.6,60,101040,0,0,343,477,532,168,36395,44783,21378,0,250,1.5,4,0,0,0,0,0,0,0,0,0,0,0,0
1999,11,9,15,0,,17.3,8.4,55,101010,0,0,340,409,571,128,20990,33830,15469,0,250,1.3,3,0,0,0,0,0,0,0,0,0,0,0,0
1999,11,9,16,0,,17.3,8.5,58,101030,0,0,337,298,598,84,0,0,0,0,250,2.2,2,0,0,0,0,0,0,0,0,0,0,0,0
1999,11,9,17,0,,16.2,8.5,62,101050,0,0,327,142,489,50,0,0,0,0,290,0.8,1,0,0,0,0,0,0,0,0,0,0,0,0
1999,11,9,18,0,,15.3,8.6,65,101070,0,0,317,28,16,12,0,0,0,0,0,0.2,0,0,0,0,0,0,0,0,0,0,0,0,0
1999,11,9,19,0,,14.6,8.4,66,101120,0,0,320,0,0,0,0,0,0,0,250,0.5,1,0,0,0,0,0,0,0,0,0,0,0,0
1999,11,9,20,0,,13.8,8.2,67,101180,0,0,321,0,0,0,0,0,0,0,160,2,2,0,0,0,0,0,0,0,0,0,0,0,0
1999,11,9,21,0,,13.8,8,68,101230,0,0,324,0,0,0,0,0,0,0,180,2.7,3,0,0,0,0,0,0,0,0,0,0,0,0
1999,11,9,22,0,,13.4,8.3,73,101270,0,0,325,0,0,0,0,0,0,0,200,2.7,4,0,0,0,0,0,0,0,0,0,0,0,0
1999,11,9,23,0,,12.5,8.6,77,101300,0,0,325,0,0,0,0,0,0,0,360,0.3,6,0,0,0,0,0,0,0,0,0,0,0,0
1999,11,9,24,0,,11.9,8.9,82,101340,0,0,328,0,0,0,0,0,0,0,20,1,7,0,0,0,0,0,0,0,0,0,0,0,0
1999,11,10,1,0,,12.2,8.4,80,101340,0,0,329,0,0,0,0,0,0,0,200,1,7,0,0,0,0,0,0,0,0,0,0,0,0
1999,11,10,2,0,,12.1,8,77,101330,0,0,327,0,0,0,0,0,0,0,360,0.5,7,0,0,0,0,0,0,0,0,0,0,0,0
1999,11,10,3,0,,11.9,7.5,75,101330,0,0,326,0,0,0,0,0,0,0,250,0.7,7,0,0,0,0,0,0,0,0,0,0,0,0
1999,11,10,4,0,,11,6.8,75,101320,0,0,314,0,0,0,0,0,0,0,140,0.8,5,0,0,0,0,0,0,0,0,0,0,0,0
1999,11,10,5,0,,10,6.2,75,101320,0,0,303,0,0,0,0,0,0,0,20,2.2,2,0,0,0,0,0,0,0,0,0,0,0,0
1999,11,10,6,0,,9.6,5.5,75,101310,0,0,290,0,0,0,0,0,0,0,20,1.5,0,0,0,0,0,0,0,0,0,0,0,0,0
1999,11,10,7,0,,9.2,5.1,72,101360,0,0,288,0,0,0,0,0,0,0,20,1,0,0,0,0,0,0,0,0,0,0,0,0,0
1999,11,10,8,0,,9.4,4.7,68,101420,0,0,288,59,32,26,4855,3108,3523,0,50,0.8,0,0,0,0,0,0,0,0,0,0,0,0,0
1999,11,10,9,0,,10.7,4.3,65,101470,0,0,293,204,536,65,38780,54091,9688,0,50,0.8,0,0,0,0,0,0,0,0,0,0,0,0,0
1999,11,10,10,0,,12.9,3.9,57,101450,0,0,307,361,656,89,52548,66402,12768,0,20,1.3,1,0,0,0,0,0,0,0,0,0,0,0,0
1999,11,10,11,0,,14.5,3.6,50,101420,0,0,318,484,706,109,58453,70952,15320,0,50,1.3,2,0,0,0,0,0,0,0,0,0,0,0,0
1999,11,10,12,0,,16.2,3.2,42,101400,0,0,329,543,682,134,56856,67251,18938,0,230,0.3,3,0,0,0,0,0,0,0,0,0,0,0,0
1999,11,10,13,0,,18.8,3.3,41,101300,0,0,338,580,748,121,50883,71688,17208,0,270,0.7,2,0,0,0,0,0,0,0,0,0,0,0,0
1999,11,10,14,0,,18.8,3.5,39,101210,0,0,334,532,717,119,37144,62447,16405,0,50,0.5,1,0,0,0,0,0,0,0,0,0,0,0,0
1999,11,10,15,0,,18.2,3.6,38,101110,0,0,325,438,689,102,19296,42092,12549,0,20,2.3,0,0,0,0,0,0,0,0,0,0,0,0,0
1999,11,10,16,0,,17.9,3.8,40,101100,0,0,324,291,577,86,0,0,0,0,20,1.3,0,0,0,0,0,0,0,0,0,0,0,0,0
1999,11,10,17,0,,17.2,4.1,43,101080,0,0,321,144,520,47,0,0,0,0,20,0.7,0,0,0,0,0,0,0,0,0,0,0,0,0
1999,11,10,18,0,,16.3,4.3,45,101070,0,0,317,29,13,16,0,0,0,0,50,0.3,0,0,0,0,0,0,0,0,0,0,0,0,0
1999,11,10,19,0,,14.7,4.8,50,101080,0,0,316,0,0,0,0,0,0,0,160,1.8,1,0,0,0,0,0,0,0,0,0,0,0,0
1999,11,10,20,0,,13.6,5.3,55,101100,0,0,316,0,0,0,0,0,0,0,180,1.7,2,0,0,0,0,0,0,0,0,0,0,0,0
1999,11,10,21,0,,13.6,5.8,60,101110,0,0,320,0,0,0,0,0,0,0,140,0.7,3,0,0,0,0,0,0,0,0,0,0,0,0
1999,11,10,22,0,,13.3,5.9,63,101100,0,0,319,0,0,0,0,0,0,0,180,1.7,3,0,0,0,0,0,0,0,0,0,0,0,0
1999,11,10,23,0,,12.1,6.1,65,101100,0,0,314,0,0,0,0,0,0,0,50,1,3,0,0,0,0,0,0,0,0,0,0,0,0
1999,11,10,24,0,,11.8,6.2,68,101090,0,0,313,0,0,0,0,0,0,0,0,0,3,0,0,0,0,0,0,0,0,0,0,0,0
1999,11,11,1,0,,10.9,6.2,72,101070,0,0,309,0,0,0,0,0,0,0,0,0.2,3,0,0,0,0,0,0,0,0,0,0,0,0
1999,11,11,2,0,,10.5,6.1,75,101060,0,0,308,0,0,0,0,0,0,0,270,0.5,4,0,0,0,0,0,0,0,0,0,0,0,0
1999,11,11,3,0,,9.6,6.1,79,101040,0,0,305,0,0,0,0,0,0,0,0,0,4,0,0,0,0,0,0,0,0,0,0,0,0
1999,11,11,4,0,,10.4,6.2,78,100970,0,0,311,0,0,0,0,0,0,0,50,0.7,5,0,0,0,0,0,0,0,0,0,0,0,0
1999,11,11,5,0,,10.2,6.4,77,100910,0,0,313,0,0,0,0,0,0,0,0,0.2,6,0,0,0,0,0,0,0,0,0,0,0,0
1999,11,11,6,0,,10.6,6.5,76,100840,0,0,319,0,0,0,0,0,0,0,250,1,7,0,0,0,0,0,0,0,0,0,0,0,0
1999,11,11,7,0,,10.6,6.7,75,100820,0,0,324,0,0,0,0,0,0,0,20,0.8,8,0,0,0,0,0,0,0,0,0,0,0,0
1999,11,11,8,0,,11.1,6.8,74,100810,0,0,334,26,4,22,2842,339,2698,0,0,0.2,9,0,0,0,0,0,0,0,0,0,0,0,0
1999,11,11,9,0,,11.6,7,73,100790,0,0,346,73,31,65,9924,3080,8280,0,50,0.8,10,0,0,0,0,0,0,0,0,0,0,0,0
1999,11,11,10,0,,12.8,7.5,68,100720,0,0,352,133,39,118,15902,3626,13744,0,200,0.5,10,0,0,0,0,0,0,0,0,0,0,0,0
1999,11,11,11,0,,14.3,8,63,100650,0,0,360,185,43,163,21281,4072,18820,0,0,0.2,10,0,0,0,0,0,0,0,0,0,0,0,0
1999,11,11,12,0,,16.7,8.5,58,100580,0,0,373,265,78,219,29155,7362,25031,0,160,4.7,10,0,0,0,0,0,0,0,0,0,0,0,0
1999,11,11,13,0,,16.7,9.4,63,100500,0,0,375,244,57,209,26294,5254,23843,0,160,3,10,0,0,0,0,0,0,0,0,0,0,0,0
1999,11,11,14,0,,16.4,10.2,68,100430,0,0,374,207,45,182,21863,3922,20573,0,160,2.8,10,0,0,0,0,0,0,0,0,0,0,0,0
1999,11,11,15,0,,15.8,11.1,73,100350,0,0,372,137,24,125,13102,1137,12923,0,180,2.7,10,0,0,0,0,0,0,0,0,0,0,0,0
1999,11,11,16,0,,15.2,11.5,76,100290,0,0,370,92,22,84,0,0,0,0,160,3,10,0,0,0,0,0,0,0,0,0,0,0,0
1999,11,11,17,0,,15.2,11.8,78,100220,0,0,370,43,19,39,0,0,0,0,160,3.5,10,0,0,0,0,0,0,0,0,0,0,0,0
1999,11,11,18,0,,15.4,12.2,81,100160,0,0,372,6,0,5,0,0,0,0,160,3,10,0,0,0,0,0,0,0,0,0,0,0,0
1999,11,11,19,0,,15.6,12.7,84,100130,0,0,373,0,0,0,0,0,0,0,180,4.5,10,0,0,0,0,0,0,0,0,0,0,0,0
1999,11,11,20,0,,15.4,13.1,87,100100,0,0,373,0,0,0,0,0,0,0,160,4.5,10,0,0,0,0,0,0,0,0,0,0,0,0
1999,11,11,21,0,,15.3,13.6,90,100070,0,0,373,0,0,0,0,0,0,0,200,2,10,0,0,0,0,0,0,0,0,0,0,0,0
1999,11,11,22,0,,14.8,13.4,90,100080,0,0,370,0,0,0,0,0,0,0,140,1.3,10,0,0,0,0,0,0,0,0,0,0,0,0
1999,11,11,23,0,,14.9,13.2,90,100090,0,0,370,0,0,0,0,0,0,0,200,2.3,10,0,0,0,0,0,0,0,0,0,0,0,0
1999,11,11,24,0,,14.7,13,90,100100,0,0,369,0,0,0,0,0,0,0,230,3,10,0,0,0,0,0,0,0,0,0,0,0,0
1999,11,12,1,0,,14.5,12.4,88,100130,0,0,367,0,0,0,0,0,0,0,230,3.3,10,0,0,0,0,0,0,0,0,0,0,0,0
1999,11,12,2,0,,14,11.9,87,100170,0,0,364,0,0,0,0,0,0,0,270,2.3,10,0,0,0,0,0,0,0,0,0,0,0,0
1999,11,12,3,0,,13.7,11.3,85,100200,0,0,362,0,0,0,0,0,0,0,270,1,10,0,0,0,0,0,0,0,0,0,0,0,0
1999,11,12,4,0,,13.3,11,85,100250,0,0,360,0,0,0,0,0,0,0,270,0.5,10,0,0,0,0,0,0,0,0,0,0,0,0
1999,11,12,5,0,,12.5,10.8,86,100290,0,0,355,0,0,0,0,0,0,0,270,1.3,10,0,0,0,0,0,0,0,0,0,0,0,0
1999,11,12,6,0,,12.8,10.5,86,100340,0,0,356,0,0,0,0,0,0,0,290,1.5,10,0,0,0,0,0,0,0,0,0,0,0,0
1999,11,12,7,0,,12.8,9.9,86,100390,0,0,355,0,0,0,0,0,0,0,360,0.7,10,0,0,0,0,0,0,0,0,0,0,0,0
1999,11,12,8,0,,13.1,9.2,86,100430,0,0,356,17,1,16,2120,47,2100,0,270,1,10,0,0,0,0,0,0,0,0,0,0,0,0
1999,11,12,9,0,,13.3,8.6,86,100480,0,0,356,72,32,64,9854,3088,8217,0,270,1,10,0,0,0,0,0,0,0,0,0,0,0,0
1999,11,12,10,0,,13.6,8.1,78,100540,0,0,347,161,67,134,20232,6609,16324,0,290,1.2,9,0,0,0,0,0,0,0,0,0,0,0,0
1999,11,12,11,0,,14.1,7.6,69,100610,0,0,342,260,114,201,30485,11154,23788,0,290,1.7,8,0,0,0,0,0,0,0,0,0,0,0,0
1999,11,12,12,0,,14.5,7.1,61,100670,0,0,338,351,176,248,38218,17030,28739,0,20,1.7,7,0,0,0,0,0,0,0,0,0,0,0,0
1999,11,12,13,0,,15.4,6.7,57,100650,0,0,335,459,403,214,43022,37837,25503,0,360,2.3,5,0,0,0,0,0,0,0,0,0,0,0,0
1999,11,12,14,0,,16.1,6.2,54,100620,0,0,334,466,528,165,35268,44604,20729,0,20,3.3,4,0,0,0,0,0,0,0,0,0,0,0,0
1999,11,12,15,0,,16.1,5.8,50,100600,0,0,328,419,641,110,19231,37721,13392,0,360,4,2,0,0,0,0,0,0,0,0,0,0,0,0
1999,11,12,16,0,,15.5,6.1,55,100670,0,0,327,284,568,85,0,0,0,0,360,3,2,0,0,0,0,0,0,0,0,0,0,0,0
1999,11,12,17,0,,14.5,6.5,59,100750,0,0,324,132,453,50,0,0,0,0,360,3,3,0,0,0,0,0,0,0,0,0,0,0,0
1999,11,12,18,0,,13.4,6.8,64,100820,0,0,320,24,11,13,0,0,0,0,20,3,3,0,0,0,0,0,0,0,0,0,0,0,0
1999,11,12,19,0,,12.5,7,67,100880,0,0,313,0,0,0,0,0,0,0,360,2.2,2,0,0,0,0,0,0,0,0,0,0,0,0
1999,11,12,20,0,,11.8,7.2,71,100940,0,0,306,0,0,0,0,0,0,0,360,2,1,0,0,0,0,0,0,0,0,0,0,0,0
1999,11,12,21,0,,11.6,7.4,74,101000,0,0,300,0,0,0,0,0,0,0,50,2,0,0,0,0,0,0,0,0,0,0,0,0,0
1999,11,12,22,0,,11.2,7.4,75,101030,0,0,298,0,0,0,0,0,0,0,20,2,0,0,0,0,0,0,0,0,0,0,0,0,0
1999,11,12,23,0,,11.5,7.4,77,101060,0,0,300,0,0,0,0,0,0,0,20,1.2,0,0,0,0,0,0,0,0,0,0,0,0,0
1999,11,12,24,0,,11.1,7.4,78,101090,0,0,298,0,0,0,0,0,0,0,20,1.2,0,0,0,0,0,0,0,0,0,0,0,0,0
1999,11,13,1,0,,10.4,7.4,81,101140,0,0,295,0,0,0,0,0,0,0,360,0.5,0,0,0,0,0,0,0,0,0,0,0,0,0
1999,11,13,2,0,,9.2,7.3,83,101190,0,0,290,0,0,0,0,0,0,0,20,1.5,0,0,0,0,0,0,0,0,0,0,0,0,0
1999,11,13,3,0,,9.4,7.3,86,101240,0,0,291,0,0,0,0,0,0,0,20,2,0,0,0,0,0,0,0,0,0,0,0,0,0
1999,11,13,4,0,,8.5,6.8,88,101270,0,0,287,0,0,0,0,0,0,0,360,0.3,0,0,0,0,0,0,0,0,0,0,0,0,0
1999,11,13,5,0,,7.3,6.3,91,101310,0,0,282,0,0,0,0,0,0,0,290,0.8,0,0,0,0,0,0,0,0,0,0,0,0,0
1999,11,13,6,0,,6.7,5.8,93,101340,0,0,279,0,0,0,0,0,0,0,90,0.3,0,0,0,0,0,0,0,0,0,0,0,0,0
1999,11,13,7,0,,6.9,6,90,101410,0,0,280,0,0,0,0,0,0,0,250,1.5,0,0,0,0,0,0,0,0,0,0,0,0,0
1999,11,13,8,0,,7.2,6.2,88,101480,0,0,281,52,24,27,4598,2310,3634,0,0,0.2,0,0,0,0,0,0,0,0,0,0,0,0,0
1999,11,13,9,0,,8.7,6.4,85,101550,0,0,287,191,507,65,36660,51128,9751,0,230,0.8,0,0,0,0,0,0,0,0,0,0,0,0,0
1999,11,13,10,0,,10,4.8,69,101530,0,0,291,342,619,93,49939,62415,13265,0,250,1.7,0,0,0,0,0,0,0,0,0,0,0,0,0
1999,11,13,11,0,,14.8,3.3,53,101520,0,0,309,519,858,73,62108,86369,10569,0,70,3,0,0,0,0,0,0,0,0,0,0,0,0,0
1999,11,13,12,0,,16.1,1.7,37,101500,0,0,313,593,868,84,60023,86590,12127,0,50,3.5,0,0,0,0,0,0,0,0,0,0,0,0,0
1999,11,13,13,0,,17.8,1,34,101440,0,0,320,620,897,79,52092,87665,11785,0,50,3.5,0,0,0,0,0,0,0,0,0,0,0,0,0
1999,11,13,14,0,,18.8,0.2,31,101390,0,0,324,544,786,99,36324,68933,14058,0,50,3.7,0,0,0,0,0,0,0,0,0,0,0,0,0
1999,11,13,15,0,,18.6,-0.5,28,101330,0,0,322,437,720,93,18602,43475,11987,0,50,2.2,0,0,0,0,0,0,0,0,0,0,0,0,0
1999,11,13,16,0,,18.5,0,31,101330,0,0,322,303,674,69,0,0,0,0,20,2.3,0,0,0,0,0,0,0,0,0,0,0,0,0
1999,11,13,17,0,,18.3,0.6,35,101330,0,0,322,149,628,37,0,0,0,0,360,3,0,0,0,0,0,0,0,0,0,0,0,0,0
1999,11,13,18,0,,15.6,1.1,38,101330,0,0,310,26,11,15,0,0,0,0,20,1.2,0,0,0,0,0,0,0,0,0,0,0,0,0
1999,11,13,19,0,,14.2,1.6,43,101370,0,0,305,0,0,0,0,0,0,0,20,1.3,0,0,0,0,0,0,0,0,0,0,0,0,0
1999,11,13,20,0,,13.4,2.2,48,101400,0,0,302,0,0,0,0,0,0,0,50,0.7,0,0,0,0,0,0,0,0,0,0,0,0,0
1999,11,13,21,0,,11.8,2.7,53,101440,0,0,296,0,0,0,0,0,0,0,110,0.7,0,0,0,0,0,0,0,0,0,0,0,0,0
1999,11,13,22,0,,10.7,3.7,61,101430,0,0,292,0,0,0,0,0,0,0,230,0.8,0,0,0,0,0,0,0,0,0,0,0,0,0
1999,11,13,23,0,,9.5,4.6,70,101430,0,0,288,0,0,0,0,0,0,0,230,0.3,0,0,0,0,0,0,0,0,0,0,0,0,0
1999,11,13,24,0,,9.2,5.6,78,101420,0,0,288,0,0,0,0,0,0,0,0,0,0,0,0,0,0,0,0,0,0,0,0,0,0
1999,11,14,1,0,,8,5.2,81,101390,0,0,283,0,0,0,0,0,0,0,0,0,0,0,0,0,0,0,0,0,0,0,0,0,0
1999,11,14,2,0,,7.2,4.9,84,101370,0,0,280,0,0,0,0,0,0,0,0,0,0,0,0,0,0,0,0,0,0,0,0,0,0
1999,11,14,3,0,,6.6,4.5,87,101340,0,0,277,0,0,0,0,0,0,0,0,0,0,0,0,0,0,0,0,0,0,0,0,0,0
1999,11,14,4,0,,6.3,4,88,101330,0,0,275,0,0,0,0,0,0,0,0,0,0,0,0,0,0,0,0,0,0,0,0,0,0
1999,11,14,5,0,,5.4,3.5,89,101320,0,0,271,0,0,0,0,0,0,0,0,0,0,0,0,0,0,0,0,0,0,0,0,0,0
1999,11,14,6,0,,4.6,3,90,101310,0,0,268,0,0,0,0,0,0,0,250,0.8,0,0,0,0,0,0,0,0,0,0,0,0,0
1999,11,14,7,0,,4.2,3.6,87,101330,0,0,267,0,0,0,0,0,0,0,230,0.7,0,0,0,0,0,0,0,0,0,0,0,0,0
1999,11,14,8,0,,5.2,4.2,85,101350,0,0,271,50,22,27,4497,2128,3617,0,50,1.5,0,0,0,0,0,0,0,0,0,0,0,0,0
1999,11,14,9,0,,7.6,4.8,82,101370,0,0,281,195,554,59,38179,55949,8943,0,0,0,0,0,0,0,0,0,0,0,0,0,0,0,0
1999,11,14,10,0,,9.9,4.6,70,101310,0,0,290,355,686,80,52228,69472,11668,0,360,1.5,0,0,0,0,0,0,0,0,0,0,0,0,0
1999,11,14,11,0,,13,4.5,59,101240,0,0,303,480,743,97,58231,74870,13825,0,0,0,0,0,0,0,0,0,0,0,0,0,0,0,0
1999,11,14,12,0,,15.5,4.3,47,101180,0,0,313,568,806,98,58285,80374,14102,0,20,1.3,0,0,0,0,0,0,0,0,0,0,0,0,0
1999,11,14,13,0,,16.8,4.4,44,101100,0,0,326,586,810,101,50372,77746,14871,0,360,3.5,1,0,0,0,0,0,0,0,0,0,0,0,0
1999,11,14,14,0,,18.9,4.5,40,101010,0,0,340,551,819,90,36112,71678,13163,0,20,4,2,0,0,0,0,0,0,0,0,0,0,0,0
1999,11,14,15,0,,19.5,4.6,37,100930,0,0,346,431,709,94,18495,41913,12222,0,50,3.7,3,0,0,0,0,0,0,0,0,0,0,0,0
1999,11,14,16,0,,18.8,5.2,41,100940,0,0,350,263,487,96,0,0,0,0,50,1.8,5,0,0,0,0,0,0,0,0,0,0,0,0
1999,11,14,17,0,,17.6,5.8,45,100950,0,0,355,87,163,58,0,0,0,0,50,2.8,8,0,0,0,0,0,0,0,0,0,0,0,0
1999,11,14,18,0,,17,6.4,49,100960,0,0,372,5,0,5,0,0,0,0,50,3.3,10,0,0,0,0,0,0,0,0,0,0,0,0
1999,11,14,19,0,,15.7,6.4,51,100970,0,0,358,0,0,0,0,0,0,0,20,2.7,9,0,0,0,0,0,0,0,0,0,0,0,0
1999,11,14,20,0,,15.5,6.5,54,100990,0,0,352,0,0,0,0,0,0,0,20,0.7,9,0,0,0,0,0,0,0,0,0,0,0,0
1999,11,14,21,0,,15.2,6.5,56,101000,0,0,346,0,0,0,0,0,0,0,360,1.3,8,0,0,0,0,0,0,0,0,0,0,0,0
1999,11,14,22,0,,14.5,6.6,58,100990,0,0,347,0,0,0,0,0,0,0,20,1.3,9,0,0,0,0,0,0,0,0,0,0,0,0
1999,11,14,23,0,,14.5,6.6,60,100970,0,0,353,0,0,0,0,0,0,0,250,0.8,9,0,0,0,0,0,0,0,0,0,0,0,0
1999,11,14,24,0,,13.8,6.7,62,100960,0,0,356,0,0,0,0,0,0,0,50,1.3,10,0,0,0,0,0,0,0,0,0,0,0,0
1999,11,15,1,0,,13.6,6.7,64,100940,0,0,338,0,0,0,0,0,0,0,270,1,8,0,0,0,0,0,0,0,0,0,0,0,0
1999,11,15,2,0,,12.6,6.8,67,100930,0,0,324,0,0,0,0,0,0,0,270,0.7,6,0,0,0,0,0,0,0,0,0,0,0,0
1999,11,15,3,0,,12.6,6.8,69,100910,0,0,319,0,0,0,0,0,0,0,20,1.2,4,0,0,0,0,0,0,0,0,0,0,0,0
1999,11,15,4,0,,12.2,7.5,73,100920,0,0,319,0,0,0,0,0,0,0,20,1,4,0,0,0,0,0,0,0,0,0,0,0,0
1999,11,15,5,0,,11.8,8.1,77,100920,0,0,319,0,0,0,0,0,0,0,50,1,5,0,0,0,0,0,0,0,0,0,0,0,0
1999,11,15,6,0,,11.9,8.8,81,100930,0,0,321,0,0,0,0,0,0,0,20,2.3,5,0,0,0,0,0,0,0,0,0,0,0,0
1999,11,15,7,0,,11.5,8.5,78,100990,0,0,323,0,0,0,0,0,0,0,20,1.2,6,0,0,0,0,0,0,0,0,0,0,0,0
1999,11,15,8,0,,11.5,8.1,75,101050,0,0,328,29,6,23,2974,529,2757,0,140,0.7,8,0,0,0,0,0,0,0,0,0,0,0,0
1999,11,15,9,0,,12.6,7.8,72,101110,0,0,342,98,86,77,14662,8251,10381,0,20,2.7,9,0,0,0,0,0,0,0,0,0,0,0,0
1999,11,15,10,0,,12.7,7.9,72,101080,0,0,340,168,83,135,21222,8152,16493,0,20,3,9,0,0,0,0,0,0,0,0,0,0,0,0
1999,11,15,11,0,,12.8,8,72,101050,0,0,338,258,120,197,30294,11714,23389,0,360,2.3,8,0,0,0,0,0,0,0,0,0,0,0,0
1999,11,15,12,0,,12.9,8.1,72,101020,0,0,337,276,94,221,30128,8954,25235,0,320,2.2,8,0,0,0,0,0,0,0,0,0,0,0,0
1999,11,15,13,0,,13.1,7.6,69,100980,0,0,333,347,165,249,35588,15314,28643,0,360,2.3,7,0,0,0,0,0,0,0,0,0,0,0,0
1999,11,15,14,0,,13.1,7,66,100950,0,0,330,328,175,230,30715,14659,26062,0,340,2.7,7,0,0,0,0,0,0,0,0,0,0,0,0
1999,11,15,15,0,,13.4,6.5,63,100910,0,0,328,304,258,182,22076,14299,19970,0,360,2,6,0,0,0,0,0,0,0,0,0,0,0,0
1999,11,15,16,0,,12.5,5.5,64,100960,0,0,321,233,348,115,0,0,0,0,360,2.5,5,0,0,0,0,0,0,0,0,0,0,0,0
1999,11,15,17,0,,11.3,4.6,64,101020,0,0,312,108,352,47,0,0,0,0,360,2.8,5,0,0,0,0,0,0,0,0,0,0,0,0
1999,11,15,18,0,,9.8,3.6,65,101070,0,0,303,20,8,12,0,0,0,0,20,3.3,4,0,0,0,0,0,0,0,0,0,0,0,0
1999,11,15,19,0,,9,3.7,68,101110,0,0,301,0,0,0,0,0,0,0,20,1.7,4,0,0,0,0,0,0,0,0,0,0,0,0
1999,11,15,20,0,,8.6,3.8,71,101160,0,0,300,0,0,0,0,0,0,0,20,1.7,5,0,0,0,0,0,0,0,0,0,0,0,0
1999,11,15,21,0,,8.3,3.9,74,101200,0,0,299,0,0,0,0,0,0,0,50,1.2,5,0,0,0,0,0,0,0,0,0,0,0,0
1999,11,15,22,0,,8.5,3.5,72,101210,0,0,299,0,0,0,0,0,0,0,20,1,5,0,0,0,0,0,0,0,0,0,0,0,0
1999,11,15,23,0,,7.9,3.1,70,101220,0,0,295,0,0,0,0,0,0,0,20,2.3,4,0,0,0,0,0,0,0,0,0,0,0,0
1999,11,15,24,0,,8.2,2.7,68,101230,0,0,295,0,0,0,0,0,0,0,20,0.7,4,0,0,0,0,0,0,0,0,0,0,0,0
1999,11,16,1,0,,8.1,2.9,70,101250,0,0,296,0,0,0,0,0,0,0,0,0,4,0,0,0,0,0,0,0,0,0,0,0,0
1999,11,16,2,0,,7.8,3.2,72,101280,0,0,296,0,0,0,0,0,0,0,0,0.2,5,0,0,0,0,0,0,0,0,0,0,0,0
1999,11,16,3,0,,7.9,3.4,74,101300,0,0,297,0,0,0,0,0,0,0,320,0.7,5,0,0,0,0,0,0,0,0,0,0,0,0
1999,11,16,4,0,,7.2,3.2,75,101310,0,0,294,0,0,0,0,0,0,0,0,0,5,0,0,0,0,0,0,0,0,0,0,0,0
1999,11,16,5,0,,7,2.9,75,101330,0,0,293,0,0,0,0,0,0,0,270,0.5,5,0,0,0,0,0,0,0,0,0,0,0,0
1999,11,16,6,0,,6.6,2.7,76,101340,0,0,291,0,0,0,0,0,0,0,0,0.2,5,0,0,0,0,0,0,0,0,0,0,0,0
1999,11,16,7,0,,6.5,2.4,73,101420,0,0,289,0,0,0,0,0,0,0,0,0.2,4,0,0,0,0,0,0,0,0,0,0,0,0
1999,11,16,8,0,,6.7,2.2,70,101500,0,0,288,47,20,27,4291,1923,3510,0,290,2.2,4,0,0,0,0,0,0,0,0,0,0,0,0
1999,11,16,9,0,,7.5,1.9,67,101580,0,0,289,180,491,63,34906,49295,9513,0,360,1.2,3,0,0,0,0,0,0,0,0,0,0,0,0
1999,11,16,10,0,,8.6,1.3,62,101580,0,0,296,298,466,115,43507,46521,16686,0,360,2.3,4,0,0,0,0,0,0,0,0,0,0,0,0
1999,11,16,11,0,,9.1,0.8,56,101590,0,0,301,354,319,192,41783,32210,22905,0,20,3,6,0,0,0,0,0,0,0,0,0,0,0,0
1999,11,16,12,0,,9.6,0.2,51,101590,0,0,307,376,235,240,40201,23397,27494,0,20,4.2,7,0,0,0,0,0,0,0,0,0,0,0,0
1999,11,16,13,0,,11.2,-0.5,47,101560,0,0,310,434,336,235,41459,32379,26870,0,270,2,6,0,0,0,0,0,0,0,0,0,0,0,0
1999,11,16,14,0,,10.9,-1.2,43,101520,0,0,305,437,473,174,32968,40965,20074,0,20,2.7,5,0,0,0,0,0,0,0,0,0,0,0,0
1999,11,16,15,0,,11.6,-1.9,39,101490,0,0,305,385,556,124,18852,32333,14167,0,20,1.8,4,0,0,0,0,0,0,0,0,0,0,0,0
1999,11,16,16,0,,11.8,-1.1,44,101530,0,0,304,276,576,81,0,0,0,0,20,2.3,3,0,0,0,0,0,0,0,0,0,0,0,0
1999,11,16,17,0,,10.6,-0.2,49,101580,0,0,295,134,542,41,0,0,0,0,360,1.3,1,0,0,0,0,0,0,0,0,0,0,0,0
1999,11,16,18,0,,9.6,0.6,54,101620,0,0,284,23,13,10,0,0,0,0,360,3,0,0,0,0,0,0,0,0,0,0,0,0,0
1999,11,16,19,0,,8.8,0.9,58,101690,0,0,281,0,0,0,0,0,0,0,360,3.3,0,0,0,0,0,0,0,0,0,0,0,0,0
1999,11,16,20,0,,8.4,1.2,61,101760,0,0,280,0,0,0,0,0,0,0,20,2.3,0,0,0,0,0,0,0,0,0,0,0,0,0
1999,11,16,21,0,,7.8,1.5,65,101830,0,0,278,0,0,0,0,0,0,0,20,0.7,0,0,0,0,0,0,0,0,0,0,0,0,0
1999,11,16,22,0,,7.4,1.4,67,101830,0,0,276,0,0,0,0,0,0,0,50,2.3,0,0,0,0,0,0,0,0,0,0,0,0,0
1999,11,16,23,0,,6.4,1.2,68,101830,0,0,272,0,0,0,0,0,0,0,20,1.3,0,0,0,0,0,0,0,0,0,0,0,0,0
1999,11,16,24,0,,6.1,1.1,70,101830,0,0,271,0,0,0,0,0,0,0,20,2.7,0,0,0,0,0,0,0,0,0,0,0,0,0
1999,11,17,1,0,,5.8,0.8,70,101830,0,0,269,0,0,0,0,0,0,0,50,2,0,0,0,0,0,0,0,0,0,0,0,0,0
1999,11,17,2,0,,5.7,0.5,69,101840,0,0,269,0,0,0,0,0,0,0,20,1,0,0,0,0,0,0,0,0,0,0,0,0,0
1999,11,17,3,0,,5.5,0.2,69,101840,0,0,268,0,0,0,0,0,0,0,20,1.8,0,0,0,0,0,0,0,0,0,0,0,0,0
1999,11,17,4,0,,4.9,0.3,72,101830,0,0,266,0,0,0,0,0,0,0,20,2,0,0,0,0,0,0,0,0,0,0,0,0,0
1999,11,17,5,0,,3.9,0.5,75,101810,0,0,262,0,0,0,0,0,0,0,20,0.7,0,0,0,0,0,0,0,0,0,0,0,0,0
1999,11,17,6,0,,4.1,0.6,78,101800,0,0,263,0,0,0,0,0,0,0,20,1.7,0,0,0,0,0,0,0,0,0,0,0,0,0
1999,11,17,7,0,,2.6,1.1,78,101840,0,0,267,0,0,0,0,0,0,0,230,1.7,2,0,0,0,0,0,0,0,0,0,0,0,0
1999,11,17,8,0,,2.9,1.6,79,101890,0,0,273,41,19,22,3640,1843,2899,0,250,0.8,4,0,0,0,0,0,0,0,0,0,0,0,0
1999,11,17,9,0,,5.5,2.1,79,101930,0,0,288,144,302,73,26828,30004,11481,0,230,0.8,6,0,0,0,0,0,0,0,0,0,0,0,0
1999,11,17,10,0,,6.2,1,69,101880,0,0,295,238,244,143,31732,24608,17633,0,270,0.8,7,0,0,0,0,0,0,0,0,0,0,0,0
1999,11,17,11,0,,8.2,-0.1,59,101840,0,0,309,263,133,196,30705,13413,22889,0,50,1,9,0,0,0,0,0,0,0,0,0,0,0,0
1999,11,17,12,0,,8.6,-1.2,49,101790,0,0,321,219,52,189,24264,5041,21542,0,290,0.7,10,0,0,0,0,0,0,0,0,0,0,0,0
1999,11,17,13,0,,9.1,-1.4,48,101760,0,0,324,231,55,199,24805,5263,22449,0,200,1,10,0,0,0,0,0,0,0,0,0,0,0,0
1999,11,17,14,0,,9.7,-1.5,48,101730,0,0,326,208,50,180,21536,4574,20108,0,250,2.3,10,0,0,0,0,0,0,0,0,0,0,0,0
1999,11,17,15,0,,9.3,-1.7,47,101700,0,0,324,172,52,147,16703,3944,16140,0,360,1.3,10,0,0,0,0,0,0,0,0,0,0,0,0
1999,11,17,16,0,,9.2,-0.8,50,101690,0,0,325,115,49,99,0,0,0,0,20,1.8,10,0,0,0,0,0,0,0,0,0,0,0,0
1999,11,17,17,0,,8.9,0.2,53,101670,0,0,324,47,31,41,0,0,0,0,20,0.7,10,0,0,0,0,0,0,0,0,0,0,0,0
1999,11,17,18,0,,8.6,1.1,56,101660,0,0,324,3,0,3,0,0,0,0,50,0.3,10,0,0,0,0,0,0,0,0,0,0,0,0
1999,11,17,19,0,,8.6,1.9,62,101660,0,0,319,0,0,0,0,0,0,0,250,1.2,9,0,0,0,0,0,0,0,0,0,0,0,0
1999,11,17,20,0,,8.1,2.6,69,101660,0,0,312,0,0,0,0,0,0,0,250,2,9,0,0,0,0,0,0,0,0,0,0,0,0
1999,11,17,21,0,,7.6,3.4,75,101660,0,0,307,0,0,0,0,0,0,0,230,1.3,8,0,0,0,0,0,0,0,0,0,0,0,0
1999,11,17,22,0,,7.5,3.2,75,101630,0,0,306,0,0,0,0,0,0,0,230,1.7,8,0,0,0,0,0,0,0,0,0,0,0,0
1999,11,17,23,0,,6.9,3.1,76,101610,0,0,303,0,0,0,0,0,0,0,200,0.3,8,0,0,0,0,0,0,0,0,0,0,0,0
1999,11,17,24,0,,6.8,2.9,76,101580,0,0,303,0,0,0,0,0,0,0,200,2.2,8,0,0,0,0,0,0,0,0,0,0,0,0
1999,11,18,1,0,,6.3,3.2,80,101540,0,0,298,0,0,0,0,0,0,0,180,0.8,7,0,0,0,0,0,0,0,0,0,0,0,0
1999,11,18,2,0,,5.9,3.6,85,101500,0,0,294,0,0,0,0,0,0,0,180,0.5,7,0,0,0,0,0,0,0,0,0,0,0,0
1999,11,18,3,0,,5.6,3.9,89,101460,0,0,291,0,0,0,0,0,0,0,230,0.3,6,0,0,0,0,0,0,0,0,0,0,0,0
1999,11,18,4,0,,5.3,3.7,90,101470,0,0,286,0,0,0,0,0,0,0,0,0,5,0,0,0,0,0,0,0,0,0,0,0,0
1999,11,18,5,0,,5.4,3.6,90,101480,0,0,284,0,0,0,0,0,0,0,0,0,3,0,0,0,0,0,0,0,0,0,0,0,0
1999,11,18,6,0,,4.8,3.4,91,101490,0,0,278,0,0,0,0,0,0,0,250,0.5,2,0,0,0,0,0,0,0,0,0,0,0,0
1999,11,18,7,0,,4.2,3.6,92,101520,0,0,274,0,0,0,0,0,0,0,250,0.7,1,0,0,0,0,0,0,0,0,0,0,0,0
1999,11,18,8,0,,3.9,3.9,92,101540,0,0,270,42,23,19,3485,2198,2608,0,230,0.8,1,0,0,0,0,0,0,0,0,0,0,0,0
1999,11,18,9,0,,5.1,4.1,93,101570,0,0,271,162,398,70,31229,39491,11171,0,0,0.2,0,0,0,0,0,0,0,0,0,0,0,0,0
1999,11,18,10,0,,7.2,4.6,91,101560,0,0,292,293,468,112,42956,46509,16471,0,250,1,3,0,0,0,0,0,0,0,0,0,0,0,0
1999,11,18,11,0,,7.3,5,89,101550,0,0,302,294,188,200,34282,18541,23541,0,250,1.3,7,0,0,0,0,0,0,0,0,0,0,0,0
1999,11,18,12,0,,7.6,5.5,87,101540,0,0,325,176,29,159,19785,2715,18327,0,270,0.3,10,0,0,0,0,0,0,0,0,0,0,0,0
1999,11,18,13,0,,9.8,4.7,77,101500,0,0,318,320,139,239,33113,13012,27324,0,360,2.2,8,0,0,0,0,0,0,0,0,0,0,0,0
1999,11,18,14,0,,11.2,4,68,101460,0,0,315,397,340,210,32870,28442,24060,0,20,3.2,6,0,0,0,0,0,0,0,0,0,0,0,0
1999,11,18,15,0,,11.1,3.2,58,101420,0,0,308,373,531,127,18781,29566,14625,0,20,1.5,4,0,0,0,0,0,0,0,0,0,0,0,0
1999,11,18,16,0,,11.2,2.6,58,101430,0,0,305,266,545,84,0,0,0,0,340,2.7,3,0,0,0,0,0,0,0,0,0,0,0,0
1999,11,18,17,0,,10.3,2.1,57,101430,0,0,296,127,502,43,0,0,0,0,270,1.2,1,0,0,0,0,0,0,0,0,0,0,0,0
1999,11,18,18,0,,9.3,1.5,57,101440,0,0,284,21,11,10,0,0,0,0,340,0.7,0,0,0,0,0,0,0,0,0,0,0,0,0
1999,11,18,19,0,,8.3,1.1,59,101470,0,0,280,0,0,0,0,0,0,0,20,1,0,0,0,0,0,0,0,0,0,0,0,0,0
1999,11,18,20,0,,7.6,0.8,62,101510,0,0,276,0,0,0,0,0,0,0,0,0.2,0,0,0,0,0,0,0,0,0,0,0,0,0
1999,11,18,21,0,,6.7,0.4,64,101540,0,0,273,0,0,0,0,0,0,0,0,0.2,0,0,0,0,0,0,0,0,0,0,0,0,0
1999,11,18,22,0,,5.2,0.4,70,101540,0,0,272,0,0,0,0,0,0,0,250,1.2,1,0,0,0,0,0,0,0,0,0,0,0,0
1999,11,18,23,0,,4.1,0.4,75,101540,0,0,271,0,0,0,0,0,0,0,250,0.5,2,0,0,0,0,0,0,0,0,0,0,0,0
1999,11,18,24,0,,3.3,0.4,81,101540,0,0,271,0,0,0,0,0,0,0,250,0.8,3,0,0,0,0,0,0,0,0,0,0,0,0
1999,11,19,1,0,,2.7,0.4,83,101530,0,0,266,0,0,0,0,0,0,0,250,1,2,0,0,0,0,0,0,0,0,0,0,0,0
1999,11,19,2,0,,2.3,0.4,85,101510,0,0,261,0,0,0,0,0,0,0,250,1.2,1,0,0,0,0,0,0,0,0,0,0,0,0
1999,11,19,3,0,,2.2,0.4,87,101500,0,0,256,0,0,0,0,0,0,0,20,1,0,0,0,0,0,0,0,0,0,0,0,0,0
1999,11,19,4,0,,1.6,0,89,101500,0,0,257,0,0,0,0,0,0,0,0,0,1,0,0,0,0,0,0,0,0,0,0,0,0
1999,11,19,5,0,,1.4,-0.5,91,101490,0,0,258,0,0,0,0,0,0,0,0,0,1,0,0,0,0,0,0,0,0,0,0,0,0
1999,11,19,6,0,,0.2,-0.9,93,101490,0,0,256,0,0,0,0,0,0,0,250,1,2,0,0,0,0,0,0,0,0,0,0,0,0
1999,11,19,7,0,,0.4,-0.8,89,101520,0,0,258,0,0,0,0,0,0,0,250,1,3,0,0,0,0,0,0,0,0,0,0,0,0
1999,11,19,8,0,,0.8,-0.6,84,101540,0,0,262,41,22,19,3405,2071,2586,0,250,1,3,0,0,0,0,0,0,0,0,0,0,0,0
1999,11,19,9,0,,2.4,-0.5,80,101570,0,0,269,162,412,68,31444,40989,10770,0,230,0.8,4,0,0,0,0,0,0,0,0,0,0,0,0
1999,11,19,10,0,,5.6,0,72,101540,0,0,281,305,538,100,45308,53839,14834,0,200,0.5,4,0,0,0,0,0,0,0,0,0,0,0,0
1999,11,19,11,0,,8.2,0.6,65,101520,0,0,291,453,712,99,55162,71281,14099,0,250,0.8,3,0,0,0,0,0,0,0,0,0,0,0,0
1999,11,19,12,0,,8.8,1.1,57,101490,0,0,294,498,641,135,52363,62771,18854,0,0,0.2,3,0,0,0,0,0,0,0,0,0,0,0,0
1999,11,19,13,0,,11,-0.9,47,101390,0,0,302,530,690,128,46593,65337,17702,0,50,0.8,3,0,0,0,0,0,0,0,0,0,0,0,0
1999,11,19,14,0,,12.9,-3,38,101300,0,0,309,479,638,130,33230,54695,16418,0,70,1.3,4,0,0,0,0,0,0,0,0,0,0,0,0
1999,11,19,15,0,,13.3,-5,28,101200,0,0,309,412,686,95,16841,39720,11336,0,20,2.3,4,0,0,0,0,0,0,0,0,0,0,0,0
1999,11,19,16,0,,13.5,-4.7,29,101200,0,0,312,262,537,85,0,0,0,0,20,1.8,5,0,0,0,0,0,0,0,0,0,0,0,0
1999,11,19,17,0,,12.3,-4.4,31,101200,0,0,309,118,433,47,0,0,0,0,20,2.3,5,0,0,0,0,0,0,0,0,0,0,0,0
1999,11,19,18,0,,11.6,-4.1,32,101200,0,0,308,16,5,11,0,0,0,0,20,2.3,6,0,0,0,0,0,0,0,0,0,0,0,0
1999,11,19,19,0,,10.8,-2.7,39,101230,0,0,309,0,0,0,0,0,0,0,160,1.2,7,0,0,0,0,0,0,0,0,0,0,0,0
1999,11,19,20,0,,9.6,-1.2,46,101250,0,0,310,0,0,0,0,0,0,0,180,0.5,8,0,0,0,0,0,0,0,0,0,0,0,0
1999,11,19,21,0,,9.3,0.2,53,101280,0,0,317,0,0,0,0,0,0,0,0,0,9,0,0,0,0,0,0,0,0,0,0,0,0
1999,11,19,22,0,,8.8,0.4,58,101290,0,0,300,0,0,0,0,0,0,0,0,0,6,0,0,0,0,0,0,0,0,0,0,0,0
1999,11,19,23,0,,8.1,0.7,62,101290,0,0,290,0,0,0,0,0,0,0,20,0.7,3,0,0,0,0,0,0,0,0,0,0,0,0
1999,11,19,24,0,,6.7,0.9,67,101300,0,0,273,0,0,0,0,0,0,0,230,0.8,0,0,0,0,0,0,0,0,0,0,0,0,0
1999,11,20,1,0,,5.7,1.3,70,101280,0,0,277,0,0,0,0,0,0,0,250,0.7,2,0,0,0,0,0,0,0,0,0,0,0,0
1999,11,20,2,0,,6,1.7,73,101260,0,0,284,0,0,0,0,0,0,0,0,0,3,0,0,0,0,0,0,0,0,0,0,0,0
1999,11,20,3,0,,5.8,2.1,76,101240,0,0,287,0,0,0,0,0,0,0,270,1,5,0,0,0,0,0,0,0,0,0,0,0,0
1999,11,20,4,0,,6,2.2,76,101230,0,0,292,0,0,0,0,0,0,0,0,0.2,6,0,0,0,0,0,0,0,0,0,0,0,0
1999,11,20,5,0,,5.1,2.4,77,101210,0,0,293,0,0,0,0,0,0,0,200,1.7,8,0,0,0,0,0,0,0,0,0,0,0,0
1999,11,20,6,0,,6.2,2.5,77,101200,0,0,306,0,0,0,0,0,0,0,250,1.2,9,0,0,0,0,0,0,0,0,0,0,0,0
1999,11,20,7,0,,5.7,2.4,75,101240,0,0,302,0,0,0,0,0,0,0,270,1.7,9,0,0,0,0,0,0,0,0,0,0,0,0
1999,11,20,8,0,,6.2,2.4,72,101270,0,0,302,25,5,20,2607,474,2421,0,0,0.2,8,0,0,0,0,0,0,0,0,0,0,0,0
1999,11,20,9,0,,7.2,2.3,70,101310,0,0,304,107,141,76,16908,13870,9961,0,250,1.3,8,0,0,0,0,0,0,0,0,0,0,0,0
1999,11,20,10,0,,8.6,3.1,65,101290,0,0,301,268,377,125,37991,36973,17188,0,200,0.7,5,0,0,0,0,0,0,0,0,0,0,0,0
1999,11,20,11,0,,10.9,3.8,59,101260,0,0,305,424,619,118,52344,61431,17151,0,200,0.7,3,0,0,0,0,0,0,0,0,0,0,0,0
1999,11,20,12,0,,13.8,4.6,54,101240,0,0,306,532,760,105,54916,75236,14973,0,250,1.7,0,0,0,0,0,0,0,0,0,0,0,0,0
1999,11,20,13,0,,15.1,4.6,52,101210,0,0,321,555,778,104,47725,73910,15236,0,250,3,2,0,0,0,0,0,0,0,0,0,0,0,0
1999,11,20,14,0,,15.8,4.5,49,101170,0,0,330,485,667,122,32967,55831,15932,0,250,3.3,3,0,0,0,0,0,0,0,0,0,0,0,0
1999,11,20,15,0,,15.8,4.5,47,101140,0,0,334,347,448,142,18975,22661,15878,0,270,2.5,5,0,0,0,0,0,0,0,0,0,0,0,0
1999,11,20,16,0,,14.8,4.3,49,101170,0,0,325,258,524,86,0,0,0,0,270,1.7,3,0,0,0,0,0,0,0,0,0,0,0,0
1999,11,20,17,0,,13.6,4,52,101210,0,0,314,117,439,46,0,0,0,0,360,1.2,2,0,0,0,0,0,0,0,0,0,0,0,0
1999,11,20,18,0,,12.6,3.8,54,101240,0,0,300,19,9,10,0,0,0,0,320,0.8,0,0,0,0,0,0,0,0,0,0,0,0,0
1999,11,20,19,0,,11.7,4.7,61,101310,0,0,306,0,0,0,0,0,0,0,360,1.5,2,0,0,0,0,0,0,0,0,0,0,0,0
1999,11,20,20,0,,11.2,5.5,67,101370,0,0,310,0,0,0,0,0,0,0,250,1.3,3,0,0,0,0,0,0,0,0,0,0,0,0
1999,11,20,21,0,,10.8,6.4,74,101440,0,0,313,0,0,0,0,0,0,0,250,1.3,5,0,0,0,0,0,0,0,0,0,0,0,0
1999,11,20,22,0,,10,6.4,79,101450,0,0,306,0,0,0,0,0,0,0,180,0.8,3,0,0,0,0,0,0,0,0,0,0,0,0
1999,11,20,23,0,,9.3,6.5,85,101460,0,0,298,0,0,0,0,0,0,0,250,0.8,2,0,0,0,0,0,0,0,0,0,0,0,0
1999,11,20,24,0,,8,6.5,90,101470,0,0,285,0,0,0,0,0,0,0,20,1.3,0,0,0,0,0,0,0,0,0,0,0,0,0
1999,11,21,1,0,,7.9,5.6,90,101480,0,0,283,0,0,0,0,0,0,0,0,0.2,0,0,0,0,0,0,0,0,0,0,0,0,0
1999,11,21,2,0,,6.4,4.7,91,101490,0,0,276,0,0,0,0,0,0,0,250,1.3,0,0,0,0,0,0,0,0,0,0,0,0,0
1999,11,21,3,0,,5,3.8,91,101500,0,0,270,0,0,0,0,0,0,0,230,1.2,0,0,0,0,0,0,0,0,0,0,0,0,0
1999,11,21,4,0,,5.2,3,92,101500,0,0,270,0,0,0,0,0,0,0,0,0.2,0,0,0,0,0,0,0,0,0,0,0,0,0
1999,11,21,5,0,,5.2,2.1,94,101490,0,0,269,0,0,0,0,0,0,0,270,0.3,0,0,0,0,0,0,0,0,0,0,0,0,0
1999,11,21,6,0,,2,1.3,95,101490,0,0,256,0,0,0,0,0,0,0,250,1.7,0,0,0,0,0,0,0,0,0,0,0,0,0
1999,11,21,7,0,,1.9,1.6,95,101540,0,0,256,0,0,0,0,0,0,0,250,0.7,0,0,0,0,0,0,0,0,0,0,0,0,0
1999,11,21,8,0,,1.9,1.8,95,101580,0,0,257,37,18,19,3273,1681,2620,0,230,1.5,0,0,0,0,0,0,0,0,0,0,0,0,0
1999,11,21,9,0,,2.7,2.1,95,101630,0,0,260,159,425,65,31343,42161,10370,0,250,0.5,0,0,0,0,0,0,0,0,0,0,0,0,0
1999,11,21,10,0,,4.5,3.3,88,101600,0,0,270,293,510,102,43585,50730,15210,0,230,1,0,0,0,0,0,0,0,0,0,0,0,0,0
1999,11,21,11,0,,6.7,4.6,80,101580,0,0,281,412,588,124,50974,58177,17826,0,250,1,1,0,0,0,0,0,0,0,0,0,0,0,0
1999,11,21,12,0,,10.3,5.8,73,101550,0,0,298,521,736,110,54267,72259,16108,0,230,1.7,1,0,0,0,0,0,0,0,0,0,0,0,0
1999,11,21,13,0,,12,5.3,65,101500,0,0,308,542,748,111,46952,70779,16017,0,230,1.3,2,0,0,0,0,0,0,0,0,0,0,0,0
1999,11,21,14,0,,14.2,4.8,56,101460,0,0,320,516,778,95,33783,66532,13626,0,230,1.8,2,0,0,0,0,0,0,0,0,0,0,0,0
1999,11,21,15,0,,15.3,4.3,48,101410,0,0,326,407,689,93,17014,37897,11902,0,250,1.8,3,0,0,0,0,0,0,0,0,0,0,0,0
1999,11,21,16,0,,15.6,3.4,47,101430,0,0,324,286,681,64,0,0,0,0,250,1.7,2,0,0,0,0,0,0,0,0,0,0,0,0
1999,11,21,17,0,,14.4,2.6,47,101440,0,0,315,127,550,38,0,0,0,0,250,2,2,0,0,0,0,0,0,0,0,0,0,0,0
1999,11,21,18,0,,12.8,1.7,46,101460,0,0,304,19,9,10,0,0,0,0,290,0.8,1,0,0,0,0,0,0,0,0,0,0,0,0
1999,11,21,19,0,,11.8,2.4,53,101490,0,0,299,0,0,0,0,0,0,0,360,0.3,1,0,0,0,0,0,0,0,0,0,0,0,0
1999,11,21,20,0,,10.7,3.1,59,101510,0,0,294,0,0,0,0,0,0,0,250,0.5,0,0,0,0,0,0,0,0,0,0,0,0,0
1999,11,21,21,0,,9.7,3.8,66,101540,0,0,288,0,0,0,0,0,0,0,160,0.8,0,0,0,0,0,0,0,0,0,0,0,0,0
1999,11,21,22,0,,8.5,4,71,101540,0,0,294,0,0,0,0,0,0,0,230,0.5,2,0,0,0,0,0,0,0,0,0,0,0,0
1999,11,21,23,0,,8,4.1,77,101540,0,0,298,0,0,0,0,0,0,0,0,0,5,0,0,0,0,0,0,0,0,0,0,0,0
1999,11,21,24,0,,7.1,4.3,82,101540,0,0,301,0,0,0,0,0,0,0,0,0.2,7,0,0,0,0,0,0,0,0,0,0,0,0
1999,11,22,1,0,,6,3.8,83,101530,0,0,293,0,0,0,0,0,0,0,0,0,6,0,0,0,0,0,0,0,0,0,0,0,0
1999,11,22,2,0,,5.5,3.4,85,101510,0,0,287,0,0,0,0,0,0,0,0,0,5,0,0,0,0,0,0,0,0,0,0,0,0
1999,11,22,3,0,,5.2,2.9,86,101500,0,0,284,0,0,0,0,0,0,0,230,0.5,4,0,0,0,0,0,0,0,0,0,0,0,0
1999,11,22,4,0,,5,2.7,88,101490,0,0,284,0,0,0,0,0,0,0,360,0.8,5,0,0,0,0,0,0,0,0,0,0,0,0
1999,11,22,5,0,,4.2,2.5,89,101480,0,0,282,0,0,0,0,0,0,0,250,0.3,5,0,0,0,0,0,0,0,0,0,0,0,0
1999,11,22,6,0,,3.6,2.3,91,101470,0,0,281,0,0,0,0,0,0,0,250,1,6,0,0,0,0,0,0,0,0,0,0,0,0
1999,11,22,7,0,,3.2,2.4,88,101490,0,0,275,0,0,0,0,0,0,0,0,0,4,0,0,0,0,0,0,0,0,0,0,0,0
1999,11,22,8,0,,3.4,2.4,85,101520,0,0,271,38,20,18,3136,1932,2392,0,0,0,2,0,0,0,0,0,0,0,0,0,0,0,0
1999,11,22,9,0,,5.5,2.5,82,101540,0,0,270,168,520,55,34142,52079,8411,0,0,0,0,0,0,0,0,0,0,0,0,0,0,0,0
1999,11,22,10,0,,7.7,3,72,101520,0,0,283,316,626,83,47041,62918,12053,0,250,0.8,1,0,0,0,0,0,0,0,0,0,0,0,0
1999,11,22,11,0,,11,3.4,63,101510,0,0,300,459,767,85,56130,77228,12361,0,250,0.3,1,0,0,0,0,0,0,0,0,0,0,0,0
1999,11,22,12,0,,13.3,3.9,53,101490,0,0,313,522,748,106,54288,73678,15582,0,20,0.5,2,0,0,0,0,0,0,0,0,0,0,0,0
1999,11,22,13,0,,15.8,2.1,44,101440,0,0,330,501,628,141,44717,58643,19228,0,320,0.7,5,0,0,0,0,0,0,0,0,0,0,0,0
1999,11,22,14,0,,18.2,0.4,36,101380,0,0,349,417,458,171,31396,38675,19759,0,200,1.7,7,0,0,0,0,0,0,0,0,0,0,0,0
1999,11,22,15,0,,17.5,-1.4,27,101330,0,0,365,212,103,165,19030,7794,17992,0,230,1.5,10,0,0,0,0,0,0,0,0,0,0,0,0
1999,11,22,16,0,,16.6,-0.8,30,101300,0,0,357,123,65,102,0,0,0,0,270,0.5,10,0,0,0,0,0,0,0,0,0,0,0,0
1999,11,22,17,0,,15.7,-0.2,34,101270,0,0,350,59,74,48,0,0,0,0,50,1,9,0,0,0,0,0,0,0,0,0,0,0,0
1999,11,22,18,0,,14.8,0.4,37,101240,0,0,343,6,0,6,0,0,0,0,70,2.2,9,0,0,0,0,0,0,0,0,0,0,0,0
1999,11,22,19,0,,14.2,1.5,44,101260,0,0,328,0,0,0,0,0,0,0,50,1,7,0,0,0,0,0,0,0,0,0,0,0,0
1999,11,22,20,0,,13.7,2.7,50,101290,0,0,320,0,0,0,0,0,0,0,230,1,4,0,0,0,0,0,0,0,0,0,0,0,0
1999,11,22,21,0,,12,3.8,57,101310,0,0,308,0,0,0,0,0,0,0,230,0.8,2,0,0,0,0,0,0,0,0,0,0,0,0
1999,11,22,22,0,,10.9,3.4,59,101330,0,0,300,0,0,0,0,0,0,0,0,0,1,0,0,0,0,0,0,0,0,0,0,0,0
1999,11,22,23,0,,10.3,3.1,60,101340,0,0,294,0,0,0,0,0,0,0,0,0,1,0,0,0,0,0,0,0,0,0,0,0,0
1999,11,22,24,0,,9.4,2.7,62,101360,0,0,286,0,0,0,0,0,0,0,70,0.7,0,0,0,0,0,0,0,0,0,0,0,0,0
1999,11,23,1,0,,8.3,2.8,66,101340,0,0,281,0,0,0,0,0,0,0,250,1,0,0,0,0,0,0,0,0,0,0,0,0,0
1999,11,23,2,0,,7.7,2.9,71,101330,0,0,279,0,0,0,0,0,0,0,0,0,0,0,0,0,0,0,0,0,0,0,0,0,0
1999,11,23,3,0,,7.2,3,75,101310,0,0,277,0,0,0,0,0,0,0,0,0,0,0,0,0,0,0,0,0,0,0,0,0,0
1999,11,23,4,0,,7.7,2.8,75,101320,0,0,283,0,0,0,0,0,0,0,0,0,1,0,0,0,0,0,0,0,0,0,0,0,0
1999,11,23,5,0,,6,2.7,74,101330,0,0,279,0,0,0,0,0,0,0,230,1,1,0,0,0,0,0,0,0,0,0,0,0,0
1999,11,23,6,0,,6.8,2.5,74,101340,0,0,284,0,0,0,0,0,0,0,360,0.3,2,0,0,0,0,0,0,0,0,0,0,0,0
1999,11,23,7,0,,5.9,2.4,73,101370,0,0,283,0,0,0,0,0,0,0,250,0.8,3,0,0,0,0,0,0,0,0,0,0,0,0
1999,11,23,8,0,,6,2.4,72,101390,0,0,285,40,18,22,3587,1657,2955,0,230,1.3,3,0,0,0,0,0,0,0,0,0,0,0,0
1999,11,23,9,0,,7.2,2.3,71,101420,0,0,291,151,402,65,29893,39826,10348,0,200,1.3,4,0,0,0,0,0,0,0,0,0,0,0,0
1999,11,23,10,0,,10,3.7,63,101380,0,0,301,300,568,91,45172,56689,13828,0,250,1.2,3,0,0,0,0,0,0,0,0,0,0,0,0
1999,11,23,11,0,,13.6,5,56,101340,0,0,313,448,739,90,54929,74308,13034,0,250,0.7,1,0,0,0,0,0,0,0,0,0,0,0,0
1999,11,23,12,0,,17.3,6.4,48,101300,0,0,324,558,871,76,56720,87055,11218,0,70,1.3,0,0,0,0,0,0,0,0,0,0,0,0,0
1999,11,23,13,0,,19,5.5,43,101230,0,0,331,574,864,81,48300,83585,12162,0,20,1.3,0,0,0,0,0,0,0,0,0,0,0,0,0
1999,11,23,14,0,,20.2,4.7,38,101160,0,0,335,512,781,93,33286,66518,13400,0,0,0.2,0,0,0,0,0,0,0,0,0,0,0,0,0
1999,11,23,15,0,,20.6,3.8,33,101090,0,0,336,414,732,84,16251,40458,10927,0,20,1.7,0,0,0,0,0,0,0,0,0,0,0,0,0
1999,11,23,16,0,,20.3,3.4,34,101080,0,0,334,281,672,64,0,0,0,0,20,0.5,0,0,0,0,0,0,0,0,0,0,0,0,0
1999,11,23,17,0,,19.7,2.9,34,101070,0,0,331,125,563,36,0,0,0,0,0,0,0,0,0,0,0,0,0,0,0,0,0,0,0
1999,11,23,18,0,,18.1,2.5,35,101060,0,0,323,19,10,9,0,0,0,0,0,0.2,0,0,0,0,0,0,0,0,0,0,0,0,0
1999,11,23,19,0,,15.9,3.7,44,101100,0,0,315,0,0,0,0,0,0,0,50,0.3,0,0,0,0,0,0,0,0,0,0,0,0,0
1999,11,23,20,0,,14.3,5,53,101130,0,0,309,0,0,0,0,0,0,0,0,0.2,0,0,0,0,0,0,0,0,0,0,0,0,0
1999,11,23,21,0,,13.4,6.2,62,101170,0,0,306,0,0,0,0,0,0,0,200,0.8,0,0,0,0,0,0,0,0,0,0,0,0,0
1999,11,23,22,0,,12.4,6.5,67,101140,0,0,302,0,0,0,0,0,0,0,180,0.8,0,0,0,0,0,0,0,0,0,0,0,0,0
1999,11,23,23,0,,11.5,6.7,72,101120,0,0,299,0,0,0,0,0,0,0,140,0.3,0,0,0,0,0,0,0,0,0,0,0,0,0
1999,11,23,24,0,,10.8,7,77,101090,0,0,296,0,0,0,0,0,0,0,230,0.8,0,0,0,0,0,0,0,0,0,0,0,0,0
1999,11,24,1,0,,9.8,6.3,77,101070,0,0,291,0,0,0,0,0,0,0,0,0,0,0,0,0,0,0,0,0,0,0,0,0,0
1999,11,24,2,0,,8.5,5.7,78,101060,0,0,286,0,0,0,0,0,0,0,0,0,0,0,0,0,0,0,0,0,0,0,0,0,0
1999,11,24,3,0,,8.6,5,78,101040,0,0,285,0,0,0,0,0,0,0,250,1.3,0,0,0,0,0,0,0,0,0,0,0,0,0
1999,11,24,4,0,,7.6,5,82,101000,0,0,291,0,0,0,0,0,0,0,0,0,2,0,0,0,0,0,0,0,0,0,0,0,0
1999,11,24,5,0,,7.8,5,87,100950,0,0,297,0,0,0,0,0,0,0,250,0.8,4,0,0,0,0,0,0,0,0,0,0,0,0
1999,11,24,6,0,,6.4,5,91,100910,0,0,296,0,0,0,0,0,0,0,230,0.8,6,0,0,0,0,0,0,0,0,0,0,0,0
1999,11,24,7,0,,6.3,4.8,87,100890,0,0,293,0,0,0,0,0,0,0,50,0.7,5,0,0,0,0,0,0,0,0,0,0,0,0
1999,11,24,8,0,,6.9,4.7,83,100880,0,0,293,32,13,19,3025,1252,2551,0,0,0,4,0,0,0,0,0,0,0,0,0,0,0,0
1999,11,24,9,0,,7.9,4.5,79,100860,0,0,294,153,436,60,30881,43148,9846,0,230,1,3,0,0,0,0,0,0,0,0,0,0,0,0
1999,11,24,10,0,,9.3,4.7,69,100790,0,0,302,281,492,102,41995,48758,15187,0,230,2.3,4,0,0,0,0,0,0,0,0,0,0,0,0
1999,11,24,11,0,,12.9,4.9,59,100730,0,0,319,401,581,122,49788,57330,17629,0,0,0.2,4,0,0,0,0,0,0,0,0,0,0,0,0
1999,11,24,12,0,,15.7,5.1,49,100660,0,0,334,469,597,141,49714,57808,19646,0,340,0.3,5,0,0,0,0,0,0,0,0,0,0,0,0
1999,11,24,13,0,,18.2,4.5,44,100580,0,0,341,555,814,93,47260,78155,13643,0,290,1.5,3,0,0,0,0,0,0,0,0,0,0,0,0
1999,11,24,14,0,,20.1,4,38,100500,0,0,344,520,817,85,33146,69955,12362,0,230,1.7,2,0,0,0,0,0,0,0,0,0,0,0,0
1999,11,24,15,0,,20,3.4,33,100420,0,0,333,429,796,72,15482,45055,9620,0,250,3,0,0,0,0,0,0,0,0,0,0,0,0,0
1999,11,24,16,0,,19.3,3.6,36,100370,0,0,340,280,679,63,0,0,0,0,200,3.8,2,0,0,0,0,0,0,0,0,0,0,0,0
1999,11,24,17,0,,18.3,3.9,38,100310,0,0,341,120,515,39,0,0,0,0,200,3.2,3,0,0,0,0,0,0,0,0,0,0,0,0
1999,11,24,18,0,,17.4,4.1,41,100260,0,0,341,14,4,10,0,0,0,0,160,2.3,5,0,0,0,0,0,0,0,0,0,0,0,0
1999,11,24,19,0,,16.8,6.2,55,100270,0,0,346,0,0,0,0,0,0,0,180,2.3,7,0,0,0,0,0,0,0,0,0,0,0,0
1999,11,24,20,0,,15.4,8.3,68,100280,0,0,351,0,0,0,0,0,0,0,250,3,8,0,0,0,0,0,0,0,0,0,0,0,0
1999,11,24,21,0,,13.4,10.4,82,100290,0,0,359,0,0,0,0,0,0,0,110,1,10,0,0,0,0,0,0,0,0,0,0,0,0
1999,11,24,22,0,,12.4,10.7,85,100270,0,0,355,0,0,0,0,0,0,0,140,0.5,10,0,0,0,0,0,0,0,0,0,0,0,0
1999,11,24,23,0,,12.4,11,87,100240,0,0,355,0,0,0,0,0,0,0,180,0.8,10,0,0,0,0,0,0,0,0,0,0,0,0
1999,11,24,24,0,,12.9,11.3,90,100220,0,0,358,0,0,0,0,0,0,0,250,0.7,10,0,0,0,0,0,0,0,0,0,0,0,0
1999,11,25,1,0,,12.6,10.5,88,100250,0,0,355,0,0,0,0,0,0,0,250,2,10,0,0,0,0,0,0,0,0,0,0,0,0
1999,11,25,2,0,,12.4,9.7,86,100270,0,0,353,0,0,0,0,0,0,0,290,3,10,0,0,0,0,0,0,0,0,0,0,0,0
1999,11,25,3,0,,11.4,8.9,84,100300,0,0,347,0,0,0,0,0,0,0,290,4.8,10,0,0,0,0,0,0,0,0,0,0,0,0
1999,11,25,4,0,,11,7.1,79,100390,0,0,336,0,0,0,0,0,0,0,290,3.3,9,0,0,0,0,0,0,0,0,0,0,0,0
1999,11,25,5,0,,9.3,5.2,73,100470,0,0,321,0,0,0,0,0,0,0,320,2.5,9,0,0,0,0,0,0,0,0,0,0,0,0
1999,11,25,6,0,,8.8,3.4,68,100560,0,0,312,0,0,0,0,0,0,0,360,2.8,8,0,0,0,0,0,0,0,0,0,0,0,0
1999,11,25,7,0,,8.5,2.8,66,100620,0,0,305,0,0,0,0,0,0,0,340,2,7,0,0,0,0,0,0,0,0,0,0,0,0
1999,11,25,8,0,,8.2,2.3,65,100670,0,0,300,30,11,19,2644,1012,2264,0,360,2.5,6,0,0,0,0,0,0,0,0,0,0,0,0
1999,11,25,9,0,,8.3,1.7,63,100730,0,0,297,138,337,68,26885,33245,10784,0,360,3,5,0,0,0,0,0,0,0,0,0,0,0,0
1999,11,25,10,0,,8.4,1.6,61,100750,0,0,296,254,372,119,36410,36559,16420,0,360,4.3,5,0,0,0,0,0,0,0,0,0,0,0,0
1999,11,25,11,0,,9.1,1.6,60,100780,0,0,299,365,456,148,44615,44809,19604,0,360,3.8,4,0,0,0,0,0,0,0,0,0,0,0,0
1999,11,25,12,0,,9.3,1.5,58,100800,0,0,299,433,486,167,45968,47114,21578,0,360,3.7,4,0,0,0,0,0,0,0,0,0,0,0,0
1999,11,25,13,0,,9.7,0.5,54,100740,0,0,297,462,530,163,41923,49620,20684,0,360,3.3,3,0,0,0,0,0,0,0,0,0,0,0,0
1999,11,25,14,0,,9.8,-0.4,49,100680,0,0,294,454,607,132,31718,50992,16656,0,360,3.3,2,0,0,0,0,0,0,0,0,0,0,0,0
1999,11,25,15,0,,9.8,-1.4,45,100620,0,0,289,385,634,102,16319,34441,11885,0,20,3.3,1,0,0,0,0,0,0,0,0,0,0,0,0
1999,11,25,16,0,,9.6,-1.2,50,100720,0,0,289,265,608,72,0,0,0,0,20,3,1,0,0,0,0,0,0,0,0,0,0,0,0
1999,11,25,17,0,,7.7,-1.1,54,100810,0,0,283,114,462,42,0,0,0,0,360,2.7,2,0,0,0,0,0,0,0,0,0,0,0,0
1999,11,25,18,0,,6.6,-0.9,59,100910,0,0,280,16,6,10,0,0,0,0,360,3.8,2,0,0,0,0,0,0,0,0,0,0,0,0
1999,11,25,19,0,,6.4,-1,59,101000,0,0,283,0,0,0,0,0,0,0,360,2,4,0,0,0,0,0,0,0,0,0,0,0,0
1999,11,25,20,0,,5.9,-1.1,60,101080,0,0,285,0,0,0,0,0,0,0,360,2.5,5,0,0,0,0,0,0,0,0,0,0,0,0
1999,11,25,21,0,,6,-1.2,60,101170,0,0,290,0,0,0,0,0,0,0,20,2.3,7,0,0,0,0,0,0,0,0,0,0,0,0
1999,11,25,22,0,,6.1,-1.7,59,101200,0,0,290,0,0,0,0,0,0,0,20,3.7,7,0,0,0,0,0,0,0,0,0,0,0,0
1999,11,25,23,0,,5.6,-2.2,58,101230,0,0,287,0,0,0,0,0,0,0,360,1.7,7,0,0,0,0,0,0,0,0,0,0,0,0
1999,11,25,24,0,,5.2,-2.7,57,101260,0,0,285,0,0,0,0,0,0,0,20,2.2,7,0,0,0,0,0,0,0,0,0,0,0,0
1999,11,26,1,0,,4.9,-2.8,57,101270,0,0,287,0,0,0,0,0,0,0,360,1.5,8,0,0,0,0,0,0,0,0,0,0,0,0
1999,11,26,2,0,,4.7,-2.9,58,101270,0,0,289,0,0,0,0,0,0,0,360,2,8,0,0,0,0,0,0,0,0,0,0,0,0
1999,11,26,3,0,,4.4,-3,58,101280,0,0,292,0,0,0,0,0,0,0,360,3,9,0,0,0,0,0,0,0,0,0,0,0,0
1999,11,26,4,0,,4.2,-3.4,57,101270,0,0,291,0,0,0,0,0,0,0,20,2.5,9,0,0,0,0,0,0,0,0,0,0,0,0
1999,11,26,5,0,,4.2,-3.7,57,101270,0,0,291,0,0,0,0,0,0,0,20,2.7,9,0,0,0,0,0,0,0,0,0,0,0,0
1999,11,26,6,0,,3.9,-4.1,56,101260,0,0,289,0,0,0,0,0,0,0,20,3.5,9,0,0,0,0,0,0,0,0,0,0,0,0
1999,11,26,7,0,,3.5,-3.6,59,101360,0,0,290,0,0,0,0,0,0,0,360,2,9,0,0,0,0,0,0,0,0,0,0,0,0
1999,11,26,8,0,,3.2,-3.2,63,101470,0,0,292,11,1,10,1361,23,1353,0,360,2.7,10,0,0,0,0,0,0,0,0,0,0,0,0
1999,11,26,9,0,,2.7,-2.7,66,101570,0,0,294,54,26,48,7416,2625,6153,0,360,1.7,10,0,0,0,0,0,0,0,0,0,0,0,0
1999,11,26,10,0,,2.1,-2.3,71,101600,0,0,292,97,25,88,11601,2340,10328,0,20,1.7,10,0,0,0,0,0,0,0,0,0,0,0,0
1999,11,26,11,0,,1.8,-1.8,75,101630,0,0,291,119,17,110,13720,1669,12792,0,320,1.3,10,0,0,0,0,0,0,0,0,0,0,0,0
1999,11,26,12,0,,1.7,-1.4,80,101660,0,0,291,149,21,137,16805,2010,15769,0,20,2.7,10,0,0,0,0,0,0,0,0,0,0,0,0
1999,11,26,13,0,,1.6,-3.2,69,101630,0,0,270,326,169,231,32970,16186,26074,0,20,4,7,0,0,0,0,0,0,0,0,0,0,0,0
1999,11,26,14,0,,2.8,-4.9,58,101600,0,0,265,420,498,157,31256,42039,18907,0,20,4.2,4,0,0,0,0,0,0,0,0,0,0,0,0
1999,11,26,15,0,,3.5,-6.7,47,101570,0,0,258,394,677,93,15676,37413,10907,0,20,3.5,1,0,0,0,0,0,0,0,0,0,0,0,0
1999,11,26,16,0,,3.2,-6.7,49,101600,0,0,260,271,647,66,0,0,0,0,360,2.7,2,0,0,0,0,0,0,0,0,0,0,0,0
1999,11,26,17,0,,2.4,-6.7,51,101630,0,0,258,118,521,38,0,0,0,0,360,1.8,2,0,0,0,0,0,0,0,0,0,0,0,0
1999,11,26,18,0,,1.6,-6.7,53,101660,0,0,257,16,6,9,0,0,0,0,50,1.7,3,0,0,0,0,0,0,0,0,0,0,0,0
1999,11,26,19,0,,1.1,-6.9,54,101680,0,0,254,0,0,0,0,0,0,0,20,2.5,3,0,0,0,0,0,0,0,0,0,0,0,0
1999,11,26,20,0,,0.5,-7.2,56,101700,0,0,250,0,0,0,0,0,0,0,50,2.3,2,0,0,0,0,0,0,0,0,0,0,0,0
1999,11,26,21,0,,0.2,-7.4,57,101720,0,0,248,0,0,0,0,0,0,0,50,1.7,2,0,0,0,0,0,0,0,0,0,0,0,0
1999,11,26,22,0,,0.4,-6.8,58,101720,0,0,254,0,0,0,0,0,0,0,50,2.7,4,0,0,0,0,0,0,0,0,0,0,0,0
1999,11,26,23,0,,0.6,-6.3,60,101730,0,0,260,0,0,0,0,0,0,0,50,2.3,6,0,0,0,0,0,0,0,0,0,0,0,0
1999,11,26,24,0,,0.8,-5.7,61,101730,0,0,268,0,0,0,0,0,0,0,20,2,8,0,0,0,0,0,0,0,0,0,0,0,0
1999,11,27,1,0,,0.6,-5.6,63,101700,0,0,266,0,0,0,0,0,0,0,50,0.8,8,0,0,0,0,0,0,0,0,0,0,0,0
1999,11,27,2,0,,0.4,-5.5,65,101660,0,0,264,0,0,0,0,0,0,0,230,1.3,7,0,0,0,0,0,0,0,0,0,0,0,0
1999,11,27,3,0,,0,-5.4,67,101630,0,0,261,0,0,0,0,0,0,0,360,1.8,7,0,0,0,0,0,0,0,0,0,0,0,0
1999,11,27,4,0,,0,-5.6,65,101600,0,0,260,0,0,0,0,0,0,0,250,1,7,0,0,0,0,0,0,0,0,0,0,0,0
1999,11,27,5,0,,0.2,-5.8,64,101580,0,0,259,0,0,0,0,0,0,0,180,0.3,6,0,0,0,0,0,0,0,0,0,0,0,0
1999,11,27,6,0,,0.2,-6,62,101550,0,0,258,0,0,0,0,0,0,0,20,1,6,0,0,0,0,0,0,0,0,0,0,0,0
1999,11,27,7,0,,0.2,-5.5,64,101570,0,0,258,0,0,0,0,0,0,0,20,0.7,6,0,0,0,0,0,0,0,0,0,0,0,0
1999,11,27,8,0,,0.4,-4.9,66,101600,0,0,259,32,17,16,2732,1585,2148,0,250,1.3,5,0,0,0,0,0,0,0,0,0,0,0,0
1999,11,27,9,0,,0.9,-4.4,68,101620,0,0,261,138,368,63,27532,36532,10064,0,230,1.5,5,0,0,0,0,0,0,0,0,0,0,0,0
1999,11,27,10,0,,3.6,-3.2,67,101580,0,0,277,227,293,123,32323,29051,16606,0,180,2,7,0,0,0,0,0,0,0,0,0,0,0,0
1999,11,27,11,0,,4.4,-1.9,67,101550,0,0,289,271,182,185,31708,18396,21537,0,250,2.8,8,0,0,0,0,0,0,0,0,0,0,0,0
1999,11,27,12,0,,5,-0.7,66,101510,0,0,306,207,54,178,22972,5212,20298,0,250,2,10,0,0,0,0,0,0,0,0,0,0,0,0
1999,11,27,13,0,,2.9,0.3,73,101460,0,0,298,150,20,139,16521,1325,15959,0,20,2,10,0,0,0,0,0,0,0,0,0,0,0,0
1999,11,27,14,0,,3.4,1.3,81,101410,0,0,301,127,15,119,13530,865,13278,0,320,0.7,10,0,0,0,0,0,0,0,0,0,0,0,0
1999,11,27,15,0,,4,2.3,88,101360,0,0,305,101,14,95,9961,471,9901,0,20,1.5,10,0,0,0,0,0,0,0,0,0,0,0,0
1999,11,27,16,0,,4.3,1.7,85,101380,0,0,306,97,37,86,0,0,0,0,20,3,10,0,0,0,0,0,0,0,0,0,0,0,0
1999,11,27,17,0,,4.3,1,81,101390,0,0,305,42,33,38,0,0,0,0,20,2.7,10,0,0,0,0,0,0,0,0,0,0,0,0
1999,11,27,18,0,,4,0.4,78,101410,0,0,303,1,0,1,0,0,0,0,50,2.2,10,0,0,0,0,0,0,0,0,0,0,0,0
1999,11,27,19,0,,3.8,-0.1,75,101440,0,0,301,0,0,0,0,0,0,0,20,2.3,10,0,0,0,0,0,0,0,0,0,0,0,0
1999,11,27,20,0,,3.5,-0.7,73,101460,0,0,299,0,0,0,0,0,0,0,50,1.3,10,0,0,0,0,0,0,0,0,0,0,0,0
1999,11,27,21,0,,3.6,-1.2,70,101490,0,0,299,0,0,0,0,0,0,0,20,1.7,10,0,0,0,0,0,0,0,0,0,0,0,0
1999,11,27,22,0,,3.6,-0.4,76,101470,0,0,300,0,0,0,0,0,0,0,230,1.7,10,0,0,0,0,0,0,0,0,0,0,0,0
1999,11,27,23,0,,3.1,0.3,81,101460,0,0,299,0,0,0,0,0,0,0,270,1,10,0,0,0,0,0,0,0,0,0,0,0,0
1999,11,27,24,0,,2.9,1.1,87,101440,0,0,299,0,0,0,0,0,0,0,340,1,10,0,0,0,0,0,0,0,0,0,0,0,0
1999,11,28,1,0,,2.6,1.2,89,101460,0,0,298,0,0,0,0,0,0,0,20,0.7,10,0,0,0,0,0,0,0,0,0,0,0,0
1999,11,28,2,0,,2.2,1.2,91,101490,0,0,297,0,0,0,0,0,0,0,0,0.2,10,0,0,0,0,0,0,0,0,0,0,0,0
1999,11,28,3,0,,2.2,1.3,93,101510,0,0,297,0,0,0,0,0,0,0,230,1.3,10,0,0,0,0,0,0,0,0,0,0,0,0
1999,11,28,4,0,,2.3,1.3,93,101510,0,0,297,0,0,0,0,0,0,0,250,1.3,10,0,0,0,0,0,0,0,0,0,0,0,0
1999,11,28,5,0,,2,1.3,93,101500,0,0,296,0,0,0,0,0,0,0,230,2,10,0,0,0,0,0,0,0,0,0,0,0,0
1999,11,28,6,0,,2.3,1.3,93,101500,0,0,297,0,0,0,0,0,0,0,230,0.8,10,0,0,0,0,0,0,0,0,0,0,0,0
1999,11,28,7,0,,2.1,0.3,87,101580,0,0,276,0,0,0,0,0,0,0,20,2.7,7,0,0,0,0,0,0,0,0,0,0,0,0
1999,11,28,8,0,,1.9,-0.7,81,101670,0,0,267,32,17,15,2630,1637,2031,0,20,5.3,4,0,0,0,0,0,0,0,0,0,0,0,0
1999,11,28,9,0,,2.5,-1.7,75,101750,0,0,260,158,564,46,33381,55454,7032,0,50,5.3,1,0,0,0,0,0,0,0,0,0,0,0,0
1999,11,28,10,0,,3.8,-2.4,68,101750,0,0,269,292,594,82,43911,59314,11988,0,50,5.7,3,0,0,0,0,0,0,0,0,0,0,0,0
1999,11,28,11,0,,3.9,-3.1,61,101760,0,0,272,379,539,127,47243,53347,17882,0,50,4.3,4,0,0,0,0,0,0,0,0,0,0,0,0
1999,11,28,12,0,,4.4,-3.8,54,101760,0,0,277,385,334,205,40889,33449,23802,0,50,4,6,0,0,0,0,0,0,0,0,0,0,0,0
1999,11,28,13,0,,4.9,-3.9,53,101750,0,0,279,396,318,219,37759,30548,24858,0,20,4,6,0,0,0,0,0,0,0,0,0,0,0,0
1999,11,28,14,0,,4.7,-4,52,101740,0,0,279,358,292,205,30017,24845,22792,0,360,3.3,6,0,0,0,0,0,0,0,0,0,0,0,0
1999,11,28,15,0,,4.9,-4.1,51,101730,0,0,279,304,340,155,18599,16954,16475,0,20,3.8,6,0,0,0,0,0,0,0,0,0,0,0,0
1999,11,28,16,0,,4.2,-4.2,53,101740,0,0,274,219,376,101,0,0,0,0,20,2.3,5,0,0,0,0,0,0,0,0,0,0,0,0
1999,11,28,17,0,,3.4,-4.3,56,101760,0,0,268,106,411,44,0,0,0,0,360,3,4,0,0,0,0,0,0,0,0,0,0,0,0
1999,11,28,18,0,,2.9,-4.4,58,101770,0,0,264,14,5,9,0,0,0,0,360,2.7,3,0,0,0,0,0,0,0,0,0,0,0,0
1999,11,28,19,0,,2,-3.8,63,101820,0,0,264,0,0,0,0,0,0,0,50,2,4,0,0,0,0,0,0,0,0,0,0,0,0
1999,11,28,20,0,,1.5,-3.3,68,101860,0,0,266,0,0,0,0,0,0,0,50,3,6,0,0,0,0,0,0,0,0,0,0,0,0
1999,11,28,21,0,,1.6,-2.7,73,101910,0,0,271,0,0,0,0,0,0,0,50,3,7,0,0,0,0,0,0,0,0,0,0,0,0
1999,11,28,22,0,,1.6,-3.2,70,101910,0,0,271,0,0,0,0,0,0,0,50,3.3,7,0,0,0,0,0,0,0,0,0,0,0,0
1999,11,28,23,0,,1.5,-3.6,68,101910,0,0,272,0,0,0,0,0,0,0,20,1.7,8,0,0,0,0,0,0,0,0,0,0,0,0
1999,11,28,24,0,,1.9,-4.1,65,101910,0,0,275,0,0,0,0,0,0,0,20,1.2,8,0,0,0,0,0,0,0,0,0,0,0,0
1999,11,29,1,0,,1.6,-3.4,69,101890,0,0,274,0,0,0,0,0,0,0,20,1.7,8,0,0,0,0,0,0,0,0,0,0,0,0
1999,11,29,2,0,,1.7,-2.6,74,101860,0,0,276,0,0,0,0,0,0,0,20,0.8,8,0,0,0,0,0,0,0,0,0,0,0,0
1999,11,29,3,0,,1.5,-1.9,78,101840,0,0,276,0,0,0,0,0,0,0,250,1,8,0,0,0,0,0,0,0,0,0,0,0,0
1999,11,29,4,0,,1.4,-2.3,78,101840,0,0,268,0,0,0,0,0,0,0,20,0.5,6,0,0,0,0,0,0,0,0,0,0,0,0
1999,11,29,5,0,,1,-2.6,77,101840,0,0,262,0,0,0,0,0,0,0,50,1,5,0,0,0,0,0,0,0,0,0,0,0,0
1999,11,29,6,0,,0.6,-3,77,101840,0,0,257,0,0,0,0,0,0,0,20,1.7,3,0,0,0,0,0,0,0,0,0,0,0,0
1999,11,29,7,0,,0.8,-2.6,77,101860,0,0,261,0,0,0,0,0,0,0,20,1,4,0,0,0,0,0,0,0,0,0,0,0,0
1999,11,29,8,0,,0.9,-2.1,77,101880,0,0,265,25,8,17,2304,748,2033,0,50,1,6,0,0,0,0,0,0,0,0,0,0,0,0
1999,11,29,9,0,,1.9,-1.7,77,101900,0,0,273,101,186,65,18208,18008,9704,0,0,0,7,0,0,0,0,0,0,0,0,0,0,0,0
1999,11,29,10,0,,2.9,-1.1,75,101870,0,0,275,220,283,121,31429,27860,16509,0,0,0.2,6,0,0,0,0,0,0,0,0,0,0,0,0
1999,11,29,11,0,,3.8,-0.4,74,101830,0,0,278,306,280,176,36488,28145,21066,0,250,1.2,6,0,0,0,0,0,0,0,0,0,0,0,0
1999,11,29,12,0,,4.9,0.2,72,101800,0,0,281,389,371,191,41225,36755,22525,0,50,0.3,5,0,0,0,0,0,0,0,0,0,0,0,0
1999,11,29,13,0,,5.5,0.5,70,101750,0,0,285,401,339,213,38066,32064,24579,0,270,1,5,0,0,0,0,0,0,0,0,0,0,0,0
1999,11,29,14,0,,6.6,0.8,67,101710,0,0,290,353,284,205,29822,23810,22929,0,270,0.7,6,0,0,0,0,0,0,0,0,0,0,0,0
1999,11,29,15,0,,7.5,1.1,65,101660,0,0,295,304,342,153,18613,16444,16568,0,250,1.5,6,0,0,0,0,0,0,0,0,0,0,0,0
1999,11,29,16,0,,6.6,1.2,67,101680,0,0,292,194,287,105,0,0,0,0,50,0.8,6,0,0,0,0,0,0,0,0,0,0,0,0
1999,11,29,17,0,,6.5,1.2,68,101700,0,0,291,89,305,43,0,0,0,0,250,1.3,6,0,0,0,0,0,0,0,0,0,0,0,0
1999,11,29,18,0,,6,1.3,70,101720,0,0,289,9,1,8,0,0,0,0,290,0.7,6,0,0,0,0,0,0,0,0,0,0,0,0
1999,11,29,19,0,,5.2,1.4,74,101760,0,0,283,0,0,0,0,0,0,0,20,2.2,5,0,0,0,0,0,0,0,0,0,0,0,0
1999,11,29,20,0,,4.8,1.6,78,101790,0,0,279,0,0,0,0,0,0,0,0,0,3,0,0,0,0,0,0,0,0,0,0,0,0
1999,11,29,21,0,,4.4,1.7,82,101830,0,0,274,0,0,0,0,0,0,0,20,1.7,2,0,0,0,0,0,0,0,0,0,0,0,0
1999,11,29,22,0,,3.7,1.8,84,101870,0,0,278,0,0,0,0,0,0,0,230,1.3,5,0,0,0,0,0,0,0,0,0,0,0,0
1999,11,29,23,0,,3.6,1.8,86,101900,0,0,285,0,0,0,0,0,0,0,230,0.3,7,0,0,0,0,0,0,0,0,0,0,0,0
1999,11,29,24,0,,3.7,1.9,88,101940,0,0,304,0,0,0,0,0,0,0,230,0.5,10,0,0,0,0,0,0,0,0,0,0,0,0
1999,11,30,1,0,,3,1.8,89,101940,0,0,295,0,0,0,0,0,0,0,0,0.2,9,0,0,0,0,0,0,0,0,0,0,0,0
1999,11,30,2,0,,3.2,1.8,90,101930,0,0,291,0,0,0,0,0,0,0,0,0,9,0,0,0,0,0,0,0,0,0,0,0,0
1999,11,30,3,0,,3,1.7,91,101930,0,0,286,0,0,0,0,0,0,0,250,0.8,8,0,0,0,0,0,0,0,0,0,0,0,0
1999,11,30,4,0,,2.6,1.6,91,101930,0,0,283,0,0,0,0,0,0,0,230,0.7,8,0,0,0,0,0,0,0,0,0,0,0,0
1999,11,30,5,0,,2.4,1.4,92,101930,0,0,280,0,0,0,0,0,0,0,230,1,7,0,0,0,0,0,0,0,0,0,0,0,0
1999,11,30,6,0,,2.4,1.3,92,101930,0,0,279,0,0,0,0,0,0,0,250,0.8,7,0,0,0,0,0,0,0,0,0,0,0,0
1999,11,30,7,0,,2.4,1.5,91,101970,0,0,280,0,0,0,0,0,0,0,0,0,7,0,0,0,0,0,0,0,0,0,0,0,0
1999,11,30,8,0,,2.6,1.7,89,102020,0,0,283,15,2,13,1763,72,1737,0,0,0,8,0,0,0,0,0,0,0,0,0,0,0,0
1999,11,30,9,0,,3.6,1.9,88,102060,0,0,289,81,102,62,12953,9985,8266,0,160,0.3,8,0,0,0,0,0,0,0,0,0,0,0,0
1999,11,30,10,0,,4.7,1.4,78,102070,0,0,288,191,188,126,25723,18731,15742,0,250,0.3,7,0,0,0,0,0,0,0,0,0,0,0,0
1999,11,30,11,0,,6.7,0.9,68,102070,0,0,292,324,345,164,39767,33847,21299,0,230,1,6,0,0,0,0,0,0,0,0,0,0,0,0
1999,11,30,12,0,,8.2,0.4,58,102080,0,0,295,418,477,164,44562,46276,21107,0,180,0.8,5,0,0,0,0,0,0,0,0,0,0,0,0
1999,11,30,13,0,,10.3,0.3,55,102050,0,0,303,464,573,148,41430,53498,19012,0,250,1.7,5,0,0,0,0,0,0,0,0,0,0,0,0
1999,11,30,14,0,,10.5,0.3,52,102010,0,0,303,428,551,142,30749,45672,17581,0,20,1.2,4,0,0,0,0,0,0,0,0,0,0,0,0
1999,11,30,15,0,,10.6,0.2,49,101980,0,0,303,347,518,121,16924,26838,13609,0,360,1.2,4,0,0,0,0,0,0,0,0,0,0,0,0
1999,11,30,16,0,,10.1,-0.4,49,102020,0,0,297,240,502,83,0,0,0,0,290,0.8,3,0,0,0,0,0,0,0,0,0,0,0,0
1999,11,30,17,0,,9.6,-1.1,48,102060,0,0,290,114,77,37,0,0,0,0,290,1,1,0,0,0,0,0,0,0,0,0,0,0,0
1999,11,30,18,0,,8.9,-1.7,48,102100,0,0,279,15,6,9,0,0,0,0,20,0.3,0,0,0,0,0,0,0,0,0,0,0,0,0
1999,11,30,19,0,,8.2,-0.8,55,102120,0,0,277,0,0,0,0,0,0,0,50,0.5,0,0,0,0,0,0,0,0,0,0,0,0,0
1999,11,30,20,0,,7.2,0.2,61,102130,0,0,274,0,0,0,0,0,0,0,20,1,0,0,0,0,0,0,0,0,0,0,0,0,0
1999,11,30,21,0,,6.6,1.1,68,102150,0,0,273,0,0,0,0,0,0,0,140,0.5,0,0,0,0,0,0,0,0,0,0,0,0,0
1999,11,30,22,0,,5.8,1.2,74,102150,0,0,270,0,0,0,0,0,0,0,0,0.2,0,0,0,0,0,0,0,0,0,0,0,0,0
1999,11,30,23,0,,4.7,1.2,79,102160,0,0,266,0,0,0,0,0,0,0,0,0.2,0,0,0,0,0,0,0,0,0,0,0,0,0
1999,11,30,24,0,,3.6,1.3,85,102160,0,0,262,0,0,0,0,0,0,0,0,0.2,0,0,0,0,0,0,0,0,0,0,0,0,0
2003,12,1,1,0,,6.1,4.1,88,101360,0,0,275,0,0,0,0,0,0,0,200,0.6,0,0,0,0,0,0,0,0,0,0,0,0,0
2003,12,1,2,0,,4.5,4,92,101350,0,0,269,0,0,0,0,0,0,0,230,0.8,0,0,0,0,0,0,0,0,0,0,0,0,0
2003,12,1,3,0,,5,3.8,92,101350,0,0,270,0,0,0,0,0,0,0,0,0.2,0,0,0,0,0,0,0,0,0,0,0,0,0
2003,12,1,4,0,,4.5,3.5,92,101340,0,0,268,0,0,0,0,0,0,0,230,0.8,0,0,0,0,0,0,0,0,0,0,0,0,0
2003,12,1,5,0,,3.4,3.2,94,101330,0,0,264,0,0,0,0,0,0,0,230,0.9,0,0,0,0,0,0,0,0,0,0,0,0,0
2003,12,1,6,0,,3.8,2.9,94,101320,0,0,265,0,0,0,0,0,0,0,0,0.2,0,0,0,0,0,0,0,0,0,0,0,0,0
2003,12,1,7,0,,3,2.8,94,101370,0,0,262,0,0,0,0,0,0,0,250,1,0,0,0,0,0,0,0,0,0,0,0,0,0
2003,12,1,8,0,,2.1,2.6,96,101410,0,0,259,28,14,15,2454,1259,2005,0,230,0.8,0,0,0,0,0,0,0,0,0,0,0,0,0
2003,12,1,9,0,,2.9,2.5,97,101460,0,0,261,127,348,61,25817,34187,9866,0,230,1.1,0,0,0,0,0,0,0,0,0,0,0,0,0
2003,12,1,10,0,,5.5,3.3,85,101440,0,0,271,272,536,88,41739,53219,13517,0,230,1.1,0,0,0,0,0,0,0,0,0,0,0,0,0
2003,12,1,11,0,,6.8,4,84,101410,0,0,277,386,592,113,48349,58473,16576,0,250,2.1,0,0,0,0,0,0,0,0,0,0,0,0,0
2003,12,1,12,0,,8.5,4.8,78,101390,0,0,285,460,630,127,48870,61036,18052,0,250,1.8,0,0,0,0,0,0,0,0,0,0,0,0,0
2003,12,1,13,0,,12.2,4.9,63,101310,0,0,300,512,737,107,44385,69152,15512,0,250,1.7,0,0,0,0,0,0,0,0,0,0,0,0,0
2003,12,1,14,0,,13.5,4.9,54,101240,0,0,305,483,747,97,31710,62592,13734,0,250,1,0,0,0,0,0,0,0,0,0,0,0,0,0
2003,12,1,15,0,,14.4,5,53,101160,0,0,309,405,755,76,15046,40541,10069,0,270,1.4,0,0,0,0,0,0,0,0,0,0,0,0,0
2003,12,1,16,0,,13.5,4.8,52,101190,0,0,305,255,593,71,0,0,0,0,340,1.3,0,0,0,0,0,0,0,0,0,0,0,0,0
2003,12,1,17,0,,12,4.5,57,101230,0,0,299,110,70,40,0,0,0,0,50,0.9,0,0,0,0,0,0,0,0,0,0,0,0,0
2003,12,1,18,0,,10.4,4.3,66,101260,0,0,292,13,4,9,0,0,0,0,20,0.6,0,0,0,0,0,0,0,0,0,0,0,0,0
2003,12,1,19,0,,9.4,4.5,73,101310,0,0,288,0,0,0,0,0,0,0,340,1.2,0,0,0,0,0,0,0,0,0,0,0,0,0
2003,12,1,20,0,,8,4.8,77,101350,0,0,283,0,0,0,0,0,0,0,70,2,0,0,0,0,0,0,0,0,0,0,0,0,0
2003,12,1,21,0,,7.8,5,81,101400,0,0,282,0,0,0,0,0,0,0,70,1.1,0,0,0,0,0,0,0,0,0,0,0,0,0
2003,12,1,22,0,,7.1,4.9,84,101410,0,0,279,0,0,0,0,0,0,0,20,1.9,0,0,0,0,0,0,0,0,0,0,0,0,0
2003,12,1,23,0,,6.6,4.9,87,101410,0,0,277,0,0,0,0,0,0,0,180,0.5,0,0,0,0,0,0,0,0,0,0,0,0,0
2003,12,1,24,0,,6.7,4.8,88,101420,0,0,278,0,0,0,0,0,0,0,270,0.6,0,0,0,0,0,0,0,0,0,0,0,0,0
2003,12,2,1,0,,6.2,4.6,89,101410,0,0,275,0,0,0,0,0,0,0,50,0.8,0,0,0,0,0,0,0,0,0,0,0,0,0
2003,12,2,2,0,,5.5,4.3,92,101400,0,0,273,0,0,0,0,0,0,0,360,0.5,0,0,0,0,0,0,0,0,0,0,0,0,0
2003,12,2,3,0,,5.4,4.1,91,101390,0,0,272,0,0,0,0,0,0,0,20,1.4,0,0,0,0,0,0,0,0,0,0,0,0,0
2003,12,2,4,0,,6,2.9,88,101410,0,0,273,0,0,0,0,0,0,0,20,2.8,0,0,0,0,0,0,0,0,0,0,0,0,0
2003,12,2,5,0,,5.5,1.6,69,101430,0,0,269,0,0,0,0,0,0,0,20,4.7,0,0,0,0,0,0,0,0,0,0,0,0,0
2003,12,2,6,0,,5.6,0.4,69,101450,0,0,268,0,0,0,0,0,0,0,50,4.1,0,0,0,0,0,0,0,0,0,0,0,0,0
2003,12,2,7,0,,4.9,0.7,72,101470,0,0,270,0,0,0,0,0,0,0,70,3.9,1,0,0,0,0,0,0,0,0,0,0,0,0
2003,12,2,8,0,,5.9,1,71,101490,0,0,277,33,17,16,2710,1588,2148,0,50,3.5,1,0,0,0,0,0,0,0,0,0,0,0,0
2003,12,2,9,0,,7,1.3,67,101510,0,0,284,148,556,44,32081,54669,6721,0,50,2.2,2,0,0,0,0,0,0,0,0,0,0,0,0
2003,12,2,10,0,,8.4,0.5,60,101480,0,0,286,295,664,69,45479,66611,10317,0,50,2.5,1,0,0,0,0,0,0,0,0,0,0,0,0
2003,12,2,11,0,,9.5,-0.4,52,101450,0,0,287,406,680,95,50999,67811,14296,0,20,2.2,1,0,0,0,0,0,0,0,0,0,0,0,0
2003,12,2,12,0,,10.6,-1.2,44,101420,0,0,287,488,730,103,51227,71809,15095,0,50,4.1,0,0,0,0,0,0,0,0,0,0,0,0,0
2003,12,2,13,0,,11.5,-1.8,41,101360,0,0,290,497,697,116,43578,65441,16344,0,50,1.8,0,0,0,0,0,0,0,0,0,0,0,0,0
2003,12,2,14,0,,12.4,-2.4,36,101310,0,0,293,483,753,95,31544,63534,13360,0,20,4.5,0,0,0,0,0,0,0,0,0,0,0,0,0
2003,12,2,15,0,,12.4,-3,34,101250,0,0,292,391,703,86,15346,37131,10810,0,50,3.3,0,0,0,0,0,0,0,0,0,0,0,0,0
2003,12,2,16,0,,11.2,-1.4,45,101300,0,0,293,254,592,71,0,0,0,0,360,1.7,1,0,0,0,0,0,0,0,0,0,0,0,0
2003,12,2,17,0,,9.5,0.3,55,101360,0,0,290,106,65,41,0,0,0,0,20,1.4,1,0,0,0,0,0,0,0,0,0,0,0,0
2003,12,2,18,0,,8.5,1.9,63,101410,0,0,290,12,4,9,0,0,0,0,20,1.9,2,0,0,0,0,0,0,0,0,0,0,0,0
2003,12,2,19,0,,7.8,1.7,66,101430,0,0,287,0,0,0,0,0,0,0,20,0.9,2,0,0,0,0,0,0,0,0,0,0,0,0
2003,12,2,20,0,,7.2,1.5,67,101450,0,0,285,0,0,0,0,0,0,0,50,1,2,0,0,0,0,0,0,0,0,0,0,0,0
2003,12,2,21,0,,6.7,1.3,69,101470,0,0,282,0,0,0,0,0,0,0,50,2.8,2,0,0,0,0,0,0,0,0,0,0,0,0
2003,12,2,22,0,,5.9,0.6,68,101460,0,0,279,0,0,0,0,0,0,0,50,2.9,2,0,0,0,0,0,0,0,0,0,0,0,0
2003,12,2,23,0,,5.4,0,64,101450,0,0,276,0,0,0,0,0,0,0,50,2,2,0,0,0,0,0,0,0,0,0,0,0,0
2003,12,2,24,0,,5.4,-0.7,65,101440,0,0,275,0,0,0,0,0,0,0,20,1.3,2,0,0,0,0,0,0,0,0,0,0,0,0
2003,12,3,1,0,,4.8,-0.6,68,101450,0,0,272,0,0,0,0,0,0,0,50,2.2,2,0,0,0,0,0,0,0,0,0,0,0,0
2003,12,3,2,0,,4.2,-0.6,70,101450,0,0,268,0,0,0,0,0,0,0,20,1.4,1,0,0,0,0,0,0,0,0,0,0,0,0
2003,12,3,3,0,,3.4,-0.5,75,101460,0,0,264,0,0,0,0,0,0,0,20,1.2,1,0,0,0,0,0,0,0,0,0,0,0,0
2003,12,3,4,0,,2.7,-0.9,76,101470,0,0,260,0,0,0,0,0,0,0,360,0.5,1,0,0,0,0,0,0,0,0,0,0,0,0
2003,12,3,5,0,,2.1,-1.3,77,101470,0,0,256,0,0,0,0,0,0,0,320,0.5,0,0,0,0,0,0,0,0,0,0,0,0,0
2003,12,3,6,0,,1.5,-1.7,80,101480,0,0,251,0,0,0,0,0,0,0,230,0.3,0,0,0,0,0,0,0,0,0,0,0,0,0
2003,12,3,7,0,,1.7,-1.5,79,101520,0,0,252,0,0,0,0,0,0,0,20,0.4,0,0,0,0,0,0,0,0,0,0,0,0,0
2003,12,3,8,0,,1.5,-1.4,79,101560,0,0,252,28,16,13,2230,1455,1720,0,0,0.2,0,0,0,0,0,0,0,0,0,0,0,0,0
2003,12,3,9,0,,3.3,-1.2,73,101600,0,0,258,144,541,44,31782,53873,6931,0,20,1.6,0,0,0,0,0,0,0,0,0,0,0,0,0
2003,12,3,10,0,,7.2,-3.9,40,101590,0,0,270,317,782,53,48609,77454,7905,0,50,2.1,0,0,0,0,0,0,0,0,0,0,0,0,0
2003,12,3,11,0,,8.8,-6.7,36,101570,0,0,274,450,854,62,54800,84584,9189,0,270,1.1,0,0,0,0,0,0,0,0,0,0,0,0,0
2003,12,3,12,0,,10.3,-9.4,24,101560,0,0,277,530,877,70,53521,86043,10369,0,20,1.1,0,0,0,0,0,0,0,0,0,0,0,0,0
2003,12,3,13,0,,11.1,-9.3,21,101540,0,0,281,521,782,95,44720,74366,13864,0,20,1.5,0,0,0,0,0,0,0,0,0,0,0,0,0
2003,12,3,14,0,,11.8,-9.1,19,101510,0,0,283,482,757,94,31415,64104,13123,0,20,1.9,0,0,0,0,0,0,0,0,0,0,0,0,0
2003,12,3,15,0,,11.5,-9,23,101490,0,0,282,391,711,84,15154,37842,10551,0,360,2.3,0,0,0,0,0,0,0,0,0,0,0,0,0
2003,12,3,16,0,,10.5,-6.7,31,101540,0,0,281,263,645,64,0,0,0,0,20,1.9,0,0,0,0,0,0,0,0,0,0,0,0,0
2003,12,3,17,0,,9,-4.5,39,101600,0,0,277,111,74,38,0,0,0,0,20,1.8,0,0,0,0,0,0,0,0,0,0,0,0,0
2003,12,3,18,0,,7.9,-2.2,49,101650,0,0,275,14,5,9,0,0,0,0,20,3.7,0,0,0,0,0,0,0,0,0,0,0,0,0
2003,12,3,19,0,,6.6,-1.6,57,101690,0,0,270,0,0,0,0,0,0,0,50,1.9,0,0,0,0,0,0,0,0,0,0,0,0,0
2003,12,3,20,0,,6.1,-1.1,59,101740,0,0,269,0,0,0,0,0,0,0,20,1.6,0,0,0,0,0,0,0,0,0,0,0,0,0
2003,12,3,21,0,,6,-0.5,63,101780,0,0,269,0,0,0,0,0,0,0,20,1.5,0,0,0,0,0,0,0,0,0,0,0,0,0
2003,12,3,22,0,,5.6,-0.1,71,101790,0,0,268,0,0,0,0,0,0,0,50,1.9,0,0,0,0,0,0,0,0,0,0,0,0,0
2003,12,3,23,0,,4.3,0.2,75,101800,0,0,263,0,0,0,0,0,0,0,50,2.5,0,0,0,0,0,0,0,0,0,0,0,0,0
2003,12,3,24,0,,3.8,0.6,80,101810,0,0,262,0,0,0,0,0,0,0,70,1.3,0,0,0,0,0,0,0,0,0,0,0,0,0
2003,12,4,1,0,,3.8,0.3,79,101830,0,0,262,0,0,0,0,0,0,0,50,2.5,0,0,0,0,0,0,0,0,0,0,0,0,0
2003,12,4,2,0,,3,0.1,81,101860,0,0,258,0,0,0,0,0,0,0,20,2.1,0,0,0,0,0,0,0,0,0,0,0,0,0
2003,12,4,3,0,,2.9,-0.2,80,101880,0,0,258,0,0,0,0,0,0,0,50,2.5,0,0,0,0,0,0,0,0,0,0,0,0,0
2003,12,4,4,0,,2.9,-1,78,101890,0,0,262,0,0,0,0,0,0,0,50,3.5,1,0,0,0,0,0,0,0,0,0,0,0,0
2003,12,4,5,0,,2.1,-1.7,77,101890,0,0,262,0,0,0,0,0,0,0,70,4.6,2,0,0,0,0,0,0,0,0,0,0,0,0
2003,12,4,6,0,,1.7,-2.5,74,101900,0,0,262,0,0,0,0,0,0,0,50,4.8,3,0,0,0,0,0,0,0,0,0,0,0,0
2003,12,4,7,0,,2.1,-3.5,72,101960,0,0,264,0,0,0,0,0,0,0,50,3.3,4,0,0,0,0,0,0,0,0,0,0,0,0
2003,12,4,8,0,,2.2,-4.4,63,102030,0,0,264,29,13,16,2598,1228,2170,0,50,6.2,4,0,0,0,0,0,0,0,0,0,0,0,0
2003,12,4,9,0,,3.4,-5.4,53,102090,0,0,269,133,460,50,28573,45573,7665,0,50,3.3,5,0,0,0,0,0,0,0,0,0,0,0,0
2003,12,4,10,0,,5.3,-8,36,102060,0,0,271,296,694,64,45923,69514,9549,0,50,2.6,3,0,0,0,0,0,0,0,0,0,0,0,0
2003,12,4,11,0,,7.2,-10.7,24,102020,0,0,272,438,821,68,53525,81056,9972,0,50,3.2,2,0,0,0,0,0,0,0,0,0,0,0,0
2003,12,4,12,0,,9,-13.3,20,101990,0,0,268,524,865,72,52985,84620,10677,0,70,2.7,0,0,0,0,0,0,0,0,0,0,0,0,0
2003,12,4,13,0,,10.2,-13.3,16,101910,0,0,279,536,835,83,45097,79459,12218,0,50,2.7,1,0,0,0,0,0,0,0,0,0,0,0,0
2003,12,4,14,0,,11.2,-13.3,18,101820,0,0,287,479,749,95,31272,63480,13206,0,50,1.4,3,0,0,0,0,0,0,0,0,0,0,0,0
2003,12,4,15,0,,11.7,-13.3,16,101740,0,0,292,380,669,91,14975,36315,10572,0,50,1.7,4,0,0,0,0,0,0,0,0,0,0,0,0
2003,12,4,16,0,,11.1,-12,20,101760,0,0,296,224,433,91,0,0,0,0,20,0.7,6,0,0,0,0,0,0,0,0,0,0,0,0
2003,12,4,17,0,,10.1,-10.7,21,101770,0,0,299,87,45,42,0,0,0,0,50,1.6,7,0,0,0,0,0,0,0,0,0,0,0,0
2003,12,4,18,0,,9.2,-9.4,26,101790,0,0,306,5,0,4,0,0,0,0,20,1.9,9,0,0,0,0,0,0,0,0,0,0,0,0
2003,12,4,19,0,,8.6,-7.3,32,101810,0,0,304,0,0,0,0,0,0,0,90,0.7,9,0,0,0,0,0,0,0,0,0,0,0,0
2003,12,4,20,0,,7.9,-5.1,32,101840,0,0,301,0,0,0,0,0,0,0,20,1.4,8,0,0,0,0,0,0,0,0,0,0,0,0
2003,12,4,21,0,,5.2,-3,56,101860,0,0,289,0,0,0,0,0,0,0,250,2,8,0,0,0,0,0,0,0,0,0,0,0,0
2003,12,4,22,0,,5.2,-3.4,53,101860,0,0,291,0,0,0,0,0,0,0,140,0.4,8,0,0,0,0,0,0,0,0,0,0,0,0
2003,12,4,23,0,,5.3,-3.7,54,101860,0,0,293,0,0,0,0,0,0,0,50,1.4,9,0,0,0,0,0,0,0,0,0,0,0,0
2003,12,4,24,0,,4.5,-4.1,54,101860,0,0,291,0,0,0,0,0,0,0,50,2.3,9,0,0,0,0,0,0,0,0,0,0,0,0
2003,12,5,1,0,,5.9,-3.9,42,101850,0,0,300,0,0,0,0,0,0,0,50,3.3,9,0,0,0,0,0,0,0,0,0,0,0,0
2003,12,5,2,0,,4.3,-3.8,58,101840,0,0,296,0,0,0,0,0,0,0,340,0.5,10,0,0,0,0,0,0,0,0,0,0,0,0
2003,12,5,3,0,,5.7,-3.6,51,101830,0,0,306,0,0,0,0,0,0,0,20,1.3,10,0,0,0,0,0,0,0,0,0,0,0,0
2003,12,5,4,0,,6.4,-4.2,44,101800,0,0,308,0,0,0,0,0,0,0,50,2.9,10,0,0,0,0,0,0,0,0,0,0,0,0
2003,12,5,5,0,,6.9,-4.8,42,101760,0,0,310,0,0,0,0,0,0,0,50,3.8,10,0,0,0,0,0,0,0,0,0,0,0,0
2003,12,5,6,0,,7.2,-5.4,40,101730,0,0,310,0,0,0,0,0,0,0,50,4,10,0,0,0,0,0,0,0,0,0,0,0,0
2003,12,5,7,0,,7.2,-4.5,42,101710,0,0,303,0,0,0,0,0,0,0,50,1.7,9,0,0,0,0,0,0,0,0,0,0,0,0
2003,12,5,8,0,,6.8,-3.6,49,101690,0,0,296,16,3,13,1651,274,1557,0,360,0.4,8,0,0,0,0,0,0,0,0,0,0,0,0
2003,12,5,9,0,,8.5,-2.7,45,101670,0,0,299,105,282,54,21594,27825,8896,0,50,0.7,7,0,0,0,0,0,0,0,0,0,0,0,0
2003,12,5,10,0,,10.7,-1.1,44,101610,0,0,314,195,231,118,26869,23196,14781,0,50,1.5,8,0,0,0,0,0,0,0,0,0,0,0,0
2003,12,5,11,0,,11.8,0.5,47,101550,0,0,324,273,222,173,32698,22152,20836,0,360,0.4,8,0,0,0,0,0,0,0,0,0,0,0,0
2003,12,5,12,0,,13.8,2.1,45,101490,0,0,341,284,149,207,31205,14539,23957,0,200,1.5,9,0,0,0,0,0,0,0,0,0,0,0,0
2003,12,5,13,0,,14.7,2.5,47,101400,0,0,349,290,138,216,29982,12869,24671,0,180,3.5,9,0,0,0,0,0,0,0,0,0,0,0,0
2003,12,5,14,0,,15.4,3,43,101300,0,0,356,230,87,186,22897,7683,20716,0,180,4,10,0,0,0,0,0,0,0,0,0,0,0,0
2003,12,5,15,0,,14.9,3.4,46,101210,0,0,357,167,63,140,15913,4505,15368,0,180,2.9,10,0,0,0,0,0,0,0,0,0,0,0,0
2003,12,5,16,0,,14.4,4.6,51,101190,0,0,356,107,53,91,0,0,0,0,160,4.1,10,0,0,0,0,0,0,0,0,0,0,0,0
2003,12,5,17,0,,14.1,5.8,55,101170,0,0,357,38,4,34,0,0,0,0,180,3.3,10,0,0,0,0,0,0,0,0,0,0,0,0
2003,12,5,18,0,,13.2,7,66,101150,0,0,354,0,0,0,0,0,0,0,160,2,10,0,0,0,0,0,0,0,0,0,0,0,0
2003,12,5,19,0,,12,7.7,79,101130,0,0,349,0,0,0,0,0,0,0,140,2,10,0,0,0,0,0,0,0,0,0,0,0,0
2003,12,5,20,0,,11.8,8.5,81,101110,0,0,349,0,0,0,0,0,0,0,320,1.1,10,0,0,0,0,0,0,0,0,0,0,0,0
2003,12,5,21,0,,11.1,9.2,88,101090,0,0,346,0,0,0,0,0,0,0,290,0.8,10,0,0,0,0,0,0,0,0,0,0,0,0
2003,12,5,22,0,,10.2,9.3,93,101060,0,0,342,0,0,0,0,0,0,0,20,2.2,10,0,0,0,0,0,0,0,0,0,0,0,0
2003,12,5,23,0,,10.2,9.4,95,101030,0,0,343,0,0,0,0,0,0,0,290,0.7,10,0,0,0,0,0,0,0,0,0,0,0,0
2003,12,5,24,0,,9.9,9.5,97,101000,0,0,341,0,0,0,0,0,0,0,50,0.9,10,0,0,0,0,0,0,0,0,0,0,0,0
2003,12,6,1,0,,9.9,9.6,97,100930,0,0,341,0,0,0,0,0,0,0,50,1.5,10,0,0,0,0,0,0,0,0,0,0,0,0
2003,12,6,2,0,,10.1,9.6,97,100870,0,0,342,0,0,0,0,0,0,0,50,0.4,10,0,0,0,0,0,0,0,0,0,0,0,0
2003,12,6,3,0,,10.2,9.7,97,100800,0,0,343,0,0,0,0,0,0,0,340,0.8,10,0,0,0,0,0,0,0,0,0,0,0,0
2003,12,6,4,0,,10.1,9.3,97,100790,0,0,342,0,0,0,0,0,0,0,180,1.3,10,0,0,0,0,0,0,0,0,0,0,0,0
2003,12,6,5,0,,9.7,8.8,97,100770,0,0,339,0,0,0,0,0,0,0,290,1.7,10,0,0,0,0,0,0,0,0,0,0,0,0
2003,12,6,6,0,,9,8.4,96,100760,0,0,336,0,0,0,0,0,0,0,270,2.1,10,0,0,0,0,0,0,0,0,0,0,0,0
2003,12,6,7,0,,8.6,7.7,93,100850,0,0,330,0,0,0,0,0,0,0,290,1.3,10,0,0,0,0,0,0,0,0,0,0,0,0
2003,12,6,8,0,,8.3,7.1,90,100930,0,0,324,7,0,7,920,9,917,0,340,1.9,9,0,0,0,0,0,0,0,0,0,0,0,0
2003,12,6,9,0,,8.4,6.4,87,101020,0,0,321,56,47,48,8261,4556,6193,0,340,1.5,9,0,0,0,0,0,0,0,0,0,0,0,0
2003,12,6,10,0,,8.7,5.7,84,101050,0,0,308,179,182,119,24352,17680,15175,0,320,1.9,7,0,0,0,0,0,0,0,0,0,0,0,0
2003,12,6,11,0,,8.9,5,83,101070,0,0,302,317,367,154,39384,35390,20493,0,320,2.2,4,0,0,0,0,0,0,0,0,0,0,0,0
2003,12,6,12,0,,10.1,4.3,66,101100,0,0,300,424,541,144,44932,51720,19216,0,20,2.4,2,0,0,0,0,0,0,0,0,0,0,0,0
2003,12,6,13,0,,10.3,3.7,62,101120,0,0,304,431,500,161,39581,45952,20656,0,340,1.7,3,0,0,0,0,0,0,0,0,0,0,0,0
2003,12,6,14,0,,9.6,3.1,65,101130,0,0,303,360,334,190,29462,27092,21783,0,320,3,5,0,0,0,0,0,0,0,0,0,0,0,0
2003,12,6,15,0,,9.6,2.5,61,101150,0,0,306,274,266,160,18954,13403,17335,0,290,2.9,6,0,0,0,0,0,0,0,0,0,0,0,0
2003,12,6,16,0,,9.1,2,58,101210,0,0,303,184,261,105,0,0,0,0,340,2.1,6,0,0,0,0,0,0,0,0,0,0,0,0
2003,12,6,17,0,,8,1.4,56,101270,0,0,298,82,37,45,0,0,0,0,290,2.2,6,0,0,0,0,0,0,0,0,0,0,0,0
2003,12,6,18,0,,7.6,0.9,62,101330,0,0,296,9,2,8,0,0,0,0,360,2.4,6,0,0,0,0,0,0,0,0,0,0,0,0
2003,12,6,19,0,,6.9,-0.5,65,101440,0,0,293,0,0,0,0,0,0,0,20,3.6,7,0,0,0,0,0,0,0,0,0,0,0,0
2003,12,6,20,0,,5.5,-1.9,64,101560,0,0,289,0,0,0,0,0,0,0,20,4.3,7,0,0,0,0,0,0,0,0,0,0,0,0
2003,12,6,21,0,,4.7,-3.3,56,101670,0,0,287,0,0,0,0,0,0,0,20,3.9,8,0,0,0,0,0,0,0,0,0,0,0,0
2003,12,6,22,0,,3.7,-4.6,51,101740,0,0,277,0,0,0,0,0,0,0,20,3.9,7,0,0,0,0,0,0,0,0,0,0,0,0
2003,12,6,23,0,,2.5,-5.8,50,101810,0,0,268,0,0,0,0,0,0,0,340,3.8,6,0,0,0,0,0,0,0,0,0,0,0,0
2003,12,6,24,0,,2,-7.1,48,101880,0,0,262,0,0,0,0,0,0,0,340,2.4,5,0,0,0,0,0,0,0,0,0,0,0,0
2003,12,7,1,0,,1.3,-7.2,68,101930,0,0,259,0,0,0,0,0,0,0,360,3,5,0,0,0,0,0,0,0,0,0,0,0,0
2003,12,7,2,0,,1,-7.3,54,101990,0,0,258,0,0,0,0,0,0,0,20,4.8,5,0,0,0,0,0,0,0,0,0,0,0,0
2003,12,7,3,0,,0.3,-7.4,53,102040,0,0,255,0,0,0,0,0,0,0,20,3.1,5,0,0,0,0,0,0,0,0,0,0,0,0
2003,12,7,4,0,,0.1,-6.8,52,102060,0,0,257,0,0,0,0,0,0,0,20,3.5,6,0,0,0,0,0,0,0,0,0,0,0,0
2003,12,7,5,0,,-0.6,-6.3,70,102080,0,0,259,0,0,0,0,0,0,0,20,3.5,7,0,0,0,0,0,0,0,0,0,0,0,0
2003,12,7,6,0,,-1.2,-5.7,73,102100,0,0,261,0,0,0,0,0,0,0,50,4.4,8,0,0,0,0,0,0,0,0,0,0,0,0
2003,12,7,7,0,,-1.6,-6.5,72,102180,0,0,252,0,0,0,0,0,0,0,50,3.8,6,0,0,0,0,0,0,0,0,0,0,0,0
2003,12,7,8,0,,-1.8,-7.4,66,102260,0,0,247,22,9,13,2035,850,1745,0,50,3.7,5,0,0,0,0,0,0,0,0,0,0,0,0
2003,12,7,9,0,,-1.4,-8.2,61,102340,0,0,245,134,528,43,30310,52359,6658,0,50,4.9,3,0,0,0,0,0,0,0,0,0,0,0,0
2003,12,7,10,0,,-0.6,-8.3,53,102360,0,0,247,272,605,74,42083,60257,10926,0,20,4.7,3,0,0,0,0,0,0,0,0,0,0,0,0
2003,12,7,11,0,,0.2,-8.5,49,102370,0,0,248,395,683,92,49196,67686,13175,0,50,6.3,2,0,0,0,0,0,0,0,0,0,0,0,0
2003,12,7,12,0,,0.2,-8.6,47,102390,0,0,247,458,665,115,48634,65198,16296,0,50,5.9,2,0,0,0,0,0,0,0,0,0,0,0,0
2003,12,7,13,0,,1.7,-8,46,102350,0,0,255,463,614,133,41042,58141,17145,0,50,3.5,3,0,0,0,0,0,0,0,0,0,0,0,0
2003,12,7,14,0,,1.8,-7.3,47,102300,0,0,258,427,583,131,30014,48975,16153,0,20,3.1,3,0,0,0,0,0,0,0,0,0,0,0,0
2003,12,7,15,0,,1.8,-6.7,48,102260,0,0,260,345,540,114,16156,28450,12721,0,20,3.8,4,0,0,0,0,0,0,0,0,0,0,0,0
2003,12,7,16,0,,1.2,-7.1,50,102290,0,0,255,240,530,78,0,0,0,0,20,2.9,3,0,0,0,0,0,0,0,0,0,0,0,0
2003,12,7,17,0,,0.3,-7.4,56,102310,0,0,248,109,71,38,0,0,0,0,20,1.6,2,0,0,0,0,0,0,0,0,0,0,0,0
2003,12,7,18,0,,-0.1,-7.8,57,102340,0,0,244,14,6,8,0,0,0,0,20,2.8,1,0,0,0,0,0,0,0,0,0,0,0,0
2003,12,7,19,0,,-1.1,-7.8,62,102330,0,0,245,0,0,0,0,0,0,0,70,3.2,2,0,0,0,0,0,0,0,0,0,0,0,0
2003,12,7,20,0,,-1.4,-7.8,64,102310,0,0,246,0,0,0,0,0,0,0,50,2.3,4,0,0,0,0,0,0,0,0,0,0,0,0
2003,12,7,21,0,,-1.3,-7.8,63,102300,0,0,249,0,0,0,0,0,0,0,70,1.7,5,0,0,0,0,0,0,0,0,0,0,0,0
2003,12,7,22,0,,-0.8,-7.8,61,102310,0,0,253,0,0,0,0,0,0,0,70,1.7,6,0,0,0,0,0,0,0,0,0,0,0,0
2003,12,7,23,0,,-0.7,-7.8,61,102320,0,0,257,0,0,0,0,0,0,0,20,2,7,0,0,0,0,0,0,0,0,0,0,0,0
2003,12,7,24,0,,-0.6,-7.8,59,102330,0,0,261,0,0,0,0,0,0,0,20,1.9,8,0,0,0,0,0,0,0,0,0,0,0,0
2003,12,8,1,0,,-1,-7.3,60,102310,0,0,260,0,0,0,0,0,0,0,70,1.7,8,0,0,0,0,0,0,0,0,0,0,0,0
2003,12,8,2,0,,-1,-6.9,61,102290,0,0,261,0,0,0,0,0,0,0,70,1.1,8,0,0,0,0,0,0,0,0,0,0,0,0
2003,12,8,3,0,,-0.9,-6.4,67,102270,0,0,261,0,0,0,0,0,0,0,250,0.9,8,0,0,0,0,0,0,0,0,0,0,0,0
2003,12,8,4,0,,-0.9,-6.6,68,102260,0,0,260,0,0,0,0,0,0,0,290,0.6,8,0,0,0,0,0,0,0,0,0,0,0,0
2003,12,8,5,0,,-0.9,-6.9,67,102250,0,0,258,0,0,0,0,0,0,0,50,1.1,7,0,0,0,0,0,0,0,0,0,0,0,0
2003,12,8,6,0,,-1.7,-7.1,68,102240,0,0,254,0,0,0,0,0,0,0,90,1.1,7,0,0,0,0,0,0,0,0,0,0,0,0
2003,12,8,7,0,,-0.9,-6.4,68,102270,0,0,256,0,0,0,0,0,0,0,230,0.8,7,0,0,0,0,0,0,0,0,0,0,0,0
2003,12,8,8,0,,-0.9,-5.7,67,102310,0,0,256,18,5,13,1695,450,1543,0,270,0.6,6,0,0,0,0,0,0,0,0,0,0,0,0
2003,12,8,9,0,,0.1,-5,66,102340,0,0,259,105,341,47,23026,33636,7905,0,230,1.2,6,0,0,0,0,0,0,0,0,0,0,0,0
2003,12,8,10,0,,1.8,-4.8,67,102330,0,0,265,225,365,106,33251,36049,14678,0,200,2.7,6,0,0,0,0,0,0,0,0,0,0,0,0
2003,12,8,11,0,,3.6,-4.6,60,102330,0,0,272,344,491,128,43582,48339,17930,0,270,1,5,0,0,0,0,0,0,0,0,0,0,0,0
2003,12,8,12,0,,5.1,-4.4,50,102320,0,0,277,425,556,139,45712,53865,19054,0,250,3,5,0,0,0,0,0,0,0,0,0,0,0,0
2003,12,8,13,0,,6,-3.9,42,102280,0,0,281,437,533,152,39759,49959,19260,0,290,2.4,5,0,0,0,0,0,0,0,0,0,0,0,0
2003,12,8,14,0,,5.9,-3.5,49,102230,0,0,280,417,553,137,29931,45989,16929,0,290,2.4,4,0,0,0,0,0,0,0,0,0,0,0,0
2003,12,8,15,0,,6.1,-3,52,102190,0,0,281,334,497,122,16626,25731,13519,0,270,2.6,4,0,0,0,0,0,0,0,0,0,0,0,0
2003,12,8,16,0,,5.8,-3.8,55,102210,0,0,279,226,456,87,0,0,0,0,340,2,4,0,0,0,0,0,0,0,0,0,0,0,0
2003,12,8,17,0,,5.4,-4.6,51,102240,0,0,276,105,64,41,0,0,0,0,340,2.5,4,0,0,0,0,0,0,0,0,0,0,0,0
2003,12,8,18,0,,4.5,-5.4,49,102260,0,0,272,12,4,9,0,0,0,0,360,1,4,0,0,0,0,0,0,0,0,0,0,0,0
2003,12,8,19,0,,4.4,-5,51,102280,0,0,274,0,0,0,0,0,0,0,290,1,5,0,0,0,0,0,0,0,0,0,0,0,0
2003,12,8,20,0,,4.4,-4.5,52,102300,0,0,277,0,0,0,0,0,0,0,290,0.7,6,0,0,0,0,0,0,0,0,0,0,0,0
2003,12,8,21,0,,4.5,-4.1,55,102320,0,0,281,0,0,0,0,0,0,0,290,0.8,7,0,0,0,0,0,0,0,0,0,0,0,0
2003,12,8,22,0,,4.1,-3.5,60,102340,0,0,279,0,0,0,0,0,0,0,270,0.5,7,0,0,0,0,0,0,0,0,0,0,0,0
2003,12,8,23,0,,4.1,-2.8,64,102350,0,0,278,0,0,0,0,0,0,0,20,0.8,6,0,0,0,0,0,0,0,0,0,0,0,0
2003,12,8,24,0,,3.7,-2.2,66,102370,0,0,276,0,0,0,0,0,0,0,20,3.8,6,0,0,0,0,0,0,0,0,0,0,0,0
2003,12,9,1,0,,3.1,-2.6,65,102380,0,0,272,0,0,0,0,0,0,0,20,2.4,5,0,0,0,0,0,0,0,0,0,0,0,0
2003,12,9,2,0,,1.5,-2.9,72,102380,0,0,264,0,0,0,0,0,0,0,50,4,5,0,0,0,0,0,0,0,0,0,0,0,0
2003,12,9,3,0,,1.3,-3.3,70,102390,0,0,261,0,0,0,0,0,0,0,50,3.4,4,0,0,0,0,0,0,0,0,0,0,0,0
2003,12,9,4,0,,0.9,-3.9,65,102400,0,0,259,0,0,0,0,0,0,0,50,3.5,4,0,0,0,0,0,0,0,0,0,0,0,0
2003,12,9,5,0,,0.5,-4.4,64,102420,0,0,256,0,0,0,0,0,0,0,50,3.7,3,0,0,0,0,0,0,0,0,0,0,0,0
2003,12,9,6,0,,0.1,-5,64,102430,0,0,253,0,0,0,0,0,0,0,50,3.8,3,0,0,0,0,0,0,0,0,0,0,0,0
2003,12,9,7,0,,-0.4,-5.8,66,102480,0,0,255,0,0,0,0,0,0,0,20,2.3,5,0,0,0,0,0,0,0,0,0,0,0,0
2003,12,9,8,0,,0.3,-6.6,59,102520,0,0,264,13,2,11,1411,212,1340,0,20,2.9,8,0,0,0,0,0,0,0,0,0,0,0,0
2003,12,9,9,0,,0.5,-7.4,54,102570,0,0,278,54,48,46,7957,4798,5810,0,70,2.8,10,0,0,0,0,0,0,0,0,0,0,0,0
2003,12,9,10,0,,1,-8.7,45,102560,0,0,274,157,133,114,21025,13601,14042,0,50,3.1,9,0,0,0,0,0,0,0,0,0,0,0,0
2003,12,9,11,0,,1.9,-9.9,41,102550,0,0,272,214,117,163,25315,11979,18975,0,70,2.8,9,0,0,0,0,0,0,0,0,0,0,0,0
2003,12,9,12,0,,2.4,-11.2,32,102540,0,0,269,305,193,206,33046,19356,23486,0,50,2.3,8,0,0,0,0,0,0,0,0,0,0,0,0
2003,12,9,13,0,,3.2,-11.2,35,102500,0,0,271,323,197,218,32270,18967,24498,0,50,1.8,8,0,0,0,0,0,0,0,0,0,0,0,0
2003,12,9,14,0,,3.3,-11.2,31,102460,0,0,270,338,280,197,28577,23950,21811,0,50,1.7,7,0,0,0,0,0,0,0,0,0,0,0,0
2003,12,9,15,0,,4.4,-11.2,27,102420,0,0,273,304,373,144,17551,18705,15290,0,50,4.5,7,0,0,0,0,0,0,0,0,0,0,0,0
2003,12,9,16,0,,3.4,-11.2,31,102450,0,0,268,191,296,101,0,0,0,0,20,1.5,7,0,0,0,0,0,0,0,0,0,0,0,0
2003,12,9,17,0,,2.4,-11.2,29,102480,0,0,263,95,47,48,0,0,0,0,50,3.2,6,0,0,0,0,0,0,0,0,0,0,0,0
2003,12,9,18,0,,1.6,-11.2,32,102510,0,0,259,10,2,8,0,0,0,0,50,2.2,6,0,0,0,0,0,0,0,0,0,0,0,0
2003,12,9,19,0,,0.3,-11.4,39,102540,0,0,249,0,0,0,0,0,0,0,20,1.6,4,0,0,0,0,0,0,0,0,0,0,0,0
2003,12,9,20,0,,-0.6,-11.5,44,102570,0,0,243,0,0,0,0,0,0,0,50,2.1,2,0,0,0,0,0,0,0,0,0,0,0,0
2003,12,9,21,0,,-0.7,-11.7,43,102600,0,0,234,0,0,0,0,0,0,0,70,1.6,0,0,0,0,0,0,0,0,0,0,0,0,0
2003,12,9,22,0,,-1.4,-11.7,47,102570,0,0,232,0,0,0,0,0,0,0,50,3.1,0,0,0,0,0,0,0,0,0,0,0,0,0
2003,12,9,23,0,,-1.2,-11.7,46,102540,0,0,233,0,0,0,0,0,0,0,70,2.6,0,0,0,0,0,0,0,0,0,0,0,0,0
2003,12,9,24,0,,-1.3,-11.7,45,102510,0,0,232,0,0,0,0,0,0,0,50,3.3,0,0,0,0,0,0,0,0,0,0,0,0,0
2003,12,10,1,0,,-2,-11.4,47,102510,0,0,230,0,0,0,0,0,0,0,70,2.9,0,0,0,0,0,0,0,0,0,0,0,0,0
2003,12,10,2,0,,-2,-11,48,102500,0,0,230,0,0,0,0,0,0,0,70,3.2,0,0,0,0,0,0,0,0,0,0,0,0,0
2003,12,10,3,0,,-1.7,-10.7,51,102500,0,0,231,0,0,0,0,0,0,0,320,0.8,0,0,0,0,0,0,0,0,0,0,0,0,0
2003,12,10,4,0,,-2.4,-10.3,59,102480,0,0,229,0,0,0,0,0,0,0,270,0.7,0,0,0,0,0,0,0,0,0,0,0,0,0
2003,12,10,5,0,,-2.8,-9.8,62,102470,0,0,228,0,0,0,0,0,0,0,0,0.2,0,0,0,0,0,0,0,0,0,0,0,0,0
2003,12,10,6,0,,-2.8,-9.4,62,102450,0,0,228,0,0,0,0,0,0,0,0,0.1,0,0,0,0,0,0,0,0,0,0,0,0,0
2003,12,10,7,0,,-2.8,-9.5,61,102450,0,0,228,0,0,0,0,0,0,0,50,2.3,0,0,0,0,0,0,0,0,0,0,0,0,0
2003,12,10,8,0,,-2.6,-9.7,59,102440,0,0,229,24,11,13,2143,1056,1791,0,50,3.5,0,0,0,0,0,0,0,0,0,0,0,0,0
2003,12,10,9,0,,-0.1,-9.8,48,102440,0,0,238,144,685,30,34373,66524,4739,0,50,2.9,0,0,0,0,0,0,0,0,0,0,0,0,0
2003,12,10,10,0,,2.1,-10.8,37,102350,0,0,250,304,805,47,47643,79314,7053,0,50,2.9,1,0,0,0,0,0,0,0,0,0,0,0,0
2003,12,10,11,0,,4.2,-11.7,33,102250,0,0,262,427,831,63,52625,81916,9375,0,70,2.7,3,0,0,0,0,0,0,0,0,0,0,0,0
2003,12,10,12,0,,5.6,-12.7,26,102160,0,0,270,479,757,93,49923,74052,13414,0,50,3.6,4,0,0,0,0,0,0,0,0,0,0,0,0
2003,12,10,13,0,,6.7,-12.2,29,102140,0,0,277,461,622,130,41400,58023,17653,0,250,2.4,5,0,0,0,0,0,0,0,0,0,0,0,0
2003,12,10,14,0,,6.9,-11.7,25,102110,0,0,282,349,312,192,28707,26452,21236,0,50,1.3,7,0,0,0,0,0,0,0,0,0,0,0,0
2003,12,10,15,0,,7.4,-11.2,25,102090,0,0,291,258,226,162,18694,12061,17233,0,250,1.8,8,0,0,0,0,0,0,0,0,0,0,0,0
2003,12,10,16,0,,7.1,-9.7,24,102030,0,0,289,172,215,107,0,0,0,0,20,1.3,8,0,0,0,0,0,0,0,0,0,0,0,0
2003,12,10,17,0,,6.2,-8.2,33,101970,0,0,285,84,41,43,0,0,0,0,340,0.8,7,0,0,0,0,0,0,0,0,0,0,0,0
2003,12,10,18,0,,5,-6.7,42,101910,0,0,280,8,1,7,0,0,0,0,290,1.1,7,0,0,0,0,0,0,0,0,0,0,0,0
2003,12,10,19,0,,3.8,-6.6,46,101900,0,0,277,0,0,0,0,0,0,0,50,0.9,7,0,0,0,0,0,0,0,0,0,0,0,0
2003,12,10,20,0,,3.6,-6.5,49,101890,0,0,277,0,0,0,0,0,0,0,340,0.7,8,0,0,0,0,0,0,0,0,0,0,0,0
2003,12,10,21,0,,3.9,-6.4,47,101880,0,0,280,0,0,0,0,0,0,0,360,0.5,8,0,0,0,0,0,0,0,0,0,0,0,0
2003,12,10,22,0,,3.6,-5.5,49,101880,0,0,284,0,0,0,0,0,0,0,20,1.3,9,0,0,0,0,0,0,0,0,0,0,0,0
2003,12,10,23,0,,3.6,-4.7,54,101870,0,0,289,0,0,0,0,0,0,0,200,1.7,9,0,0,0,0,0,0,0,0,0,0,0,0
2003,12,10,24,0,,2.6,-3.8,64,101870,0,0,292,0,0,0,0,0,0,0,250,2.3,10,0,0,0,0,0,0,0,0,0,0,0,0
2003,12,11,1,0,,0.2,-2.6,93,101810,0,0,283,0,0,0,0,0,0,0,0,0,10,0,0,0,0,0,0,0,0,0,0,0,0
2003,12,11,2,0,,0.2,-1.4,95,101760,0,0,285,0,0,0,0,0,0,0,50,1.7,10,0,0,0,0,0,0,0,0,0,0,0,0
2003,12,11,3,0,,0.5,-0.2,95,101700,0,0,288,0,0,0,0,0,0,0,340,0.9,10,0,0,0,0,0,0,0,0,0,0,0,0
2003,12,11,4,0,,0.6,-0.2,94,101680,0,0,288,0,0,0,0,0,0,0,50,0.7,10,0,0,0,0,0,0,0,0,0,0,0,0
2003,12,11,5,0,,0.6,-0.2,94,101650,0,0,288,0,0,0,0,0,0,0,20,0.7,10,0,0,0,0,0,0,0,0,0,0,0,0
2003,12,11,6,0,,0.9,-0.2,94,101630,0,0,290,0,0,0,0,0,0,0,0,0.2,10,0,0,0,0,0,0,0,0,0,0,0,0
2003,12,11,7,0,,1.2,-0.2,93,101640,0,0,275,0,0,0,0,0,0,0,0,0,8,0,0,0,0,0,0,0,0,0,0,0,0
2003,12,11,8,0,,1.5,-0.2,91,101640,0,0,269,16,5,12,1556,425,1415,0,320,0.3,5,0,0,0,0,0,0,0,0,0,0,0,0
2003,12,11,9,0,,1.9,-0.2,86,101650,0,0,265,110,359,51,24099,35196,8487,0,20,0.3,3,0,0,0,0,0,0,0,0,0,0,0,0
2003,12,11,10,0,,3.7,-1.4,73,101590,0,0,269,259,575,76,40382,57208,11195,0,70,1.1,2,0,0,0,0,0,0,0,0,0,0,0,0
2003,12,11,11,0,,5.5,-2.6,53,101530,0,0,273,385,676,91,48439,67027,13130,0,50,2.7,2,0,0,0,0,0,0,0,0,0,0,0,0
2003,12,11,12,0,,6.8,-3.8,46,101470,0,0,274,471,736,97,49950,72379,14321,0,50,1.4,1,0,0,0,0,0,0,0,0,0,0,0,0
2003,12,11,13,0,,7.2,-3.9,43,101430,0,0,277,485,705,110,42653,66235,15569,0,360,2.5,1,0,0,0,0,0,0,0,0,0,0,0,0
2003,12,11,14,0,,7.3,-4,44,101380,0,0,279,437,634,118,29936,52926,14986,0,360,2.7,2,0,0,0,0,0,0,0,0,0,0,0,0
2003,12,11,15,0,,6.5,-4.1,47,101340,0,0,276,353,583,105,15772,30707,12041,0,360,2.8,2,0,0,0,0,0,0,0,0,0,0,0,0
2003,12,11,16,0,,6.5,-3.5,48,101360,0,0,280,239,532,77,0,0,0,0,20,3.1,3,0,0,0,0,0,0,0,0,0,0,0,0
2003,12,11,17,0,,5.4,-2.8,55,101370,0,0,279,92,43,50,0,0,0,0,360,1.6,5,0,0,0,0,0,0,0,0,0,0,0,0
2003,12,11,18,0,,4.8,-2.2,60,101390,0,0,281,10,2,8,0,0,0,0,50,1.9,6,0,0,0,0,0,0,0,0,0,0,0,0
2003,12,11,19,0,,4.7,-1.9,62,101400,0,0,283,0,0,0,0,0,0,0,270,1,7,0,0,0,0,0,0,0,0,0,0,0,0
2003,12,11,20,0,,4.5,-1.5,65,101410,0,0,285,0,0,0,0,0,0,0,290,0.8,7,0,0,0,0,0,0,0,0,0,0,0,0
2003,12,11,21,0,,3.9,-1.2,69,101420,0,0,286,0,0,0,0,0,0,0,270,1.4,8,0,0,0,0,0,0,0,0,0,0,0,0
2003,12,11,22,0,,4.2,-0.5,68,101400,0,0,292,0,0,0,0,0,0,0,270,0.9,9,0,0,0,0,0,0,0,0,0,0,0,0
2003,12,11,23,0,,3.6,0.2,75,101380,0,0,295,0,0,0,0,0,0,0,250,1.2,9,0,0,0,0,0,0,0,0,0,0,0,0
2003,12,11,24,0,,2.2,0.9,90,101360,0,0,296,0,0,0,0,0,0,0,230,1,10,0,0,0,0,0,0,0,0,0,0,0,0
2003,12,12,1,0,,2.5,1,91,101340,0,0,297,0,0,0,0,0,0,0,230,1.6,10,0,0,0,0,0,0,0,0,0,0,0,0
2003,12,12,2,0,,1.7,1,94,101320,0,0,294,0,0,0,0,0,0,0,200,2,10,0,0,0,0,0,0,0,0,0,0,0,0
2003,12,12,3,0,,2.1,1.1,94,101300,0,0,296,0,0,0,0,0,0,0,230,1.6,10,0,0,0,0,0,0,0,0,0,0,0,0
2003,12,12,4,0,,1.9,0.9,95,101310,0,0,295,0,0,0,0,0,0,0,230,2,10,0,0,0,0,0,0,0,0,0,0,0,0
2003,12,12,5,0,,1.3,0.6,94,101310,0,0,292,0,0,0,0,0,0,0,270,1.2,10,0,0,0,0,0,0,0,0,0,0,0,0
2003,12,12,6,0,,1.5,0.4,94,101320,0,0,293,0,0,0,0,0,0,0,200,0.7,10,0,0,0,0,0,0,0,0,0,0,0,0
2003,12,12,7,0,,1.7,0.7,94,101350,0,0,284,0,0,0,0,0,0,0,250,2.5,9,0,0,0,0,0,0,0,0,0,0,0,0
2003,12,12,8,0,,1.8,1,93,101380,0,0,277,10,1,9,1225,44,1211,0,290,1,7,0,0,0,0,0,0,0,0,0,0,0,0
2003,12,12,9,0,,2.3,1.3,92,101410,0,0,275,88,232,51,18507,22730,8466,0,230,0.9,6,0,0,0,0,0,0,0,0,0,0,0,0
2003,12,12,10,0,,2,1.2,91,101410,0,0,278,161,155,113,22012,15322,14217,0,340,1.1,7,0,0,0,0,0,0,0,0,0,0,0,0
2003,12,12,11,0,,2.7,1,89,101410,0,0,288,160,54,137,18488,5174,15768,0,50,1.5,9,0,0,0,0,0,0,0,0,0,0,0,0
2003,12,12,12,0,,3,0.9,86,101410,0,0,299,129,18,120,14707,1682,13880,0,320,0.5,10,0,0,0,0,0,0,0,0,0,0,0,0
2003,12,12,13,0,,4.5,0.7,77,101400,0,0,305,172,34,154,18831,3210,17519,0,360,1,10,0,0,0,0,0,0,0,0,0,0,0,0
2003,12,12,14,0,,2.7,0.6,87,101380,0,0,298,137,22,126,14317,1269,13958,0,270,1.4,10,0,0,0,0,0,0,0,0,0,0,0,0
2003,12,12,15,0,,2.1,0.4,89,101370,0,0,295,104,17,97,10150,604,10076,0,290,1.3,10,0,0,0,0,0,0,0,0,0,0,0,0
2003,12,12,16,0,,2.4,-0.1,86,101410,0,0,293,65,13,61,0,0,0,0,320,1.7,10,0,0,0,0,0,0,0,0,0,0,0,0
2003,12,12,17,0,,1.6,-0.7,85,101450,0,0,286,46,7,39,0,0,0,0,360,2.9,9,0,0,0,0,0,0,0,0,0,0,0,0
2003,12,12,18,0,,1.4,-1.2,82,101490,0,0,282,2,0,2,0,0,0,0,290,1.8,9,0,0,0,0,0,0,0,0,0,0,0,0
2003,12,12,19,0,,0.6,-1.3,92,101510,0,0,281,0,0,0,0,0,0,0,270,1.1,9,0,0,0,0,0,0,0,0,0,0,0,0
2003,12,12,20,0,,0.8,-1.3,87,101540,0,0,285,0,0,0,0,0,0,0,270,0.8,10,0,0,0,0,0,0,0,0,0,0,0,0
2003,12,12,21,0,,1.2,-1.4,83,101560,0,0,289,0,0,0,0,0,0,0,270,0.7,10,0,0,0,0,0,0,0,0,0,0,0,0
2003,12,12,22,0,,1.5,-1.8,81,101560,0,0,287,0,0,0,0,0,0,0,360,0.4,10,0,0,0,0,0,0,0,0,0,0,0,0
2003,12,12,23,0,,1.8,-2.1,77,101560,0,0,285,0,0,0,0,0,0,0,270,0.9,9,0,0,0,0,0,0,0,0,0,0,0,0
2003,12,12,24,0,,2,-2.5,72,101560,0,0,283,0,0,0,0,0,0,0,270,1.4,9,0,0,0,0,0,0,0,0,0,0,0,0
2003,12,13,1,0,,2.2,-2.5,70,101570,0,0,281,0,0,0,0,0,0,0,250,1,9,0,0,0,0,0,0,0,0,0,0,0,0
2003,12,13,2,0,,2.3,-2.5,72,101580,0,0,280,0,0,0,0,0,0,0,250,1.2,8,0,0,0,0,0,0,0,0,0,0,0,0
2003,12,13,3,0,,2.7,-2.5,69,101590,0,0,280,0,0,0,0,0,0,0,20,0.4,8,0,0,0,0,0,0,0,0,0,0,0,0
2003,12,13,4,0,,2.5,-2,73,101600,0,0,283,0,0,0,0,0,0,0,20,0.6,9,0,0,0,0,0,0,0,0,0,0,0,0
2003,12,13,5,0,,2.4,-1.4,75,101600,0,0,288,0,0,0,0,0,0,0,0,0.2,9,0,0,0,0,0,0,0,0,0,0,0,0
2003,12,13,6,0,,2.1,-0.9,80,101610,0,0,293,0,0,0,0,0,0,0,50,0.9,10,0,0,0,0,0,0,0,0,0,0,0,0
2003,12,13,7,0,,2.1,-1.1,73,101640,0,0,287,0,0,0,0,0,0,0,70,0.7,9,0,0,0,0,0,0,0,0,0,0,0,0
2003,12,13,8,0,,2.2,-1.2,74,101670,0,0,283,5,0,5,695,6,693,0,90,0.4,9,0,0,0,0,0,0,0,0,0,0,0,0
2003,12,13,9,0,,2.6,-1.4,75,101700,0,0,281,70,118,51,12838,11325,7854,0,20,0.4,8,0,0,0,0,0,0,0,0,0,0,0,0
2003,12,13,10,0,,4.4,-1.5,67,101700,0,0,288,163,162,112,22237,16229,14003,0,70,0.8,8,0,0,0,0,0,0,0,0,0,0,0,0
2003,12,13,11,0,,4.2,-1.6,66,101690,0,0,287,227,148,164,26983,14795,19219,0,320,1.1,8,0,0,0,0,0,0,0,0,0,0,0,0
2003,12,13,12,0,,4.3,-1.7,65,101690,0,0,287,268,139,198,29559,13690,22837,0,20,2.2,8,0,0,0,0,0,0,0,0,0,0,0,0
2003,12,13,13,0,,4.8,-2,62,101660,0,0,289,272,123,207,28276,11677,23506,0,340,1,8,0,0,0,0,0,0,0,0,0,0,0,0
2003,12,13,14,0,,4.9,-2.4,60,101630,0,0,289,260,130,195,24896,11654,21600,0,360,1.7,8,0,0,0,0,0,0,0,0,0,0,0,0
2003,12,13,15,0,,4.9,-2.7,58,101600,0,0,288,222,146,160,18733,10913,17396,0,20,2.2,8,0,0,0,0,0,0,0,0,0,0,0,0
2003,12,13,16,0,,4.7,-3.1,60,101630,0,0,286,149,139,107,0,0,0,0,20,1.8,8,0,0,0,0,0,0,0,0,0,0,0,0
2003,12,13,17,0,,4.6,-3.4,55,101660,0,0,283,78,32,46,0,0,0,0,340,1.8,7,0,0,0,0,0,0,0,0,0,0,0,0
2003,12,13,18,0,,4.3,-3.8,55,101690,0,0,280,9,1,7,0,0,0,0,20,2.2,7,0,0,0,0,0,0,0,0,0,0,0,0
2003,12,13,19,0,,4.2,-3.7,58,101700,0,0,283,0,0,0,0,0,0,0,360,0.7,8,0,0,0,0,0,0,0,0,0,0,0,0
2003,12,13,20,0,,4.1,-3.7,55,101700,0,0,286,0,0,0,0,0,0,0,360,1.2,8,0,0,0,0,0,0,0,0,0,0,0,0
2003,12,13,21,0,,3.9,-3.6,58,101710,0,0,289,0,0,0,0,0,0,0,20,1.8,9,0,0,0,0,0,0,0,0,0,0,0,0
2003,12,13,22,0,,3.8,-3.5,59,101720,0,0,289,0,0,0,0,0,0,0,20,0.7,9,0,0,0,0,0,0,0,0,0,0,0,0
2003,12,13,23,0,,3.6,-3.4,60,101720,0,0,288,0,0,0,0,0,0,0,20,0.6,9,0,0,0,0,0,0,0,0,0,0,0,0
2003,12,13,24,0,,3.8,-3.3,60,101730,0,0,289,0,0,0,0,0,0,0,360,0.6,9,0,0,0,0,0,0,0,0,0,0,0,0
2003,12,14,1,0,,2.8,-3.5,65,101720,0,0,285,0,0,0,0,0,0,0,50,1.2,9,0,0,0,0,0,0,0,0,0,0,0,0
2003,12,14,2,0,,3,-3.6,62,101720,0,0,286,0,0,0,0,0,0,0,20,1.4,9,0,0,0,0,0,0,0,0,0,0,0,0
2003,12,14,3,0,,2.9,-3.8,61,101710,0,0,285,0,0,0,0,0,0,0,20,1.1,9,0,0,0,0,0,0,0,0,0,0,0,0
2003,12,14,4,0,,3,-3.4,60,101680,0,0,288,0,0,0,0,0,0,0,50,0.6,9,0,0,0,0,0,0,0,0,0,0,0,0
2003,12,14,5,0,,3,-2.9,64,101650,0,0,292,0,0,0,0,0,0,0,250,0.5,10,0,0,0,0,0,0,0,0,0,0,0,0
2003,12,14,6,0,,2.7,-2.5,69,101620,0,0,294,0,0,0,0,0,0,0,50,1.5,10,0,0,0,0,0,0,0,0,0,0,0,0
2003,12,14,7,0,,2.5,-2.2,74,101650,0,0,290,0,0,0,0,0,0,0,230,1.1,10,0,0,0,0,0,0,0,0,0,0,0,0
2003,12,14,8,0,,2.7,-2,72,101680,0,0,289,6,0,5,735,9,732,0,290,0.8,9,0,0,0,0,0,0,0,0,0,0,0,0
2003,12,14,9,0,,3.2,-1.7,69,101710,0,0,289,56,67,46,9131,6560,6255,0,70,0.7,9,0,0,0,0,0,0,0,0,0,0,0,0
2003,12,14,10,0,,4.3,-1.9,63,101680,0,0,289,162,163,111,22165,16331,13900,0,20,2.1,8,0,0,0,0,0,0,0,0,0,0,0,0
2003,12,14,11,0,,5.2,-2,59,101660,0,0,289,235,165,164,27912,16514,19260,0,50,1.7,8,0,0,0,0,0,0,0,0,0,0,0,0
2003,12,14,12,0,,5.9,-2.2,56,101630,0,0,289,326,251,200,35516,24909,23296,0,20,2.1,7,0,0,0,0,0,0,0,0,0,0,0,0
2003,12,14,13,0,,6.6,-2.5,50,101580,0,0,293,336,230,214,33195,21821,24281,0,20,1.4,7,0,0,0,0,0,0,0,0,0,0,0,0
2003,12,14,14,0,,6.6,-2.7,50,101540,0,0,294,279,160,199,25992,13469,22178,0,360,2.3,8,0,0,0,0,0,0,0,0,0,0,0,0
2003,12,14,15,0,,6,-3,53,101490,0,0,293,225,152,161,18850,11376,17449,0,360,2.9,8,0,0,0,0,0,0,0,0,0,0,0,0
2003,12,14,16,0,,5.8,-3.2,54,101480,0,0,286,173,218,107,0,0,0,0,20,1.9,7,0,0,0,0,0,0,0,0,0,0,0,0
2003,12,14,17,0,,5.6,-3.4,52,101480,0,0,281,96,48,48,0,0,0,0,20,1.3,5,0,0,0,0,0,0,0,0,0,0,0,0
2003,12,14,18,0,,4.8,-3.6,55,101470,0,0,275,13,4,9,0,0,0,0,340,0.7,4,0,0,0,0,0,0,0,0,0,0,0,0
2003,12,14,19,0,,4.7,-3.2,59,101480,0,0,275,0,0,0,0,0,0,0,320,1.2,4,0,0,0,0,0,0,0,0,0,0,0,0
2003,12,14,20,0,,4.2,-2.9,61,101480,0,0,275,0,0,0,0,0,0,0,360,1.1,5,0,0,0,0,0,0,0,0,0,0,0,0
2003,12,14,21,0,,4,-2.5,62,101490,0,0,275,0,0,0,0,0,0,0,20,0.6,5,0,0,0,0,0,0,0,0,0,0,0,0
2003,12,14,22,0,,4.1,-2.4,63,101480,0,0,276,0,0,0,0,0,0,0,360,0.4,5,0,0,0,0,0,0,0,0,0,0,0,0
2003,12,14,23,0,,4.2,-2.3,64,101460,0,0,277,0,0,0,0,0,0,0,250,0.4,6,0,0,0,0,0,0,0,0,0,0,0,0
2003,12,14,24,0,,4.1,-2.2,63,101450,0,0,278,0,0,0,0,0,0,0,20,1,6,0,0,0,0,0,0,0,0,0,0,0,0
2003,12,15,1,0,,4.4,-1.9,63,101400,0,0,281,0,0,0,0,0,0,0,250,1.2,6,0,0,0,0,0,0,0,0,0,0,0,0
2003,12,15,2,0,,4.4,-1.5,66,101350,0,0,282,0,0,0,0,0,0,0,200,1.6,7,0,0,0,0,0,0,0,0,0,0,0,0
2003,12,15,3,0,,4.3,-1.2,66,101300,0,0,283,0,0,0,0,0,0,0,230,1.1,7,0,0,0,0,0,0,0,0,0,0,0,0
2003,12,15,4,0,,4.2,-1,72,101290,0,0,282,0,0,0,0,0,0,0,270,2.6,7,0,0,0,0,0,0,0,0,0,0,0,0
2003,12,15,5,0,,5.5,-0.9,70,101280,0,0,286,0,0,0,0,0,0,0,270,3.1,6,0,0,0,0,0,0,0,0,0,0,0,0
2003,12,15,6,0,,5.7,-0.7,63,101270,0,0,286,0,0,0,0,0,0,0,340,2,6,0,0,0,0,0,0,0,0,0,0,0,0
2003,12,15,7,0,,4.8,-1.6,60,101310,0,0,282,0,0,0,0,0,0,0,320,4,6,0,0,0,0,0,0,0,0,0,0,0,0
2003,12,15,8,0,,4.5,-2.4,62,101360,0,0,281,11,2,9,1140,156,1090,0,320,2.1,7,0,0,0,0,0,0,0,0,0,0,0,0
2003,12,15,9,0,,4.2,-3.3,58,101400,0,0,280,83,222,49,17673,21788,8153,0,320,3.3,7,0,0,0,0,0,0,0,0,0,0,0,0
2003,12,15,10,0,,4.3,-3.1,55,101400,0,0,284,156,148,110,21238,14897,13716,0,320,3.3,8,0,0,0,0,0,0,0,0,0,0,0,0
2003,12,15,11,0,,4.1,-2.9,56,101400,0,0,287,215,129,160,25530,12941,18760,0,340,3.1,8,0,0,0,0,0,0,0,0,0,0,0,0
2003,12,15,12,0,,4.2,-2.7,61,101400,0,0,292,214,75,176,23537,7172,20021,0,340,2.2,9,0,0,0,0,0,0,0,0,0,0,0,0
2003,12,15,13,0,,5.4,-3.4,51,101380,0,0,283,363,298,206,35207,28341,23627,0,340,2.6,6,0,0,0,0,0,0,0,0,0,0,0,0
2003,12,15,14,0,,5.3,-4,51,101350,0,0,276,410,547,136,29788,45588,16858,0,360,4.1,4,0,0,0,0,0,0,0,0,0,0,0,0
2003,12,15,15,0,,4.9,-4.7,49,101330,0,0,266,361,618,98,15566,33248,11446,0,20,3.2,1,0,0,0,0,0,0,0,0,0,0,0,0
2003,12,15,16,0,,4.7,-4.4,47,101380,0,0,265,241,539,77,0,0,0,0,20,1.8,1,0,0,0,0,0,0,0,0,0,0,0,0
2003,12,15,17,0,,3.7,-4.1,55,101420,0,0,262,110,71,39,0,0,0,0,20,2.1,1,0,0,0,0,0,0,0,0,0,0,0,0
2003,12,15,18,0,,2.2,-3.8,62,101470,0,0,256,14,5,9,0,0,0,0,20,2,1,0,0,0,0,0,0,0,0,0,0,0,0
2003,12,15,19,0,,1.7,-4,64,101510,0,0,253,0,0,0,0,0,0,0,20,2.4,1,0,0,0,0,0,0,0,0,0,0,0,0
2003,12,15,20,0,,1.4,-4.2,63,101550,0,0,250,0,0,0,0,0,0,0,20,3.4,0,0,0,0,0,0,0,0,0,0,0,0,0
2003,12,15,21,0,,1,-4.4,64,101590,0,0,246,0,0,0,0,0,0,0,20,3.5,0,0,0,0,0,0,0,0,0,0,0,0,0
2003,12,15,22,0,,0.1,-5.2,67,101590,0,0,242,0,0,0,0,0,0,0,50,2.9,0,0,0,0,0,0,0,0,0,0,0,0,0
2003,12,15,23,0,,-0.3,-5.9,66,101590,0,0,241,0,0,0,0,0,0,0,50,2.3,0,0,0,0,0,0,0,0,0,0,0,0,0
2003,12,15,24,0,,-0.2,-6.7,62,101590,0,0,240,0,0,0,0,0,0,0,50,1.8,0,0,0,0,0,0,0,0,0,0,0,0,0
2003,12,16,1,0,,-0.2,-6.3,59,101620,0,0,241,0,0,0,0,0,0,0,20,0.9,0,0,0,0,0,0,0,0,0,0,0,0,0
2003,12,16,2,0,,-0.6,-5.8,68,101640,0,0,240,0,0,0,0,0,0,0,290,1,0,0,0,0,0,0,0,0,0,0,0,0,0
2003,12,16,3,0,,-1.3,-5.4,73,101670,0,0,238,0,0,0,0,0,0,0,270,0.5,0,0,0,0,0,0,0,0,0,0,0,0,0
2003,12,16,4,0,,-2.3,-5.4,78,101650,0,0,234,0,0,0,0,0,0,0,230,1.1,0,0,0,0,0,0,0,0,0,0,0,0,0
2003,12,16,5,0,,-2.1,-5.4,79,101640,0,0,235,0,0,0,0,0,0,0,20,0.9,0,0,0,0,0,0,0,0,0,0,0,0,0
2003,12,16,6,0,,-2.6,-5.4,82,101620,0,0,233,0,0,0,0,0,0,0,0,0.2,0,0,0,0,0,0,0,0,0,0,0,0,0
2003,12,16,7,0,,-3.6,-5.5,85,101620,0,0,230,0,0,0,0,0,0,0,270,1.1,0,0,0,0,0,0,0,0,0,0,0,0,0
2003,12,16,8,0,,-2.7,-5.6,79,101630,0,0,233,16,6,10,1363,558,1184,0,20,0.8,0,0,0,0,0,0,0,0,0,0,0,0,0
2003,12,16,9,0,,-1.7,-5.7,75,101630,0,0,236,116,504,39,27282,48855,6004,0,250,1.4,0,0,0,0,0,0,0,0,0,0,0,0,0
2003,12,16,10,0,,0.2,-5,67,101580,0,0,246,259,622,67,41246,61983,10012,0,250,1.5,1,0,0,0,0,0,0,0,0,0,0,0,0
2003,12,16,11,0,,3,-4.3,59,101530,0,0,260,387,716,81,49095,71199,11891,0,270,1.8,1,0,0,0,0,0,0,0,0,0,0,0,0
2003,12,16,12,0,,3.9,-3.6,57,101480,0,0,266,451,689,105,48375,67479,15305,0,230,1.8,2,0,0,0,0,0,0,0,0,0,0,0,0
2003,12,16,13,0,,5.3,-3.1,54,101390,0,0,272,480,706,108,42518,66313,15410,0,270,1.5,2,0,0,0,0,0,0,0,0,0,0,0,0
2003,12,16,14,0,,6.8,-2.7,53,101290,0,0,279,443,665,110,30738,55305,15020,0,250,1.6,2,0,0,0,0,0,0,0,0,0,0,0,0
2003,12,16,15,0,,7,-2.2,52,101200,0,0,280,371,659,91,15248,35489,10820,0,250,1.5,2,0,0,0,0,0,0,0,0,0,0,0,0
2003,12,16,16,0,,7.2,-2,49,101200,0,0,287,241,537,77,0,0,0,0,250,2.5,4,0,0,0,0,0,0,0,0,0,0,0,0
2003,12,16,17,0,,5.5,-1.9,60,101210,0,0,286,77,29,48,0,0,0,0,290,1.6,7,0,0,0,0,0,0,0,0,0,0,0,0
2003,12,16,18,0,,4.6,-1.7,64,101210,0,0,295,3,0,3,0,0,0,0,320,2.3,9,0,0,0,0,0,0,0,0,0,0,0,0
2003,12,16,19,0,,4.2,-1.6,65,101190,0,0,291,0,0,0,0,0,0,0,290,0.5,9,0,0,0,0,0,0,0,0,0,0,0,0
2003,12,16,20,0,,4.3,-1.5,65,101170,0,0,289,0,0,0,0,0,0,0,0,0,8,0,0,0,0,0,0,0,0,0,0,0,0
2003,12,16,21,0,,4.5,-1.4,65,101150,0,0,288,0,0,0,0,0,0,0,250,1.2,8,0,0,0,0,0,0,0,0,0,0,0,0
2003,12,16,22,0,,4.3,-1.4,66,101110,0,0,287,0,0,0,0,0,0,0,200,1.7,8,0,0,0,0,0,0,0,0,0,0,0,0
2003,12,16,23,0,,4,-1.4,67,101070,0,0,286,0,0,0,0,0,0,0,180,1.1,8,0,0,0,0,0,0,0,0,0,0,0,0
2003,12,16,24,0,,4.1,-1.4,68,101030,0,0,287,0,0,0,0,0,0,0,160,0.6,8,0,0,0,0,0,0,0,0,0,0,0,0
2003,12,17,1,0,,4.3,-0.9,69,100980,0,0,288,0,0,0,0,0,0,0,270,1.5,8,0,0,0,0,0,0,0,0,0,0,0,0
2003,12,17,2,0,,3.8,-0.5,72,100930,0,0,286,0,0,0,0,0,0,0,250,1.4,8,0,0,0,0,0,0,0,0,0,0,0,0
2003,12,17,3,0,,3.9,0,75,100880,0,0,287,0,0,0,0,0,0,0,230,1.5,8,0,0,0,0,0,0,0,0,0,0,0,0
2003,12,17,4,0,,4.5,0.8,74,100860,0,0,295,0,0,0,0,0,0,0,200,2.4,9,0,0,0,0,0,0,0,0,0,0,0,0
2003,12,17,5,0,,4.7,1.7,75,100830,0,0,301,0,0,0,0,0,0,0,230,2.3,9,0,0,0,0,0,0,0,0,0,0,0,0
2003,12,17,6,0,,4.2,2.5,89,100810,0,0,306,0,0,0,0,0,0,0,270,1.9,10,0,0,0,0,0,0,0,0,0,0,0,0
2003,12,17,7,0,,4.4,1.3,89,100880,0,0,300,0,0,0,0,0,0,0,270,2.3,9,0,0,0,0,0,0,0,0,0,0,0,0
2003,12,17,8,0,,5.2,0,66,100950,0,0,297,5,0,5,640,6,638,0,290,2.2,9,0,0,0,0,0,0,0,0,0,0,0,0
2003,12,17,9,0,,5.1,-1.2,64,101020,0,0,291,72,153,49,13948,14657,7583,0,270,3.2,8,0,0,0,0,0,0,0,0,0,0,0,0
2003,12,17,10,0,,5.1,-2.2,68,101040,0,0,290,155,153,109,21307,15307,13608,0,320,1.6,8,0,0,0,0,0,0,0,0,0,0,0,0
2003,12,17,11,0,,4.8,-3.1,68,101070,0,0,288,220,141,160,26167,14139,18786,0,340,2.3,8,0,0,0,0,0,0,0,0,0,0,0,0
2003,12,17,12,0,,4.8,-4.1,52,101090,0,0,287,272,149,197,29932,14815,22673,0,360,3.7,8,0,0,0,0,0,0,0,0,0,0,0,0
2003,12,17,13,0,,4.9,-4.4,53,101110,0,0,287,288,148,210,29559,14131,23778,0,20,3.8,8,0,0,0,0,0,0,0,0,0,0,0,0
2003,12,17,14,0,,3.1,-4.7,64,101130,0,0,279,251,120,191,24319,10777,21249,0,20,3.7,8,0,0,0,0,0,0,0,0,0,0,0,0
2003,12,17,15,0,,4,-5,52,101150,0,0,282,215,132,159,18468,9967,17215,0,360,2.7,8,0,0,0,0,0,0,0,0,0,0,0,0
2003,12,17,16,0,,3.7,-4.4,48,101200,0,0,279,177,229,107,0,0,0,0,340,3.5,7,0,0,0,0,0,0,0,0,0,0,0,0
2003,12,17,17,0,,2.3,-3.9,61,101260,0,0,271,78,30,48,0,0,0,0,320,2.7,7,0,0,0,0,0,0,0,0,0,0,0,0
2003,12,17,18,0,,1.5,-3.3,69,101310,0,0,267,10,2,8,0,0,0,0,360,1.7,6,0,0,0,0,0,0,0,0,0,0,0,0
2003,12,17,19,0,,1.6,-3.6,68,101350,0,0,270,0,0,0,0,0,0,0,340,1.4,7,0,0,0,0,0,0,0,0,0,0,0,0
2003,12,17,20,0,,2.1,-3.8,60,101390,0,0,276,0,0,0,0,0,0,0,20,2.6,8,0,0,0,0,0,0,0,0,0,0,0,0
2003,12,17,21,0,,2.4,-4.1,59,101430,0,0,283,0,0,0,0,0,0,0,360,2.6,9,0,0,0,0,0,0,0,0,0,0,0,0
2003,12,17,22,0,,2.2,-4.1,61,101420,0,0,282,0,0,0,0,0,0,0,20,2.2,9,0,0,0,0,0,0,0,0,0,0,0,0
2003,12,17,23,0,,2,-4.1,61,101410,0,0,281,0,0,0,0,0,0,0,20,3,9,0,0,0,0,0,0,0,0,0,0,0,0
2003,12,17,24,0,,1.9,-4.1,62,101400,0,0,280,0,0,0,0,0,0,0,20,2.3,9,0,0,0,0,0,0,0,0,0,0,0,0
2003,12,18,1,0,,1.6,-4.1,64,101450,0,0,279,0,0,0,0,0,0,0,50,1.6,9,0,0,0,0,0,0,0,0,0,0,0,0
2003,12,18,2,0,,1.4,-4.1,65,101490,0,0,278,0,0,0,0,0,0,0,20,0.9,9,0,0,0,0,0,0,0,0,0,0,0,0
2003,12,18,3,0,,1.1,-4.1,65,101540,0,0,277,0,0,0,0,0,0,0,20,2.2,9,0,0,0,0,0,0,0,0,0,0,0,0
2003,12,18,4,0,,0.6,-4.4,64,101520,0,0,275,0,0,0,0,0,0,0,50,3.3,9,0,0,0,0,0,0,0,0,0,0,0,0
2003,12,18,5,0,,0.2,-4.7,63,101510,0,0,273,0,0,0,0,0,0,0,70,3.5,9,0,0,0,0,0,0,0,0,0,0,0,0
2003,12,18,6,0,,0.1,-5,64,101490,0,0,272,0,0,0,0,0,0,0,50,2.7,9,0,0,0,0,0,0,0,0,0,0,0,0
2003,12,18,7,0,,-0.8,-5.1,69,101520,0,0,267,0,0,0,0,0,0,0,50,2.9,9,0,0,0,0,0,0,0,0,0,0,0,0
2003,12,18,8,0,,-1.1,-5.3,70,101540,0,0,264,6,0,6,787,12,784,0,70,2.1,8,0,0,0,0,0,0,0,0,0,0,0,0
2003,12,18,9,0,,0.4,-5.4,64,101570,0,0,267,69,21,48,6529,1981,5671,0,70,1.8,8,0,0,0,0,0,0,0,0,0,0,0,0
2003,12,18,10,0,,1.8,-5,59,101520,0,0,277,137,108,104,18064,10955,12562,0,70,2.3,9,0,0,0,0,0,0,0,0,0,0,0,0
2003,12,18,11,0,,2.2,-4.5,61,101470,0,0,284,202,111,155,24036,11257,18164,0,50,1.6,9,0,0,0,0,0,0,0,0,0,0,0,0
2003,12,18,12,0,,2.7,-4.1,60,101420,0,0,292,181,48,157,20169,4616,17907,0,20,1.7,10,0,0,0,0,0,0,0,0,0,0,0,0
2003,12,18,13,0,,2.5,-3.7,63,101360,0,0,291,183,42,161,19809,3935,18198,0,360,2.2,10,0,0,0,0,0,0,0,0,0,0,0,0
2003,12,18,14,0,,2.3,-3.4,64,101300,0,0,291,154,31,139,16356,2696,15586,0,290,1.6,10,0,0,0,0,0,0,0,0,0,0,0,0
2003,12,18,15,0,,2,-3,66,101240,0,0,290,124,28,112,11676,1265,11516,0,340,1.5,10,0,0,0,0,0,0,0,0,0,0,0,0
2003,12,18,16,0,,1.8,-2.9,68,101270,0,0,290,80,23,73,0,0,0,0,320,0.9,10,0,0,0,0,0,0,0,0,0,0,0,0
2003,12,18,17,0,,1.3,-2.8,74,101310,0,0,288,34,3,31,0,0,0,0,340,0.9,10,0,0,0,0,0,0,0,0,0,0,0,0
2003,12,18,18,0,,0.6,-2.7,76,101340,0,0,285,0,0,0,0,0,0,0,320,1.4,10,0,0,0,0,0,0,0,0,0,0,0,0
2003,12,18,19,0,,0.6,-2.4,77,101330,0,0,285,0,0,0,0,0,0,0,340,1.7,10,0,0,0,0,0,0,0,0,0,0,0,0
2003,12,18,20,0,,0.6,-2.2,78,101330,0,0,286,0,0,0,0,0,0,0,340,0.8,10,0,0,0,0,0,0,0,0,0,0,0,0
2003,12,18,21,0,,0.7,-1.9,81,101320,0,0,286,0,0,0,0,0,0,0,320,1.6,10,0,0,0,0,0,0,0,0,0,0,0,0
2003,12,18,22,0,,0,-2.1,89,101300,0,0,280,0,0,0,0,0,0,0,320,1.4,10,0,0,0,0,0,0,0,0,0,0,0,0
2003,12,18,23,0,,0.3,-2.3,87,101270,0,0,279,0,0,0,0,0,0,0,320,0.6,9,0,0,0,0,0,0,0,0,0,0,0,0
2003,12,18,24,0,,0.1,-2.5,81,101250,0,0,275,0,0,0,0,0,0,0,20,1.8,9,0,0,0,0,0,0,0,0,0,0,0,0
2003,12,19,1,0,,0.6,-2.8,71,101290,0,0,277,0,0,0,0,0,0,0,360,1.4,9,0,0,0,0,0,0,0,0,0,0,0,0
2003,12,19,2,0,,-1.1,-3,84,101320,0,0,270,0,0,0,0,0,0,0,20,3.5,9,0,0,0,0,0,0,0,0,0,0,0,0
2003,12,19,3,0,,-1.4,-3.3,90,101360,0,0,269,0,0,0,0,0,0,0,20,1.2,9,0,0,0,0,0,0,0,0,0,0,0,0
2003,12,19,4,0,,-1.7,-4.3,91,101390,0,0,261,0,0,0,0,0,0,0,340,1.5,8,0,0,0,0,0,0,0,0,0,0,0,0
2003,12,19,5,0,,-1.8,-5.4,89,101430,0,0,255,0,0,0,0,0,0,0,20,2.7,7,0,0,0,0,0,0,0,0,0,0,0,0
2003,12,19,6,0,,-2.1,-6.4,73,101460,0,0,250,0,0,0,0,0,0,0,20,3,6,0,0,0,0,0,0,0,0,0,0,0,0
2003,12,19,7,0,,-2.9,-5.8,91,101510,0,0,251,0,0,0,0,0,0,0,20,2.4,7,0,0,0,0,0,0,0,0,0,0,0,0
2003,12,19,8,0,,-3.3,-5.3,92,101560,0,0,254,4,0,4,587,6,585,0,20,1.4,8,0,0,0,0,0,0,0,0,0,0,0,0
2003,12,19,9,0,,-3,-4.7,89,101610,0,0,261,46,7,40,4976,639,4700,0,20,1.9,9,0,0,0,0,0,0,0,0,0,0,0,0
2003,12,19,10,0,,-2.3,-4.5,88,101590,0,0,260,136,107,103,17901,10795,12488,0,320,1,8,0,0,0,0,0,0,0,0,0,0,0,0
2003,12,19,11,0,,-0.2,-4.3,71,101560,0,0,265,233,170,161,28251,17210,19279,0,20,2.7,8,0,0,0,0,0,0,0,0,0,0,0,0
2003,12,19,12,0,,-1.4,-4.1,84,101540,0,0,258,283,170,198,31081,16875,22810,0,360,3.3,7,0,0,0,0,0,0,0,0,0,0,0,0
2003,12,19,13,0,,0,-4.7,73,101490,0,0,260,357,286,207,34804,27333,23596,0,340,2.9,6,0,0,0,0,0,0,0,0,0,0,0,0
2003,12,19,14,0,,0.9,-5.4,65,101430,0,0,261,340,295,192,28628,25175,21415,0,20,3.1,6,0,0,0,0,0,0,0,0,0,0,0,0
2003,12,19,15,0,,0.3,-6,61,101380,0,0,256,323,459,128,16998,23898,13939,0,20,3.6,5,0,0,0,0,0,0,0,0,0,0,0,0
2003,12,19,16,0,,0.2,-5.9,60,101430,0,0,257,218,404,95,0,0,0,0,20,4.2,5,0,0,0,0,0,0,0,0,0,0,0,0
2003,12,19,17,0,,-0.4,-5.8,67,101490,0,0,256,87,279,45,0,0,0,0,20,3.5,6,0,0,0,0,0,0,0,0,0,0,0,0
2003,12,19,18,0,,-1,-5.7,71,101540,0,0,255,11,2,9,0,0,0,0,320,1.7,6,0,0,0,0,0,0,0,0,0,0,0,0
2003,12,19,19,0,,-1.3,-5.6,70,101580,0,0,256,0,0,0,0,0,0,0,360,2.5,7,0,0,0,0,0,0,0,0,0,0,0,0
2003,12,19,20,0,,-1.4,-5.5,68,101610,0,0,258,0,0,0,0,0,0,0,320,2.1,7,0,0,0,0,0,0,0,0,0,0,0,0
2003,12,19,21,0,,-1.9,-5.4,79,101650,0,0,259,0,0,0,0,0,0,0,360,2.4,8,0,0,0,0,0,0,0,0,0,0,0,0
2003,12,19,22,0,,-2.6,-5.6,92,101690,0,0,258,0,0,0,0,0,0,0,20,3.6,8,0,0,0,0,0,0,0,0,0,0,0,0
2003,12,19,23,0,,-3.1,-5.8,90,101730,0,0,257,0,0,0,0,0,0,0,50,3.3,9,0,0,0,0,0,0,0,0,0,0,0,0
2003,12,19,24,0,,-3.6,-6,88,101770,0,0,257,0,0,0,0,0,0,0,50,3.2,9,0,0,0,0,0,0,0,0,0,0,0,0
2003,12,20,1,0,,-3.8,-6.9,79,101790,0,0,246,0,0,0,0,0,0,0,20,1.2,7,0,0,0,0,0,0,0,0,0,0,0,0
2003,12,20,2,0,,-4.3,-7.7,77,101810,0,0,238,0,0,0,0,0,0,0,360,1.6,5,0,0,0,0,0,0,0,0,0,0,0,0
2003,12,20,3,0,,-4.6,-8.6,77,101830,0,0,233,0,0,0,0,0,0,0,20,1.9,3,0,0,0,0,0,0,0,0,0,0,0,0
2003,12,20,4,0,,-4.6,-8.5,78,101860,0,0,235,0,0,0,0,0,0,0,50,3,4,0,0,0,0,0,0,0,0,0,0,0,0
2003,12,20,5,0,,-4.4,-8.3,76,101890,0,0,237,0,0,0,0,0,0,0,50,3.2,5,0,0,0,0,0,0,0,0,0,0,0,0
2003,12,20,6,0,,-4.8,-8.2,79,101920,0,0,238,0,0,0,0,0,0,0,50,2.8,6,0,0,0,0,0,0,0,0,0,0,0,0
2003,12,20,7,0,,-4.6,-8.9,74,101970,0,0,234,0,0,0,0,0,0,0,50,3.8,4,0,0,0,0,0,0,0,0,0,0,0,0
2003,12,20,8,0,,-4.7,-9.6,71,102030,0,0,229,15,6,8,1358,595,1170,0,20,3.6,2,0,0,0,0,0,0,0,0,0,0,0,0
2003,12,20,9,0,,-3.4,-10.3,63,102080,0,0,225,120,90,30,8730,8767,4952,0,20,3.5,0,0,0,0,0,0,0,0,0,0,0,0,0
2003,12,20,10,0,,-1.9,-9.3,54,102070,0,0,233,266,693,57,42597,68004,8537,0,20,3.7,0,0,0,0,0,0,0,0,0,0,0,0,0
2003,12,20,11,0,,-0.7,-8.4,52,102060,0,0,240,383,718,80,48851,71340,11674,0,20,3.1,1,0,0,0,0,0,0,0,0,0,0,0,0
2003,12,20,12,0,,0.1,-7.4,54,102050,0,0,244,445,679,107,48026,66566,15384,0,360,3.1,1,0,0,0,0,0,0,0,0,0,0,0,0
2003,12,20,13,0,,0.5,-7.1,54,102030,0,0,250,451,613,129,41136,57227,17633,0,360,2.6,2,0,0,0,0,0,0,0,0,0,0,0,0
2003,12,20,14,0,,0.5,-6.7,55,102000,0,0,252,403,523,141,29951,44125,17263,0,360,2.3,3,0,0,0,0,0,0,0,0,0,0,0,0
2003,12,20,15,0,,0.7,-6.4,57,101980,0,0,256,328,480,124,16854,25270,13588,0,20,2.9,4,0,0,0,0,0,0,0,0,0,0,0,0
2003,12,20,16,0,,0.6,-6.9,57,102040,0,0,253,246,558,75,0,0,0,0,20,4.8,3,0,0,0,0,0,0,0,0,0,0,0,0
2003,12,20,17,0,,0.1,-7.3,57,102090,0,0,250,112,473,41,0,0,0,0,20,2.1,3,0,0,0,0,0,0,0,0,0,0,0,0
2003,12,20,18,0,,-0.6,-7.8,58,102150,0,0,246,17,8,9,0,0,0,0,20,1.7,2,0,0,0,0,0,0,0,0,0,0,0,0
2003,12,20,19,0,,-0.9,-7.8,60,102180,0,0,244,0,0,0,0,0,0,0,50,2.8,2,0,0,0,0,0,0,0,0,0,0,0,0
2003,12,20,20,0,,-1,-7.8,61,102200,0,0,242,0,0,0,0,0,0,0,20,1.1,1,0,0,0,0,0,0,0,0,0,0,0,0
2003,12,20,21,0,,-1.3,-7.8,63,102230,0,0,240,0,0,0,0,0,0,0,50,1,1,0,0,0,0,0,0,0,0,0,0,0,0
2003,12,20,22,0,,-2,-8.1,66,102250,0,0,236,0,0,0,0,0,0,0,50,0.8,1,0,0,0,0,0,0,0,0,0,0,0,0
2003,12,20,23,0,,-2.6,-8.3,68,102260,0,0,232,0,0,0,0,0,0,0,70,2.4,0,0,0,0,0,0,0,0,0,0,0,0,0
2003,12,20,24,0,,-2.7,-8.6,66,102280,0,0,229,0,0,0,0,0,0,0,70,2.7,0,0,0,0,0,0,0,0,0,0,0,0,0
2003,12,21,1,0,,-2.9,-8.3,69,102300,0,0,229,0,0,0,0,0,0,0,360,0.4,0,0,0,0,0,0,0,0,0,0,0,0,0
2003,12,21,2,0,,-3.9,-8.1,80,102330,0,0,226,0,0,0,0,0,0,0,250,1.5,0,0,0,0,0,0,0,0,0,0,0,0,0
2003,12,21,3,0,,-4.6,-7.8,82,102350,0,0,224,0,0,0,0,0,0,0,90,0.5,0,0,0,0,0,0,0,0,0,0,0,0,0
2003,12,21,4,0,,-4.6,-8.1,82,102330,0,0,224,0,0,0,0,0,0,0,20,1.6,0,0,0,0,0,0,0,0,0,0,0,0,0
2003,12,21,5,0,,-5.3,-8.3,83,102310,0,0,221,0,0,0,0,0,0,0,50,2,0,0,0,0,0,0,0,0,0,0,0,0,0
2003,12,21,6,0,,-5.7,-8.6,85,102290,0,0,220,0,0,0,0,0,0,0,270,0.4,0,0,0,0,0,0,0,0,0,0,0,0,0
2003,12,21,7,0,,-6.3,-8.6,85,102330,0,0,218,0,0,0,0,0,0,0,270,0.7,0,0,0,0,0,0,0,0,0,0,0,0,0
2003,12,21,8,0,,-6.6,-8.6,87,102360,0,0,217,12,4,8,1134,305,1038,0,250,0.7,0,0,0,0,0,0,0,0,0,0,0,0,0
2003,12,21,9,0,,-5.2,-8.6,82,102400,0,0,221,106,68,39,8158,6691,5280,0,250,0.8,0,0,0,0,0,0,0,0,0,0,0,0,0
2003,12,21,10,0,,-3,-7.7,71,102350,0,0,229,253,627,65,40910,62414,9681,0,270,1.2,0,0,0,0,0,0,0,0,0,0,0,0,0
2003,12,21,11,0,,-0.9,-6.9,62,102310,0,0,238,379,704,82,48399,69911,11972,0,250,1.4,0,0,0,0,0,0,0,0,0,0,0,0,0
2003,12,21,12,0,,1.9,-6,53,102260,0,0,248,463,746,92,49203,73047,13356,0,70,0.5,0,0,0,0,0,0,0,0,0,0,0,0,0
2003,12,21,13,0,,3.4,-6.5,46,102180,0,0,253,494,761,95,43567,72162,13876,0,320,1.2,0,0,0,0,0,0,0,0,0,0,0,0,0
2003,12,21,14,0,,4.2,-6.9,47,102100,0,0,256,475,777,86,31491,66405,12325,0,20,2,0,0,0,0,0,0,0,0,0,0,0,0,0
2003,12,21,15,0,,4.6,-7.4,42,102020,0,0,257,384,705,83,15809,39511,10649,0,340,2,0,0,0,0,0,0,0,0,0,0,0,0,0
2003,12,21,16,0,,4.4,-6.3,48,102010,0,0,264,263,643,65,0,0,0,0,20,2.3,1,0,0,0,0,0,0,0,0,0,0,0,0
2003,12,21,17,0,,3.8,-5.2,50,102010,0,0,266,112,462,42,0,0,0,0,20,0.9,3,0,0,0,0,0,0,0,0,0,0,0,0
2003,12,21,18,0,,2.6,-4.1,57,102000,0,0,266,15,5,10,0,0,0,0,250,0.4,4,0,0,0,0,0,0,0,0,0,0,0,0
2003,12,21,19,0,,2.7,-3.8,62,101990,0,0,270,0,0,0,0,0,0,0,290,0.7,6,0,0,0,0,0,0,0,0,0,0,0,0
2003,12,21,20,0,,2.5,-3.6,64,101990,0,0,275,0,0,0,0,0,0,0,90,1.3,7,0,0,0,0,0,0,0,0,0,0,0,0
2003,12,21,21,0,,3,-3.3,64,101980,0,0,286,0,0,0,0,0,0,0,70,0.8,9,0,0,0,0,0,0,0,0,0,0,0,0
2003,12,21,22,0,,2.8,-3.4,67,101930,0,0,283,0,0,0,0,0,0,0,0,0.2,9,0,0,0,0,0,0,0,0,0,0,0,0
2003,12,21,23,0,,0.5,-3.5,79,101890,0,0,271,0,0,0,0,0,0,0,270,1.2,8,0,0,0,0,0,0,0,0,0,0,0,0
2003,12,21,24,0,,-0.4,-3.6,80,101840,0,0,267,0,0,0,0,0,0,0,230,0.5,8,0,0,0,0,0,0,0,0,0,0,0,0
2003,12,22,1,0,,0.4,-3.3,75,101830,0,0,268,0,0,0,0,0,0,0,250,0.6,8,0,0,0,0,0,0,0,0,0,0,0,0
2003,12,22,2,0,,0.5,-3,77,101810,0,0,267,0,0,0,0,0,0,0,50,0.6,7,0,0,0,0,0,0,0,0,0,0,0,0
2003,12,22,3,0,,0.3,-2.7,81,101800,0,0,266,0,0,0,0,0,0,0,0,0,7,0,0,0,0,0,0,0,0,0,0,0,0
2003,12,22,4,0,,-0.6,-2.8,85,101760,0,0,261,0,0,0,0,0,0,0,0,0.2,6,0,0,0,0,0,0,0,0,0,0,0,0
2003,12,22,5,0,,-0.5,-2.9,86,101730,0,0,259,0,0,0,0,0,0,0,0,0.2,6,0,0,0,0,0,0,0,0,0,0,0,0
2003,12,22,6,0,,-1,-3,87,101690,0,0,256,0,0,0,0,0,0,0,250,0.7,5,0,0,0,0,0,0,0,0,0,0,0,0
2003,12,22,7,0,,-0.9,-2.5,87,101710,0,0,257,0,0,0,0,0,0,0,230,0.9,5,0,0,0,0,0,0,0,0,0,0,0,0
2003,12,22,8,0,,-0.1,-1.9,86,101730,0,0,260,9,2,7,955,146,909,0,140,0.5,5,0,0,0,0,0,0,0,0,0,0,0,0
2003,12,22,9,0,,1,-1.4,82,101750,0,0,265,91,43,48,7887,4243,6066,0,140,0.6,5,0,0,0,0,0,0,0,0,0,0,0,0
2003,12,22,10,0,,2.6,-0.9,76,101710,0,0,271,214,408,92,33880,40255,13753,0,320,0.3,5,0,0,0,0,0,0,0,0,0,0,0,0
2003,12,22,11,0,,4.7,-0.5,69,101680,0,0,280,314,441,129,39920,43154,17433,0,250,0.8,5,0,0,0,0,0,0,0,0,0,0,0,0
2003,12,22,12,0,,6.9,0,63,101640,0,0,289,390,487,148,42554,47125,19406,0,250,1,5,0,0,0,0,0,0,0,0,0,0,0,0
2003,12,22,13,0,,8.1,0.2,58,101550,0,0,294,423,520,151,39281,48346,19347,0,200,1.7,5,0,0,0,0,0,0,0,0,0,0,0,0
2003,12,22,14,0,,9.3,0.4,55,101470,0,0,298,421,586,128,30346,48837,16193,0,270,1.3,4,0,0,0,0,0,0,0,0,0,0,0,0
2003,12,22,15,0,,8.7,0.6,57,101380,0,0,295,332,491,123,17477,26622,13961,0,200,0.6,4,0,0,0,0,0,0,0,0,0,0,0,0
2003,12,22,16,0,,9.5,0.8,55,101380,0,0,296,249,563,75,0,0,0,0,270,3,3,0,0,0,0,0,0,0,0,0,0,0,0
2003,12,22,17,0,,8.3,1.1,60,101390,0,0,289,113,456,42,0,0,0,0,270,1.2,2,0,0,0,0,0,0,0,0,0,0,0,0
2003,12,22,18,0,,7,1.3,66,101390,0,0,280,17,8,10,0,0,0,0,290,0.9,1,0,0,0,0,0,0,0,0,0,0,0,0
2003,12,22,19,0,,6.6,1.3,69,101400,0,0,281,0,0,0,0,0,0,0,290,0.8,2,0,0,0,0,0,0,0,0,0,0,0,0
2003,12,22,20,0,,6,1.3,73,101410,0,0,281,0,0,0,0,0,0,0,270,1,2,0,0,0,0,0,0,0,0,0,0,0,0
2003,12,22,21,0,,5.4,1.3,75,101420,0,0,280,0,0,0,0,0,0,0,160,1,3,0,0,0,0,0,0,0,0,0,0,0,0
2003,12,22,22,0,,5,1.4,78,101400,0,0,279,0,0,0,0,0,0,0,140,0.6,3,0,0,0,0,0,0,0,0,0,0,0,0
2003,12,22,23,0,,3.8,1.6,84,101370,0,0,274,0,0,0,0,0,0,0,250,0.5,3,0,0,0,0,0,0,0,0,0,0,0,0
2003,12,22,24,0,,3.4,1.7,87,101350,0,0,273,0,0,0,0,0,0,0,140,0.3,3,0,0,0,0,0,0,0,0,0,0,0,0
2003,12,23,1,0,,2.1,1.3,87,101330,0,0,269,0,0,0,0,0,0,0,250,0.5,4,0,0,0,0,0,0,0,0,0,0,0,0
2003,12,23,2,0,,1.8,0.8,90,101320,0,0,269,0,0,0,0,0,0,0,270,0.6,4,0,0,0,0,0,0,0,0,0,0,0,0
2003,12,23,3,0,,2.2,0.4,89,101300,0,0,271,0,0,0,0,0,0,0,0,0.2,5,0,0,0,0,0,0,0,0,0,0,0,0
2003,12,23,4,0,,1.4,0.3,90,101280,0,0,268,0,0,0,0,0,0,0,270,0.5,5,0,0,0,0,0,0,0,0,0,0,0,0
2003,12,23,5,0,,0.2,0.3,93,101260,0,0,264,0,0,0,0,0,0,0,230,0.4,5,0,0,0,0,0,0,0,0,0,0,0,0
2003,12,23,6,0,,1.2,0.2,92,101240,0,0,267,0,0,0,0,0,0,0,0,0.2,5,0,0,0,0,0,0,0,0,0,0,0,0
2003,12,23,7,0,,1.1,0.3,91,101250,0,0,266,0,0,0,0,0,0,0,250,0.6,5,0,0,0,0,0,0,0,0,0,0,0,0
2003,12,23,8,0,,1.1,0.5,92,101260,0,0,266,9,2,7,973,162,922,0,270,0.5,4,0,0,0,0,0,0,0,0,0,0,0,0
2003,12,23,9,0,,2.4,0.6,89,101270,0,0,270,91,44,47,7811,4254,5988,0,50,0.6,4,0,0,0,0,0,0,0,0,0,0,0,0
2003,12,23,10,0,,4.5,0.8,79,101220,0,0,275,231,510,79,37405,50508,12166,0,0,0.2,3,0,0,0,0,0,0,0,0,0,0,0,0
2003,12,23,11,0,,6,1.1,75,101170,0,0,277,365,657,90,47609,65201,13622,0,250,1.6,1,0,0,0,0,0,0,0,0,0,0,0,0
2003,12,23,12,0,,7.6,1.3,64,101120,0,0,277,441,671,108,47901,65459,15710,0,230,1.1,0,0,0,0,0,0,0,0,0,0,0,0,0
2003,12,23,13,0,,9.4,1.3,60,101050,0,0,284,479,709,107,42909,66642,15367,0,250,1.9,0,0,0,0,0,0,0,0,0,0,0,0,0
2003,12,23,14,0,,9.9,1.3,58,100970,0,0,286,451,692,104,31467,58234,14515,0,250,2.9,0,0,0,0,0,0,0,0,0,0,0,0,0
2003,12,23,15,0,,10.4,1.3,53,100900,0,0,288,384,700,85,16205,39386,10944,0,250,4.3,0,0,0,0,0,0,0,0,0,0,0,0,0
2003,12,23,16,0,,10,1.3,47,100910,0,0,287,260,621,68,0,0,0,0,250,3.9,0,0,0,0,0,0,0,0,0,0,0,0,0
2003,12,23,17,0,,8.6,1.3,56,100910,0,0,281,115,466,42,0,0,0,0,250,2.9,0,0,0,0,0,0,0,0,0,0,0,0,0
2003,12,23,18,0,,7.7,1.3,63,100920,0,0,277,17,7,10,0,0,0,0,230,1.5,0,0,0,0,0,0,0,0,0,0,0,0,0
2003,12,23,19,0,,7.3,1.4,67,100910,0,0,276,0,0,0,0,0,0,0,230,2,0,0,0,0,0,0,0,0,0,0,0,0,0
2003,12,23,20,0,,6,1.6,72,100910,0,0,271,0,0,0,0,0,0,0,180,1.4,0,0,0,0,0,0,0,0,0,0,0,0,0
2003,12,23,21,0,,5.4,1.7,76,100900,0,0,269,0,0,0,0,0,0,0,180,1.5,0,0,0,0,0,0,0,0,0,0,0,0,0
2003,12,23,22,0,,5,1.6,80,100900,0,0,267,0,0,0,0,0,0,0,180,1,0,0,0,0,0,0,0,0,0,0,0,0,0
2003,12,23,23,0,,4.5,1.4,83,100900,0,0,265,0,0,0,0,0,0,0,250,0.4,0,0,0,0,0,0,0,0,0,0,0,0,0
2003,12,23,24,0,,3.7,1.3,85,100900,0,0,262,0,0,0,0,0,0,0,250,0.4,0,0,0,0,0,0,0,0,0,0,0,0,0
2003,12,24,1,0,,3.1,1.3,86,100930,0,0,271,0,0,0,0,0,0,0,270,1,3,0,0,0,0,0,0,0,0,0,0,0,0
2003,12,24,2,0,,3.6,1.3,85,100950,0,0,278,0,0,0,0,0,0,0,270,0.6,5,0,0,0,0,0,0,0,0,0,0,0,0
2003,12,24,3,0,,3.3,1.3,87,100980,0,0,287,0,0,0,0,0,0,0,270,0.9,8,0,0,0,0,0,0,0,0,0,0,0,0
2003,12,24,4,0,,2.9,1.2,88,101000,0,0,285,0,0,0,0,0,0,0,0,0.2,8,0,0,0,0,0,0,0,0,0,0,0,0
2003,12,24,5,0,,2.2,1,88,101020,0,0,282,0,0,0,0,0,0,0,250,1,8,0,0,0,0,0,0,0,0,0,0,0,0
2003,12,24,6,0,,2.5,0.9,89,101040,0,0,283,0,0,0,0,0,0,0,230,0.7,8,0,0,0,0,0,0,0,0,0,0,0,0
2003,12,24,7,0,,2,0.7,89,101100,0,0,273,0,0,0,0,0,0,0,320,0.3,6,0,0,0,0,0,0,0,0,0,0,0,0
2003,12,24,8,0,,1.5,0.4,92,101150,0,0,267,8,2,7,889,128,850,0,0,0.2,4,0,0,0,0,0,0,0,0,0,0,0,0
2003,12,24,9,0,,2,0.2,88,101210,0,0,263,94,51,43,7676,4981,5544,0,250,0.4,2,0,0,0,0,0,0,0,0,0,0,0,0
2003,12,24,10,0,,4.3,1.3,82,101170,0,0,271,235,540,75,38395,53504,11668,0,180,0.6,1,0,0,0,0,0,0,0,0,0,0,0,0
2003,12,24,11,0,,6.5,2.3,77,101140,0,0,278,362,645,92,47222,63916,13888,0,270,0.9,1,0,0,0,0,0,0,0,0,0,0,0,0
2003,12,24,12,0,,7.8,3.4,73,101100,0,0,280,437,659,110,47638,64095,16073,0,230,1.4,0,0,0,0,0,0,0,0,0,0,0,0,0
2003,12,24,13,0,,9.9,2.6,62,101050,0,0,288,469,678,114,42515,63398,16246,0,320,0.6,0,0,0,0,0,0,0,0,0,0,0,0,0
2003,12,24,14,0,,10.8,1.9,52,101010,0,0,291,442,659,112,31488,55173,15350,0,230,1.8,0,0,0,0,0,0,0,0,0,0,0,0,0
2003,12,24,15,0,,11.9,1.1,47,100960,0,0,294,381,685,87,16473,38659,11246,0,340,0.3,0,0,0,0,0,0,0,0,0,0,0,0,0
2003,12,24,16,0,,11.7,1.9,42,100980,0,0,294,261,616,69,0,0,0,0,200,1.6,0,0,0,0,0,0,0,0,0,0,0,0,0
2003,12,24,17,0,,10,2.6,59,101000,0,0,288,120,511,40,0,0,0,0,230,2.4,0,0,0,0,0,0,0,0,0,0,0,0,0
2003,12,24,18,0,,8.9,3.4,68,101020,0,0,284,18,7,10,0,0,0,0,230,1.4,0,0,0,0,0,0,0,0,0,0,0,0,0
2003,12,24,19,0,,7.7,2.6,65,101030,0,0,279,0,0,0,0,0,0,0,180,1.9,0,0,0,0,0,0,0,0,0,0,0,0,0
2003,12,24,20,0,,6.8,1.9,69,101030,0,0,274,0,0,0,0,0,0,0,160,1.6,0,0,0,0,0,0,0,0,0,0,0,0,0
2003,12,24,21,0,,5.8,1.1,72,101040,0,0,270,0,0,0,0,0,0,0,200,1.3,0,0,0,0,0,0,0,0,0,0,0,0,0
2003,12,24,22,0,,4.3,0.7,83,101040,0,0,264,0,0,0,0,0,0,0,270,0.6,0,0,0,0,0,0,0,0,0,0,0,0,0
2003,12,24,23,0,,4.1,0.4,80,101050,0,0,263,0,0,0,0,0,0,0,0,0.1,0,0,0,0,0,0,0,0,0,0,0,0,0
2003,12,24,24,0,,2.5,0,82,101050,0,0,257,0,0,0,0,0,0,0,250,0.8,0,0,0,0,0,0,0,0,0,0,0,0,0
2003,12,25,1,0,,1.9,-0.4,86,101020,0,0,254,0,0,0,0,0,0,0,270,0.9,0,0,0,0,0,0,0,0,0,0,0,0,0
2003,12,25,2,0,,0.6,-0.8,89,101000,0,0,249,0,0,0,0,0,0,0,360,0.3,0,0,0,0,0,0,0,0,0,0,0,0,0
2003,12,25,3,0,,0.1,-1.2,91,100970,0,0,247,0,0,0,0,0,0,0,270,0.4,0,0,0,0,0,0,0,0,0,0,0,0,0
2003,12,25,4,0,,-0.1,-1.2,90,100930,0,0,255,0,0,0,0,0,0,0,250,1,2,0,0,0,0,0,0,0,0,0,0,0,0
2003,12,25,5,0,,0,-1.2,91,100890,0,0,259,0,0,0,0,0,0,0,270,1.6,4,0,0,0,0,0,0,0,0,0,0,0,0
2003,12,25,6,0,,0.4,-1.2,90,100850,0,0,265,0,0,0,0,0,0,0,320,1.4,6,0,0,0,0,0,0,0,0,0,0,0,0
2003,12,25,7,0,,0,-1.4,90,100870,0,0,260,0,0,0,0,0,0,0,270,1,5,0,0,0,0,0,0,0,0,0,0,0,0
2003,12,25,8,0,,0.3,-1.5,88,100890,0,0,259,10,2,7,973,206,909,0,230,0.7,3,0,0,0,0,0,0,0,0,0,0,0,0
2003,12,25,9,0,,-0.1,-1.7,89,100910,0,0,254,94,51,43,7611,5006,5471,0,230,1,2,0,0,0,0,0,0,0,0,0,0,0,0
2003,12,25,10,0,,1.8,-0.8,83,100870,0,0,265,217,441,87,34892,43558,13135,0,250,1.1,3,0,0,0,0,0,0,0,0,0,0,0,0
2003,12,25,11,0,,2.9,0,80,100840,0,0,273,285,336,145,36265,32760,19167,0,230,1.1,5,0,0,0,0,0,0,0,0,0,0,0,0
2003,12,25,12,0,,5,0.9,75,100800,0,0,285,346,324,185,37690,31843,21983,0,230,0.8,6,0,0,0,0,0,0,0,0,0,0,0,0
2003,12,25,13,0,,7.3,-0.2,62,100810,0,0,293,391,407,177,36935,38632,20883,0,340,1.6,6,0,0,0,0,0,0,0,0,0,0,0,0
2003,12,25,14,0,,7.6,-1.4,62,100820,0,0,293,381,437,161,29508,36873,18667,0,320,1.9,6,0,0,0,0,0,0,0,0,0,0,0,0
2003,12,25,15,0,,5.1,-2.5,58,100830,0,0,282,286,303,156,19245,17277,16880,0,360,3.5,6,0,0,0,0,0,0,0,0,0,0,0,0
2003,12,25,16,0,,4.5,-3.3,51,100870,0,0,278,192,272,107,0,0,0,0,20,3.9,6,0,0,0,0,0,0,0,0,0,0,0,0
2003,12,25,17,0,,3.9,-4.2,54,100910,0,0,275,89,251,49,0,0,0,0,360,3.3,6,0,0,0,0,0,0,0,0,0,0,0,0
2003,12,25,18,0,,3.1,-5,54,100950,0,0,271,15,4,11,0,0,0,0,290,2.6,6,0,0,0,0,0,0,0,0,0,0,0,0
2003,12,25,19,0,,2,-5.1,56,101000,0,0,265,0,0,0,0,0,0,0,290,2.6,5,0,0,0,0,0,0,0,0,0,0,0,0
2003,12,25,20,0,,1.1,-5.3,57,101050,0,0,260,0,0,0,0,0,0,0,360,2,5,0,0,0,0,0,0,0,0,0,0,0,0
2003,12,25,21,0,,1.1,-5.4,60,101100,0,0,258,0,0,0,0,0,0,0,360,2.4,4,0,0,0,0,0,0,0,0,0,0,0,0
2003,12,25,22,0,,1.2,-5.2,60,101100,0,0,262,0,0,0,0,0,0,0,20,2.6,6,0,0,0,0,0,0,0,0,0,0,0,0
2003,12,25,23,0,,1.2,-4.9,60,101100,0,0,268,0,0,0,0,0,0,0,20,2.3,7,0,0,0,0,0,0,0,0,0,0,0,0
2003,12,25,24,0,,1.4,-4.7,61,101100,0,0,278,0,0,0,0,0,0,0,20,1.5,9,0,0,0,0,0,0,0,0,0,0,0,0
2003,12,26,1,0,,1.4,-4.4,63,101110,0,0,278,0,0,0,0,0,0,0,340,1.3,9,0,0,0,0,0,0,0,0,0,0,0,0
2003,12,26,2,0,,1.2,-4.1,66,101110,0,0,278,0,0,0,0,0,0,0,20,2,9,0,0,0,0,0,0,0,0,0,0,0,0
2003,12,26,3,0,,1,-3.8,67,101120,0,0,277,0,0,0,0,0,0,0,20,1.8,9,0,0,0,0,0,0,0,0,0,0,0,0
2003,12,26,4,0,,0.6,-3.8,71,101100,0,0,276,0,0,0,0,0,0,0,20,1.1,9,0,0,0,0,0,0,0,0,0,0,0,0
2003,12,26,5,0,,0.3,-3.8,73,101070,0,0,274,0,0,0,0,0,0,0,20,0.9,9,0,0,0,0,0,0,0,0,0,0,0,0
2003,12,26,6,0,,0,-3.8,75,101050,0,0,273,0,0,0,0,0,0,0,50,0.8,9,0,0,0,0,0,0,0,0,0,0,0,0
2003,12,26,7,0,,-0.8,-3.6,88,101100,0,0,267,0,0,0,0,0,0,0,360,1.3,8,0,0,0,0,0,0,0,0,0,0,0,0
2003,12,26,8,0,,-1,-3.5,86,101150,0,0,263,2,0,2,269,0,269,0,320,1.1,8,0,0,0,0,0,0,0,0,0,0,0,0
2003,12,26,9,0,,-0.7,-3.3,83,101200,0,0,262,67,23,44,6128,2076,5241,0,20,1.9,7,0,0,0,0,0,0,0,0,0,0,0,0
2003,12,26,10,0,,-0.6,-3.6,84,101180,0,0,261,153,166,104,21407,16639,13095,0,20,1.1,7,0,0,0,0,0,0,0,0,0,0,0,0
2003,12,26,11,0,,0.1,-3.8,79,101150,0,0,261,267,271,154,32833,27418,18510,0,340,2,6,0,0,0,0,0,0,0,0,0,0,0,0
2003,12,26,12,0,,0.5,-4.1,70,101130,0,0,262,320,253,195,35211,25266,22725,0,340,2.3,6,0,0,0,0,0,0,0,0,0,0,0,0
2003,12,26,13,0,,0.1,-4,80,101130,0,0,262,301,170,212,30790,16274,24006,0,20,2.5,7,0,0,0,0,0,0,0,0,0,0,0,0
2003,12,26,14,0,,-0.5,-3.9,82,101130,0,0,263,273,149,198,25915,12770,22141,0,360,2.2,7,0,0,0,0,0,0,0,0,0,0,0,0
2003,12,26,15,0,,0,-3.8,76,101130,0,0,267,207,114,158,18450,8735,17238,0,20,3.2,8,0,0,0,0,0,0,0,0,0,0,0,0
2003,12,26,16,0,,-0.9,-3.8,84,101200,0,0,264,138,100,106,0,0,0,0,340,2,8,0,0,0,0,0,0,0,0,0,0,0,0
2003,12,26,17,0,,-1.7,-3.8,89,101280,0,0,262,63,87,49,0,0,0,0,360,0.8,8,0,0,0,0,0,0,0,0,0,0,0,0
2003,12,26,18,0,,-1.8,-3.8,88,101350,0,0,261,8,1,7,0,0,0,0,340,1.6,8,0,0,0,0,0,0,0,0,0,0,0,0
2003,12,26,19,0,,-2,-3.7,90,101400,0,0,262,0,0,0,0,0,0,0,320,1,8,0,0,0,0,0,0,0,0,0,0,0,0
2003,12,26,20,0,,-2.1,-3.7,86,101450,0,0,264,0,0,0,0,0,0,0,360,1.1,9,0,0,0,0,0,0,0,0,0,0,0,0
2003,12,26,21,0,,-2,-3.6,90,101500,0,0,266,0,0,0,0,0,0,0,290,0.7,9,0,0,0,0,0,0,0,0,0,0,0,0
2003,12,26,22,0,,-2,-3.8,91,101510,0,0,262,0,0,0,0,0,0,0,50,2.4,8,0,0,0,0,0,0,0,0,0,0,0,0
2003,12,26,23,0,,-1.7,-3.9,87,101530,0,0,260,0,0,0,0,0,0,0,340,0.8,8,0,0,0,0,0,0,0,0,0,0,0,0
2003,12,26,24,0,,-1.5,-4.1,84,101540,0,0,258,0,0,0,0,0,0,0,360,1.4,7,0,0,0,0,0,0,0,0,0,0,0,0
2003,12,27,1,0,,-2,-5,88,101610,0,0,250,0,0,0,0,0,0,0,20,3.4,5,0,0,0,0,0,0,0,0,0,0,0,0
2003,12,27,2,0,,-2.5,-5.8,86,101670,0,0,244,0,0,0,0,0,0,0,20,3.7,4,0,0,0,0,0,0,0,0,0,0,0,0
2003,12,27,3,0,,-2.7,-6.7,76,101740,0,0,239,0,0,0,0,0,0,0,20,4.5,2,0,0,0,0,0,0,0,0,0,0,0,0
2003,12,27,4,0,,-2.5,-7.1,69,101760,0,0,242,0,0,0,0,0,0,0,20,3.6,3,0,0,0,0,0,0,0,0,0,0,0,0
2003,12,27,5,0,,-2.3,-7.4,66,101790,0,0,245,0,0,0,0,0,0,0,20,2.6,5,0,0,0,0,0,0,0,0,0,0,0,0
2003,12,27,6,0,,-3.6,-7.8,74,101810,0,0,243,0,0,0,0,0,0,0,70,1.4,6,0,0,0,0,0,0,0,0,0,0,0,0
2003,12,27,7,0,,-3,-7.7,73,101890,0,0,243,0,0,0,0,0,0,0,70,1.2,5,0,0,0,0,0,0,0,0,0,0,0,0
2003,12,27,8,0,,-2.8,-7.5,71,101970,0,0,242,9,2,7,902,182,846,0,50,2.5,4,0,0,0,0,0,0,0,0,0,0,0,0
2003,12,27,9,0,,-2,-7.4,69,102050,0,0,243,102,67,35,7694,6624,4866,0,50,3,3,0,0,0,0,0,0,0,0,0,0,0,0
2003,12,27,10,0,,-0.3,-7.1,62,102040,0,0,247,249,632,63,40858,62920,9414,0,50,3.3,2,0,0,0,0,0,0,0,0,0,0,0,0
2003,12,27,11,0,,0.6,-6.7,57,102030,0,0,247,363,657,90,47704,65521,13436,0,50,1.4,1,0,0,0,0,0,0,0,0,0,0,0,0
2003,12,27,12,0,,1.3,-6.4,54,102020,0,0,245,442,677,107,48310,66455,15401,0,20,2.5,0,0,0,0,0,0,0,0,0,0,0,0,0
2003,12,27,13,0,,2.1,-7.1,51,102020,0,0,248,467,666,117,42616,62796,16354,0,20,2.2,0,0,0,0,0,0,0,0,0,0,0,0,0
2003,12,27,14,0,,2.2,-7.9,44,102030,0,0,247,440,644,116,31175,55333,14727,0,20,2.1,0,0,0,0,0,0,0,0,0,0,0,0,0
2003,12,27,15,0,,2.7,-8.6,40,102030,0,0,249,379,664,92,16518,39315,10989,0,360,1.9,0,0,0,0,0,0,0,0,0,0,0,0,0
2003,12,27,16,0,,2.7,-7.7,42,102090,0,0,249,265,620,69,0,0,0,0,360,1.5,0,0,0,0,0,0,0,0,0,0,0,0,0
2003,12,27,17,0,,2,-6.9,49,102150,0,0,247,128,559,38,0,0,0,0,50,1.4,0,0,0,0,0,0,0,0,0,0,0,0,0
2003,12,27,18,0,,0.8,-6,58,102210,0,0,244,21,10,10,0,0,0,0,340,1.2,0,0,0,0,0,0,0,0,0,0,0,0,0
2003,12,27,19,0,,-0.2,-6.2,63,102240,0,0,241,0,0,0,0,0,0,0,20,2.2,0,0,0,0,0,0,0,0,0,0,0,0,0
2003,12,27,20,0,,-0.9,-6.5,64,102270,0,0,238,0,0,0,0,0,0,0,70,1.6,0,0,0,0,0,0,0,0,0,0,0,0,0
2003,12,27,21,0,,-1.2,-6.7,67,102300,0,0,237,0,0,0,0,0,0,0,20,1.3,0,0,0,0,0,0,0,0,0,0,0,0,0
2003,12,27,22,0,,-1.1,-6.6,66,102300,0,0,237,0,0,0,0,0,0,0,90,0.8,0,0,0,0,0,0,0,0,0,0,0,0,0
2003,12,27,23,0,,-1.3,-6.5,70,102310,0,0,236,0,0,0,0,0,0,0,50,0.5,0,0,0,0,0,0,0,0,0,0,0,0,0
2003,12,27,24,0,,-2.1,-6.4,75,102310,0,0,234,0,0,0,0,0,0,0,0,0.2,0,0,0,0,0,0,0,0,0,0,0,0,0
2003,12,28,1,0,,-2.2,-6.5,76,102310,0,0,233,0,0,0,0,0,0,0,20,0.7,0,0,0,0,0,0,0,0,0,0,0,0,0
2003,12,28,2,0,,-2.3,-6.6,77,102320,0,0,233,0,0,0,0,0,0,0,90,0.6,0,0,0,0,0,0,0,0,0,0,0,0,0
2003,12,28,3,0,,-3.2,-6.7,79,102320,0,0,230,0,0,0,0,0,0,0,290,1,0,0,0,0,0,0,0,0,0,0,0,0,0
2003,12,28,4,0,,-4.8,-6.6,89,102320,0,0,228,0,0,0,0,0,0,0,230,0.7,1,0,0,0,0,0,0,0,0,0,0,0,0
2003,12,28,5,0,,-5.1,-6.5,89,102330,0,0,229,0,0,0,0,0,0,0,230,1.1,1,0,0,0,0,0,0,0,0,0,0,0,0
2003,12,28,6,0,,-4.3,-6.4,87,102330,0,0,234,0,0,0,0,0,0,0,250,0.9,2,0,0,0,0,0,0,0,0,0,0,0,0
2003,12,28,7,0,,-4.1,-6.4,86,102340,0,0,233,0,0,0,0,0,0,0,290,0.5,1,0,0,0,0,0,0,0,0,0,0,0,0
2003,12,28,8,0,,-4,-6.4,87,102340,0,0,231,10,3,7,948,251,870,0,50,0.4,1,0,0,0,0,0,0,0,0,0,0,0,0
2003,12,28,9,0,,-2.8,-6.4,81,102350,0,0,231,102,67,35,7653,6597,4837,0,0,0.2,0,0,0,0,0,0,0,0,0,0,0,0,0
2003,12,28,10,0,,-1.4,-5.4,74,102310,0,0,239,238,575,69,38899,57136,10330,0,250,1.8,0,0,0,0,0,0,0,0,0,0,0,0,0
2003,12,28,11,0,,1.5,-4.3,63,102280,0,0,252,369,682,85,47827,67743,12348,0,50,0.3,1,0,0,0,0,0,0,0,0,0,0,0,0
2003,12,28,12,0,,3.7,-3.3,59,102240,0,0,262,464,752,91,49847,73926,13156,0,250,2,1,0,0,0,0,0,0,0,0,0,0,0,0
2003,12,28,13,0,,5.1,-3.4,53,102190,0,0,270,487,731,102,43869,69373,14753,0,50,1.1,2,0,0,0,0,0,0,0,0,0,0,0,0
2003,12,28,14,0,,6.3,-3.5,52,102140,0,0,277,451,679,108,32156,57793,14873,0,290,1.2,2,0,0,0,0,0,0,0,0,0,0,0,0
2003,12,28,15,0,,6.3,-3.6,50,102090,0,0,279,361,588,106,17397,34440,12486,0,200,1.6,3,0,0,0,0,0,0,0,0,0,0,0,0
2003,12,28,16,0,,6.5,-3.1,51,102070,0,0,277,266,618,70,0,0,0,0,230,1.3,2,0,0,0,0,0,0,0,0,0,0,0,0
2003,12,28,17,0,,5.9,-2.7,54,102050,0,0,272,127,529,40,0,0,0,0,230,0.6,1,0,0,0,0,0,0,0,0,0,0,0,0
2003,12,28,18,0,,4.6,-2.2,61,102030,0,0,262,22,11,11,0,0,0,0,180,0.8,0,0,0,0,0,0,0,0,0,0,0,0,0
2003,12,28,19,0,,3.1,-2.2,67,102060,0,0,256,0,0,0,0,0,0,0,180,1.5,0,0,0,0,0,0,0,0,0,0,0,0,0
2003,12,28,20,0,,2.9,-2.2,71,102100,0,0,256,0,0,0,0,0,0,0,200,1.1,0,0,0,0,0,0,0,0,0,0,0,0,0
2003,12,28,21,0,,2,-2.2,74,102130,0,0,252,0,0,0,0,0,0,0,180,1.1,0,0,0,0,0,0,0,0,0,0,0,0,0
2003,12,28,22,0,,2.6,-1.9,73,102020,0,0,265,0,0,0,0,0,0,0,140,1.5,3,0,0,0,0,0,0,0,0,0,0,0,0
2003,12,28,23,0,,2.5,-1.7,76,101910,0,0,271,0,0,0,0,0,0,0,160,1.2,5,0,0,0,0,0,0,0,0,0,0,0,0
2003,12,28,24,0,,2,-1.4,79,101800,0,0,278,0,0,0,0,0,0,0,270,1.5,8,0,0,0,0,0,0,0,0,0,0,0,0
2003,12,29,1,0,,2.2,-1.2,79,101800,0,0,279,0,0,0,0,0,0,0,90,1.9,8,0,0,0,0,0,0,0,0,0,0,0,0
2003,12,29,2,0,,1.7,-1.1,81,101790,0,0,277,0,0,0,0,0,0,0,250,0.8,8,0,0,0,0,0,0,0,0,0,0,0,0
2003,12,29,3,0,,2.1,-0.9,80,101790,0,0,279,0,0,0,0,0,0,0,200,0.6,8,0,0,0,0,0,0,0,0,0,0,0,0
2003,12,29,4,0,,2.1,-0.7,82,101750,0,0,281,0,0,0,0,0,0,0,270,0.5,8,0,0,0,0,0,0,0,0,0,0,0,0
2003,12,29,5,0,,2.1,-0.4,82,101720,0,0,284,0,0,0,0,0,0,0,250,0.7,9,0,0,0,0,0,0,0,0,0,0,0,0
2003,12,29,6,0,,2.4,-0.2,82,101680,0,0,287,0,0,0,0,0,0,0,0,0.2,9,0,0,0,0,0,0,0,0,0,0,0,0
2003,12,29,7,0,,2.5,0,83,101680,0,0,290,0,0,0,0,0,0,0,250,0.7,9,0,0,0,0,0,0,0,0,0,0,0,0
2003,12,29,8,0,,2.5,0.2,83,101690,0,0,293,0,0,0,0,0,0,0,160,0.4,10,0,0,0,0,0,0,0,0,0,0,0,0
2003,12,29,9,0,,3.7,0.4,79,101690,0,0,302,36,4,32,4165,181,4087,0,290,0.8,10,0,0,0,0,0,0,0,0,0,0,0,0
2003,12,29,10,0,,4.2,0.8,76,101680,0,0,304,87,34,77,10637,3186,9042,0,290,0.6,10,0,0,0,0,0,0,0,0,0,0,0,0
2003,12,29,11,0,,5.2,1.3,74,101660,0,0,309,134,37,118,15527,3525,13678,0,290,0.8,10,0,0,0,0,0,0,0,0,0,0,0,0
2003,12,29,12,0,,6.2,1.7,72,101650,0,0,314,157,33,141,17718,3131,16160,0,160,0.6,10,0,0,0,0,0,0,0,0,0,0,0,0
2003,12,29,13,0,,7.7,1.8,70,101600,0,0,305,289,150,210,30030,14138,24073,0,230,1,8,0,0,0,0,0,0,0,0,0,0,0,0
2003,12,29,14,0,,8.8,1.8,69,101550,0,0,302,360,343,186,30085,28828,21410,0,320,1.6,6,0,0,0,0,0,0,0,0,0,0,0,0
2003,12,29,15,0,,8.9,1.9,62,101500,0,0,297,344,511,121,18357,29371,14108,0,360,2,4,0,0,0,0,0,0,0,0,0,0,0,0
2003,12,29,16,0,,8.7,1.3,50,101570,0,0,293,252,536,81,0,0,0,0,320,2.5,3,0,0,0,0,0,0,0,0,0,0,0,0
2003,12,29,17,0,,7,0.8,61,101630,0,0,281,123,473,44,0,0,0,0,290,2.6,1,0,0,0,0,0,0,0,0,0,0,0,0
2003,12,29,18,0,,6.1,0.2,67,101700,0,0,270,21,10,11,0,0,0,0,320,1.6,0,0,0,0,0,0,0,0,0,0,0,0,0
2003,12,29,19,0,,5.3,-0.1,70,101750,0,0,267,0,0,0,0,0,0,0,290,1.1,0,0,0,0,0,0,0,0,0,0,0,0,0
2003,12,29,20,0,,4.8,-0.4,71,101810,0,0,264,0,0,0,0,0,0,0,340,1,0,0,0,0,0,0,0,0,0,0,0,0,0
2003,12,29,21,0,,4,-0.7,72,101860,0,0,261,0,0,0,0,0,0,0,340,0.9,0,0,0,0,0,0,0,0,0,0,0,0,0
2003,12,29,22,0,,2.9,-1.1,72,101850,0,0,263,0,0,0,0,0,0,0,50,1.9,1,0,0,0,0,0,0,0,0,0,0,0,0
2003,12,29,23,0,,3.3,-1.5,68,101840,0,0,268,0,0,0,0,0,0,0,20,1.7,3,0,0,0,0,0,0,0,0,0,0,0,0
2003,12,29,24,0,,2.9,-1.9,70,101830,0,0,269,0,0,0,0,0,0,0,20,1.7,4,0,0,0,0,0,0,0,0,0,0,0,0
2003,12,30,1,0,,1.5,-2.2,75,101830,0,0,261,0,0,0,0,0,0,0,50,1.9,3,0,0,0,0,0,0,0,0,0,0,0,0
2003,12,30,2,0,,1.3,-2.4,74,101820,0,0,258,0,0,0,0,0,0,0,50,2,2,0,0,0,0,0,0,0,0,0,0,0,0
2003,12,30,3,0,,0.8,-2.7,75,101820,0,0,252,0,0,0,0,0,0,0,50,2.3,1,0,0,0,0,0,0,0,0,0,0,0,0
2003,12,30,4,0,,1.3,-2.7,74,101810,0,0,259,0,0,0,0,0,0,0,20,1.6,3,0,0,0,0,0,0,0,0,0,0,0,0
2003,12,30,5,0,,0.5,-2.7,75,101810,0,0,260,0,0,0,0,0,0,0,50,0.5,4,0,0,0,0,0,0,0,0,0,0,0,0
2003,12,30,6,0,,0.7,-2.7,78,101800,0,0,264,0,0,0,0,0,0,0,320,0.7,6,0,0,0,0,0,0,0,0,0,0,0,0
2003,12,30,7,0,,-0.2,-2.7,79,101810,0,0,263,0,0,0,0,0,0,0,20,1.7,7,0,0,0,0,0,0,0,0,0,0,0,0
2003,12,30,8,0,,0.5,-2.7,75,101830,0,0,268,4,0,3,491,6,489,0,70,0.5,7,0,0,0,0,0,0,0,0,0,0,0,0
2003,12,30,9,0,,1.2,-2.7,72,101840,0,0,273,59,16,42,5668,1484,5035,0,50,1.5,8,0,0,0,0,0,0,0,0,0,0,0,0
2003,12,30,10,0,,1.2,-3.2,73,101810,0,0,277,117,79,94,15453,7943,11474,0,290,0.9,9,0,0,0,0,0,0,0,0,0,0,0,0
2003,12,30,11,0,,1.6,-3.6,66,101780,0,0,282,171,74,140,20490,7433,16583,0,360,0.6,9,0,0,0,0,0,0,0,0,0,0,0,0
2003,12,30,12,0,,1.9,-4.1,61,101750,0,0,288,157,33,140,17642,3140,16075,0,290,1,10,0,0,0,0,0,0,0,0,0,0,0,0
2003,12,30,13,0,,2.5,-4.7,56,101660,0,0,287,188,45,164,20380,4226,18593,0,270,1.4,10,0,0,0,0,0,0,0,0,0,0,0,0
2003,12,30,14,0,,3.2,-5.4,55,101570,0,0,287,237,97,188,23551,8812,20882,0,50,1.5,9,0,0,0,0,0,0,0,0,0,0,0,0
2003,12,30,15,0,,4,-6,48,101480,0,0,287,207,110,160,18655,8528,17403,0,340,0.7,9,0,0,0,0,0,0,0,0,0,0,0,0
2003,12,30,16,0,,3.9,-6.2,46,101470,0,0,289,148,115,111,0,0,0,0,250,1.9,9,0,0,0,0,0,0,0,0,0,0,0,0
2003,12,30,17,0,,3.8,-6.5,43,101460,0,0,291,54,47,46,0,0,0,0,270,0.7,10,0,0,0,0,0,0,0,0,0,0,0,0
2003,12,30,18,0,,3.4,-6.7,44,101450,0,0,292,6,0,6,0,0,0,0,340,0.9,10,0,0,0,0,0,0,0,0,0,0,0,0
2003,12,30,19,0,,2.9,-5.9,50,101440,0,0,291,0,0,0,0,0,0,0,290,1.1,10,0,0,0,0,0,0,0,0,0,0,0,0
2003,12,30,20,0,,2.6,-5.2,52,101430,0,0,290,0,0,0,0,0,0,0,270,1.2,10,0,0,0,0,0,0,0,0,0,0,0,0
2003,12,30,21,0,,2.5,-4.4,57,101420,0,0,291,0,0,0,0,0,0,0,270,1.5,10,0,0,0,0,0,0,0,0,0,0,0,0
2003,12,30,22,0,,2.4,-4.2,56,101400,0,0,290,0,0,0,0,0,0,0,270,1,10,0,0,0,0,0,0,0,0,0,0,0,0
2003,12,30,23,0,,2.4,-4,58,101380,0,0,291,0,0,0,0,0,0,0,270,1.1,10,0,0,0,0,0,0,0,0,0,0,0,0
2003,12,30,24,0,,2.5,-3.8,60,101360,0,0,291,0,0,0,0,0,0,0,270,0.4,10,0,0,0,0,0,0,0,0,0,0,0,0
2003,12,31,1,0,,2.4,-3.7,63,101340,0,0,291,0,0,0,0,0,0,0,200,0.5,10,0,0,0,0,0,0,0,0,0,0,0,0
2003,12,31,2,0,,2.4,-3.7,65,101330,0,0,291,0,0,0,0,0,0,0,250,1.3,10,0,0,0,0,0,0,0,0,0,0,0,0
2003,12,31,3,0,,2.5,-3.6,65,101310,0,0,292,0,0,0,0,0,0,0,290,0.4,10,0,0,0,0,0,0,0,0,0,0,0,0
2003,12,31,4,0,,2.1,-3,70,101300,0,0,283,0,0,0,0,0,0,0,290,0.4,9,0,0,0,0,0,0,0,0,0,0,0,0
2003,12,31,5,0,,1.9,-2.5,73,101300,0,0,277,0,0,0,0,0,0,0,290,2.2,8,0,0,0,0,0,0,0,0,0,0,0,0
2003,12,31,6,0,,1.3,-1.9,77,101290,0,0,271,0,0,0,0,0,0,0,340,0.5,7,0,0,0,0,0,0,0,0,0,0,0,0
2003,12,31,7,0,,1.1,-1.7,80,101310,0,0,265,0,0,0,0,0,0,0,70,0.4,5,0,0,0,0,0,0,0,0,0,0,0,0
2003,12,31,8,0,,1.1,-1.6,79,101340,0,0,261,7,1,6,773,111,739,0,230,0.7,3,0,0,0,0,0,0,0,0,0,0,0,0
2003,12,31,9,0,,1.9,-1.4,78,101360,0,0,258,97,61,36,7586,5882,5073,0,230,1.3,1,0,0,0,0,0,0,0,0,0,0,0,0
2003,12,31,10,0,,3.6,-1.1,68,101320,0,0,272,218,460,83,35556,45577,12695,0,200,1.6,4,0,0,0,0,0,0,0,0,0,0,0,0
2003,12,31,11,0,,4.6,-0.8,66,101280,0,0,282,283,332,145,36275,32592,19114,0,250,1.5,6,0,0,0,0,0,0,0,0,0,0,0,0
2003,12,31,12,0,,5.5,-0.5,66,101240,0,0,300,238,105,186,26805,10378,21612,0,250,1.7,9,0,0,0,0,0,0,0,0,0,0,0,0
2003,12,31,13,0,,5,0.3,74,101210,0,0,296,228,76,188,24238,7140,21205,0,250,1.8,9,0,0,0,0,0,0,0,0,0,0,0,0
2003,12,31,14,0,,4.2,1.1,83,101170,0,0,292,234,93,187,23418,8368,20867,0,340,0.6,8,0,0,0,0,0,0,0,0,0,0,0,0
2003,12,31,15,0,,5.6,1.9,77,101140,0,0,297,201,100,158,18435,7626,17298,0,340,0.9,8,0,0,0,0,0,0,0,0,0,0,0,0
2003,12,31,16,0,,5.4,1.7,76,101170,0,0,286,210,327,104,0,0,0,0,270,0.7,5,0,0,0,0,0,0,0,0,0,0,0,0
2003,12,31,17,0,,5.5,1.5,75,101200,0,0,280,123,442,48,0,0,0,0,20,1.6,3,0,0,0,0,0,0,0,0,0,0,0,0
2003,12,31,18,0,,5.1,1.3,75,101230,0,0,267,24,13,11,0,0,0,0,320,1,0,0,0,0,0,0,0,0,0,0,0,0,0
2003,12,31,19,0,,4.8,1.2,75,101260,0,0,266,0,0,0,0,0,0,0,360,0.9,0,0,0,0,0,0,0,0,0,0,0,0,0
2003,12,31,20,0,,4.6,1.2,77,101300,0,0,265,0,0,0,0,0,0,0,320,0.6,0,0,0,0,0,0,0,0,0,0,0,0,0
2003,12,31,21,0,,3.8,1.1,82,101330,0,0,262,0,0,0,0,0,0,0,0,0.2,0,0,0,0,0,0,0,0,0,0,0,0,0
2003,12,31,22,0,,3.4,1.1,87,101350,0,0,266,0,0,0,0,0,0,0,230,1.1,1,0,0,0,0,0,0,0,0,0,0,0,0
2003,12,31,23,0,,3.1,1.1,88,101360,0,0,269,0,0,0,0,0,0,0,250,1.1,2,0,0,0,0,0,0,0,0,0,0,0,0
2003,12,31,24,0,,2.7,1.1,89,101380,0,0,270,0,0,0,0,0,0,0,140,0.3,3,0,0,0,0,0,0,0,0,0,0,0,0
